<?xml version="1.0"?>
<VTKFile type="UnstructuredGrid" version="0.1" byte_order="LittleEndian">
<UnstructuredGrid>
<Piece NumberOfPoints="30618" NumberOfCells="10744">
<Points>
<DataArray type="Float64" NumberOfComponents="3" format="ascii">
-0.49427958746526202 -0.49999999999999512 0 -0.4943900888896422 -0.47349089190363358 0 -0.49427958746526202 -0.49999999999999512 0 -0.5 -0.5 0 -0.4943900888896422 -0.47349089190363358 0 -0.5 -0.5 0 -0.4943900888896422 -0.47349089190363358 0 -0.5 -0.44150235328842258 0 -0.49427958746526202 -0.49999999999999512 0 -0.4943900888896422 -0.47349089190363358 0 -0.48436842240857858 -0.48714093788813112 0 -0.49427958746526202 -0.49999999999999512 0 -0.47650045540741742 -0.5 0 -0.48436842240857858 -0.48714093788813112 0 -0.4943900888896422 -0.47349089190363358 0 -0.47066899942757451 -0.47576530412887819 0 -0.48436842240857858 -0.48714093788813112 0 -0.47066899942757451 -0.47576530412887819 0 -0.47650045540741742 -0.5 0 -0.48436842240857858 -0.48714093788813112 0 -0.47066899942757451 -0.47576530412887819 0 -0.45872132334957288 -0.49999999999999928 0 -0.45242967983978871 -0.4846708604340636 0 -0.47066899942757451 -0.47576530412887819 0 -0.47650045540741742 -0.5 0 -0.45872132334957288 -0.49999999999999928 0 -0.47066899942757451 -0.47576530412887819 0 -0.45872132334957288 -0.49999999999999928 0 -0.47066899942757451 -0.47576530412887819 0 -0.45242967983978871 -0.4846708604340636 0 -0.45249717469141032 -0.46588444847215849 0 -0.43763952177061649 -0.47770500498713542 0 -0.45242967983978871 -0.4846708604340636 0 -0.45249717469141032 -0.46588444847215849 0 -0.43763952177061649 -0.47770500498713542 0 -0.44291044788006362 -0.49999999999999939 0 -0.45242967983978871 -0.4846708604340636 0 -0.43763952177061649 -0.47770500498713542 0 -0.44291044788006362 -0.49999999999999939 0 -0.45872132334957288 -0.49999999999999928 0 -0.44291044788006362 -0.49999999999999939 0 -0.45242967983978871 -0.4846708604340636 0 -0.44838221886832419 -0.4464230337388379 0 -0.4323685956611692 -0.45541000997427139 0 -0.435988539966085 -0.44148905847597392 0 -0.44838221886832419 -0.4464230337388379 0 -0.44213238819953832 -0.43491600865963681 0 -0.435988539966085 -0.44148905847597392 0 -0.44838221886832419 -0.4464230337388379 0 -0.45249717469141032 -0.46588444847215849 0 -0.45755175660874181 -0.45423607616472811 0 -0.44838221886832419 -0.4464230337388379 0 -0.45249717469141032 -0.46588444847215849 0 -0.4323685956611692 -0.45541000997427139 0 -0.43763952177061649 -0.47770500498713542 0 -0.45249717469141032 -0.46588444847215849 0 -0.4323685956611692 -0.45541000997427139 0 -0.47066899942757451 -0.47576530412887819 0 -0.45249717469141032 -0.46588444847215849 0 -0.4675747862741928 -0.45726336772241771 0 -0.45249717469141032 -0.46588444847215849 0 -0.45755175660874181 -0.45423607616472811 0 -0.4675747862741928 -0.45726336772241771 0 -0.44838221886832419 -0.4464230337388379 0 -0.46897642374787268 -0.44262015471777721 0 -0.45660235518767722 -0.42786105997071933 0 -0.44838221886832419 -0.4464230337388379 0 -0.45755175660874181 -0.45423607616472811 0 -0.46897642374787268 -0.44262015471777721 0 -0.45755175660874181 -0.45423607616472811 0 -0.4675747862741928 -0.45726336772241771 0 -0.46897642374787268 -0.44262015471777721 0 -0.4943900888896422 -0.47349089190363358 0 -0.5 -0.44150235328842258 0 -0.49450059031402238 -0.44698178380727199 0 -0.46897642374787268 -0.44262015471777721 0 -0.48473746643246862 -0.43972512984246093 0 -0.48043585850414389 -0.43127077967876992 0 -0.46897642374787268 -0.44262015471777721 0 -0.4826166755055763 -0.45153060825775743 0 -0.48473746643246862 -0.43972512984246093 0 -0.4675747862741928 -0.45726336772241771 0 -0.46897642374787268 -0.44262015471777721 0 -0.4826166755055763 -0.45153060825775743 0 -0.47066899942757451 -0.47576530412887819 0 -0.4826166755055763 -0.45153060825775743 0 -0.4943900888896422 -0.47349089190363358 0 -0.47066899942757451 -0.47576530412887819 0 -0.4826166755055763 -0.45153060825775743 0 -0.47066899942757451 -0.47576530412887819 0 -0.4675747862741928 -0.45726336772241771 0 -0.4826166755055763 -0.45153060825775743 0 -0.4943900888896422 -0.47349089190363358 0 -0.49450059031402238 -0.44698178380727199 0 -0.4943900888896422 -0.47349089190363358 0 -0.4826166755055763 -0.45153060825775743 0 -0.49450059031402238 -0.44698178380727199 0 -0.4826166755055763 -0.45153060825775743 0 -0.48473746643246862 -0.43972512984246093 0 -0.49450059031402238 -0.44698178380727199 0 -0.5 -0.44150235328842258 0 -0.49461109173840262 -0.42047267571091063 0 -0.5 -0.39656953661894012 0 -0.49450059031402238 -0.44698178380727199 0 -0.49461109173840262 -0.42047267571091063 0 -0.48473746643246862 -0.43972512984246093 0 -0.49461109173840262 -0.42047267571091063 0 -0.48043585850414389 -0.43127077967876992 0 -0.5 -0.44150235328842258 0 -0.49450059031402238 -0.44698178380727199 0 -0.49461109173840262 -0.42047267571091063 0 -0.48473746643246862 -0.43972512984246093 0 -0.49450059031402238 -0.44698178380727199 0 -0.49461109173840262 -0.42047267571091063 0 -0.49461109173840262 -0.42047267571091063 0 -0.4947215931627828 -0.39396356761454909 0 -0.49461109173840262 -0.42047267571091063 0 -0.48393842445605872 -0.40713040098299402 0 -0.4947215931627828 -0.39396356761454909 0 -0.49461109173840262 -0.42047267571091063 0 -0.48393842445605872 -0.40713040098299402 0 -0.47214510592166908 -0.41939033492402211 0 -0.48393842445605872 -0.40713040098299402 0 -0.47214510592166908 -0.41939033492402211 0 -0.47427590700138023 -0.39469502568249409 0 -0.46897642374787268 -0.44262015471777721 0 -0.47214510592166908 -0.41939033492402211 0 -0.48043585850414389 -0.43127077967876992 0 -0.49461109173840262 -0.42047267571091063 0 -0.47214510592166908 -0.41939033492402211 0 -0.48043585850414389 -0.43127077967876992 0 -0.5 -0.39656953661894012 0 -0.4947215931627828 -0.39396356761454909 0 -0.48030453056746109 -0.36861144308094029 0 -0.49461109173840262 -0.42047267571091063 0 -0.5 -0.39656953661894012 0 -0.4947215931627828 -0.39396356761454909 0 -0.48393842445605872 -0.40713040098299402 0 -0.4947215931627828 -0.39396356761454909 0 -0.47427590700138023 -0.39469502568249409 0 -0.47427590700138023 -0.39469502568249409 0 -0.48030453056746109 -0.36861144308094029 0 -0.4947215931627828 -0.39396356761454909 0 -0.47427590700138023 -0.39469502568249409 0 -0.48030453056746109 -0.36861144308094029 0 -0.47427590700138023 -0.39469502568249409 0 -0.46334377193483078 -0.37842983215876019 0 -0.48030453056746109 -0.36861144308094029 0 -0.46334377193483078 -0.37842983215876019 0 -0.45726543839001688 -0.40541672899881109 0 -0.44416021803808919 -0.38243724496113263 0 -0.47427590700138023 -0.39469502568249409 0 -0.46334377193483078 -0.37842983215876019 0 -0.45726543839001688 -0.40541672899881109 0 -0.45726543839001688 -0.40541672899881109 0 -0.43814282409564848 -0.40387353522152758 0 -0.44416021803808919 -0.38243724496113263 0 -0.43814282409564848 -0.40387353522152758 0 -0.44416021803808919 -0.38243724496113263 0 -0.4329908326547659 -0.40007252460533121 0 -0.43814282409564848 -0.40387353522152758 0 -0.44416021803808919 -0.38243724496113263 0 -0.46897642374787268 -0.44262015471777721 0 -0.47214510592166908 -0.41939033492402211 0 -0.45660235518767722 -0.42786105997071933 0 -0.47214510592166908 -0.41939033492402211 0 -0.47427590700138023 -0.39469502568249409 0 -0.45726543839001688 -0.40541672899881109 0 -0.47214510592166908 -0.41939033492402211 0 -0.45726543839001688 -0.40541672899881109 0 -0.45660235518767722 -0.42786105997071933 0 -0.45726543839001688 -0.40541672899881109 0 -0.45660235518767722 -0.42786105997071933 0 -0.44309263043645408 -0.41812298423377797 0 -0.45726543839001688 -0.40541672899881109 0 -0.43814282409564848 -0.40387353522152758 0 -0.44309263043645408 -0.41812298423377797 0 -0.43814282409564848 -0.40387353522152758 0 -0.44309263043645408 -0.41812298423377797 0 -0.43209373842114163 -0.42530092927673752 0 -0.44838221886832419 -0.4464230337388379 0 -0.45660235518767722 -0.42786105997071933 0 -0.44213238819953832 -0.43491600865963681 0 -0.45660235518767722 -0.42786105997071933 0 -0.44213238819953832 -0.43491600865963681 0 -0.43132710435572019 -0.42815377149591122 0 -0.45660235518767722 -0.42786105997071933 0 -0.44309263043645408 -0.41812298423377797 0 -0.43132710435572019 -0.42815377149591122 0 -0.45660235518767722 -0.42786105997071933 0 -0.43132710435572019 -0.42815377149591122 0 -0.44213238819953832 -0.43491600865963681 0 -0.42986244815509678 -0.43337144475258638 0 -0.435988539966085 -0.44148905847597392 0 -0.44213238819953832 -0.43491600865963681 0 -0.42986244815509678 -0.43337144475258638 0 -0.43132710435572019 -0.42815377149591122 0 -0.42986244815509678 -0.43337144475258638 0 -0.43132710435572019 -0.42815377149591122 0 -0.42986244815509678 -0.43337144475258638 0 -0.42494843276815808 -0.42822764260015772 0 -0.42026026496879931 -0.43681168621285732 0 -0.42986244815509678 -0.43337144475258638 0 -0.42494843276815808 -0.42822764260015772 0 -0.43132710435572019 -0.42815377149591122 0 -0.42494843276815808 -0.42822764260015772 0 -0.43209373842114163 -0.42530092927673752 0 -0.42214799869492048 -0.41876725226122891 0 -0.42494843276815808 -0.42822764260015772 0 -0.43209373842114163 -0.42530092927673752 0 -0.42494843276815808 -0.42822764260015772 0 -0.43209373842114163 -0.42530092927673752 0 -0.43132710435572019 -0.42815377149591122 0 -0.42494843276815808 -0.42822764260015772 0 -0.43132710435572019 -0.42815377149591122 0 -0.44309263043645408 -0.41812298423377797 0 -0.43209373842114163 -0.42530092927673752 0 -0.43132710435572019 -0.42815377149591122 0 -0.43209373842114163 -0.42530092927673752 0 -0.43132710435572019 -0.42815377149591122 0 -0.43814282409564848 -0.40387353522152758 0 -0.43209373842114163 -0.42530092927673752 0 -0.43814282409564848 -0.40387353522152758 0 -0.43209373842114163 -0.42530092927673752 0 -0.42736227186559528 -0.41250939947999687 0 -0.43814282409564848 -0.40387353522152758 0 -0.42736227186559528 -0.41250939947999687 0 -0.42798743510346321 -0.40461924019690898 0 -0.42736227186559528 -0.41250939947999687 0 -0.42214799869492048 -0.41876725226122891 0 -0.41643936301280282 -0.409986040443582 0 -0.42736227186559528 -0.41250939947999687 0 -0.41643936301280282 -0.409986040443582 0 -0.42798743510346321 -0.40461924019690898 0 -0.43209373842114163 -0.42530092927673752 0 -0.42736227186559528 -0.41250939947999687 0 -0.42214799869492048 -0.41876725226122891 0 -0.41643936301280282 -0.409986040443582 0 -0.41319678457753078 -0.41966526467231158 0 -0.40068754056194861 -0.4128492080837643 0 -0.41643936301280282 -0.409986040443582 0 -0.40443020735863072 -0.40194112054031811 0 -0.40068754056194861 -0.4128492080837643 0 -0.42214799869492048 -0.41876725226122891 0 -0.41643936301280282 -0.409986040443582 0 -0.41319678457753078 -0.41966526467231158 0 -0.42494843276815808 -0.42822764260015772 0 -0.42026026496879931 -0.43681168621285732 0 -0.40375973713816599 -0.43690652084804732 0 -0.42494843276815808 -0.42822764260015772 0 -0.40375973713816599 -0.43690652084804732 0 -0.42494843276815808 -0.42822764260015772 0 -0.40375973713816599 -0.43690652084804732 0 -0.40176058784982421 -0.42849617997282502 0 -0.42494843276815808 -0.42822764260015772 0 -0.40176058784982421 -0.42849617997282502 0 -0.42494843276815808 -0.42822764260015772 0 -0.41319678457753078 -0.41966526467231158 0 -0.40176058784982421 -0.42849617997282502 0 -0.42494843276815808 -0.42822764260015772 0 -0.42214799869492048 -0.41876725226122891 0 -0.41319678457753078 -0.41966526467231158 0 -0.4329908326547659 -0.40007252460533121 0 -0.41903857325144328 -0.37691094697715488 0 -0.4329908326547659 -0.40007252460533121 0 -0.4179168883199279 -0.39116430956604842 0 -0.41903857325144328 -0.37691094697715488 0 -0.4326994291400702 -0.38209416684564063 0 -0.4329908326547659 -0.40007252460533121 0 -0.41903857325144328 -0.37691094697715488 0 -0.44416021803808919 -0.38243724496113263 0 -0.4326994291400702 -0.38209416684564063 0 -0.4329908326547659 -0.40007252460533121 0 -0.4326994291400702 -0.38209416684564063 0 -0.41903857325144328 -0.37691094697715488 0 -0.43460809261598232 -0.36895595083894339 0 -0.44416021803808919 -0.38243724496113263 0 -0.4326994291400702 -0.38209416684564063 0 -0.43460809261598232 -0.36895595083894339 0 -0.4329908326547659 -0.40007252460533121 0 -0.42169055226689678 -0.40123550737599678 0 -0.4179168883199279 -0.39116430956604842 0 -0.43814282409564848 -0.40387353522152758 0 -0.4329908326547659 -0.40007252460533121 0 -0.42798743510346321 -0.40461924019690898 0 -0.4329908326547659 -0.40007252460533121 0 -0.42798743510346321 -0.40461924019690898 0 -0.42169055226689678 -0.40123550737599678 0 -0.41643936301280282 -0.409986040443582 0 -0.42798743510346321 -0.40461924019690898 0 -0.42169055226689678 -0.40123550737599678 0 -0.40637138740796802 -0.39517449182144659 0 -0.4179168883199279 -0.39116430956604842 0 -0.40139199175968793 -0.38592718468705428 0 -0.41643936301280282 -0.409986040443582 0 -0.42169055226689678 -0.40123550737599678 0 -0.41336967967324528 -0.3999002939494784 0 -0.41643936301280282 -0.409986040443582 0 -0.41336967967324528 -0.3999002939494784 0 -0.40443020735863072 -0.40194112054031811 0 -0.41336967967324528 -0.3999002939494784 0 -0.40637138740796802 -0.39517449182144659 0 -0.40443020735863072 -0.40194112054031811 0 -0.41336967967324528 -0.3999002939494784 0 -0.40637138740796802 -0.39517449182144659 0 -0.4179168883199279 -0.39116430956604842 0 -0.42169055226689678 -0.40123550737599678 0 -0.41336967967324528 -0.3999002939494784 0 -0.4179168883199279 -0.39116430956604842 0 -0.4179168883199279 -0.39116430956604842 0 -0.40139199175968793 -0.38592718468705428 0 -0.4179168883199279 -0.39116430956604842 0 -0.41012997258942652 -0.38146265356513281 0 -0.40139199175968793 -0.38592718468705428 0 -0.4179168883199279 -0.39116430956604842 0 -0.41596140559408717 -0.38148427669336471 0 -0.41903857325144328 -0.37691094697715488 0 -0.4179168883199279 -0.39116430956604842 0 -0.41264357953851821 -0.38144664688815172 0 -0.41596140559408717 -0.38148427669336471 0 -0.4179168883199279 -0.39116430956604842 0 -0.41264357953851821 -0.38144664688815172 0 -0.41012997258942652 -0.38146265356513281 0 -0.41404820471788178 -0.37946069571912022 0 -0.41012997258942652 -0.38146265356513281 0 -0.41264357953851821 -0.38144664688815172 0 -0.41404820471788178 -0.37946069571912022 0 -0.41012997258942652 -0.38146265356513281 0 -0.41404820471788178 -0.37946069571912022 0 -0.41012997258942652 -0.38146265356513281 0 -0.40173768300816198 -0.36643993149899518 0 -0.41264357953851821 -0.38144664688815172 0 -0.41012997258942652 -0.38146265356513281 0 -0.41404820471788178 -0.37946069571912022 0 -0.41903857325144328 -0.37691094697715488 0 -0.41404820471788178 -0.37946069571912022 0 -0.41596140559408717 -0.38148427669336471 0 -0.41903857325144328 -0.37691094697715488 0 -0.41264357953851821 -0.38144664688815172 0 -0.41404820471788178 -0.37946069571912022 0 -0.41596140559408717 -0.38148427669336471 0 -0.41404820471788178 -0.37946069571912022 0 -0.41596140559408717 -0.38148427669336471 0 -0.41012997258942652 -0.38146265356513281 0 -0.39138945824891558 -0.38158199336868193 0 -0.40139199175968793 -0.38592718468705428 0 -0.39138945824891558 -0.38158199336868193 0 -0.40139199175968793 -0.38592718468705428 0 -0.38146018706309692 -0.39611102053173108 0 -0.41012997258942652 -0.38146265356513281 0 -0.39138945824891558 -0.38158199336868193 0 -0.40173768300816198 -0.36643993149899518 0 -0.41012997258942652 -0.38146265356513281 0 -0.39138945824891558 -0.38158199336868193 0 -0.41012997258942652 -0.38146265356513281 0 -0.40139199175968793 -0.38592718468705428 0 -0.39138945824891558 -0.38158199336868193 0 -0.40139199175968793 -0.38592718468705428 0 -0.40139199175968793 -0.38592718468705428 0 -0.39499960735806972 -0.39650442224569948 0 -0.38146018706309692 -0.39611102053173108 0 -0.40139199175968793 -0.38592718468705428 0 -0.38146018706309692 -0.39611102053173108 0 -0.40637138740796802 -0.39517449182144659 0 -0.39499960735806972 -0.39650442224569948 0 -0.40443020735863072 -0.40194112054031811 0 -0.40637138740796802 -0.39517449182144659 0 -0.40139199175968793 -0.38592718468705428 0 -0.39499960735806972 -0.39650442224569948 0 -0.39499960735806972 -0.39650442224569948 0 -0.40443020735863072 -0.40194112054031811 0 -0.39652584119055362 -0.40342912424259242 0 -0.40443020735863072 -0.40194112054031811 0 -0.39652584119055362 -0.40342912424259242 0 -0.40068754056194861 -0.4128492080837643 0 -0.39652584119055362 -0.40342912424259242 0 -0.38735877636819388 -0.40059869056111858 0 -0.38983809416569087 -0.40758335385593009 0 -0.39499960735806972 -0.39650442224569948 0 -0.39652584119055362 -0.40342912424259242 0 -0.38735877636819388 -0.40059869056111858 0 -0.38156916822041892 -0.40603200008561519 0 -0.38178229459812563 -0.40298695858946171 0 -0.38983809416569087 -0.40758335385593009 0 -0.38178229459812563 -0.40298695858946171 0 -0.38012172885428602 -0.39806952235009457 0 -0.38983809416569087 -0.40758335385593009 0 -0.38735877636819388 -0.40059869056111858 0 -0.38012172885428602 -0.39806952235009457 0 -0.38983809416569087 -0.40758335385593009 0 -0.38012172885428602 -0.39806952235009457 0 -0.38983809416569087 -0.40758335385593009 0 -0.38012172885428602 -0.39806952235009457 0 -0.37209094330423159 -0.40089808531996213 0 -0.37629487057870992 -0.40149067916431569 0 -0.38012172885428602 -0.39806952235009457 0 -0.37209094330423159 -0.40089808531996213 0 -0.38156916822041892 -0.40603200008561519 0 -0.38178229459812563 -0.40298695858946171 0 -0.37856432677971441 -0.40327293704996398 0 -0.38156916822041892 -0.40603200008561519 0 -0.37602613074463359 -0.40570926791912437 0 -0.37856432677971441 -0.40327293704996398 0 -0.37602613074463359 -0.40570926791912437 0 -0.37856432677971441 -0.40327293704996398 0 -0.37629487057870992 -0.40149067916431569 0 -0.37856432677971441 -0.40327293704996398 0 -0.37629487057870992 -0.40149067916431569 0 -0.37881815497051818 -0.39997697960570461 0 -0.37629487057870992 -0.40149067916431569 0 -0.37881815497051818 -0.39997697960570461 0 -0.38012172885428602 -0.39806952235009457 0 -0.37881815497051818 -0.39997697960570461 0 -0.38012172885428602 -0.39806952235009457 0 -0.38178229459812563 -0.40298695858946171 0 -0.37881815497051818 -0.39997697960570461 0 -0.38012172885428602 -0.39806952235009457 0 -0.38178229459812563 -0.40298695858946171 0 -0.37856432677971441 -0.40327293704996398 0 -0.37881815497051818 -0.39997697960570461 0 -0.38012172885428602 -0.39806952235009457 0 -0.37610551335983561 -0.39413702328477918 0 -0.37209094330423159 -0.40089808531996213 0 -0.38146018706309692 -0.39611102053173108 0 -0.37610551335983561 -0.39413702328477918 0 -0.38353069879127127 -0.38163203803623119 0 -0.38146018706309692 -0.39611102053173108 0 -0.38012172885428602 -0.39806952235009457 0 -0.37610551335983561 -0.39413702328477918 0 -0.38146018706309692 -0.39611102053173108 0 -0.38012172885428602 -0.39806952235009457 0 -0.38012172885428602 -0.39806952235009457 0 -0.37610551335983561 -0.39413702328477918 0 -0.39499960735806972 -0.39650442224569948 0 -0.38735877636819388 -0.40059869056111858 0 -0.38146018706309692 -0.39611102053173108 0 -0.38735877636819388 -0.40059869056111858 0 -0.38146018706309692 -0.39611102053173108 0 -0.38012172885428602 -0.39806952235009457 0 -0.39138945824891558 -0.38158199336868193 0 -0.38146018706309692 -0.39611102053173108 0 -0.38146018706309692 -0.39611102053173108 0 -0.38353069879127127 -0.38163203803623119 0 -0.38775448495095949 -0.38160514091903242 0 -0.39138945824891558 -0.38158199336868193 0 -0.38146018706309692 -0.39611102053173108 0 -0.38775448495095949 -0.38160514091903242 0 -0.37610551335983561 -0.39413702328477918 0 -0.38353069879127127 -0.38163203803623119 0 -0.38353069879127127 -0.38163203803623119 0 -0.36791003929668897 -0.37531597356073781 0 -0.38353069879127127 -0.38163203803623119 0 -0.37576852049830373 -0.37424143402576782 0 -0.36791003929668897 -0.37531597356073781 0 -0.38353069879127127 -0.38163203803623119 0 -0.38775448495095949 -0.38160514091903242 0 -0.39138945824891558 -0.38158199336868193 0 -0.38775448495095949 -0.38160514091903242 0 -0.39082733033514372 -0.43553780059387093 0 -0.40375973713816599 -0.43690652084804732 0 -0.40176058784982421 -0.42849617997282502 0 -0.41319678457753078 -0.41966526467231158 0 -0.40176058784982421 -0.42849617997282502 0 -0.40068754056194861 -0.4128492080837643 0 -0.40176058784982421 -0.42849617997282502 0 -0.40068754056194861 -0.4128492080837643 0 -0.38796072571873202 -0.41787067674187572 0 -0.40068754056194861 -0.4128492080837643 0 -0.38796072571873202 -0.41787067674187572 0 -0.38983809416569087 -0.40758335385593009 0 -0.39652584119055362 -0.40342912424259242 0 -0.40068754056194861 -0.4128492080837643 0 -0.38983809416569087 -0.40758335385593009 0 -0.38156916822041892 -0.40603200008561519 0 -0.38983809416569087 -0.40758335385593009 0 -0.38249496913699632 -0.41100015469591239 0 -0.38796072571873202 -0.41787067674187572 0 -0.38983809416569087 -0.40758335385593009 0 -0.38249496913699632 -0.41100015469591239 0 -0.38156916822041892 -0.40603200008561519 0 -0.37602613074463359 -0.40570926791912437 0 -0.38249496913699632 -0.41100015469591239 0 -0.38796072571873202 -0.41787067674187572 0 -0.38249496913699632 -0.41100015469591239 0 -0.37441041966644201 -0.41853044649732968 0 -0.38796072571873202 -0.41787067674187572 0 -0.37857274293149029 -0.42876471734549271 0 -0.37441041966644201 -0.41853044649732968 0 -0.39082733033514372 -0.43553780059387093 0 -0.37857274293149029 -0.42876471734549271 0 -0.38257104150817378 -0.44558539909593659 0 -0.40176058784982421 -0.42849617997282502 0 -0.38796072571873202 -0.41787067674187572 0 -0.37857274293149029 -0.42876471734549271 0 -0.40176058784982421 -0.42849617997282502 0 -0.37857274293149029 -0.42876471734549271 0 -0.39082733033514372 -0.43553780059387093 0 -0.40176058784982421 -0.42849617997282502 0 -0.37857274293149029 -0.42876471734549271 0 -0.37857274293149029 -0.42876471734549271 0 -0.38257104150817378 -0.44558539909593659 0 -0.36466736862266619 -0.43929361107495862 0 -0.40375973713816599 -0.43690652084804732 0 -0.38257104150817378 -0.44558539909593659 0 -0.40375973713816599 -0.43690652084804732 0 -0.38257104150817378 -0.44558539909593659 0 -0.39873322217020901 -0.44879301705899238 0 -0.38257104150817378 -0.44558539909593659 0 -0.39873322217020901 -0.44879301705899238 0 -0.39185116602312342 -0.46040899195533008 0 -0.39082733033514372 -0.43553780059387093 0 -0.40375973713816599 -0.43690652084804732 0 -0.38257104150817378 -0.44558539909593659 0 -0.39873322217020901 -0.44879301705899238 0 -0.40884565752670138 -0.44739205870809717 0 -0.40642776429331862 -0.45699343118294727 0 -0.40375973713816599 -0.43690652084804732 0 -0.39873322217020901 -0.44879301705899238 0 -0.40884565752670138 -0.44739205870809717 0 -0.39185116602312342 -0.46040899195533008 0 -0.40182839360969391 -0.46973105278735439 0 -0.40642776429331862 -0.45699343118294727 0 -0.39873322217020901 -0.44879301705899238 0 -0.39185116602312342 -0.46040899195533008 0 -0.40642776429331862 -0.45699343118294727 0 -0.38257104150817378 -0.44558539909593659 0 -0.39185116602312342 -0.46040899195533008 0 -0.3749125057523493 -0.4641870694620962 0 -0.39185116602312342 -0.46040899195533008 0 -0.38739682711329992 -0.47637139398093842 0 -0.3749125057523493 -0.4641870694620962 0 -0.38739682711329992 -0.47637139398093842 0 -0.36650464836053492 -0.47758333459014829 0 -0.3749125057523493 -0.4641870694620962 0 -0.38739682711329992 -0.47637139398093842 0 -0.38649563617076049 -0.5 0 -0.36650464836053492 -0.47758333459014829 0 -0.38649563617076049 -0.5 0 -0.40221786754911548 -0.48468690862955621 0 -0.41470304202541208 -0.5 0 -0.38739682711329992 -0.47637139398093842 0 -0.38649563617076049 -0.5 0 -0.40221786754911548 -0.48468690862955621 0 -0.39185116602312342 -0.46040899195533008 0 -0.38739682711329992 -0.47637139398093842 0 -0.40182839360969391 -0.46973105278735439 0 -0.38739682711329992 -0.47637139398093842 0 -0.40221786754911548 -0.48468690862955621 0 -0.40182839360969391 -0.46973105278735439 0 -0.40221786754911548 -0.48468690862955621 0 -0.40182839360969391 -0.46973105278735439 0 -0.41640034518153801 -0.4710884416934209 0 -0.40221786754911548 -0.48468690862955621 0 -0.41640034518153801 -0.4710884416934209 0 -0.41470304202541208 -0.5 0 -0.43763952177061649 -0.47770500498713542 0 -0.44291044788006362 -0.49999999999999939 0 -0.41470304202541208 -0.5 0 -0.43763952177061649 -0.47770500498713542 0 -0.41640034518153801 -0.4710884416934209 0 -0.41470304202541208 -0.5 0 -0.43763952177061649 -0.47770500498713542 0 -0.41640034518153801 -0.4710884416934209 0 -0.4323685956611692 -0.45541000997427139 0 -0.43763952177061649 -0.47770500498713542 0 -0.4323685956611692 -0.45541000997427139 0 -0.41640034518153801 -0.4710884416934209 0 -0.4323685956611692 -0.45541000997427139 0 -0.41872867018542492 -0.45179192289975101 0 -0.4323685956611692 -0.45541000997427139 0 -0.435988539966085 -0.44148905847597392 0 -0.42615181293618792 -0.44307742131274741 0 -0.42986244815509678 -0.43337144475258638 0 -0.435988539966085 -0.44148905847597392 0 -0.42615181293618792 -0.44307742131274741 0 -0.42986244815509678 -0.43337144475258638 0 -0.42026026496879931 -0.43681168621285732 0 -0.42615181293618792 -0.44307742131274741 0 -0.4323685956611692 -0.45541000997427139 0 -0.42615181293618792 -0.44307742131274741 0 -0.41872867018542492 -0.45179192289975101 0 -0.41872867018542492 -0.45179192289975101 0 -0.41657889384638791 -0.4424754015507481 0 -0.40884565752670138 -0.44739205870809717 0 -0.42026026496879931 -0.43681168621285732 0 -0.40375973713816599 -0.43690652084804732 0 -0.41657889384638791 -0.4424754015507481 0 -0.42615181293618792 -0.44307742131274741 0 -0.41872867018542492 -0.45179192289975101 0 -0.41657889384638791 -0.4424754015507481 0 -0.42026026496879931 -0.43681168621285732 0 -0.42615181293618792 -0.44307742131274741 0 -0.41657889384638791 -0.4424754015507481 0 -0.40375973713816599 -0.43690652084804732 0 -0.41657889384638791 -0.4424754015507481 0 -0.40884565752670138 -0.44739205870809717 0 -0.41872867018542492 -0.45179192289975101 0 -0.40884565752670138 -0.44739205870809717 0 -0.40642776429331862 -0.45699343118294727 0 -0.41640034518153801 -0.4710884416934209 0 -0.41872867018542492 -0.45179192289975101 0 -0.40642776429331862 -0.45699343118294727 0 -0.40182839360969391 -0.46973105278735439 0 -0.41640034518153801 -0.4710884416934209 0 -0.40642776429331862 -0.45699343118294727 0 -0.45211818340539273 -0.26309076008929921 0 -0.44165736388207272 -0.25360003737878889 0 -0.46465652818918263 -0.24483730068029039 0 -0.45211818340539273 -0.26309076008929921 0 -0.44165736388207272 -0.25360003737878889 0 -0.43680511815892142 -0.2660007677910407 0 -0.45211818340539273 -0.26309076008929921 0 -0.43957983862160288 -0.2813442194983079 0 -0.45211818340539273 -0.26309076008929921 0 -0.45386615352933152 -0.26317791563468229 0 -0.44300193479902689 -0.28147468360283379 0 -0.45211818340539273 -0.26309076008929921 0 -0.43957983862160288 -0.2813442194983079 0 -0.44300193479902689 -0.28147468360283379 0 -0.45386615352933152 -0.26317791563468229 0 -0.44300193479902689 -0.28147468360283379 0 -0.45211818340539273 -0.26309076008929921 0 -0.43957983862160288 -0.2813442194983079 0 -0.43680511815892142 -0.2660007677910407 0 -0.46540099386590911 -0.27613459344745273 0 -0.45386615352933152 -0.26317791563468229 0 -0.47789920225856231 -0.2654141115859287 0 -0.46540099386590911 -0.27613459344745273 0 -0.45386615352933152 -0.26317791563468229 0 -0.44300193479902689 -0.28147468360283379 0 -0.45211818340539273 -0.26309076008929921 0 -0.45386615352933152 -0.26317791563468229 0 -0.46465652818918263 -0.24483730068029039 0 -0.45211818340539273 -0.26309076008929921 0 -0.46465652818918263 -0.24483730068029039 0 -0.45386615352933152 -0.26317791563468229 0 -0.46465652818918263 -0.24483730068029039 0 -0.45386615352933152 -0.26317791563468229 0 -0.47789920225856231 -0.2654141115859287 0 -0.46465652818918263 -0.24483730068029039 0 -0.47789920225856231 -0.2654141115859287 0 -0.48570939693172899 -0.24902992718248729 0 -0.46465652818918263 -0.24483730068029039 0 -0.47789920225856231 -0.2654141115859287 0 -0.4909021497975728 -0.26136593096020788 0 -0.48570939693172899 -0.24902992718248729 0 -0.4909021497975728 -0.26136593096020788 0 -0.5 -0.25150281007534703 0 -0.5 -0.27951687499706851 0 -0.4909021497975728 -0.26136593096020788 0 -0.5 -0.25150281007534703 0 -0.48570939693172899 -0.24902992718248729 0 -0.47789920225856231 -0.2654141115859287 0 -0.5 -0.27951687499706851 0 -0.48508449486424082 -0.28732415172015657 0 -0.47789920225856231 -0.2654141115859287 0 -0.4909021497975728 -0.26136593096020788 0 -0.5 -0.27951687499706851 0 -0.46540099386590911 -0.27613459344745273 0 -0.47789920225856231 -0.2654141115859287 0 -0.48508449486424082 -0.28732415172015657 0 -0.46540099386590911 -0.27613459344745273 0 -0.4692524708352519 -0.29304891184013099 0 -0.48508449486424082 -0.28732415172015657 0 -0.4692524708352519 -0.29304891184013099 0 -0.48508449486424082 -0.28732415172015657 0 -0.48342094646859679 -0.29729694551662461 0 -0.5 -0.27951687499706851 0 -0.5 -0.30753093991878988 0 -0.49616219239740023 -0.30000131546641939 0 -0.5 -0.27951687499706851 0 -0.48508449486424082 -0.28732415172015657 0 -0.49616219239740023 -0.30000131546641939 0 -0.48508449486424082 -0.28732415172015657 0 -0.49616219239740023 -0.30000131546641939 0 -0.48342094646859679 -0.29729694551662461 0 -0.49616219239740023 -0.30000131546641939 0 -0.47988752038114357 -0.30743937284698208 0 -0.49124767326547109 -0.32126458797290303 0 -0.49616219239740023 -0.30000131546641939 0 -0.47988752038114357 -0.30743937284698208 0 -0.48342094646859679 -0.29729694551662461 0 -0.49616219239740023 -0.30000131546641939 0 -0.49124767326547109 -0.32126458797290303 0 -0.5 -0.30753093991878988 0 -0.49616219239740023 -0.30000131546641939 0 -0.49124767326547109 -0.32126458797290303 0 -0.4692524708352519 -0.29304891184013099 0 -0.47988752038114357 -0.30743937284698208 0 -0.46289418455034459 -0.31569959279366661 0 -0.4692524708352519 -0.29304891184013099 0 -0.47988752038114357 -0.30743937284698208 0 -0.48342094646859679 -0.29729694551662461 0 -0.4692524708352519 -0.29304891184013099 0 -0.46289418455034459 -0.31569959279366661 0 -0.4692524708352519 -0.29304891184013099 0 -0.45610231338702439 -0.30058860430122147 0 -0.46289418455034459 -0.31569959279366661 0 -0.45610231338702439 -0.30058860430122147 0 -0.44586848524951039 -0.31314063422893113 0 -0.46289418455034459 -0.31569959279366661 0 -0.46540099386590911 -0.27613459344745273 0 -0.45701344915610581 -0.28694014007387803 0 -0.44300193479902689 -0.28147468360283379 0 -0.46540099386590911 -0.27613459344745273 0 -0.4692524708352519 -0.29304891184013099 0 -0.45701344915610581 -0.28694014007387803 0 -0.4692524708352519 -0.29304891184013099 0 -0.45610231338702439 -0.30058860430122147 0 -0.45701344915610581 -0.28694014007387803 0 -0.45610231338702439 -0.30058860430122147 0 -0.44300193479902689 -0.28147468360283379 0 -0.43213771606872631 -0.29977145157098772 0 -0.43957983862160288 -0.2813442194983079 0 -0.44300193479902689 -0.28147468360283379 0 -0.43213771606872631 -0.29977145157098772 0 -0.45610231338702439 -0.30058860430122147 0 -0.45701344915610581 -0.28694014007387803 0 -0.44300193479902689 -0.28147468360283379 0 -0.44300193479902689 -0.28147468360283379 0 -0.43213771606872631 -0.29977145157098772 0 -0.45610231338702439 -0.30058860430122147 0 -0.43213771606872631 -0.29977145157098772 0 -0.45610231338702439 -0.30058860430122147 0 -0.44586848524951039 -0.31314063422893113 0 -0.43213771606872631 -0.29977145157098772 0 -0.44586848524951039 -0.31314063422893113 0 -0.44476508916493912 -0.32800798766852468 0 -0.46289418455034459 -0.31569959279366661 0 -0.44586848524951039 -0.31314063422893113 0 -0.44476508916493912 -0.32800798766852468 0 -0.43268999707831379 -0.32114889215997511 0 -0.44476508916493912 -0.32800798766852468 0 -0.45653589826543722 -0.33835027374720222 0 -0.43854709093312078 -0.34551838447463762 0 -0.44476508916493912 -0.32800798766852468 0 -0.43854709093312078 -0.34551838447463762 0 -0.43403437847741988 -0.33354869747312299 0 -0.45653589826543722 -0.33835027374720222 0 -0.47228809685679413 -0.34052311598912072 0 -0.46825538305703029 -0.35176440759005828 0 -0.45653589826543722 -0.33835027374720222 0 -0.47506093156469842 -0.3287229684348516 0 -0.47228809685679413 -0.34052311598912072 0 -0.44476508916493912 -0.32800798766852468 0 -0.45653589826543722 -0.33835027374720222 0 -0.46289418455034459 -0.31569959279366661 0 -0.45653589826543722 -0.33835027374720222 0 -0.46289418455034459 -0.31569959279366661 0 -0.47506093156469842 -0.3287229684348516 0 -0.45653589826543722 -0.33835027374720222 0 -0.46289418455034459 -0.31569959279366661 0 -0.4772725774404144 -0.31828163051210079 0 -0.49124767326547109 -0.32126458797290303 0 -0.47506093156469842 -0.3287229684348516 0 -0.47988752038114357 -0.30743937284698208 0 -0.46289418455034459 -0.31569959279366661 0 -0.4772725774404144 -0.31828163051210079 0 -0.46289418455034459 -0.31569959279366661 0 -0.4772725774404144 -0.31828163051210079 0 -0.47506093156469842 -0.3287229684348516 0 -0.47988752038114357 -0.30743937284698208 0 -0.4772725774404144 -0.31828163051210079 0 -0.49124767326547109 -0.32126458797290303 0 -0.5 -0.30753093991878988 0 -0.49124767326547109 -0.32126458797290303 0 -0.49999999999999961 -0.33554500484051131 0 -0.49124767326547109 -0.32126458797290303 0 -0.48633315413354011 -0.3425278604793861 0 -0.49124767326547109 -0.32126458797290303 0 -0.49999999999999961 -0.33554500484051131 0 -0.48633315413354011 -0.3425278604793861 0 -0.49999999999999961 -0.33554500484051131 0 -0.48633315413354011 -0.3425278604793861 0 -0.48633315413354011 -0.3425278604793861 0 -0.47506093156469842 -0.3287229684348516 0 -0.47228809685679413 -0.34052311598912072 0 -0.49124767326547109 -0.32126458797290303 0 -0.48633315413354011 -0.3425278604793861 0 -0.47506093156469842 -0.3287229684348516 0 -0.48633315413354011 -0.3425278604793861 0 -0.47228809685679413 -0.34052311598912072 0 -0.46825538305703029 -0.35176440759005828 0 -0.49999999999999961 -0.33554500484051131 0 -0.48633315413354011 -0.3425278604793861 0 -0.48030453056746109 -0.36861144308094029 0 -0.48633315413354011 -0.3425278604793861 0 -0.48030453056746109 -0.36861144308094029 0 -0.46825538305703029 -0.35176440759005828 0 -0.48633315413354011 -0.3425278604793861 0 -0.46825538305703029 -0.35176440759005828 0 -0.48633315413354011 -0.3425278604793861 0 -0.48030453056746109 -0.36861144308094029 0 -0.5 -0.39656953661894012 0 -0.49999999999999961 -0.33554500484051131 0 -0.48030453056746109 -0.36861144308094029 0 -0.46334377193483078 -0.37842983215876019 0 -0.48030453056746109 -0.36861144308094029 0 -0.46825538305703029 -0.35176440759005828 0 -0.46334377193483078 -0.37842983215876019 0 -0.46825538305703029 -0.35176440759005828 0 -0.45017761198052331 -0.36100095470073579 0 -0.45653589826543722 -0.33835027374720222 0 -0.45017761198052331 -0.36100095470073579 0 -0.45653589826543722 -0.33835027374720222 0 -0.46825538305703029 -0.35176440759005828 0 -0.45017761198052331 -0.36100095470073579 0 -0.46825538305703029 -0.35176440759005828 0 -0.45017761198052331 -0.36100095470073579 0 -0.45653589826543722 -0.33835027374720222 0 -0.43854709093312078 -0.34551838447463762 0 -0.45017761198052331 -0.36100095470073579 0 -0.43854709093312078 -0.34551838447463762 0 -0.45017761198052331 -0.36100095470073579 0 -0.43688840964749209 -0.35781554759345557 0 -0.45017761198052331 -0.36100095470073579 0 -0.43460809261598232 -0.36895595083894339 0 -0.43688840964749209 -0.35781554759345557 0 -0.45017761198052331 -0.36100095470073579 0 -0.43460809261598232 -0.36895595083894339 0 -0.44416021803808919 -0.38243724496113263 0 -0.45017761198052331 -0.36100095470073579 0 -0.43460809261598232 -0.36895595083894339 0 -0.44416021803808919 -0.38243724496113263 0 -0.45017761198052331 -0.36100095470073579 0 -0.46334377193483078 -0.37842983215876019 0 -0.44416021803808919 -0.38243724496113263 0 -0.45017761198052331 -0.36100095470073579 0 -0.41903857325144328 -0.37691094697715488 0 -0.43460809261598232 -0.36895595083894339 0 -0.42422084306034402 -0.35578690035950972 0 -0.41903857325144328 -0.37691094697715488 0 -0.43460809261598232 -0.36895595083894339 0 -0.43460809261598232 -0.36895595083894339 0 -0.43688840964749209 -0.35781554759345557 0 -0.42422084306034402 -0.35578690035950972 0 -0.43854709093312078 -0.34551838447463762 0 -0.42422084306034402 -0.35578690035950972 0 -0.42013533673330578 -0.33951952558935461 0 -0.43854709093312078 -0.34551838447463762 0 -0.43688840964749209 -0.35781554759345557 0 -0.42422084306034402 -0.35578690035950972 0 -0.40758067638829881 -0.35789015901873489 0 -0.42013533673330578 -0.33951952558935461 0 -0.42422084306034402 -0.35578690035950972 0 -0.40758067638829881 -0.35789015901873489 0 -0.42013533673330578 -0.33951952558935461 0 -0.40758067638829881 -0.35789015901873489 0 -0.4025685708709531 -0.34956976676792401 0 -0.42013533673330578 -0.33951952558935461 0 -0.41903857325144328 -0.37691094697715488 0 -0.40758067638829881 -0.35789015901873489 0 -0.40173768300816198 -0.36643993149899518 0 -0.41404820471788178 -0.37946069571912022 0 -0.41903857325144328 -0.37691094697715488 0 -0.40173768300816198 -0.36643993149899518 0 -0.41903857325144328 -0.37691094697715488 0 -0.42422084306034402 -0.35578690035950972 0 -0.40758067638829881 -0.35789015901873489 0 -0.41903857325144328 -0.37691094697715488 0 -0.40758067638829881 -0.35789015901873489 0 -0.41404820471788178 -0.37946069571912022 0 -0.40173768300816198 -0.36643993149899518 0 -0.39138945824891558 -0.38158199336868193 0 -0.38775448495095949 -0.38160514091903242 0 -0.39609514899832238 -0.36047185746617882 0 -0.39138945824891558 -0.38158199336868193 0 -0.40173768300816198 -0.36643993149899518 0 -0.39609514899832238 -0.36047185746617882 0 -0.40758067638829881 -0.35789015901873489 0 -0.40173768300816198 -0.36643993149899518 0 -0.40758067638829881 -0.35789015901873489 0 -0.40173768300816198 -0.36643993149899518 0 -0.39609514899832238 -0.36047185746617882 0 -0.40173768300816198 -0.36643993149899518 0 -0.39609514899832238 -0.36047185746617882 0 -0.39138945824891558 -0.38158199336868193 0 -0.40173768300816198 -0.36643993149899518 0 -0.38353069879127127 -0.38163203803623119 0 -0.38775448495095949 -0.38160514091903242 0 -0.39609514899832238 -0.36047185746617882 0 -0.38353069879127127 -0.38163203803623119 0 -0.39609514899832238 -0.36047185746617882 0 -0.37576852049830373 -0.37424143402576782 0 -0.37576852049830373 -0.37424143402576782 0 -0.38980029292032681 -0.3538138263344407 0 -0.39609514899832238 -0.36047185746617882 0 -0.37576852049830373 -0.37424143402576782 0 -0.38980029292032681 -0.3538138263344407 0 -0.38353069879127127 -0.38163203803623119 0 -0.39609514899832238 -0.36047185746617882 0 -0.37576852049830373 -0.37424143402576782 0 -0.38980029292032681 -0.3538138263344407 0 -0.37245563567842283 -0.36342144099550278 0 -0.37501505732771462 -0.35270295609204683 0 -0.38980029292032681 -0.3538138263344407 0 -0.37245563567842283 -0.36342144099550278 0 -0.37501505732771462 -0.35270295609204683 0 -0.38980029292032681 -0.3538138263344407 0 -0.37630104444955431 -0.33953575302191552 0 -0.38980029292032681 -0.3538138263344407 0 -0.3874425906513701 -0.34245666632481359 0 -0.37630104444955431 -0.33953575302191552 0 -0.38980029292032681 -0.3538138263344407 0 -0.37630104444955431 -0.33953575302191552 0 -0.38980029292032681 -0.3538138263344407 0 -0.39796499687501963 -0.34192756105832428 0 -0.3874425906513701 -0.34245666632481359 0 -0.38980029292032681 -0.3538138263344407 0 -0.39796499687501963 -0.34192756105832428 0 -0.38980029292032681 -0.3538138263344407 0 -0.4025685708709531 -0.34956976676792401 0 -0.39796499687501963 -0.34192756105832428 0 -0.39609514899832238 -0.36047185746617882 0 -0.38980029292032681 -0.3538138263344407 0 -0.4025685708709531 -0.34956976676792401 0 -0.39609514899832238 -0.36047185746617882 0 -0.38980029292032681 -0.3538138263344407 0 -0.40758067638829881 -0.35789015901873489 0 -0.4025685708709531 -0.34956976676792401 0 -0.39609514899832238 -0.36047185746617882 0 -0.4025685708709531 -0.34956976676792401 0 -0.40758067638829881 -0.35789015901873489 0 -0.39609514899832238 -0.36047185746617882 0 -0.4025685708709531 -0.34956976676792401 0 -0.4025685708709531 -0.34956976676792401 0 -0.39796499687501963 -0.34192756105832428 0 -0.39796499687501963 -0.34192756105832428 0 -0.38707883306085727 -0.32310268074594539 0 -0.39302444192435521 -0.32665020523696531 0 -0.39796499687501963 -0.34192756105832428 0 -0.41250324535641603 -0.32076261998282041 0 -0.39796499687501963 -0.34192756105832428 0 -0.38707883306085727 -0.32310268074594539 0 -0.39796499687501963 -0.34192756105832428 0 -0.39861901303234393 -0.32526976222302811 0 -0.41250324535641603 -0.32076261998282041 0 -0.4025685708709531 -0.34956976676792401 0 -0.39796499687501963 -0.34192756105832428 0 -0.4173531434698371 -0.32467060916945428 0 -0.39796499687501963 -0.34192756105832428 0 -0.39302444192435521 -0.32665020523696531 0 -0.39861901303234393 -0.32526976222302811 0 -0.39796499687501963 -0.34192756105832428 0 -0.3874425906513701 -0.34245666632481359 0 -0.38570402836057949 -0.33454952488457412 0 -0.39796499687501963 -0.34192756105832428 0 -0.38570402836057949 -0.33454952488457412 0 -0.38707883306085727 -0.32310268074594539 0 -0.3874425906513701 -0.34245666632481359 0 -0.38570402836057949 -0.33454952488457412 0 -0.37630104444955431 -0.33953575302191552 0 -0.38570402836057949 -0.33454952488457412 0 -0.38257566477560778 -0.32750665689071978 0 -0.38707883306085727 -0.32310268074594539 0 -0.38570402836057949 -0.33454952488457412 0 -0.37746168828861648 -0.32880316406910598 0 -0.37630104444955431 -0.33953575302191552 0 -0.38570402836057949 -0.33454952488457412 0 -0.37746168828861648 -0.32880316406910598 0 -0.38257566477560778 -0.32750665689071978 0 -0.38707883306085727 -0.32310268074594539 0 -0.37576395745092178 -0.3050725196501074 0 -0.38707883306085727 -0.32310268074594539 0 -0.37576395745092178 -0.3050725196501074 0 -0.37719713711566749 -0.31197748083789167 0 -0.37972485618422192 -0.31952152903519548 0 -0.38707883306085727 -0.32310268074594539 0 -0.37719713711566749 -0.31197748083789167 0 -0.37972485618422192 -0.31952152903519548 0 -0.37719713711566749 -0.31197748083789167 0 -0.37456534516798468 -0.31943469669369101 0 -0.37972485618422192 -0.31952152903519548 0 -0.38027246529026432 -0.32317389825498388 0 -0.37456534516798468 -0.31943469669369101 0 -0.37746168828861648 -0.32880316406910598 0 -0.38027246529026432 -0.32317389825498388 0 -0.37456534516798468 -0.31943469669369101 0 -0.37746168828861648 -0.32880316406910598 0 -0.38257566477560778 -0.32750665689071978 0 -0.38027246529026432 -0.32317389825498388 0 -0.37972485618422192 -0.31952152903519548 0 -0.38027246529026432 -0.32317389825498388 0 -0.38707883306085727 -0.32310268074594539 0 -0.38257566477560778 -0.32750665689071978 0 -0.38027246529026432 -0.32317389825498388 0 -0.38707883306085727 -0.32310268074594539 0 -0.3895493280880703 -0.32181092315052368 0 -0.38707883306085727 -0.32310268074594539 0 -0.39302444192435521 -0.32665020523696531 0 -0.3895493280880703 -0.32181092315052368 0 -0.38817922209955419 -0.31487003622919818 0 -0.39292420471281692 -0.32089260507692741 0 -0.3895493280880703 -0.32181092315052368 0 -0.3854068594836183 -0.31441721296606712 0 -0.38817922209955419 -0.31487003622919818 0 -0.3895493280880703 -0.32181092315052368 0 -0.38707883306085727 -0.32310268074594539 0 -0.3854068594836183 -0.31441721296606712 0 -0.38817922209955419 -0.31487003622919818 0 -0.39233623022453079 -0.31589900304218349 0 -0.38828454910218052 -0.30906118598004451 0 -0.39233623022453079 -0.31589900304218349 0 -0.39756756003884308 -0.31679974746756201 0 -0.39292420471281692 -0.32089260507692741 0 -0.38817922209955419 -0.31487003622919818 0 -0.39233623022453079 -0.31589900304218349 0 -0.39292420471281692 -0.32089260507692741 0 -0.39233623022453079 -0.31589900304218349 0 -0.39756756003884308 -0.31679974746756201 0 -0.39384318992161488 -0.31092517799495939 0 -0.39756756003884308 -0.31679974746756201 0 -0.39292420471281692 -0.32089260507692741 0 -0.39861901303234393 -0.32526976222302811 0 -0.3895493280880703 -0.32181092315052368 0 -0.39302444192435521 -0.32665020523696531 0 -0.39292420471281692 -0.32089260507692741 0 -0.39302444192435521 -0.32665020523696531 0 -0.39292420471281692 -0.32089260507692741 0 -0.39861901303234393 -0.32526976222302811 0 -0.39756756003884308 -0.31679974746756201 0 -0.39861901303234393 -0.32526976222302811 0 -0.41250324535641603 -0.32076261998282041 0 -0.39756756003884308 -0.31679974746756201 0 -0.41250324535641603 -0.32076261998282041 0 -0.39943253357619768 -0.3092473730742562 0 -0.4173531434698371 -0.32467060916945428 0 -0.41250324535641603 -0.32076261998282041 0 -0.42704149383781292 -0.2995976789073167 0 -0.39796499687501963 -0.34192756105832428 0 -0.4173531434698371 -0.32467060916945428 0 -0.41250324535641603 -0.32076261998282041 0 -0.4025685708709531 -0.34956976676792401 0 -0.4173531434698371 -0.32467060916945428 0 -0.42013533673330578 -0.33951952558935461 0 -0.4025685708709531 -0.34956976676792401 0 -0.4173531434698371 -0.32467060916945428 0 -0.4173531434698371 -0.32467060916945428 0 -0.42013533673330578 -0.33951952558935461 0 -0.43268999707831379 -0.32114889215997511 0 -0.42013533673330578 -0.33951952558935461 0 -0.43268999707831379 -0.32114889215997511 0 -0.42013533673330578 -0.33951952558935461 0 -0.43403437847741988 -0.33354869747312299 0 -0.43268999707831379 -0.32114889215997511 0 -0.43854709093312078 -0.34551838447463762 0 -0.42013533673330578 -0.33951952558935461 0 -0.43403437847741988 -0.33354869747312299 0 -0.44476508916493912 -0.32800798766852468 0 -0.43403437847741988 -0.33354869747312299 0 -0.43268999707831379 -0.32114889215997511 0 -0.4173531434698371 -0.32467060916945428 0 -0.43268999707831379 -0.32114889215997511 0 -0.43213771606872631 -0.29977145157098772 0 -0.44586848524951039 -0.31314063422893113 0 -0.43268999707831379 -0.32114889215997511 0 -0.43213771606872631 -0.29977145157098772 0 -0.4173531434698371 -0.32467060916945428 0 -0.43213771606872631 -0.29977145157098772 0 -0.4173531434698371 -0.32467060916945428 0 -0.42704149383781292 -0.2995976789073167 0 -0.43213771606872631 -0.29977145157098772 0 -0.42704149383781292 -0.2995976789073167 0 -0.43213771606872631 -0.29977145157098772 0 -0.43957983862160288 -0.2813442194983079 0 -0.42704149383781292 -0.2995976789073167 0 -0.41620122749958632 -0.28481054703811581 0 -0.43957983862160288 -0.2813442194983079 0 -0.42704149383781292 -0.2995976789073167 0 -0.43213771606872631 -0.29977145157098772 0 -0.43957983862160288 -0.2813442194983079 0 -0.42704149383781292 -0.2995976789073167 0 -0.42704149383781292 -0.2995976789073167 0 -0.40925521843592683 -0.29219363385722402 0 -0.40193077426190232 -0.29874144532295899 0 -0.42704149383781292 -0.2995976789073167 0 -0.41620122749958632 -0.28481054703811581 0 -0.40925521843592683 -0.29219363385722402 0 -0.41620122749958632 -0.28481054703811581 0 -0.4064106314034665 -0.28786033749410611 0 -0.40925521843592683 -0.29219363385722402 0 -0.41620122749958632 -0.28481054703811581 0 -0.4064106314034665 -0.28786033749410611 0 -0.40459857025975621 -0.28097081354976228 0 -0.42704149383781292 -0.2995976789073167 0 -0.40193077426190232 -0.29874144532295899 0 -0.41250324535641603 -0.32076261998282041 0 -0.42704149383781292 -0.2995976789073167 0 -0.40193077426190232 -0.29874144532295899 0 -0.41250324535641603 -0.32076261998282041 0 -0.42704149383781292 -0.2995976789073167 0 -0.41250324535641603 -0.32076261998282041 0 -0.39943253357619768 -0.3092473730742562 0 -0.40193077426190232 -0.29874144532295899 0 -0.40193077426190232 -0.29874144532295899 0 -0.39397115466413868 -0.30315074537586811 0 -0.37682005468599161 -0.29788521173860111 0 -0.39943253357619768 -0.3092473730742562 0 -0.40193077426190232 -0.29874144532295899 0 -0.39397115466413868 -0.30315074537586811 0 -0.39756756003884308 -0.31679974746756201 0 -0.39943253357619768 -0.3092473730742562 0 -0.39384318992161488 -0.31092517799495939 0 -0.39943253357619768 -0.3092473730742562 0 -0.39515669063330172 -0.30691697672544133 0 -0.39384318992161488 -0.31092517799495939 0 -0.39943253357619768 -0.3092473730742562 0 -0.39397115466413868 -0.30315074537586811 0 -0.39515669063330172 -0.30691697672544133 0 -0.39515669063330172 -0.30691697672544133 0 -0.39384318992161488 -0.31092517799495939 0 -0.39024404857921102 -0.30572650089527997 0 -0.39397115466413868 -0.30315074537586811 0 -0.39515669063330172 -0.30691697672544133 0 -0.39024404857921102 -0.30572650089527997 0 -0.39384318992161488 -0.31092517799495939 0 -0.38828454910218052 -0.30906118598004451 0 -0.39024404857921102 -0.30572650089527997 0 -0.39233623022453079 -0.31589900304218349 0 -0.39384318992161488 -0.31092517799495939 0 -0.38828454910218052 -0.30906118598004451 0 -0.38817922209955419 -0.31487003622919818 0 -0.38828454910218052 -0.30906118598004451 0 -0.37682005468599161 -0.29788521173860111 0 -0.3854068594836183 -0.31441721296606712 0 -0.38817922209955419 -0.31487003622919818 0 -0.37682005468599161 -0.29788521173860111 0 -0.39397115466413868 -0.30315074537586811 0 -0.39024404857921102 -0.30572650089527997 0 -0.37682005468599161 -0.29788521173860111 0 -0.40193077426190232 -0.29874144532295899 0 -0.37682005468599161 -0.29788521173860111 0 -0.38707883306085727 -0.32310268074594539 0 -0.3854068594836183 -0.31441721296606712 0 -0.37682005468599161 -0.29788521173860111 0 -0.38707883306085727 -0.32310268074594539 0 -0.37682005468599161 -0.29788521173860111 0 -0.37576395745092178 -0.3050725196501074 0 -0.38707883306085727 -0.32310268074594539 0 -0.37682005468599161 -0.29788521173860111 0 -0.38828454910218052 -0.30906118598004451 0 -0.39024404857921102 -0.30572650089527997 0 -0.37682005468599161 -0.29788521173860111 0 -0.40193077426190232 -0.29874144532295899 0 -0.37682005468599161 -0.29788521173860111 0 -0.38727793942999461 -0.29143138054805301 0 -0.37682005468599161 -0.29788521173860111 0 -0.37992505739110077 -0.285327891268156 0 -0.37089355010314762 -0.28331705945197572 0 -0.37682005468599161 -0.29788521173860111 0 -0.37992505739110077 -0.285327891268156 0 -0.38727793942999461 -0.29143138054805301 0 -0.38727793942999461 -0.29143138054805301 0 -0.3924898948206727 -0.28599182426682918 0 -0.38684870024465262 -0.28019709009285709 0 -0.37992505739110077 -0.285327891268156 0 -0.38727793942999461 -0.29143138054805301 0 -0.38684870024465262 -0.28019709009285709 0 -0.3924898948206727 -0.28599182426682918 0 -0.39318539860325191 -0.27833553320660309 0 -0.38684870024465262 -0.28019709009285709 0 -0.3924898948206727 -0.28599182426682918 0 -0.39946484360203771 -0.29301209464503369 0 -0.39318539860325191 -0.27833553320660309 0 -0.38727793942999461 -0.29143138054805301 0 -0.3924898948206727 -0.28599182426682918 0 -0.39529086302865168 -0.29229418619571867 0 -0.40193077426190232 -0.29874144532295899 0 -0.38727793942999461 -0.29143138054805301 0 -0.39529086302865168 -0.29229418619571867 0 -0.3924898948206727 -0.28599182426682918 0 -0.39529086302865168 -0.29229418619571867 0 -0.39946484360203771 -0.29301209464503369 0 -0.4064106314034665 -0.28786033749410611 0 -0.40925521843592683 -0.29219363385722402 0 -0.39946484360203771 -0.29301209464503369 0 -0.40925521843592683 -0.29219363385722402 0 -0.40193077426190232 -0.29874144532295899 0 -0.39946484360203771 -0.29301209464503369 0 -0.40193077426190232 -0.29874144532295899 0 -0.39529086302865168 -0.29229418619571867 0 -0.39946484360203771 -0.29301209464503369 0 -0.4064106314034665 -0.28786033749410611 0 -0.39946484360203771 -0.29301209464503369 0 -0.40459857025975621 -0.28097081354976228 0 -0.40459857025975621 -0.28097081354976228 0 -0.39871653422275 -0.26477063034798642 0 -0.40644367116261759 -0.26933550009943341 0 -0.39946484360203771 -0.29301209464503369 0 -0.40459857025975621 -0.28097081354976228 0 -0.39871653422275 -0.26477063034798642 0 -0.39946484360203771 -0.29301209464503369 0 -0.39871653422275 -0.26477063034798642 0 -0.39946484360203771 -0.29301209464503369 0 -0.39318539860325191 -0.27833553320660309 0 -0.39871653422275 -0.26477063034798642 0 -0.39318539860325191 -0.27833553320660309 0 -0.38840702012614647 -0.26770602668030929 0 -0.39871653422275 -0.26477063034798642 0 -0.39318539860325191 -0.27833553320660309 0 -0.38684870024465262 -0.28019709009285709 0 -0.38840702012614647 -0.26770602668030929 0 -0.38684870024465262 -0.28019709009285709 0 -0.38840702012614647 -0.26770602668030929 0 -0.37812768531643998 -0.2740521224023964 0 -0.38840702012614647 -0.26770602668030929 0 -0.37812768531643998 -0.2740521224023964 0 -0.37969836118369482 -0.26041778922000308 0 -0.37992505739110077 -0.285327891268156 0 -0.37812768531643998 -0.2740521224023964 0 -0.37089355010314762 -0.28331705945197572 0 -0.37992505739110077 -0.285327891268156 0 -0.38684870024465262 -0.28019709009285709 0 -0.37812768531643998 -0.2740521224023964 0 -0.37969836118369482 -0.26041778922000308 0 -0.39442967684708991 -0.25208667127465478 0 -0.37872015884544641 -0.2435614714605657 0 -0.37969836118369482 -0.26041778922000308 0 -0.36999160380854529 -0.25160890498862648 0 -0.37872015884544641 -0.2435614714605657 0 -0.38840702012614647 -0.26770602668030929 0 -0.37969836118369482 -0.26041778922000308 0 -0.39442967684708991 -0.25208667127465478 0 -0.37969836118369482 -0.26041778922000308 0 -0.39442967684708991 -0.25208667127465478 0 -0.39442967684708991 -0.25208667127465478 0 -0.39871653422275 -0.26477063034798642 0 -0.39796822484346261 -0.23652916605093899 0 -0.40220594800304021 -0.25293233307518609 0 -0.39871653422275 -0.26477063034798642 0 -0.40644367116261759 -0.26933550009943341 0 -0.40220594800304021 -0.25293233307518609 0 -0.39871653422275 -0.26477063034798642 0 -0.39796822484346261 -0.23652916605093899 0 -0.40220594800304021 -0.25293233307518609 0 -0.40644367116261759 -0.26933550009943341 0 -0.39871653422275 -0.26477063034798642 0 -0.39796822484346261 -0.23652916605093899 0 -0.38840702012614647 -0.26770602668030929 0 -0.39442967684708991 -0.25208667127465478 0 -0.39871653422275 -0.26477063034798642 0 -0.40220594800304021 -0.25293233307518609 0 -0.41459928595597673 -0.25790967448939001 0 -0.40644367116261759 -0.26933550009943341 0 -0.40220594800304021 -0.25293233307518609 0 -0.41459928595597673 -0.25790967448939001 0 -0.41466813127082142 -0.24184035413310251 0 -0.41459928595597673 -0.25790967448939001 0 -0.42775875008346192 -0.25507980811954323 0 -0.41466813127082142 -0.24184035413310251 0 -0.41459928595597673 -0.25790967448939001 0 -0.42191992925994232 -0.27036037701968468 0 -0.42775875008346192 -0.25507980811954323 0 -0.40644367116261759 -0.26933550009943341 0 -0.41206191028808969 -0.27659566112432887 0 -0.42191992925994232 -0.27036037701968468 0 -0.40459857025975621 -0.28097081354976228 0 -0.40644367116261759 -0.26933550009943341 0 -0.41206191028808969 -0.27659566112432887 0 -0.41620122749958632 -0.28481054703811581 0 -0.40459857025975621 -0.28097081354976228 0 -0.41206191028808969 -0.27659566112432887 0 -0.41620122749958632 -0.28481054703811581 0 -0.41206191028808969 -0.27659566112432887 0 -0.42191992925994232 -0.27036037701968468 0 -0.41459928595597673 -0.25790967448939001 0 -0.40644367116261759 -0.26933550009943341 0 -0.42191992925994232 -0.27036037701968468 0 -0.43957983862160288 -0.2813442194983079 0 -0.42191992925994232 -0.27036037701968468 0 -0.43680511815892142 -0.2660007677910407 0 -0.43957983862160288 -0.2813442194983079 0 -0.41620122749958632 -0.28481054703811581 0 -0.42191992925994232 -0.27036037701968468 0 -0.44165736388207272 -0.25360003737878889 0 -0.43680511815892142 -0.2660007677910407 0 -0.42775875008346192 -0.25507980811954323 0 -0.42191992925994232 -0.27036037701968468 0 -0.43680511815892142 -0.2660007677910407 0 -0.42775875008346192 -0.25507980811954323 0 -0.32577683519746242 -0.25897579210934468 0 -0.30798481169360081 -0.26465381523239789 0 -0.31421725341188372 -0.24977587129631751 0 -0.32577683519746242 -0.25897579210934468 0 -0.31511343508082401 -0.27781322935613839 0 -0.33065211668571071 -0.27437360408278932 0 -0.32577683519746242 -0.25897579210934468 0 -0.31511343508082401 -0.27781322935613839 0 -0.30798481169360081 -0.26465381523239789 0 -0.31511343508082401 -0.27781322935613839 0 -0.33065211668571071 -0.27437360408278932 0 -0.32673865940135971 -0.29036850998253821 0 -0.33065211668571071 -0.27437360408278932 0 -0.3425640544848888 -0.26114950363554529 0 -0.3458528524608297 -0.27955870857394483 0 -0.32577683519746242 -0.25897579210934468 0 -0.33065211668571071 -0.27437360408278932 0 -0.3425640544848888 -0.26114950363554529 0 -0.32577683519746242 -0.25897579210934468 0 -0.3425640544848888 -0.26114950363554529 0 -0.34161545739809862 -0.2441761224370865 0 -0.3425640544848888 -0.26114950363554529 0 -0.35707845064694121 -0.24935767075674509 0 -0.34161545739809862 -0.2441761224370865 0 -0.3425640544848888 -0.26114950363554529 0 -0.3649670455202999 -0.26874890716535171 0 -0.35707845064694121 -0.24935767075674509 0 -0.3649670455202999 -0.26874890716535171 0 -0.35707845064694121 -0.24935767075674509 0 -0.37969836118369482 -0.26041778922000308 0 -0.36999160380854529 -0.25160890498862648 0 -0.3649670455202999 -0.26874890716535171 0 -0.36999160380854529 -0.25160890498862648 0 -0.3649670455202999 -0.26874890716535171 0 -0.35707845064694121 -0.24935767075674509 0 -0.37969836118369482 -0.26041778922000308 0 -0.3649670455202999 -0.26874890716535171 0 -0.3649670455202999 -0.26874890716535171 0 -0.3458528524608297 -0.27955870857394483 0 -0.37089355010314762 -0.28331705945197572 0 -0.37812768531643998 -0.2740521224023964 0 -0.3649670455202999 -0.26874890716535171 0 -0.37089355010314762 -0.28331705945197572 0 -0.3649670455202999 -0.26874890716535171 0 -0.37089355010314762 -0.28331705945197572 0 -0.37812768531643998 -0.2740521224023964 0 -0.37969836118369482 -0.26041778922000308 0 -0.3649670455202999 -0.26874890716535171 0 -0.3649670455202999 -0.26874890716535171 0 -0.3458528524608297 -0.27955870857394483 0 -0.3425640544848888 -0.26114950363554529 0 -0.3649670455202999 -0.26874890716535171 0 -0.3458528524608297 -0.27955870857394483 0 -0.3458528524608297 -0.27955870857394483 0 -0.35490209917173382 -0.29713784607450577 0 -0.33298414365747597 -0.29639048041041038 0 -0.3458528524608297 -0.27955870857394483 0 -0.37089355010314762 -0.28331705945197572 0 -0.35490209917173382 -0.29713784607450577 0 -0.35490209917173382 -0.29713784607450577 0 -0.33298414365747597 -0.29639048041041038 0 -0.37682005468599161 -0.29788521173860111 0 -0.37089355010314762 -0.28331705945197572 0 -0.35490209917173382 -0.29713784607450577 0 -0.37682005468599161 -0.29788521173860111 0 -0.37089355010314762 -0.28331705945197572 0 -0.37682005468599161 -0.29788521173860111 0 -0.35490209917173382 -0.29713784607450577 0 -0.37682005468599161 -0.29788521173860111 0 -0.36188894867209143 -0.31041699320339777 0 -0.35490209917173382 -0.29713784607450577 0 -0.37576395745092178 -0.3050725196501074 0 -0.36188894867209143 -0.31041699320339777 0 -0.37031507652163809 -0.31287943285871039 0 -0.37576395745092178 -0.3050725196501074 0 -0.37719713711566749 -0.31197748083789167 0 -0.37031507652163809 -0.31287943285871039 0 -0.37682005468599161 -0.29788521173860111 0 -0.37576395745092178 -0.3050725196501074 0 -0.36188894867209143 -0.31041699320339777 0 -0.36188894867209143 -0.31041699320339777 0 -0.35490209917173382 -0.29713784607450577 0 -0.34709214139205768 -0.31270838654372951 0 -0.35490209917173382 -0.29713784607450577 0 -0.34179204247812539 -0.30372858581904438 0 -0.34709214139205768 -0.31270838654372951 0 -0.35490209917173382 -0.29713784607450577 0 -0.34179204247812539 -0.30372858581904438 0 -0.33298414365747597 -0.29639048041041038 0 -0.33218978569123447 -0.30867763024753198 0 -0.34179204247812539 -0.30372858581904438 0 -0.34709214139205768 -0.31270838654372951 0 -0.33218978569123447 -0.30867763024753198 0 -0.34179204247812539 -0.30372858581904438 0 -0.33298414365747597 -0.29639048041041038 0 -0.33218978569123447 -0.30867763024753198 0 -0.33298414365747597 -0.29639048041041038 0 -0.32551389594434832 -0.29891105756718273 0 -0.3458528524608297 -0.27955870857394483 0 -0.32673865940135971 -0.29036850998253821 0 -0.3458528524608297 -0.27955870857394483 0 -0.33298414365747597 -0.29639048041041038 0 -0.32673865940135971 -0.29036850998253821 0 -0.33065211668571071 -0.27437360408278932 0 -0.3458528524608297 -0.27955870857394483 0 -0.32673865940135971 -0.29036850998253821 0 -0.33298414365747597 -0.29639048041041038 0 -0.32673865940135971 -0.29036850998253821 0 -0.32551389594434832 -0.29891105756718273 0 -0.32673865940135971 -0.29036850998253821 0 -0.31615320843671613 -0.29356321322440693 0 -0.32551389594434832 -0.29891105756718273 0 -0.31511343508082401 -0.27781322935613839 0 -0.32673865940135971 -0.29036850998253821 0 -0.31615320843671613 -0.29356321322440693 0 -0.31615320843671613 -0.29356321322440693 0 -0.31950368253495531 -0.30555545397102613 0 -0.30878428388507118 -0.30170417431472779 0 -0.31950368253495531 -0.30555545397102613 0 -0.3116392313269683 -0.31227800665128408 0 -0.30878428388507118 -0.30170417431472779 0 -0.31950368253495531 -0.30555545397102613 0 -0.32244955285570731 -0.31946983399639112 0 -0.3116392313269683 -0.31227800665128408 0 -0.33218978569123447 -0.30867763024753198 0 -0.31950368253495531 -0.30555545397102613 0 -0.32244955285570731 -0.31946983399639112 0 -0.33218978569123447 -0.30867763024753198 0 -0.31950368253495531 -0.30555545397102613 0 -0.32551389594434832 -0.29891105756718273 0 -0.31615320843671613 -0.29356321322440693 0 -0.31950368253495531 -0.30555545397102613 0 -0.32551389594434832 -0.29891105756718273 0 -0.32244955285570731 -0.31946983399639112 0 -0.30629799224095122 -0.32640742927921629 0 -0.3116392313269683 -0.31227800665128408 0 -0.32244955285570731 -0.31946983399639112 0 -0.32074380139974629 -0.33343701228721029 0 -0.30629799224095122 -0.32640742927921629 0 -0.32244955285570731 -0.31946983399639112 0 -0.32074380139974629 -0.33343701228721029 0 -0.33561670872011118 -0.32538867032004731 0 -0.32074380139974629 -0.33343701228721029 0 -0.33040605641151349 -0.34939015350577979 0 -0.304947043925899 -0.34335287533409059 0 -0.32074380139974629 -0.33343701228721029 0 -0.33267344648675012 -0.33694306544023261 0 -0.33040605641151349 -0.34939015350577979 0 -0.32074380139974629 -0.33343701228721029 0 -0.33267344648675012 -0.33694306544023261 0 -0.33561670872011118 -0.32538867032004731 0 -0.33267344648675012 -0.33694306544023261 0 -0.34392721941562959 -0.33955642564789279 0 -0.33040605641151349 -0.34939015350577979 0 -0.33561670872011118 -0.32538867032004731 0 -0.349287455364583 -0.32600753078393868 0 -0.34392721941562959 -0.33955642564789279 0 -0.33267344648675012 -0.33694306544023261 0 -0.33561670872011118 -0.32538867032004731 0 -0.34392721941562959 -0.33955642564789279 0 -0.33218978569123447 -0.30867763024753198 0 -0.33561670872011118 -0.32538867032004731 0 -0.34709214139205768 -0.31270838654372951 0 -0.33218978569123447 -0.30867763024753198 0 -0.32244955285570731 -0.31946983399639112 0 -0.33561670872011118 -0.32538867032004731 0 -0.33561670872011118 -0.32538867032004731 0 -0.34709214139205768 -0.31270838654372951 0 -0.349287455364583 -0.32600753078393868 0 -0.36188894867209143 -0.31041699320339777 0 -0.349287455364583 -0.32600753078393868 0 -0.36280179597878331 -0.32525767970938912 0 -0.36188894867209143 -0.31041699320339777 0 -0.34709214139205768 -0.31270838654372951 0 -0.349287455364583 -0.32600753078393868 0 -0.36188894867209143 -0.31041699320339777 0 -0.36280179597878331 -0.32525767970938912 0 -0.37031507652163809 -0.31287943285871039 0 -0.37746168828861648 -0.32880316406910598 0 -0.36280179597878331 -0.32525767970938912 0 -0.37456534516798468 -0.31943469669369101 0 -0.36280179597878331 -0.32525767970938912 0 -0.37456534516798468 -0.31943469669369101 0 -0.37031507652163809 -0.31287943285871039 0 -0.37719713711566749 -0.31197748083789167 0 -0.37456534516798468 -0.31943469669369101 0 -0.37031507652163809 -0.31287943285871039 0 -0.37630104444955431 -0.33953575302191552 0 -0.36280179597878331 -0.32525767970938912 0 -0.35900277781907919 -0.33873387737807908 0 -0.37630104444955431 -0.33953575302191552 0 -0.35900277781907919 -0.33873387737807908 0 -0.3662355090989915 -0.348226851570058 0 -0.37746168828861648 -0.32880316406910598 0 -0.37630104444955431 -0.33953575302191552 0 -0.36280179597878331 -0.32525767970938912 0 -0.37630104444955431 -0.33953575302191552 0 -0.36280179597878331 -0.32525767970938912 0 -0.349287455364583 -0.32600753078393868 0 -0.36280179597878331 -0.32525767970938912 0 -0.35900277781907919 -0.33873387737807908 0 -0.349287455364583 -0.32600753078393868 0 -0.35900277781907919 -0.33873387737807908 0 -0.34392721941562959 -0.33955642564789279 0 -0.34392721941562959 -0.33955642564789279 0 -0.34378478126742867 -0.35168705731137051 0 -0.35474622765707731 -0.3530842238088211 0 -0.34378478126742867 -0.35168705731137051 0 -0.35474622765707731 -0.3530842238088211 0 -0.34605962158549469 -0.3647174262829882 0 -0.35474622765707731 -0.3530842238088211 0 -0.34605962158549469 -0.3647174262829882 0 -0.35474622765707731 -0.3530842238088211 0 -0.3645004591251928 -0.35797240650737622 0 -0.3557305472228397 -0.36248105220686111 0 -0.35900277781907919 -0.33873387737807908 0 -0.34392721941562959 -0.33955642564789279 0 -0.35474622765707731 -0.3530842238088211 0 -0.35900277781907919 -0.33873387737807908 0 -0.35474622765707731 -0.3530842238088211 0 -0.3662355090989915 -0.348226851570058 0 -0.35474622765707731 -0.3530842238088211 0 -0.3662355090989915 -0.348226851570058 0 -0.3645004591251928 -0.35797240650737622 0 -0.37501505732771462 -0.35270295609204683 0 -0.3662355090989915 -0.348226851570058 0 -0.3645004591251928 -0.35797240650737622 0 -0.37501505732771462 -0.35270295609204683 0 -0.3645004591251928 -0.35797240650737622 0 -0.37245563567842283 -0.36342144099550278 0 -0.37501505732771462 -0.35270295609204683 0 -0.37630104444955431 -0.33953575302191552 0 -0.3662355090989915 -0.348226851570058 0 -0.35160698284412462 -0.37014915498247181 0 -0.36791003929668897 -0.37531597356073781 0 -0.3617394449023093 -0.36648204945264778 0 -0.35160698284412462 -0.37014915498247181 0 -0.36791003929668897 -0.37531597356073781 0 -0.37245563567842283 -0.36342144099550278 0 -0.3617394449023093 -0.36648204945264778 0 -0.36791003929668897 -0.37531597356073781 0 -0.37576852049830373 -0.37424143402576782 0 -0.37245563567842283 -0.36342144099550278 0 -0.36791003929668897 -0.37531597356073781 0 -0.3645004591251928 -0.35797240650737622 0 -0.3617394449023093 -0.36648204945264778 0 -0.3557305472228397 -0.36248105220686111 0 -0.3645004591251928 -0.35797240650737622 0 -0.37245563567842283 -0.36342144099550278 0 -0.3617394449023093 -0.36648204945264778 0 -0.35474622765707731 -0.3530842238088211 0 -0.3557305472228397 -0.36248105220686111 0 -0.34605962158549469 -0.3647174262829882 0 -0.3617394449023093 -0.36648204945264778 0 -0.35160698284412462 -0.37014915498247181 0 -0.3557305472228397 -0.36248105220686111 0 -0.35160698284412462 -0.37014915498247181 0 -0.3557305472228397 -0.36248105220686111 0 -0.34605962158549469 -0.3647174262829882 0 -0.34605962158549469 -0.3647174262829882 0 -0.34384142010082153 -0.36768806715090302 0 -0.34148886242004811 -0.36564807466747679 0 -0.34605962158549469 -0.3647174262829882 0 -0.34384142010082153 -0.36768806715090302 0 -0.35160698284412462 -0.37014915498247181 0 -0.34384142010082153 -0.36768806715090302 0 -0.3473193197300139 -0.3757558619871843 0 -0.35160698284412462 -0.37014915498247181 0 -0.34384142010082153 -0.36768806715090302 0 -0.35160698284412462 -0.37014915498247181 0 -0.34605962158549469 -0.3647174262829882 0 -0.35160698284412462 -0.37014915498247181 0 -0.34605962158549469 -0.3647174262829882 0 -0.34384142010082153 -0.36768806715090302 0 -0.34384142010082153 -0.36768806715090302 0 -0.3394050004453173 -0.36792428240374231 0 -0.33667947897576161 -0.37727942084292682 0 -0.34384142010082153 -0.36768806715090302 0 -0.33667947897576161 -0.37727942084292682 0 -0.34384142010082153 -0.36768806715090302 0 -0.3473193197300139 -0.3757558619871843 0 -0.33667947897576161 -0.37727942084292682 0 -0.32081326145083022 -0.36031614808850881 0 -0.33667947897576161 -0.37727942084292682 0 -0.3394050004453173 -0.36792428240374231 0 -0.33336643958396978 -0.36601612799497002 0 -0.33667947897576161 -0.37727942084292682 0 -0.33336643958396978 -0.36601612799497002 0 -0.32081326145083022 -0.36031614808850881 0 -0.33667947897576161 -0.37727942084292682 0 -0.33132451367914112 -0.3606866026678322 0 -0.33336643958396978 -0.36601612799497002 0 -0.32081326145083022 -0.36031614808850881 0 -0.33132451367914112 -0.3606866026678322 0 -0.33336643958396978 -0.36601612799497002 0 -0.33697234037925838 -0.36236486777317728 0 -0.34605962158549469 -0.3647174262829882 0 -0.33697234037925838 -0.36236486777317728 0 -0.34148886242004811 -0.36564807466747679 0 -0.3394050004453173 -0.36792428240374231 0 -0.33697234037925838 -0.36236486777317728 0 -0.34148886242004811 -0.36564807466747679 0 -0.3394050004453173 -0.36792428240374231 0 -0.33336643958396978 -0.36601612799497002 0 -0.33697234037925838 -0.36236486777317728 0 -0.34384142010082153 -0.36768806715090302 0 -0.3394050004453173 -0.36792428240374231 0 -0.34148886242004811 -0.36564807466747679 0 -0.34605962158549469 -0.3647174262829882 0 -0.33040605641151349 -0.34939015350577979 0 -0.34378478126742867 -0.35168705731137051 0 -0.34605962158549469 -0.3647174262829882 0 -0.33040605641151349 -0.34939015350577979 0 -0.34605962158549469 -0.3647174262829882 0 -0.33697234037925838 -0.36236486777317728 0 -0.33040605641151349 -0.34939015350577979 0 -0.34392721941562959 -0.33955642564789279 0 -0.34378478126742867 -0.35168705731137051 0 -0.33040605641151349 -0.34939015350577979 0 -0.33132451367914112 -0.3606866026678322 0 -0.33697234037925838 -0.36236486777317728 0 -0.33040605641151349 -0.34939015350577979 0 -0.33040605641151349 -0.34939015350577979 0 -0.32081326145083022 -0.36031614808850881 0 -0.304947043925899 -0.34335287533409059 0 -0.32081326145083022 -0.36031614808850881 0 -0.304947043925899 -0.34335287533409059 0 -0.33132451367914112 -0.3606866026678322 0 -0.33040605641151349 -0.34939015350577979 0 -0.32081326145083022 -0.36031614808850881 0 -0.32440986188565729 -0.37270080156259489 0 -0.32081326145083022 -0.36031614808850881 0 -0.31106328263090982 -0.36800475596674848 0 -0.32440986188565729 -0.37270080156259489 0 -0.32081326145083022 -0.36031614808850881 0 -0.33667947897576161 -0.37727942084292682 0 -0.32440986188565729 -0.37270080156259489 0 -0.31106328263090982 -0.36800475596674848 0 -0.31317375432424149 -0.38208007184035081 0 -0.31106328263090982 -0.36800475596674848 0 -0.30477466129399572 -0.35837215094430408 0 -0.2945929359319488 -0.36760614731534108 0 -0.32081326145083022 -0.36031614808850881 0 -0.31106328263090982 -0.36800475596674848 0 -0.30477466129399572 -0.35837215094430408 0 -0.2945929359319488 -0.36760614731534108 0 -0.31317375432424149 -0.38208007184035081 0 -0.31106328263090982 -0.36800475596674848 0 -0.2945929359319488 -0.36760614731534108 0 -0.31317375432424149 -0.38208007184035081 0 -0.30477466129399572 -0.35837215094430408 0 -0.29245678253039098 -0.35258082801683138 0 -0.2945929359319488 -0.36760614731534108 0 -0.32081326145083022 -0.36031614808850881 0 -0.30477466129399572 -0.35837215094430408 0 -0.304947043925899 -0.34335287533409059 0 -0.30477466129399572 -0.35837215094430408 0 -0.29245678253039098 -0.35258082801683138 0 -0.304947043925899 -0.34335287533409059 0 -0.29245678253039098 -0.35258082801683138 0 -0.27601211753965582 -0.35313222279033191 0 -0.28440521569258082 -0.34149228361744682 0 -0.29245678253039098 -0.35258082801683138 0 -0.2945929359319488 -0.36760614731534108 0 -0.27601211753965582 -0.35313222279033191 0 -0.29245678253039098 -0.35258082801683138 0 -0.28440521569258082 -0.34149228361744682 0 -0.304947043925899 -0.34335287533409059 0 -0.2945929359319488 -0.36760614731534108 0 -0.27987861861344199 -0.36674592141788198 0 -0.27601211753965582 -0.35313222279033191 0 -0.2945929359319488 -0.36760614731534108 0 -0.27601211753965582 -0.35313222279033191 0 -0.2945929359319488 -0.36760614731534108 0 -0.27987861861344199 -0.36674592141788198 0 -0.2808665902171914 -0.38228580422035652 0 -0.26678221966742222 -0.3646399338773868 0 -0.2808665902171914 -0.38228580422035652 0 -0.27987861861344199 -0.36674592141788198 0 -0.26678221966742222 -0.3646399338773868 0 -0.2808665902171914 -0.38228580422035652 0 -0.27987861861344199 -0.36674592141788198 0 -0.26678221966742222 -0.3646399338773868 0 -0.27601211753965582 -0.35313222279033191 0 -0.26678221966742222 -0.3646399338773868 0 -0.25938421221386299 -0.38242260424217978 0 -0.2452998416640946 -0.36477673389921211 0 -0.25269784911765092 -0.34699406353441858 0 -0.27601211753965582 -0.35313222279033191 0 -0.25743129914736268 -0.33865829826532268 0 -0.26678221966742222 -0.3646399338773868 0 -0.25269784911765092 -0.34699406353441858 0 -0.27601211753965582 -0.35313222279033191 0 -0.26678221966742222 -0.3646399338773868 0 -0.25269784911765092 -0.34699406353441858 0 -0.26678221966742222 -0.3646399338773868 0 -0.25269784911765092 -0.34699406353441858 0 -0.2452998416640946 -0.36477673389921211 0 -0.27601211753965582 -0.35313222279033191 0 -0.25743129914736268 -0.33865829826532268 0 -0.27601211753965582 -0.35313222279033191 0 -0.27044436538280059 -0.34111632069956299 0 -0.25743129914736268 -0.33865829826532268 0 -0.27601211753965582 -0.35313222279033191 0 -0.27044436538280059 -0.34111632069956299 0 -0.28440521569258082 -0.34149228361744682 0 -0.27621603835147168 -0.33027839755104138 0 -0.27044436538280059 -0.34111632069956299 0 -0.28440521569258082 -0.34149228361744682 0 -0.27621603835147168 -0.33027839755104138 0 -0.26858322842119509 -0.33433735121453573 0 -0.26421331744216298 -0.32943061110636401 0 -0.27621603835147168 -0.33027839755104138 0 -0.26858322842119509 -0.33433735121453573 0 -0.27044436538280059 -0.34111632069956299 0 -0.26858322842119509 -0.33433735121453573 0 -0.27044436538280059 -0.34111632069956299 0 -0.26348614366539269 -0.33464536090729041 0 -0.25269784911765092 -0.34699406353441858 0 -0.2601150759189611 -0.3291651954159735 0 -0.25269784911765092 -0.34699406353441858 0 -0.2601150759189611 -0.3291651954159735 0 -0.25743129914736268 -0.33865829826532268 0 -0.27044436538280059 -0.34111632069956299 0 -0.26348614366539269 -0.33464536090729041 0 -0.25743129914736268 -0.33865829826532268 0 -0.26348614366539269 -0.33464536090729041 0 -0.2601150759189611 -0.3291651954159735 0 -0.25743129914736268 -0.33865829826532268 0 -0.26858322842119509 -0.33433735121453573 0 -0.26348614366539269 -0.33464536090729041 0 -0.26421331744216298 -0.32943061110636401 0 -0.26348614366539269 -0.33464536090729041 0 -0.26421331744216298 -0.32943061110636401 0 -0.2601150759189611 -0.3291651954159735 0 -0.25993101682886932 -0.31889206187407287 0 -0.25469452373499762 -0.30722313484128749 0 -0.2494260049788683 -0.31746489113439402 0 -0.2601150759189611 -0.3291651954159735 0 -0.25993101682886932 -0.31889206187407287 0 -0.2494260049788683 -0.31746489113439402 0 -0.26421331744216298 -0.32943061110636401 0 -0.2601150759189611 -0.3291651954159735 0 -0.25993101682886932 -0.31889206187407287 0 -0.26421331744216298 -0.32943061110636401 0 -0.25993101682886932 -0.31889206187407287 0 -0.27321460887603632 -0.30942632982525498 0 -0.27621603835147168 -0.33027839755104138 0 -0.28908082640096788 -0.32638960257967248 0 -0.27321460887603632 -0.30942632982525498 0 -0.26421331744216298 -0.32943061110636401 0 -0.27321460887603632 -0.30942632982525498 0 -0.28908082640096788 -0.32638960257967248 0 -0.27321460887603632 -0.30942632982525498 0 -0.27621603835147168 -0.33027839755104138 0 -0.26421331744216298 -0.32943061110636401 0 -0.27321460887603632 -0.30942632982525498 0 -0.28908082640096788 -0.32638960257967248 0 -0.29608772242085762 -0.30837888524759871 0 -0.27321460887603632 -0.30942632982525498 0 -0.28908082640096788 -0.32638960257967248 0 -0.28440521569258082 -0.34149228361744682 0 -0.304947043925899 -0.34335287533409059 0 -0.27621603835147168 -0.33027839755104138 0 -0.28908082640096788 -0.32638960257967248 0 -0.28440521569258082 -0.34149228361744682 0 -0.28908082640096788 -0.32638960257967248 0 -0.304947043925899 -0.34335287533409059 0 -0.32074380139974629 -0.33343701228721029 0 -0.304947043925899 -0.34335287533409059 0 -0.30629799224095122 -0.32640742927921629 0 -0.28908082640096788 -0.32638960257967248 0 -0.304947043925899 -0.34335287533409059 0 -0.30629799224095122 -0.32640742927921629 0 -0.30629799224095122 -0.32640742927921629 0 -0.3116392313269683 -0.31227800665128408 0 -0.29608772242085762 -0.30837888524759871 0 -0.28908082640096788 -0.32638960257967248 0 -0.30629799224095122 -0.32640742927921629 0 -0.29608772242085762 -0.30837888524759871 0 -0.30878428388507118 -0.30170417431472779 0 -0.30257535950331932 -0.29121923704559499 0 -0.29608772242085762 -0.30837888524759871 0 -0.3116392313269683 -0.31227800665128408 0 -0.30878428388507118 -0.30170417431472779 0 -0.29608772242085762 -0.30837888524759871 0 -0.31511343508082401 -0.27781322935613839 0 -0.31615320843671613 -0.29356321322440693 0 -0.30257535950331932 -0.29121923704559499 0 -0.31615320843671613 -0.29356321322440693 0 -0.30878428388507118 -0.30170417431472779 0 -0.30257535950331932 -0.29121923704559499 0 -0.31511343508082401 -0.27781322935613839 0 -0.30257535950331932 -0.29121923704559499 0 -0.30186967514470631 -0.27796386812733742 0 -0.30257535950331932 -0.29121923704559499 0 -0.28167541002104313 -0.29062322282537112 0 -0.29608772242085762 -0.30837888524759871 0 -0.30257535950331932 -0.29121923704559499 0 -0.28167541002104313 -0.29062322282537112 0 -0.30186967514470631 -0.27796386812733742 0 -0.28167541002104313 -0.29062322282537112 0 -0.29608772242085762 -0.30837888524759871 0 -0.27321460887603632 -0.30942632982525498 0 -0.28167541002104313 -0.29062322282537112 0 -0.27321460887603632 -0.30942632982525498 0 -0.28167541002104313 -0.29062322282537112 0 -0.27321460887603632 -0.30942632982525498 0 -0.25754389589834492 -0.29267207960278718 0 -0.27321460887603632 -0.30942632982525498 0 -0.25469452373499762 -0.30722313484128749 0 -0.25754389589834492 -0.29267207960278718 0 -0.27321460887603632 -0.30942632982525498 0 -0.25754389589834492 -0.29267207960278718 0 -0.25469452373499762 -0.30722313484128749 0 -0.25754389589834492 -0.29267207960278718 0 -0.24072416822125611 -0.30184362229434508 0 -0.25993101682886932 -0.31889206187407287 0 -0.27321460887603632 -0.30942632982525498 0 -0.25469452373499762 -0.30722313484128749 0 -0.28167541002104313 -0.29062322282537112 0 -0.25754389589834492 -0.29267207960278718 0 -0.26609549321717318 -0.27038600033383992 0 -0.28167541002104313 -0.29062322282537112 0 -0.26609549321717318 -0.27038600033383992 0 -0.29013621116605032 -0.27182011582548737 0 -0.25754389589834492 -0.29267207960278718 0 -0.26609549321717318 -0.27038600033383992 0 -0.24718685023563691 -0.27875123027958087 0 -0.26609549321717318 -0.27038600033383992 0 -0.2483490975252734 -0.26098873334868322 0 -0.24718685023563691 -0.27875123027958087 0 -0.26609549321717318 -0.27038600033383992 0 -0.2483490975252734 -0.26098873334868322 0 -0.2582168116042447 -0.2439014490639565 0 -0.26609549321717318 -0.27038600033383992 0 -0.28073519909821221 -0.25162370631188929 0 -0.2582168116042447 -0.2439014490639565 0 -0.26609549321717318 -0.27038600033383992 0 -0.28073519909821221 -0.25162370631188929 0 -0.29013621116605032 -0.27182011582548737 0 -0.28073519909821221 -0.25162370631188929 0 -0.29013621116605032 -0.27182011582548737 0 -0.29859701231105729 -0.25301700882560368 0 -0.29013621116605032 -0.27182011582548737 0 -0.29859701231105729 -0.25301700882560368 0 -0.28167541002104313 -0.29062322282537112 0 -0.29013621116605032 -0.27182011582548737 0 -0.28167541002104313 -0.29062322282537112 0 -0.29013621116605032 -0.27182011582548737 0 -0.30186967514470631 -0.27796386812733742 0 -0.29013621116605032 -0.27182011582548737 0 -0.30186967514470631 -0.27796386812733742 0 -0.30798481169360081 -0.26465381523239789 0 -0.31511343508082401 -0.27781322935613839 0 -0.30186967514470631 -0.27796386812733742 0 -0.30798481169360081 -0.26465381523239789 0 -0.29013621116605032 -0.27182011582548737 0 -0.30798481169360081 -0.26465381523239789 0 -0.29859701231105729 -0.25301700882560368 0 -0.30798481169360081 -0.26465381523239789 0 -0.29859701231105729 -0.25301700882560368 0 -0.31421725341188372 -0.24977587129631751 0 -0.33796228302189513 -0.4595255727132167 0 -0.33234589271538922 -0.44480996408757179 0 -0.32640026466812011 -0.46081896178250181 0 -0.33796228302189513 -0.4595255727132167 0 -0.33234589271538922 -0.44480996408757179 0 -0.35319602351827412 -0.45776170704885039 0 -0.33796228302189513 -0.4595255727132167 0 -0.32640026466812011 -0.46081896178250181 0 -0.33318196746883988 -0.47121638454265508 0 -0.33796228302189513 -0.4595255727132167 0 -0.33318196746883988 -0.47121638454265508 0 -0.34642386304625039 -0.46572223054776302 0 -0.33234589271538922 -0.44480996408757179 0 -0.35319602351827412 -0.45776170704885039 0 -0.34417399017822298 -0.44321594322297297 0 -0.33234589271538922 -0.44480996408757179 0 -0.35319602351827412 -0.45776170704885039 0 -0.33234589271538922 -0.44480996408757179 0 -0.34417399017822298 -0.44321594322297297 0 -0.3357600199570368 -0.42926052953436999 0 -0.33234589271538922 -0.44480996408757179 0 -0.3114957619125025 -0.43185822112629579 0 -0.33234589271538922 -0.44480996408757179 0 -0.31256905993156642 -0.45599936109409522 0 -0.3094409967240645 -0.4445248742670016 0 -0.33234589271538922 -0.44480996408757179 0 -0.3114957619125025 -0.43185822112629579 0 -0.3094409967240645 -0.4445248742670016 0 -0.31256905993156642 -0.45599936109409522 0 -0.32640026466812011 -0.46081896178250181 0 -0.31594212020290968 -0.47254352647497072 0 -0.32640026466812011 -0.46081896178250181 0 -0.31594212020290968 -0.47254352647497072 0 -0.33318196746883988 -0.47121638454265508 0 -0.33234589271538922 -0.44480996408757179 0 -0.31256905993156642 -0.45599936109409522 0 -0.32640026466812011 -0.46081896178250181 0 -0.31594212020290968 -0.47254352647497072 0 -0.32571643119753041 -0.48341426386358383 0 -0.33318196746883988 -0.47121638454265508 0 -0.31594212020290968 -0.47254352647497072 0 -0.32571643119753041 -0.48341426386358383 0 -0.3142379471820072 -0.49087834217350051 0 -0.32571643119753041 -0.48341426386358383 0 -0.3142379471820072 -0.49087834217350051 0 -0.33008082446145748 -0.5 0 -0.3142379471820072 -0.49087834217350051 0 -0.33008082446145748 -0.5 0 -0.30187341860680589 -0.5 0 -0.33008082446145748 -0.5 0 -0.33835912005968188 -0.48593346247900621 0 -0.35828823031610901 -0.5 0 -0.32571643119753041 -0.48341426386358383 0 -0.33008082446145748 -0.5 0 -0.33835912005968188 -0.48593346247900621 0 -0.33835912005968188 -0.48593346247900621 0 -0.33318196746883988 -0.47121638454265508 0 -0.35033712925844102 -0.47766396546025452 0 -0.33318196746883988 -0.47121638454265508 0 -0.35033712925844102 -0.47766396546025452 0 -0.34642386304625039 -0.46572223054776302 0 -0.32571643119753041 -0.48341426386358383 0 -0.33835912005968188 -0.48593346247900621 0 -0.33318196746883988 -0.47121638454265508 0 -0.35033712925844102 -0.47766396546025452 0 -0.36650464836053492 -0.47758333459014829 0 -0.36063794808603339 -0.46630538924086617 0 -0.35033712925844102 -0.47766396546025452 0 -0.36063794808603339 -0.46630538924086617 0 -0.34642386304625039 -0.46572223054776302 0 -0.33835912005968188 -0.48593346247900621 0 -0.35033712925844102 -0.47766396546025452 0 -0.35828823031610901 -0.5 0 -0.35033712925844102 -0.47766396546025452 0 -0.35828823031610901 -0.5 0 -0.36650464836053492 -0.47758333459014829 0 -0.38649563617076049 -0.5 0 -0.35828823031610901 -0.5 0 -0.36650464836053492 -0.47758333459014829 0 -0.36650464836053492 -0.47758333459014829 0 -0.3749125057523493 -0.4641870694620962 0 -0.36063794808603339 -0.46630538924086617 0 -0.38257104150817378 -0.44558539909593659 0 -0.3749125057523493 -0.4641870694620962 0 -0.36138234587818158 -0.45426427734382602 0 -0.3749125057523493 -0.4641870694620962 0 -0.36138234587818158 -0.45426427734382602 0 -0.36063794808603339 -0.46630538924086617 0 -0.36063794808603339 -0.46630538924086617 0 -0.35319602351827412 -0.45776170704885039 0 -0.34642386304625039 -0.46572223054776302 0 -0.36138234587818158 -0.45426427734382602 0 -0.35319602351827412 -0.45776170704885039 0 -0.35413130606104948 -0.44909707738868448 0 -0.36138234587818158 -0.45426427734382602 0 -0.36063794808603339 -0.46630538924086617 0 -0.35319602351827412 -0.45776170704885039 0 -0.33796228302189513 -0.4595255727132167 0 -0.35319602351827412 -0.45776170704885039 0 -0.34642386304625039 -0.46572223054776302 0 -0.34917789899954887 -0.43960621791601218 0 -0.34417399017822298 -0.44321594322297297 0 -0.3478317041277888 -0.43428891422125909 0 -0.34417399017822298 -0.44321594322297297 0 -0.35413130606104948 -0.44909707738868448 0 -0.35160182111049931 -0.44318126090920129 0 -0.34917789899954887 -0.43960621791601218 0 -0.34417399017822298 -0.44321594322297297 0 -0.35160182111049931 -0.44318126090920129 0 -0.34917789899954887 -0.43960621791601218 0 -0.35160182111049931 -0.44318126090920129 0 -0.35310408058168441 -0.43773875331061518 0 -0.35319602351827412 -0.45776170704885039 0 -0.34417399017822298 -0.44321594322297297 0 -0.35413130606104948 -0.44909707738868448 0 -0.36138234587818158 -0.45426427734382602 0 -0.35413130606104948 -0.44909707738868448 0 -0.3593008871480341 -0.44528990622411457 0 -0.35413130606104948 -0.44909707738868448 0 -0.35597289875446148 -0.442541016596669 0 -0.3593008871480341 -0.44528990622411457 0 -0.35597289875446148 -0.442541016596669 0 -0.3593008871480341 -0.44528990622411457 0 -0.35811375488379049 -0.43887755417772267 0 -0.35413130606104948 -0.44909707738868448 0 -0.35597289875446148 -0.442541016596669 0 -0.35160182111049931 -0.44318126090920129 0 -0.35597289875446148 -0.442541016596669 0 -0.35160182111049931 -0.44318126090920129 0 -0.35310408058168441 -0.43773875331061518 0 -0.35597289875446148 -0.442541016596669 0 -0.35310408058168441 -0.43773875331061518 0 -0.35811375488379049 -0.43887755417772267 0 -0.3593008871480341 -0.44528990622411457 0 -0.35811375488379049 -0.43887755417772267 0 -0.36466736862266619 -0.43929361107495862 0 -0.38257104150817378 -0.44558539909593659 0 -0.36138234587818158 -0.45426427734382602 0 -0.36466736862266619 -0.43929361107495862 0 -0.38257104150817378 -0.44558539909593659 0 -0.36138234587818158 -0.45426427734382602 0 -0.36138234587818158 -0.45426427734382602 0 -0.3593008871480341 -0.44528990622411457 0 -0.36466736862266619 -0.43929361107495862 0 -0.37857274293149029 -0.42876471734549271 0 -0.37441041966644201 -0.41853044649732968 0 -0.35538489801315631 -0.42903325471815951 0 -0.37857274293149029 -0.42876471734549271 0 -0.36466736862266619 -0.43929361107495862 0 -0.35538489801315631 -0.42903325471815951 0 -0.37857274293149029 -0.42876471734549271 0 -0.35538489801315631 -0.42903325471815951 0 -0.35811375488379049 -0.43887755417772267 0 -0.36466736862266619 -0.43929361107495862 0 -0.35620302754573391 -0.43383251126704991 0 -0.34839752669874718 -0.41300385642212029 0 -0.37209094330423159 -0.40089808531996213 0 -0.37441041966644201 -0.41853044649732968 0 -0.36549953895739912 -0.41199887396496521 0 -0.35538489801315631 -0.42903325471815951 0 -0.38249496913699632 -0.41100015469591239 0 -0.36549953895739912 -0.41199887396496521 0 -0.37602613074463359 -0.40570926791912437 0 -0.38249496913699632 -0.41100015469591239 0 -0.36549953895739912 -0.41199887396496521 0 -0.38249496913699632 -0.41100015469591239 0 -0.37441041966644201 -0.41853044649732968 0 -0.36549953895739912 -0.41199887396496521 0 -0.36549953895739912 -0.41199887396496521 0 -0.35538489801315631 -0.42903325471815951 0 -0.36549953895739912 -0.41199887396496521 0 -0.34839752669874718 -0.41300385642212029 0 -0.37209094330423159 -0.40089808531996213 0 -0.36549953895739912 -0.41199887396496521 0 -0.37209094330423159 -0.40089808531996213 0 -0.36549953895739912 -0.41199887396496521 0 -0.34839752669874718 -0.41300385642212029 0 -0.35538489801315631 -0.42903325471815951 0 -0.36549953895739912 -0.41199887396496521 0 -0.34839752669874718 -0.41300385642212029 0 -0.34839752669874718 -0.41300385642212029 0 -0.35538489801315631 -0.42903325471815951 0 -0.3357600199570368 -0.42926052953436999 0 -0.3478317041277888 -0.43428891422125909 0 -0.35538489801315631 -0.42903325471815951 0 -0.3357600199570368 -0.42926052953436999 0 -0.35538489801315631 -0.42903325471815951 0 -0.3357600199570368 -0.42926052953436999 0 -0.34917789899954887 -0.43960621791601218 0 -0.35310408058168441 -0.43773875331061518 0 -0.3478317041277888 -0.43428891422125909 0 -0.35310408058168441 -0.43773875331061518 0 -0.3478317041277888 -0.43428891422125909 0 -0.35306161513742162 -0.43384008959340059 0 -0.3478317041277888 -0.43428891422125909 0 -0.35306161513742162 -0.43384008959340059 0 -0.35538489801315631 -0.42903325471815951 0 -0.36466736862266619 -0.43929361107495862 0 -0.35620302754573391 -0.43383251126704991 0 -0.35538489801315631 -0.42903325471815951 0 -0.35306161513742162 -0.43384008959340059 0 -0.35620302754573391 -0.43383251126704991 0 -0.35538489801315631 -0.42903325471815951 0 -0.35310408058168441 -0.43773875331061518 0 -0.35306161513742162 -0.43384008959340059 0 -0.35620302754573391 -0.43383251126704991 0 -0.35310408058168441 -0.43773875331061518 0 -0.35811375488379049 -0.43887755417772267 0 -0.35620302754573391 -0.43383251126704991 0 -0.38353069879127127 -0.38163203803623119 0 -0.36346481754360999 -0.38175981779097429 0 -0.36791003929668897 -0.37531597356073781 0 -0.38353069879127127 -0.38163203803623119 0 -0.36346481754360999 -0.38175981779097429 0 -0.35160698284412462 -0.37014915498247181 0 -0.36346481754360999 -0.38175981779097429 0 -0.36791003929668897 -0.37531597356073781 0 -0.37610551335983561 -0.39413702328477918 0 -0.38353069879127127 -0.38163203803623119 0 -0.36346481754360999 -0.38175981779097429 0 -0.37610551335983561 -0.39413702328477918 0 -0.36346481754360999 -0.38175981779097429 0 -0.37610551335983561 -0.39413702328477918 0 -0.36346481754360999 -0.38175981779097429 0 -0.36560529781313122 -0.39247463880062672 0 -0.36346481754360999 -0.38175981779097429 0 -0.36560529781313122 -0.39247463880062672 0 -0.35703052239811178 -0.39769881565512172 0 -0.36560529781313122 -0.39247463880062672 0 -0.37209094330423159 -0.40089808531996213 0 -0.35703052239811178 -0.39769881565512172 0 -0.37610551335983561 -0.39413702328477918 0 -0.36560529781313122 -0.39247463880062672 0 -0.37209094330423159 -0.40089808531996213 0 -0.37610551335983561 -0.39413702328477918 0 -0.37209094330423159 -0.40089808531996213 0 -0.37602613074463359 -0.40570926791912437 0 -0.36549953895739912 -0.41199887396496521 0 -0.37209094330423159 -0.40089808531996213 0 -0.37602613074463359 -0.40570926791912437 0 -0.37629487057870992 -0.40149067916431569 0 -0.37209094330423159 -0.40089808531996213 0 -0.34839752669874718 -0.41300385642212029 0 -0.37209094330423159 -0.40089808531996213 0 -0.35703052239811178 -0.39769881565512172 0 -0.34839752669874718 -0.41300385642212029 0 -0.3475034212371978 -0.3977809036938752 0 -0.34022546423947331 -0.40183860272453797 0 -0.34839752669874718 -0.41300385642212029 0 -0.3475034212371978 -0.3977809036938752 0 -0.35703052239811178 -0.39769881565512172 0 -0.3475034212371978 -0.3977809036938752 0 -0.35703052239811178 -0.39769881565512172 0 -0.34623045780510991 -0.38749079344634257 0 -0.3475034212371978 -0.3977809036938752 0 -0.34623045780510991 -0.38749079344634257 0 -0.34159335278245839 -0.39476168625962771 0 -0.36346481754360999 -0.38175981779097429 0 -0.35703052239811178 -0.39769881565512172 0 -0.34623045780510991 -0.38749079344634257 0 -0.36346481754360999 -0.38175981779097429 0 -0.3473193197300139 -0.3757558619871843 0 -0.34100389918575219 -0.38190284916864559 0 -0.35160698284412462 -0.37014915498247181 0 -0.36346481754360999 -0.38175981779097429 0 -0.3473193197300139 -0.3757558619871843 0 -0.36346481754360999 -0.38175981779097429 0 -0.34100389918575219 -0.38190284916864559 0 -0.36346481754360999 -0.38175981779097429 0 -0.34623045780510991 -0.38749079344634257 0 -0.34100389918575219 -0.38190284916864559 0 -0.35160698284412462 -0.37014915498247181 0 -0.36346481754360999 -0.38175981779097429 0 -0.32440986188565729 -0.37270080156259489 0 -0.33318997219566882 -0.38195260834254191 0 -0.33667947897576161 -0.37727942084292682 0 -0.33318997219566882 -0.38195260834254191 0 -0.33667947897576161 -0.37727942084292682 0 -0.33318997219566882 -0.38195260834254191 0 -0.33667947897576161 -0.37727942084292682 0 -0.34100389918575219 -0.38190284916864559 0 -0.33318997219566882 -0.38195260834254191 0 -0.34100389918575219 -0.38190284916864559 0 -0.3473193197300139 -0.3757558619871843 0 -0.33667947897576161 -0.37727942084292682 0 -0.34100389918575219 -0.38190284916864559 0 -0.33667947897576161 -0.37727942084292682 0 -0.34100389918575219 -0.38190284916864559 0 -0.34623045780510991 -0.38749079344634257 0 -0.34100389918575219 -0.38190284916864559 0 -0.33841102596855821 -0.38947760426078792 0 -0.34623045780510991 -0.38749079344634257 0 -0.33841102596855821 -0.38947760426078792 0 -0.34159335278245839 -0.39476168625962771 0 -0.33318997219566882 -0.38195260834254191 0 -0.34100389918575219 -0.38190284916864559 0 -0.33841102596855821 -0.38947760426078792 0 -0.34623045780510991 -0.38749079344634257 0 -0.34100389918575219 -0.38190284916864559 0 -0.33318997219566882 -0.38195260834254191 0 -0.33841102596855821 -0.38947760426078792 0 -0.33274337939295218 -0.39158473010557698 0 -0.33318997219566882 -0.38195260834254191 0 -0.32576874152179608 -0.39189120557203078 0 -0.33318997219566882 -0.38195260834254191 0 -0.33274337939295218 -0.39158473010557698 0 -0.32576874152179608 -0.39189120557203078 0 -0.32912841244855839 -0.39450829284968242 0 -0.33559639466195301 -0.39722052717259471 0 -0.32788006366677641 -0.40250098545199881 0 -0.32912841244855839 -0.39450829284968242 0 -0.33274337939295218 -0.39158473010557698 0 -0.32576874152179608 -0.39189120557203078 0 -0.32912841244855839 -0.39450829284968242 0 -0.33559639466195301 -0.39722052717259471 0 -0.33274337939295218 -0.39158473010557698 0 -0.33841102596855821 -0.38947760426078792 0 -0.33559639466195301 -0.39722052717259471 0 -0.33274337939295218 -0.39158473010557698 0 -0.33841102596855821 -0.38947760426078792 0 -0.33559639466195301 -0.39722052717259471 0 -0.34159335278245839 -0.39476168625962771 0 -0.3475034212371978 -0.3977809036938752 0 -0.34159335278245839 -0.39476168625962771 0 -0.34022546423947331 -0.40183860272453797 0 -0.33559639466195301 -0.39722052717259471 0 -0.34159335278245839 -0.39476168625962771 0 -0.34022546423947331 -0.40183860272453797 0 -0.33559639466195301 -0.39722052717259471 0 -0.34022546423947331 -0.40183860272453797 0 -0.32788006366677641 -0.40250098545199881 0 -0.34022546423947331 -0.40183860272453797 0 -0.32788006366677641 -0.40250098545199881 0 -0.32831963194254171 -0.41418371360508938 0 -0.32788006366677641 -0.40250098545199881 0 -0.32576874152179608 -0.39189120557203078 0 -0.3082417371863363 -0.41536357078805991 0 -0.32576874152179608 -0.39189120557203078 0 -0.3082417371863363 -0.41536357078805991 0 -0.31067345205079122 -0.40297304657430971 0 -0.32576874152179608 -0.39189120557203078 0 -0.3082417371863363 -0.41536357078805991 0 -0.32576874152179608 -0.39189120557203078 0 -0.31035600328023122 -0.39454309529492188 0 -0.31067345205079122 -0.40297304657430971 0 -0.32912841244855839 -0.39450829284968242 0 -0.32788006366677641 -0.40250098545199881 0 -0.32576874152179608 -0.39189120557203078 0 -0.32912841244855839 -0.39450829284968242 0 -0.32576874152179608 -0.39189120557203078 0 -0.33318997219566882 -0.38195260834254191 0 -0.31317375432424149 -0.38208007184035081 0 -0.32440986188565729 -0.37270080156259489 0 -0.33318997219566882 -0.38195260834254191 0 -0.31317375432424149 -0.38208007184035081 0 -0.33318997219566882 -0.38195260834254191 0 -0.32576874152179608 -0.39189120557203078 0 -0.31317375432424149 -0.38208007184035081 0 -0.32576874152179608 -0.39189120557203078 0 -0.31317375432424149 -0.38208007184035081 0 -0.31035600328023122 -0.39454309529492188 0 -0.32576874152179608 -0.39189120557203078 0 -0.31317375432424149 -0.38208007184035081 0 -0.34417399017822298 -0.44321594322297297 0 -0.3478317041277888 -0.43428891422125909 0 -0.3357600199570368 -0.42926052953436999 0 -0.34839752669874718 -0.41300385642212029 0 -0.34022546423947331 -0.40183860272453797 0 -0.32831963194254171 -0.41418371360508938 0 -0.34839752669874718 -0.41300385642212029 0 -0.33226633429983238 -0.42124583038635088 0 -0.34839752669874718 -0.41300385642212029 0 -0.3357600199570368 -0.42926052953436999 0 -0.33226633429983238 -0.42124583038635088 0 -0.34839752669874718 -0.41300385642212029 0 -0.32831963194254171 -0.41418371360508938 0 -0.33226633429983238 -0.42124583038635088 0 -0.34839752669874718 -0.41300385642212029 0 -0.32831963194254171 -0.41418371360508938 0 -0.32831963194254171 -0.41418371360508938 0 -0.33226633429983238 -0.42124583038635088 0 -0.32271744639311822 -0.42156188657798022 0 -0.32788006366677641 -0.40250098545199881 0 -0.32831963194254171 -0.41418371360508938 0 -0.3082417371863363 -0.41536357078805991 0 -0.32831963194254171 -0.41418371360508938 0 -0.3142906732686378 -0.42168422233663161 0 -0.3082417371863363 -0.41536357078805991 0 -0.32831963194254171 -0.41418371360508938 0 -0.3082417371863363 -0.41536357078805991 0 -0.32831963194254171 -0.41418371360508938 0 -0.32271744639311822 -0.42156188657798022 0 -0.3142906732686378 -0.42168422233663161 0 -0.33234589271538922 -0.44480996408757179 0 -0.31613514190091718 -0.42948780435058093 0 -0.3114957619125025 -0.43185822112629579 0 -0.33234589271538922 -0.44480996408757179 0 -0.3357600199570368 -0.42926052953436999 0 -0.31613514190091718 -0.42948780435058093 0 -0.3142906732686378 -0.42168422233663161 0 -0.31613514190091718 -0.42948780435058093 0 -0.30783454039896002 -0.42958393323736038 0 -0.32271744639311822 -0.42156188657798022 0 -0.3142906732686378 -0.42168422233663161 0 -0.31613514190091718 -0.42948780435058093 0 -0.3357600199570368 -0.42926052953436999 0 -0.31613514190091718 -0.42948780435058093 0 -0.33226633429983238 -0.42124583038635088 0 -0.32271744639311822 -0.42156188657798022 0 -0.31613514190091718 -0.42948780435058093 0 -0.3357600199570368 -0.42926052953436999 0 -0.33226633429983238 -0.42124583038635088 0 -0.31613514190091718 -0.42948780435058093 0 -0.33226633429983238 -0.42124583038635088 0 -0.31613514190091718 -0.42948780435058093 0 -0.31613514190091718 -0.42948780435058093 0 -0.3114957619125025 -0.43185822112629579 0 -0.3114957619125025 -0.43185822112629579 0 -0.30783454039896002 -0.42958393323736038 0 -0.29634270858520939 -0.43960043062412468 0 -0.31613514190091718 -0.42948780435058093 0 -0.3114957619125025 -0.43185822112629579 0 -0.30783454039896002 -0.42958393323736038 0 -0.30331343782522491 -0.42196360581309772 0 -0.30783454039896002 -0.42958393323736038 0 -0.29157272882734891 -0.41634310820889481 0 -0.3114957619125025 -0.43185822112629579 0 -0.30783454039896002 -0.42958393323736038 0 -0.3114957619125025 -0.43185822112629579 0 -0.29634270858520939 -0.43960043062412468 0 -0.31613514190091718 -0.42948780435058093 0 -0.30783454039896002 -0.42958393323736038 0 -0.3142906732686378 -0.42168422233663161 0 -0.30331343782522491 -0.42196360581309772 0 -0.30783454039896002 -0.42958393323736038 0 -0.3142906732686378 -0.42168422233663161 0 -0.30331343782522491 -0.42196360581309772 0 -0.3082417371863363 -0.41536357078805991 0 -0.3082417371863363 -0.41536357078805991 0 -0.29157272882734891 -0.41634310820889481 0 -0.30331343782522491 -0.42196360581309772 0 -0.3082417371863363 -0.41536357078805991 0 -0.29157272882734891 -0.41634310820889481 0 -0.3082417371863363 -0.41536357078805991 0 -0.30512179815010648 -0.41267440077236472 0 -0.29157272882734891 -0.41634310820889481 0 -0.30331343782522491 -0.42196360581309772 0 -0.3082417371863363 -0.41536357078805991 0 -0.3082417371863363 -0.41536357078805991 0 -0.30512179815010648 -0.41267440077236472 0 -0.31067345205079122 -0.40297304657430971 0 -0.30512179815010648 -0.41267440077236472 0 -0.29157272882734891 -0.41634310820889481 0 -0.29482814950023328 -0.40830219942147938 0 -0.30783454039896002 -0.42958393323736038 0 -0.29157272882734891 -0.41634310820889481 0 -0.28412874470879912 -0.41485830032050902 0 -0.28962387683982849 -0.40671118620829788 0 -0.28412874470879912 -0.41485830032050902 0 -0.27887794756246431 -0.39894882893499961 0 -0.29157272882734891 -0.41634310820889481 0 -0.28962387683982849 -0.40671118620829788 0 -0.29482814950023328 -0.40830219942147938 0 -0.29157272882734891 -0.41634310820889481 0 -0.28962387683982849 -0.40671118620829788 0 -0.28412874470879912 -0.41485830032050902 0 -0.30783454039896002 -0.42958393323736038 0 -0.28525385456372598 -0.42984543912842699 0 -0.30783454039896002 -0.42958393323736038 0 -0.28412874470879912 -0.41485830032050902 0 -0.28525385456372598 -0.42984543912842699 0 -0.30783454039896002 -0.42958393323736038 0 -0.28525385456372598 -0.42984543912842699 0 -0.29634270858520939 -0.43960043062412468 0 -0.30783454039896002 -0.42958393323736038 0 -0.28412874470879912 -0.41485830032050902 0 -0.2945929359319488 -0.36760614731534108 0 -0.31317375432424149 -0.38208007184035081 0 -0.29702017227071648 -0.3821829380303548 0 -0.31317375432424149 -0.38208007184035081 0 -0.29702017227071648 -0.3821829380303548 0 -0.30212301116225498 -0.3917042965809297 0 -0.31317375432424149 -0.38208007184035081 0 -0.29702017227071648 -0.3821829380303548 0 -0.31317375432424149 -0.38208007184035081 0 -0.30212301116225498 -0.3917042965809297 0 -0.31035600328023122 -0.39454309529492188 0 -0.29702017227071648 -0.3821829380303548 0 -0.30212301116225498 -0.3917042965809297 0 -0.29299419418364941 -0.39748010249636018 0 -0.30212301116225498 -0.3917042965809297 0 -0.3038789801154857 -0.40039296044417289 0 -0.29299419418364941 -0.39748010249636018 0 -0.30212301116225498 -0.3917042965809297 0 -0.31035600328023122 -0.39454309529492188 0 -0.3038789801154857 -0.40039296044417289 0 -0.31035600328023122 -0.39454309529492188 0 -0.31067345205079122 -0.40297304657430971 0 -0.3038789801154857 -0.40039296044417289 0 -0.30512179815010648 -0.41267440077236472 0 -0.31067345205079122 -0.40297304657430971 0 -0.3038789801154857 -0.40039296044417289 0 -0.30512179815010648 -0.41267440077236472 0 -0.29482814950023328 -0.40830219942147938 0 -0.29299419418364941 -0.39748010249636018 0 -0.30512179815010648 -0.41267440077236472 0 -0.3038789801154857 -0.40039296044417289 0 -0.29299419418364941 -0.39748010249636018 0 -0.30512179815010648 -0.41267440077236472 0 -0.29299419418364941 -0.39748010249636018 0 -0.29299419418364941 -0.39748010249636018 0 -0.2808665902171914 -0.38228580422035652 0 -0.27887794756246431 -0.39894882893499961 0 -0.28962387683982849 -0.40671118620829788 0 -0.29482814950023328 -0.40830219942147938 0 -0.29299419418364941 -0.39748010249636018 0 -0.28962387683982849 -0.40671118620829788 0 -0.29299419418364941 -0.39748010249636018 0 -0.27887794756246431 -0.39894882893499961 0 -0.2945929359319488 -0.36760614731534108 0 -0.29702017227071648 -0.3821829380303548 0 -0.2808665902171914 -0.38228580422035652 0 -0.29702017227071648 -0.3821829380303548 0 -0.29299419418364941 -0.39748010249636018 0 -0.2808665902171914 -0.38228580422035652 0 -0.29702017227071648 -0.3821829380303548 0 -0.2808665902171914 -0.38228580422035652 0 -0.29299419418364941 -0.39748010249636018 0 -0.2808665902171914 -0.38228580422035652 0 -0.2808665902171914 -0.38228580422035652 0 -0.25938421221386299 -0.38242260424217978 0 -0.2808665902171914 -0.38228580422035652 0 -0.26988792475303891 -0.39094747620029929 0 -0.25938421221386299 -0.38242260424217978 0 -0.26678221966742222 -0.3646399338773868 0 -0.2808665902171914 -0.38228580422035652 0 -0.25938421221386299 -0.38242260424217978 0 -0.2808665902171914 -0.38228580422035652 0 -0.26988792475303891 -0.39094747620029929 0 -0.27887794756246431 -0.39894882893499961 0 -0.26988792475303891 -0.39094747620029929 0 -0.27887794756246431 -0.39894882893499961 0 -0.26042294901863672 -0.40013266740365983 0 -0.28412874470879912 -0.41485830032050902 0 -0.27887794756246431 -0.39894882893499961 0 -0.26042294901863672 -0.40013266740365983 0 -0.26988792475303891 -0.39094747620029929 0 -0.26042294901863672 -0.40013266740365983 0 -0.25938421221386299 -0.38242260424217978 0 -0.26042294901863672 -0.40013266740365983 0 -0.25613810139819221 -0.41434132836670989 0 -0.2431093376423632 -0.40266188506415568 0 -0.26042294901863672 -0.40013266740365983 0 -0.25938421221386299 -0.38242260424217978 0 -0.23671715332847421 -0.38540703448681102 0 -0.28525385456372598 -0.42984543912842699 0 -0.26866387832805422 -0.43084198424433162 0 -0.28118965525791628 -0.44734264012195318 0 -0.28525385456372598 -0.42984543912842699 0 -0.26866387832805422 -0.43084198424433162 0 -0.27009367185483962 -0.41675208124042978 0 -0.28412874470879912 -0.41485830032050902 0 -0.28525385456372598 -0.42984543912842699 0 -0.27009367185483962 -0.41675208124042978 0 -0.28412874470879912 -0.41485830032050902 0 -0.26042294901863672 -0.40013266740365983 0 -0.28412874470879912 -0.41485830032050902 0 -0.26042294901863672 -0.40013266740365983 0 -0.27009367185483962 -0.41675208124042978 0 -0.26866387832805422 -0.43084198424433162 0 -0.27009367185483962 -0.41675208124042978 0 -0.25613810139819221 -0.41434132836670989 0 -0.25613810139819221 -0.41434132836670989 0 -0.25359928648481211 -0.43037401697981981 0 -0.24230037244337599 -0.4175018590364884 0 -0.26042294901863672 -0.40013266740365983 0 -0.27009367185483962 -0.41675208124042978 0 -0.25613810139819221 -0.41434132836670989 0 -0.26866387832805422 -0.43084198424433162 0 -0.25613810139819221 -0.41434132836670989 0 -0.26866387832805422 -0.43084198424433162 0 -0.25613810139819221 -0.41434132836670989 0 -0.25359928648481211 -0.43037401697981981 0 -0.26866387832805422 -0.43084198424433162 0 -0.25359928648481211 -0.43037401697981981 0 -0.2656706707878026 -0.4425776952979022 0 -0.25359928648481211 -0.43037401697981981 0 -0.25354060653463212 -0.44613406553729051 0 -0.2656706707878026 -0.4425776952979022 0 -0.25359928648481211 -0.43037401697981981 0 -0.25354060653463212 -0.44613406553729051 0 -0.2438451496940687 -0.43907002470141299 0 -0.25354060653463212 -0.44613406553729051 0 -0.26694214283005818 -0.45462217802476412 0 -0.2656706707878026 -0.4425776952979022 0 -0.25354060653463212 -0.44613406553729051 0 -0.25269463040220203 -0.46190171592757828 0 -0.26694214283005818 -0.45462217802476412 0 -0.25269463040220203 -0.46190171592757828 0 -0.26694214283005818 -0.45462217802476412 0 -0.27127733714919139 -0.47586075624730118 0 -0.25269463040220203 -0.46190171592757828 0 -0.26694214283005818 -0.45462217802476412 0 -0.26694214283005818 -0.45462217802476412 0 -0.28051910777735523 -0.46464962051151848 0 -0.27127733714919139 -0.47586075624730118 0 -0.26694214283005818 -0.45462217802476412 0 -0.28051910777735523 -0.46464962051151848 0 -0.28118965525791628 -0.44734264012195318 0 -0.26866387832805422 -0.43084198424433162 0 -0.2656706707878026 -0.4425776952979022 0 -0.28118965525791628 -0.44734264012195318 0 -0.26866387832805422 -0.43084198424433162 0 -0.28118965525791628 -0.44734264012195318 0 -0.26694214283005818 -0.45462217802476412 0 -0.2656706707878026 -0.4425776952979022 0 -0.28118965525791628 -0.44734264012195318 0 -0.26694214283005818 -0.45462217802476412 0 -0.28118965525791628 -0.44734264012195318 0 -0.28525385456372598 -0.42984543912842699 0 -0.28118965525791628 -0.44734264012195318 0 -0.29634270858520939 -0.43960043062412468 0 -0.28118965525791628 -0.44734264012195318 0 -0.29634270858520939 -0.43960043062412468 0 -0.28118965525791628 -0.44734264012195318 0 -0.29634270858520939 -0.43960043062412468 0 -0.29945124434374348 -0.45131555945098001 0 -0.28118965525791628 -0.44734264012195318 0 -0.2977138012199616 -0.4691104911477269 0 -0.28118965525791628 -0.44734264012195318 0 -0.29945124434374348 -0.45131555945098001 0 -0.2977138012199616 -0.4691104911477269 0 -0.28051910777735523 -0.46464962051151848 0 -0.28118965525791628 -0.44734264012195318 0 -0.2977138012199616 -0.4691104911477269 0 -0.31256905993156642 -0.45599936109409522 0 -0.29945124434374348 -0.45131555945098001 0 -0.2977138012199616 -0.4691104911477269 0 -0.31256905993156642 -0.45599936109409522 0 -0.31594212020290968 -0.47254352647497072 0 -0.2977138012199616 -0.4691104911477269 0 -0.31256905993156642 -0.45599936109409522 0 -0.3094409967240645 -0.4445248742670016 0 -0.29945124434374348 -0.45131555945098001 0 -0.3114957619125025 -0.43185822112629579 0 -0.29634270858520939 -0.43960043062412468 0 -0.3094409967240645 -0.4445248742670016 0 -0.29634270858520939 -0.43960043062412468 0 -0.3094409967240645 -0.4445248742670016 0 -0.29945124434374348 -0.45131555945098001 0 -0.3142379471820072 -0.49087834217350051 0 -0.29783156266692112 -0.48522413338081982 0 -0.30187341860680589 -0.5 0 -0.3142379471820072 -0.49087834217350051 0 -0.29783156266692112 -0.48522413338081982 0 -0.2977138012199616 -0.4691104911477269 0 -0.31594212020290968 -0.47254352647497072 0 -0.3142379471820072 -0.49087834217350051 0 -0.2977138012199616 -0.4691104911477269 0 -0.3142379471820072 -0.49087834217350051 0 -0.2977138012199616 -0.4691104911477269 0 -0.28051910777735523 -0.46464962051151848 0 -0.2977138012199616 -0.4691104911477269 0 -0.28547260242964922 -0.47631203701584812 0 -0.29783156266692112 -0.48522413338081982 0 -0.2977138012199616 -0.4691104911477269 0 -0.28547260242964922 -0.47631203701584812 0 -0.28547260242964922 -0.47631203701584812 0 -0.28986004389618147 -0.48981979656702318 0 -0.27127733714919139 -0.47586075624730118 0 -0.29783156266692112 -0.48522413338081982 0 -0.28547260242964922 -0.47631203701584812 0 -0.28986004389618147 -0.48981979656702318 0 -0.30187341860680589 -0.5 0 -0.28986004389618147 -0.48981979656702318 0 -0.2736660127521543 -0.5 0 -0.29783156266692112 -0.48522413338081982 0 -0.30187341860680589 -0.5 0 -0.28986004389618147 -0.48981979656702318 0 -0.28986004389618147 -0.48981979656702318 0 -0.2736660127521543 -0.5 0 -0.27127733714919139 -0.47586075624730118 0 -0.2736660127521543 -0.5 0 -0.27127733714919139 -0.47586075624730118 0 -0.25894985238314572 -0.48237709588318323 0 -0.28986004389618147 -0.48981979656702318 0 -0.27127733714919139 -0.47586075624730118 0 -0.28051910777735523 -0.46464962051151848 0 -0.28547260242964922 -0.47631203701584812 0 -0.27127733714919139 -0.47586075624730118 0 -0.25269463040220203 -0.46190171592757828 0 -0.25894985238314572 -0.48237709588318323 0 -0.2452663440960669 -0.48013845744446582 0 -0.25269463040220203 -0.46190171592757828 0 -0.27127733714919139 -0.47586075624730118 0 -0.25269463040220203 -0.46190171592757828 0 -0.27127733714919139 -0.47586075624730118 0 -0.25894985238314572 -0.48237709588318323 0 -0.2736660127521543 -0.5 0 -0.25894985238314572 -0.48237709588318323 0 -0.2518449375161152 -0.49398454979657291 0 -0.2736660127521543 -0.5 0 -0.2518449375161152 -0.49398454979657291 0 -0.24545860689750271 -0.5 0 -0.25894985238314572 -0.48237709588318323 0 -0.2518449375161152 -0.49398454979657291 0 -0.2452663440960669 -0.48013845744446582 0 -0.2518449375161152 -0.49398454979657291 0 -0.2307928657777267 -0.48891641965364391 0 -0.2518449375161152 -0.49398454979657291 0 -0.2452663440960669 -0.48013845744446582 0 -0.2307928657777267 -0.48891641965364391 0 -0.2518449375161152 -0.49398454979657291 0 -0.24545860689750271 -0.5 0 -0.2307928657777267 -0.48891641965364391 0 -0.2452663440960669 -0.48013845744446582 0 -0.23121771222076951 -0.4728750027191454 0 -0.2307928657777267 -0.48891641965364391 0 -0.25269463040220203 -0.46190171592757828 0 -0.2452663440960669 -0.48013845744446582 0 -0.23121771222076951 -0.4728750027191454 0 -0.23121771222076951 -0.4728750027191454 0 -0.2307928657777267 -0.48891641965364391 0 -0.20974079403933829 -0.48384828951071468 0 -0.23121771222076951 -0.4728750027191454 0 -0.2159840481136181 -0.46956363033528908 0 -0.20974079403933829 -0.48384828951071468 0 -0.23121771222076951 -0.4728750027191454 0 -0.20974079403933829 -0.48384828951071468 0 -0.24545860689750271 -0.5 0 -0.2307928657777267 -0.48891641965364391 0 -0.21725120104285109 -0.5 0 -0.2307928657777267 -0.48891641965364391 0 -0.20974079403933829 -0.48384828951071468 0 -0.2307928657777267 -0.48891641965364391 0 -0.21725120104285109 -0.5 0 -0.20974079403933829 -0.48384828951071468 0 -0.25354060653463212 -0.44613406553729051 0 -0.25269463040220203 -0.46190171592757828 0 -0.23721599773282709 -0.450274407782012 0 -0.25354060653463212 -0.44613406553729051 0 -0.2438451496940687 -0.43907002470141299 0 -0.23721599773282709 -0.450274407782012 0 -0.2438451496940687 -0.43907002470141299 0 -0.23721599773282709 -0.450274407782012 0 -0.2347235744381061 -0.43699032632131868 0 -0.25269463040220203 -0.46190171592757828 0 -0.23721599773282709 -0.450274407782012 0 -0.23097902662785419 -0.46071537305467791 0 -0.25269463040220203 -0.46190171592757828 0 -0.23121771222076951 -0.4728750027191454 0 -0.23097902662785419 -0.46071537305467791 0 -0.25269463040220203 -0.46190171592757828 0 -0.23121771222076951 -0.4728750027191454 0 -0.25269463040220203 -0.46190171592757828 0 -0.23721599773282709 -0.450274407782012 0 -0.23097902662785419 -0.46071537305467791 0 -0.22320557245757189 -0.45136192584780271 0 -0.2159840481136181 -0.46956363033528908 0 -0.23121771222076951 -0.4728750027191454 0 -0.23097902662785419 -0.46071537305467791 0 -0.2159840481136181 -0.46956363033528908 0 -0.23721599773282709 -0.450274407782012 0 -0.23097902662785419 -0.46071537305467791 0 -0.22320557245757189 -0.45136192584780271 0 -0.22320557245757189 -0.45136192584780271 0 -0.22173736506345271 -0.43864709963644488 0 -0.21698213822720461 -0.43284430329106749 0 -0.22320557245757189 -0.45136192584780271 0 -0.21698213822720461 -0.43284430329106749 0 -0.23721599773282709 -0.450274407782012 0 -0.22320557245757189 -0.45136192584780271 0 -0.22173736506345271 -0.43864709963644488 0 -0.23721599773282709 -0.450274407782012 0 -0.22173736506345271 -0.43864709963644488 0 -0.23721599773282709 -0.450274407782012 0 -0.22173736506345271 -0.43864709963644488 0 -0.2347235744381061 -0.43699032632131868 0 -0.22320557245757189 -0.45136192584780271 0 -0.20700894554624619 -0.45681697418164519 0 -0.21698213822720461 -0.43284430329106749 0 -0.20700894554624619 -0.45681697418164519 0 -0.19303707249135671 -0.43059430015364047 0 -0.21698213822720461 -0.43284430329106749 0 -0.20700894554624619 -0.45681697418164519 0 -0.21698213822720461 -0.43284430329106749 0 -0.22320557245757189 -0.45136192584780271 0 -0.20700894554624619 -0.45681697418164519 0 -0.2159840481136181 -0.46956363033528908 0 -0.20700894554624619 -0.45681697418164519 0 -0.19703575286528649 -0.48078964507222238 0 -0.18502875603026461 -0.46494473610867582 0 -0.20700894554624619 -0.45681697418164519 0 -0.18502875603026461 -0.46494473610867582 0 -0.18271469687031749 -0.44845454828740711 0 -0.20700894554624619 -0.45681697418164519 0 -0.18271469687031749 -0.44845454828740711 0 -0.19303707249135671 -0.43059430015364047 0 -0.21725120104285109 -0.5 0 -0.20974079403933829 -0.48384828951071468 0 -0.19199021277984149 -0.49291766423347888 0 -0.20700894554624619 -0.45681697418164519 0 -0.2159840481136181 -0.46956363033528908 0 -0.19703575286528649 -0.48078964507222238 0 -0.2159840481136181 -0.46956363033528908 0 -0.20974079403933829 -0.48384828951071468 0 -0.19703575286528649 -0.48078964507222238 0 -0.20974079403933829 -0.48384828951071468 0 -0.19703575286528649 -0.48078964507222238 0 -0.20700894554624619 -0.45681697418164519 0 -0.19703575286528649 -0.48078964507222238 0 -0.21725120104285109 -0.5 0 -0.19199021277984149 -0.49291766423347888 0 -0.18904379518819939 -0.49999999999999578 0 -0.20974079403933829 -0.48384828951071468 0 -0.19703575286528649 -0.48078964507222238 0 -0.19199021277984149 -0.49291766423347888 0 -0.20974079403933829 -0.48384828951071468 0 -0.19199021277984149 -0.49291766423347888 0 -0.19703575286528649 -0.48078964507222238 0 -0.19199021277984149 -0.49291766423347888 0 -0.1806501400470899 -0.48733198327772198 0 -0.19703575286528649 -0.48078964507222238 0 -0.19199021277984149 -0.49291766423347888 0 -0.19199021277984149 -0.49291766423347888 0 -0.18904379518819939 -0.49999999999999578 0 -0.19199021277984149 -0.49291766423347888 0 -0.17812866439603481 -0.49999999999999267 0 -0.19199021277984149 -0.49291766423347888 0 -0.18904379518819939 -0.49999999999999578 0 -0.17812866439603481 -0.49999999999999267 0 -0.19199021277984149 -0.49291766423347888 0 -0.1806501400470899 -0.48733198327772198 0 -0.17812866439603481 -0.49999999999999267 0 -0.1806501400470899 -0.48733198327772198 0 -0.17812866439603481 -0.49999999999999267 0 -0.16526627315450881 -0.48681942287300078 0 -0.17812866439603481 -0.49999999999999267 0 -0.16526627315450881 -0.48681942287300078 0 -0.15384562597277671 -0.5 0 -0.16526627315450881 -0.48681942287300078 0 -0.15867829181438209 -0.47351517086903511 0 -0.14808882950896779 -0.48760950596642599 0 -0.16526627315450881 -0.48681942287300078 0 -0.15867829181438209 -0.47351517086903511 0 -0.17205258504960549 -0.47477513270279981 0 -0.15867829181438209 -0.47351517086903511 0 -0.17205258504960549 -0.47477513270279981 0 -0.1689107827671488 -0.46150338438528649 0 -0.19703575286528649 -0.48078964507222238 0 -0.17205258504960549 -0.47477513270279981 0 -0.19703575286528649 -0.48078964507222238 0 -0.17205258504960549 -0.47477513270279981 0 -0.18502875603026461 -0.46494473610867582 0 -0.19703575286528649 -0.48078964507222238 0 -0.1806501400470899 -0.48733198327772198 0 -0.17205258504960549 -0.47477513270279981 0 -0.1806501400470899 -0.48733198327772198 0 -0.16526627315450881 -0.48681942287300078 0 -0.17205258504960549 -0.47477513270279981 0 -0.17205258504960549 -0.47477513270279981 0 -0.18502875603026461 -0.46494473610867582 0 -0.1689107827671488 -0.46150338438528649 0 -0.18502875603026461 -0.46494473610867582 0 -0.18271469687031749 -0.44845454828740711 0 -0.1689107827671488 -0.46150338438528649 0 -0.18271469687031749 -0.44845454828740711 0 -0.16138963394859521 -0.44868252298987232 0 -0.1689107827671488 -0.46150338438528649 0 -0.18271469687031749 -0.44845454828740711 0 -0.16138963394859521 -0.44868252298987232 0 -0.16224644553901921 -0.42839564420087312 0 -0.16138963394859521 -0.44868252298987232 0 -0.1689107827671488 -0.46150338438528649 0 -0.15360073288972831 -0.45864819535392959 0 -0.15867829181438209 -0.47351517086903511 0 -0.1689107827671488 -0.46150338438528649 0 -0.15360073288972831 -0.45864819535392959 0 -0.15867829181438209 -0.47351517086903511 0 -0.14088984691242101 -0.46372891927135518 0 -0.15360073288972831 -0.45864819535392959 0 -0.14088984691242101 -0.46372891927135518 0 -0.15360073288972831 -0.45864819535392959 0 -0.14071409195337639 -0.4434269833400809 0 -0.16138963394859521 -0.44868252298987232 0 -0.15360073288972831 -0.45864819535392959 0 -0.14071409195337639 -0.4434269833400809 0 -0.16138963394859521 -0.44868252298987232 0 -0.14071409195337639 -0.4434269833400809 0 -0.16224644553901921 -0.42839564420087312 0 -0.14071409195337639 -0.4434269833400809 0 -0.11918173836773351 -0.45845832247928869 0 -0.14071409195337639 -0.4434269833400809 0 -0.11918173836773351 -0.45845832247928869 0 -0.1184149235461696 -0.43970471758753887 0 -0.14088984691242101 -0.46372891927135518 0 -0.14071409195337639 -0.4434269833400809 0 -0.11918173836773351 -0.45845832247928869 0 -0.14088984691242101 -0.46372891927135518 0 -0.1272556728232932 -0.47013049556587211 0 -0.11918173836773351 -0.45845832247928869 0 -0.13278436477725561 -0.4823434472460234 0 -0.1272556728232932 -0.47013049556587211 0 -0.1161667412357628 -0.47599129326682099 0 -0.14088984691242101 -0.46372891927135518 0 -0.13278436477725561 -0.4823434472460234 0 -0.1272556728232932 -0.47013049556587211 0 -0.13278436477725561 -0.4823434472460234 0 -0.12956258754951869 -0.5 0 -0.14808882950896779 -0.48760950596642599 0 -0.12956258754951869 -0.5 0 -0.15384562597277671 -0.5 0 -0.14808882950896779 -0.48760950596642599 0 -0.16526627315450881 -0.48681942287300078 0 -0.15384562597277671 -0.5 0 -0.14808882950896779 -0.48760950596642599 0 -0.15867829181438209 -0.47351517086903511 0 -0.14088984691242101 -0.46372891927135518 0 -0.13278436477725561 -0.4823434472460234 0 -0.15867829181438209 -0.47351517086903511 0 -0.13278436477725561 -0.4823434472460234 0 -0.14808882950896779 -0.48760950596642599 0 -0.15867829181438209 -0.47351517086903511 0 -0.13278436477725561 -0.4823434472460234 0 -0.15300746566076209 -0.38310001254620968 0 -0.12942966304821441 -0.38325015625522552 0 -0.14208280055258729 -0.40634727148710198 0 -0.15300746566076209 -0.38310001254620968 0 -0.14208280055258729 -0.40634727148710198 0 -0.1624749046322673 -0.40200193298372783 0 -0.15300746566076209 -0.38310001254620968 0 -0.12942966304821441 -0.38325015625522552 0 -0.15300746566076209 -0.38310001254620968 0 -0.12942966304821441 -0.38325015625522552 0 -0.13644034466196819 -0.36544341997203661 0 -0.12942966304821441 -0.38325015625522552 0 -0.14208280055258729 -0.40634727148710198 0 -0.1246151037146196 -0.40215144471962733 0 -0.13370262722300191 -0.42485153358840111 0 -0.14208280055258729 -0.40634727148710198 0 -0.1246151037146196 -0.40215144471962733 0 -0.14071409195337639 -0.4434269833400809 0 -0.13370262722300191 -0.42485153358840111 0 -0.1184149235461696 -0.43970471758753887 0 -0.14071409195337639 -0.4434269833400809 0 -0.13370262722300191 -0.42485153358840111 0 -0.16224644553901921 -0.42839564420087312 0 -0.14071409195337639 -0.4434269833400809 0 -0.16224644553901921 -0.42839564420087312 0 -0.14208280055258729 -0.40634727148710198 0 -0.16224644553901921 -0.42839564420087312 0 -0.1624749046322673 -0.40200193298372783 0 -0.13370262722300191 -0.42485153358840111 0 -0.14208280055258729 -0.40634727148710198 0 -0.16224644553901921 -0.42839564420087312 0 -0.16224644553901921 -0.42839564420087312 0 -0.180697604208819 -0.40923231675122879 0 -0.1624749046322673 -0.40200193298372783 0 -0.18271469687031749 -0.44845454828740711 0 -0.16224644553901921 -0.42839564420087312 0 -0.19303707249135671 -0.43059430015364047 0 -0.16224644553901921 -0.42839564420087312 0 -0.180697604208819 -0.40923231675122879 0 -0.19303707249135671 -0.43059430015364047 0 -0.180697604208819 -0.40923231675122879 0 -0.1624749046322673 -0.40200193298372783 0 -0.17658526827330981 -0.3829498688371939 0 -0.180697604208819 -0.40923231675122879 0 -0.17658526827330981 -0.3829498688371939 0 -0.19000778267581911 -0.39514046875386671 0 -0.15300746566076209 -0.38310001254620968 0 -0.1624749046322673 -0.40200193298372783 0 -0.17658526827330981 -0.3829498688371939 0 -0.15300746566076209 -0.38310001254620968 0 -0.17658526827330981 -0.3829498688371939 0 -0.17658526827330981 -0.3829498688371939 0 -0.20016307088585741 -0.38279972512817662 0 -0.19000778267581911 -0.39514046875386671 0 -0.17658526827330981 -0.3829498688371939 0 -0.20016307088585741 -0.38279972512817662 0 -0.20016307088585741 -0.38279972512817662 0 -0.19000778267581911 -0.39514046875386671 0 -0.2085726045565329 -0.4078220142096215 0 -0.180697604208819 -0.40923231675122879 0 -0.19000778267581911 -0.39514046875386671 0 -0.2085726045565329 -0.4078220142096215 0 -0.20016307088585741 -0.38279972512817662 0 -0.2085726045565329 -0.4078220142096215 0 -0.20016307088585741 -0.38279972512817662 0 -0.2161772785324636 -0.38269774647594651 0 -0.2085726045565329 -0.4078220142096215 0 -0.2161772785324636 -0.38269774647594651 0 -0.2085726045565329 -0.4078220142096215 0 -0.22410163367487609 -0.3935296463770066 0 -0.20016307088585741 -0.38279972512817662 0 -0.2161772785324636 -0.38269774647594651 0 -0.20016307088585741 -0.38279972512817662 0 -0.2161772785324636 -0.38269774647594651 0 -0.2146411550785581 -0.37365584976636601 0 -0.2161772785324636 -0.38269774647594651 0 -0.22424182443051541 -0.37765757455433779 0 -0.2146411550785581 -0.37365584976636601 0 -0.180697604208819 -0.40923231675122879 0 -0.19303707249135671 -0.43059430015364047 0 -0.2085726045565329 -0.4078220142096215 0 -0.2085726045565329 -0.4078220142096215 0 -0.21698213822720461 -0.43284430329106749 0 -0.2268496457778397 -0.40912566888893942 0 -0.2085726045565329 -0.4078220142096215 0 -0.21698213822720461 -0.43284430329106749 0 -0.19303707249135671 -0.43059430015364047 0 -0.2085726045565329 -0.4078220142096215 0 -0.21698213822720461 -0.43284430329106749 0 -0.21698213822720461 -0.43284430329106749 0 -0.22992583861702739 -0.42769779631454868 0 -0.2268496457778397 -0.40912566888893942 0 -0.22173736506345271 -0.43864709963644488 0 -0.22992583861702739 -0.42769779631454868 0 -0.2347235744381061 -0.43699032632131868 0 -0.22173736506345271 -0.43864709963644488 0 -0.21698213822720461 -0.43284430329106749 0 -0.22992583861702739 -0.42769779631454868 0 -0.22992583861702739 -0.42769779631454868 0 -0.2268496457778397 -0.40912566888893942 0 -0.24230037244337599 -0.4175018590364884 0 -0.21698213822720461 -0.43284430329106749 0 -0.2268496457778397 -0.40912566888893942 0 -0.2268496457778397 -0.40912566888893942 0 -0.24230037244337599 -0.4175018590364884 0 -0.2431093376423632 -0.40266188506415568 0 -0.25613810139819221 -0.41434132836670989 0 -0.24230037244337599 -0.4175018590364884 0 -0.2431093376423632 -0.40266188506415568 0 -0.22992583861702739 -0.42769779631454868 0 -0.24230037244337599 -0.4175018590364884 0 -0.24089352108315501 -0.42926230317217479 0 -0.25359928648481211 -0.43037401697981981 0 -0.24230037244337599 -0.4175018590364884 0 -0.24089352108315501 -0.42926230317217479 0 -0.25359928648481211 -0.43037401697981981 0 -0.2438451496940687 -0.43907002470141299 0 -0.24089352108315501 -0.42926230317217479 0 -0.22992583861702739 -0.42769779631454868 0 -0.24089352108315501 -0.42926230317217479 0 -0.2347235744381061 -0.43699032632131868 0 -0.2438451496940687 -0.43907002470141299 0 -0.24089352108315501 -0.42926230317217479 0 -0.2347235744381061 -0.43699032632131868 0 -0.2161772785324636 -0.38269774647594651 0 -0.23219148617906979 -0.38259576782371391 0 -0.22424182443051541 -0.37765757455433779 0 -0.2161772785324636 -0.38269774647594651 0 -0.23219148617906979 -0.38259576782371391 0 -0.22410163367487609 -0.3935296463770066 0 -0.2161772785324636 -0.38269774647594651 0 -0.23219148617906979 -0.38259576782371391 0 -0.23219148617906979 -0.38259576782371391 0 -0.22410163367487609 -0.3935296463770066 0 -0.23671715332847421 -0.38540703448681102 0 -0.23219148617906979 -0.38259576782371391 0 -0.22424182443051541 -0.37765757455433779 0 -0.23334431644894679 -0.37067442711117121 0 -0.23219148617906979 -0.38259576782371391 0 -0.22424182443051541 -0.37765757455433779 0 -0.2268496457778397 -0.40912566888893942 0 -0.23671715332847421 -0.38540703448681102 0 -0.2268496457778397 -0.40912566888893942 0 -0.22410163367487609 -0.3935296463770066 0 -0.23671715332847421 -0.38540703448681102 0 -0.2085726045565329 -0.4078220142096215 0 -0.2268496457778397 -0.40912566888893942 0 -0.22410163367487609 -0.3935296463770066 0 -0.2268496457778397 -0.40912566888893942 0 -0.2431093376423632 -0.40266188506415568 0 -0.23671715332847421 -0.38540703448681102 0 -0.26042294901863672 -0.40013266740365983 0 -0.2431093376423632 -0.40266188506415568 0 -0.23671715332847421 -0.38540703448681102 0 -0.26042294901863672 -0.40013266740365983 0 -0.23671715332847421 -0.38540703448681102 0 -0.25938421221386299 -0.38242260424217978 0 -0.23671715332847421 -0.38540703448681102 0 -0.23790183421053479 -0.38255940426400398 0 -0.25938421221386299 -0.38242260424217978 0 -0.23790183421053479 -0.38255940426400398 0 -0.25938421221386299 -0.38242260424217978 0 -0.23790183421053479 -0.38255940426400398 0 -0.2452998416640946 -0.36477673389921211 0 -0.23219148617906979 -0.38259576782371391 0 -0.23671715332847421 -0.38540703448681102 0 -0.23790183421053479 -0.38255940426400398 0 -0.23219148617906979 -0.38259576782371391 0 -0.23671715332847421 -0.38540703448681102 0 -0.23671715332847421 -0.38540703448681102 0 -0.23790183421053479 -0.38255940426400398 0 -0.23219148617906979 -0.38259576782371391 0 -0.23790183421053479 -0.38255940426400398 0 -0.23334431644894679 -0.37067442711117121 0 -0.23219148617906979 -0.38259576782371391 0 -0.23790183421053479 -0.38255940426400398 0 -0.2452998416640946 -0.36477673389921211 0 -0.23334431644894679 -0.37067442711117121 0 -0.236612272716479 -0.35196393625907768 0 -0.23790183421053479 -0.38255940426400398 0 -0.2452998416640946 -0.36477673389921211 0 -0.23790183421053479 -0.38255940426400398 0 -0.2452998416640946 -0.36477673389921211 0 -0.23334431644894679 -0.37067442711117121 0 -0.22424182443051541 -0.37765757455433779 0 -0.23334431644894679 -0.37067442711117121 0 -0.2233560944082246 -0.363712965125564 0 -0.23334431644894679 -0.37067442711117121 0 -0.2233560944082246 -0.363712965125564 0 -0.236612272716479 -0.35196393625907768 0 -0.22424182443051541 -0.37765757455433779 0 -0.2233560944082246 -0.363712965125564 0 -0.2146411550785581 -0.37365584976636601 0 -0.2233560944082246 -0.363712965125564 0 -0.22090871978274521 -0.34750939462453567 0 -0.236612272716479 -0.35196393625907768 0 -0.25269784911765092 -0.34699406353441858 0 -0.2452998416640946 -0.36477673389921211 0 -0.25269784911765092 -0.34699406353441858 0 -0.2452998416640946 -0.36477673389921211 0 -0.236612272716479 -0.35196393625907768 0 -0.25269784911765092 -0.34699406353441858 0 -0.2601150759189611 -0.3291651954159735 0 -0.2357068878863986 -0.32570661601735368 0 -0.25269784911765092 -0.34699406353441858 0 -0.236612272716479 -0.35196393625907768 0 -0.2357068878863986 -0.32570661601735368 0 -0.25269784911765092 -0.34699406353441858 0 -0.2357068878863986 -0.32570661601735368 0 -0.2601150759189611 -0.3291651954159735 0 -0.2357068878863986 -0.32570661601735368 0 -0.2494260049788683 -0.31746489113439402 0 -0.2357068878863986 -0.32570661601735368 0 -0.2494260049788683 -0.31746489113439402 0 -0.24072416822125611 -0.30184362229434508 0 -0.2357068878863986 -0.32570661601735368 0 -0.2119173650848751 -0.32804843985645959 0 -0.21871592665514519 -0.30441916850028972 0 -0.2357068878863986 -0.32570661601735368 0 -0.21871592665514519 -0.30441916850028972 0 -0.22090871978274521 -0.34750939462453567 0 -0.236612272716479 -0.35196393625907768 0 -0.2357068878863986 -0.32570661601735368 0 -0.22090871978274521 -0.34750939462453567 0 -0.2357068878863986 -0.32570661601735368 0 -0.2119173650848751 -0.32804843985645959 0 -0.22090871978274521 -0.34750939462453567 0 -0.2119173650848751 -0.32804843985645959 0 -0.20038300345158319 -0.34252625431289602 0 -0.2119173650848751 -0.32804843985645959 0 -0.19064882261902269 -0.32209845877770238 0 -0.21871592665514519 -0.30441916850028972 0 -0.2119173650848751 -0.32804843985645959 0 -0.19064882261902269 -0.32209845877770238 0 -0.20038300345158319 -0.34252625431289602 0 -0.19064882261902269 -0.32209845877770238 0 -0.20038300345158319 -0.34252625431289602 0 -0.1786038551756757 -0.34069824763179102 0 -0.20038300345158319 -0.34252625431289602 0 -0.19095175091145111 -0.35539174743908392 0 -0.20926750713572939 -0.36141123754780358 0 -0.20038300345158319 -0.34252625431289602 0 -0.19095175091145111 -0.35539174743908392 0 -0.1786038551756757 -0.34069824763179102 0 -0.20016307088585741 -0.38279972512817662 0 -0.19095175091145111 -0.35539174743908392 0 -0.20926750713572939 -0.36141123754780358 0 -0.17658526827330981 -0.3829498688371939 0 -0.20016307088585741 -0.38279972512817662 0 -0.19095175091145111 -0.35539174743908392 0 -0.20016307088585741 -0.38279972512817662 0 -0.19095175091145111 -0.35539174743908392 0 -0.20016307088585741 -0.38279972512817662 0 -0.20926750713572939 -0.36141123754780358 0 -0.2146411550785581 -0.37365584976636601 0 -0.2233560944082246 -0.363712965125564 0 -0.20926750713572939 -0.36141123754780358 0 -0.2146411550785581 -0.37365584976636601 0 -0.2233560944082246 -0.363712965125564 0 -0.22090871978274521 -0.34750939462453567 0 -0.20926750713572939 -0.36141123754780358 0 -0.22090871978274521 -0.34750939462453567 0 -0.20038300345158319 -0.34252625431289602 0 -0.20926750713572939 -0.36141123754780358 0 -0.23269942211958819 -0.26632599736311829 0 -0.2113475615474098 -0.26183595308539898 0 -0.22937054978906041 -0.24331512362502869 0 -0.2483490975252734 -0.26098873334868322 0 -0.23269942211958819 -0.26632599736311829 0 -0.22937054978906041 -0.24331512362502869 0 -0.2483490975252734 -0.26098873334868322 0 -0.24718685023563691 -0.27875123027958087 0 -0.23269942211958819 -0.26632599736311829 0 -0.24718685023563691 -0.27875123027958087 0 -0.23269942211958819 -0.26632599736311829 0 -0.22621925119092889 -0.28512311723799683 0 -0.23269942211958819 -0.26632599736311829 0 -0.22621925119092889 -0.28512311723799683 0 -0.2113475615474098 -0.26183595308539898 0 -0.24718685023563691 -0.27875123027958087 0 -0.22621925119092889 -0.28512311723799683 0 -0.24072416822125611 -0.30184362229434508 0 -0.25754389589834492 -0.29267207960278718 0 -0.24718685023563691 -0.27875123027958087 0 -0.24072416822125611 -0.30184362229434508 0 -0.25469452373499762 -0.30722313484128749 0 -0.2494260049788683 -0.31746489113439402 0 -0.24072416822125611 -0.30184362229434508 0 -0.22621925119092889 -0.28512311723799683 0 -0.24072416822125611 -0.30184362229434508 0 -0.21871592665514519 -0.30441916850028972 0 -0.2357068878863986 -0.32570661601735368 0 -0.24072416822125611 -0.30184362229434508 0 -0.21871592665514519 -0.30441916850028972 0 -0.21871592665514519 -0.30441916850028972 0 -0.20172496542389179 -0.28313172098322592 0 -0.18547182867621881 -0.29890397395307688 0 -0.19064882261902269 -0.32209845877770238 0 -0.21871592665514519 -0.30441916850028972 0 -0.18547182867621881 -0.29890397395307688 0 -0.20172496542389179 -0.28313172098322592 0 -0.17865973542483601 -0.28159672660659713 0 -0.18547182867621881 -0.29890397395307688 0 -0.22621925119092889 -0.28512311723799683 0 -0.21871592665514519 -0.30441916850028972 0 -0.20172496542389179 -0.28313172098322592 0 -0.21871592665514519 -0.30441916850028972 0 -0.20172496542389179 -0.28313172098322592 0 -0.22621925119092889 -0.28512311723799683 0 -0.20172496542389179 -0.28313172098322592 0 -0.2113475615474098 -0.26183595308539898 0 -0.20172496542389179 -0.28313172098322592 0 -0.2113475615474098 -0.26183595308539898 0 -0.18473400419263841 -0.26184427346616201 0 -0.20172496542389179 -0.28313172098322592 0 -0.18473400419263841 -0.26184427346616201 0 -0.20172496542389179 -0.28313172098322592 0 -0.18473400419263841 -0.26184427346616201 0 -0.17865973542483601 -0.28159672660659713 0 -0.2113475615474098 -0.26183595308539898 0 -0.18473400419263841 -0.26184427346616201 0 -0.1994177047143332 -0.2432145052078287 0 -0.18473400419263841 -0.26184427346616201 0 -0.15229660666407671 -0.25401824511238591 0 -0.16774304296138501 -0.24055682594909811 0 -0.18473400419263841 -0.26184427346616201 0 -0.1593348892574955 -0.27433293932196051 0 -0.15229660666407671 -0.25401824511238591 0 -0.18473400419263841 -0.26184427346616201 0 -0.16774304296138501 -0.24055682594909811 0 -0.18473400419263841 -0.26184427346616201 0 -0.1593348892574955 -0.27433293932196051 0 -0.17865973542483601 -0.28159672660659713 0 -0.1593348892574955 -0.27433293932196051 0 -0.17865973542483601 -0.28159672660659713 0 -0.1628273235241636 -0.29929742573166879 0 -0.17865973542483601 -0.28159672660659713 0 -0.18547182867621881 -0.29890397395307688 0 -0.1628273235241636 -0.29929742573166879 0 -0.18547182867621881 -0.29890397395307688 0 -0.1628273235241636 -0.29929742573166879 0 -0.16388410446163609 -0.32460269768425593 0 -0.1628273235241636 -0.29929742573166879 0 -0.13242221189995379 -0.30543756500551722 0 -0.16388410446163609 -0.32460269768425593 0 -0.13242221189995379 -0.30543756500551722 0 -0.14127367617284931 -0.28459822767558379 0 -0.1188334035936548 -0.28113848219864679 0 -0.1628273235241636 -0.29929742573166879 0 -0.13242221189995379 -0.30543756500551722 0 -0.14127367617284931 -0.28459822767558379 0 -0.1593348892574955 -0.27433293932196051 0 -0.1628273235241636 -0.29929742573166879 0 -0.14127367617284931 -0.28459822767558379 0 -0.1593348892574955 -0.27433293932196051 0 -0.14127367617284931 -0.28459822767558379 0 -0.132950552588979 -0.26278472612012599 0 -0.14127367617284931 -0.28459822767558379 0 -0.132950552588979 -0.26278472612012599 0 -0.1188334035936548 -0.28113848219864679 0 -0.132950552588979 -0.26278472612012599 0 -0.1192340303868117 -0.24478318800158869 0 -0.13450504990001219 -0.2438564190910647 0 -0.132950552588979 -0.26278472612012599 0 -0.15229660666407671 -0.25401824511238591 0 -0.13450504990001219 -0.2438564190910647 0 -0.1593348892574955 -0.27433293932196051 0 -0.132950552588979 -0.26278472612012599 0 -0.15229660666407671 -0.25401824511238591 0 -0.15300746566076209 -0.38310001254620968 0 -0.17658526827330981 -0.3829498688371939 0 -0.16187875486605491 -0.35541355732776547 0 -0.17658526827330981 -0.3829498688371939 0 -0.19095175091145111 -0.35539174743908392 0 -0.16187875486605491 -0.35541355732776547 0 -0.19095175091145111 -0.35539174743908392 0 -0.16187875486605491 -0.35541355732776547 0 -0.1786038551756757 -0.34069824763179102 0 -0.19064882261902269 -0.32209845877770238 0 -0.1786038551756757 -0.34069824763179102 0 -0.16388410446163609 -0.32460269768425593 0 -0.19064882261902269 -0.32209845877770238 0 -0.18547182867621881 -0.29890397395307688 0 -0.16388410446163609 -0.32460269768425593 0 -0.16187875486605491 -0.35541355732776547 0 -0.1786038551756757 -0.34069824763179102 0 -0.16388410446163609 -0.32460269768425593 0 -0.13242221189995379 -0.30543756500551722 0 -0.16388410446163609 -0.32460269768425593 0 -0.13821757510299509 -0.3384513750534191 0 -0.13242221189995379 -0.30543756500551722 0 -0.13821757510299509 -0.3384513750534191 0 -0.1101747460075988 -0.32953608121607292 0 -0.16187875486605491 -0.35541355732776547 0 -0.16388410446163609 -0.32460269768425593 0 -0.13821757510299509 -0.3384513750534191 0 -0.13821757510299509 -0.3384513750534191 0 -0.13644034466196819 -0.36544341997203661 0 -0.1196241940514999 -0.3542658853942362 0 -0.16187875486605491 -0.35541355732776547 0 -0.13821757510299509 -0.3384513750534191 0 -0.13644034466196819 -0.36544341997203661 0 -0.15300746566076209 -0.38310001254620968 0 -0.16187875486605491 -0.35541355732776547 0 -0.13644034466196819 -0.36544341997203661 0 -0.12942966304821441 -0.38325015625522552 0 -0.13644034466196819 -0.36544341997203661 0 -0.1177797586078463 -0.37381446098417098 0 -0.13644034466196819 -0.36544341997203661 0 -0.1177797586078463 -0.37381446098417098 0 -0.1196241940514999 -0.3542658853942362 0 -0.1177797586078463 -0.37381446098417098 0 -0.10407214500130089 -0.36661499140206938 0 -0.1196241940514999 -0.3542658853942362 0 -0.1177797586078463 -0.37381446098417098 0 -0.10407214500130089 -0.36661499140206938 0 -0.1034929330021967 -0.38313049756236911 0 -0.10407214500130089 -0.36661499140206938 0 -0.092143069441117886 -0.37288061806212591 0 -0.1034929330021967 -0.38313049756236911 0 -0.10407214500130089 -0.36661499140206938 0 -0.092143069441117886 -0.37288061806212591 0 -0.090292011953311629 -0.3597231114641114 0 -0.10407214500130089 -0.36661499140206938 0 -0.10297576120334009 -0.35054559799579871 0 -0.1196241940514999 -0.3542658853942362 0 -0.10297576120334009 -0.35054559799579871 0 -0.091874738774876785 -0.34065851114568052 0 -0.090292011953311629 -0.3597231114641114 0 -0.10407214500130089 -0.36661499140206938 0 -0.10297576120334009 -0.35054559799579871 0 -0.090292011953311629 -0.3597231114641114 0 -0.10297576120334009 -0.35054559799579871 0 -0.1196241940514999 -0.3542658853942362 0 -0.1101747460075988 -0.32953608121607292 0 -0.13821757510299509 -0.3384513750534191 0 -0.1196241940514999 -0.3542658853942362 0 -0.1101747460075988 -0.32953608121607292 0 -0.1101747460075988 -0.32953608121607292 0 -0.085227450549862166 -0.32028838060126541 0 -0.10233633129899709 -0.29788694174330338 0 -0.1101747460075988 -0.32953608121607292 0 -0.091874738774876785 -0.34065851114568052 0 -0.085227450549862166 -0.32028838060126541 0 -0.10297576120334009 -0.35054559799579871 0 -0.1101747460075988 -0.32953608121607292 0 -0.091874738774876785 -0.34065851114568052 0 -0.091874738774876785 -0.34065851114568052 0 -0.085227450549862166 -0.32028838060126541 0 -0.076063335717399538 -0.33750887212749098 0 -0.085227450549862166 -0.32028838060126541 0 -0.063011241542060503 -0.32804507108198161 0 -0.072947339386401744 -0.29815403057856332 0 -0.063011241542060503 -0.32804507108198161 0 -0.076063335717399538 -0.33750887212749098 0 -0.056103847272524453 -0.34401699257208418 0 -0.085227450549862166 -0.32028838060126541 0 -0.063011241542060503 -0.32804507108198161 0 -0.076063335717399538 -0.33750887212749098 0 -0.076063335717399538 -0.33750887212749098 0 -0.071250752086046532 -0.35335887697158019 0 -0.056103847272524453 -0.34401699257208418 0 -0.071250752086046532 -0.35335887697158019 0 -0.076899216694667677 -0.36865863427987439 0 -0.059008804616476777 -0.3736816009534113 0 -0.071250752086046532 -0.35335887697158019 0 -0.076899216694667677 -0.36865863427987439 0 -0.090292011953311629 -0.3597231114641114 0 -0.076899216694667677 -0.36865863427987439 0 -0.092143069441117886 -0.37288061806212591 0 -0.090292011953311629 -0.3597231114641114 0 -0.091874738774876785 -0.34065851114568052 0 -0.071250752086046532 -0.35335887697158019 0 -0.090292011953311629 -0.3597231114641114 0 -0.091874738774876785 -0.34065851114568052 0 -0.076063335717399538 -0.33750887212749098 0 -0.071250752086046532 -0.35335887697158019 0 -0.10928029933534041 -0.25911330461652088 0 -0.093765691765433312 -0.25258281812082478 0 -0.1064059993424292 -0.23999004584722569 0 -0.10928029933534041 -0.25911330461652088 0 -0.093765691765433312 -0.25258281812082478 0 -0.091378819945462819 -0.27405960529517892 0 -0.132950552588979 -0.26278472612012599 0 -0.10928029933534041 -0.25911330461652088 0 -0.1192340303868117 -0.24478318800158869 0 -0.132950552588979 -0.26278472612012599 0 -0.10928029933534041 -0.25911330461652088 0 -0.1188334035936548 -0.28113848219864679 0 -0.10928029933534041 -0.25911330461652088 0 -0.1188334035936548 -0.28113848219864679 0 -0.091378819945462819 -0.27405960529517892 0 -0.13242221189995379 -0.30543756500551722 0 -0.1101747460075988 -0.32953608121607292 0 -0.10233633129899709 -0.29788694174330338 0 -0.1188334035936548 -0.28113848219864679 0 -0.10233633129899709 -0.29788694174330338 0 -0.091378819945462819 -0.27405960529517892 0 -0.13242221189995379 -0.30543756500551722 0 -0.1188334035936548 -0.28113848219864679 0 -0.10233633129899709 -0.29788694174330338 0 -0.085227450549862166 -0.32028838060126541 0 -0.10233633129899709 -0.29788694174330338 0 -0.072947339386401744 -0.29815403057856332 0 -0.10233633129899709 -0.29788694174330338 0 -0.072947339386401744 -0.29815403057856332 0 -0.072947339386401744 -0.29815403057856332 0 -0.068721828444096633 -0.2698787542887045 0 -0.051386271478722378 -0.27925540101153468 0 -0.10233633129899709 -0.29788694174330338 0 -0.072947339386401744 -0.29815403057856332 0 -0.091378819945462819 -0.27405960529517892 0 -0.091378819945462819 -0.27405960529517892 0 -0.068721828444096633 -0.2698787542887045 0 -0.079465288233698042 -0.25846821731041458 0 -0.072947339386401744 -0.29815403057856332 0 -0.091378819945462819 -0.27405960529517892 0 -0.068721828444096633 -0.2698787542887045 0 -0.068721828444096633 -0.2698787542887045 0 -0.065421878849430556 -0.25167039592025259 0 -0.079465288233698042 -0.25846821731041458 0 -0.093765691765433312 -0.25258281812082478 0 -0.091378819945462819 -0.27405960529517892 0 -0.079465288233698042 -0.25846821731041458 0 -0.093765691765433312 -0.25258281812082478 0 -0.079465288233698042 -0.25846821731041458 0 -0.078278243085297239 -0.23951664672932549 0 -0.036856198389287782 -0.25899730250271491 0 -0.027326811110253871 -0.25121816526868662 0 -0.040785035177160277 -0.24958968680164759 0 -0.036856198389287782 -0.25899730250271491 0 -0.03708476385319625 -0.2699613192856723 0 -0.027769846617742091 -0.26444130564156609 0 -0.036856198389287782 -0.25899730250271491 0 -0.051314535188086402 -0.25977603551600209 0 -0.03708476385319625 -0.2699613192856723 0 -0.036856198389287782 -0.25899730250271491 0 -0.051314535188086402 -0.25977603551600209 0 -0.040785035177160277 -0.24958968680164759 0 -0.051314535188086402 -0.25977603551600209 0 -0.052406799216804557 -0.24459198769464191 0 -0.040785035177160277 -0.24958968680164759 0 -0.068721828444096633 -0.2698787542887045 0 -0.065421878849430556 -0.25167039592025259 0 -0.051314535188086402 -0.25977603551600209 0 -0.065421878849430556 -0.25167039592025259 0 -0.051314535188086402 -0.25977603551600209 0 -0.052406799216804557 -0.24459198769464191 0 -0.068721828444096633 -0.2698787542887045 0 -0.051314535188086402 -0.25977603551600209 0 -0.051386271478722378 -0.27925540101153468 0 -0.051386271478722378 -0.27925540101153468 0 -0.03708476385319625 -0.2699613192856723 0 -0.030508603843899348 -0.2838920637904252 0 -0.051314535188086402 -0.25977603551600209 0 -0.051386271478722378 -0.27925540101153468 0 -0.03708476385319625 -0.2699613192856723 0 -0.051386271478722378 -0.27925540101153468 0 -0.043558347473806387 -0.2984211194138231 0 -0.030508603843899348 -0.2838920637904252 0 -0.072947339386401744 -0.29815403057856332 0 -0.051386271478722378 -0.27925540101153468 0 -0.043558347473806387 -0.2984211194138231 0 -0.072947339386401744 -0.29815403057856332 0 -0.043558347473806387 -0.2984211194138231 0 -0.072947339386401744 -0.29815403057856332 0 -0.043558347473806387 -0.2984211194138231 0 -0.051420852876661483 -0.31380047181538612 0 -0.043558347473806387 -0.2984211194138231 0 -0.051420852876661483 -0.31380047181538612 0 -0.030582351458593698 -0.31403506648659951 0 -0.014169355561211039 -0.29868820824908299 0 -0.030582351458593698 -0.31403506648659951 0 -0.0093546214437348063 -0.3154421594820554 0 -0.043558347473806387 -0.2984211194138231 0 -0.014169355561211039 -0.29868820824908299 0 -0.030582351458593698 -0.31403506648659951 0 -0.043558347473806387 -0.2984211194138231 0 -0.014169355561211039 -0.29868820824908299 0 -0.014169355561211039 -0.29868820824908299 0 -0.0093546214437348063 -0.3154421594820554 0 0.0025702240157044749 -0.30194718224499639 0 -0.014169355561211039 -0.29868820824908299 0 0.0025702240157044749 -0.30194718224499639 0 0.001953977901653102 -0.28749824366549498 0 -0.014169355561211039 -0.29868820824908299 0 -0.01355692824822796 -0.28271954505438091 0 0.001953977901653102 -0.28749824366549498 0 -0.01355692824822796 -0.28271954505438091 0 -0.002131649244152236 -0.27375645946249172 0 0.001953977901653102 -0.28749824366549498 0 -0.014169355561211039 -0.29868820824908299 0 -0.01355692824822796 -0.28271954505438091 0 -0.030508603843899348 -0.2838920637904252 0 -0.043558347473806387 -0.2984211194138231 0 -0.014169355561211039 -0.29868820824908299 0 -0.030508603843899348 -0.2838920637904252 0 -0.01355692824822796 -0.28271954505438091 0 -0.030508603843899348 -0.2838920637904252 0 -0.0232959564482321 -0.27430678972805739 0 -0.03708476385319625 -0.2699613192856723 0 -0.030508603843899348 -0.2838920637904252 0 -0.0232959564482321 -0.27430678972805739 0 -0.03708476385319625 -0.2699613192856723 0 -0.0232959564482321 -0.27430678972805739 0 -0.027769846617742091 -0.26444130564156609 0 -0.0232959564482321 -0.27430678972805739 0 -0.01453475649827142 -0.26699160201657218 0 -0.027769846617742091 -0.26444130564156609 0 -0.0232959564482321 -0.27430678972805739 0 -0.01264771782334753 -0.27382178896806042 0 -0.01453475649827142 -0.26699160201657218 0 -0.01355692824822796 -0.28271954505438091 0 -0.0232959564482321 -0.27430678972805739 0 -0.01264771782334753 -0.27382178896806042 0 -0.01355692824822796 -0.28271954505438091 0 -0.01264771782334753 -0.27382178896806042 0 -0.002131649244152236 -0.27375645946249172 0 -0.002131649244152236 -0.27375645946249172 0 -0.0028944004114581372 -0.26277522582270341 0 0.0049597396345670026 -0.26452376434945218 0 -0.002131649244152236 -0.27375645946249172 0 -0.0081433199175628083 -0.26887389345264789 0 -0.0028944004114581372 -0.26277522582270341 0 -0.01264771782334753 -0.27382178896806042 0 -0.002131649244152236 -0.27375645946249172 0 -0.0081433199175628083 -0.26887389345264789 0 -0.01264771782334753 -0.27382178896806042 0 -0.0081433199175628083 -0.26887389345264789 0 -0.01453475649827142 -0.26699160201657218 0 -0.0081433199175628083 -0.26887389345264789 0 -0.01453475649827142 -0.26699160201657218 0 -0.012379740604400009 -0.25371681360357518 0 -0.0081433199175628083 -0.26887389345264789 0 -0.012379740604400009 -0.25371681360357518 0 -0.0081433199175628083 -0.26887389345264789 0 -0.0050603712554523096 -0.25502580822232418 0 -0.012379740604400009 -0.25371681360357518 0 -0.0081433199175628083 -0.26887389345264789 0 -0.0028944004114581372 -0.26277522582270341 0 -0.0050603712554523096 -0.25502580822232418 0 -0.0028944004114581372 -0.26277522582270341 0 -0.0050603712554523096 -0.25502580822232418 0 0.0049597396345670026 -0.26452376434945218 0 -0.0050603712554523096 -0.25502580822232418 0 -0.012379740604400009 -0.25371681360357518 0 -0.01487672558591642 -0.24478309253466149 0 -0.01453475649827142 -0.26699160201657218 0 -0.027326811110253871 -0.25121816526868662 0 -0.01453475649827142 -0.26699160201657218 0 -0.027769846617742091 -0.26444130564156609 0 -0.027326811110253871 -0.25121816526868662 0 -0.01453475649827142 -0.26699160201657218 0 -0.012379740604400009 -0.25371681360357518 0 -0.027326811110253871 -0.25121816526868662 0 -0.036856198389287782 -0.25899730250271491 0 -0.027769846617742091 -0.26444130564156609 0 -0.027326811110253871 -0.25121816526868662 0 -0.039399855887372083 -0.348894598899534 0 -0.034096369460313788 -0.36339656310703322 0 -0.051971925864546728 -0.35666972650072859 0 -0.039399855887372083 -0.348894598899534 0 -0.034096369460313788 -0.36339656310703322 0 -0.026210886027733249 -0.34369915139989571 0 -0.039399855887372083 -0.348894598899534 0 -0.034096369460313788 -0.36339656310703322 0 -0.034096369460313788 -0.36339656310703322 0 -0.059008804616476777 -0.3736816009534113 0 -0.034096369460313788 -0.36339656310703322 0 -0.059008804616476777 -0.3736816009534113 0 -0.054792379857709787 -0.38521108099946061 0 -0.071250752086046532 -0.35335887697158019 0 -0.059008804616476777 -0.3736816009534113 0 -0.051971925864546728 -0.35666972650072859 0 -0.034096369460313788 -0.36339656310703322 0 -0.059008804616476777 -0.3736816009534113 0 -0.051971925864546728 -0.35666972650072859 0 -0.039399855887372083 -0.348894598899534 0 -0.056103847272524453 -0.34401699257208418 0 -0.051971925864546728 -0.35666972650072859 0 -0.071250752086046532 -0.35335887697158019 0 -0.056103847272524453 -0.34401699257208418 0 -0.051971925864546728 -0.35666972650072859 0 -0.063011241542060503 -0.32804507108198161 0 -0.056103847272524453 -0.34401699257208418 0 -0.04119870814000013 -0.33100814093665459 0 -0.063011241542060503 -0.32804507108198161 0 -0.072947339386401744 -0.29815403057856332 0 -0.051420852876661483 -0.31380047181538612 0 -0.063011241542060503 -0.32804507108198161 0 -0.051420852876661483 -0.31380047181538612 0 -0.04119870814000013 -0.33100814093665459 0 -0.04119870814000013 -0.33100814093665459 0 -0.030582351458593698 -0.31403506648659951 0 -0.022582582343139011 -0.32698802181857289 0 -0.051420852876661483 -0.31380047181538612 0 -0.04119870814000013 -0.33100814093665459 0 -0.030582351458593698 -0.31403506648659951 0 -0.039399855887372083 -0.348894598899534 0 -0.04119870814000013 -0.33100814093665459 0 -0.026210886027733249 -0.34369915139989571 0 -0.039399855887372083 -0.348894598899534 0 -0.056103847272524453 -0.34401699257208418 0 -0.04119870814000013 -0.33100814093665459 0 -0.04119870814000013 -0.33100814093665459 0 -0.026210886027733249 -0.34369915139989571 0 -0.022582582343139011 -0.32698802181857289 0 -0.026210886027733249 -0.34369915139989571 0 -0.022582582343139011 -0.32698802181857289 0 -0.008605873932596356 -0.33624452634938418 0 -0.030582351458593698 -0.31403506648659951 0 -0.022582582343139011 -0.32698802181857289 0 -0.0093546214437348063 -0.3154421594820554 0 -0.022582582343139011 -0.32698802181857289 0 -0.0093546214437348063 -0.3154421594820554 0 -0.008605873932596356 -0.33624452634938418 0 -0.0093546214437348063 -0.3154421594820554 0 -0.008605873932596356 -0.33624452634938418 0 0.0035141492887302548 -0.32519051246028208 0 -0.0019921573348008 -0.35014241775074068 0 -0.018044263397557131 -0.35676949042888739 0 -0.0042332821090469977 -0.36931681778231101 0 -0.0019921573348008 -0.35014241775074068 0 -0.018044263397557131 -0.35676949042888739 0 -0.008605873932596356 -0.33624452634938418 0 -0.0019921573348008 -0.35014241775074068 0 -0.018044263397557131 -0.35676949042888739 0 -0.026210886027733249 -0.34369915139989571 0 -0.008605873932596356 -0.33624452634938418 0 -0.018044263397557131 -0.35676949042888739 0 -0.034096369460313788 -0.36339656310703322 0 -0.026210886027733249 -0.34369915139989571 0 -0.018044263397557131 -0.35676949042888739 0 -0.034096369460313788 -0.36339656310703322 0 -0.018044263397557131 -0.35676949042888739 0 -0.034096369460313788 -0.36339656310703322 0 -0.018686911073243041 -0.37245057318461761 0 -0.025663519942779139 -0.38645552319913151 0 -0.034096369460313788 -0.36339656310703322 0 -0.025663519942779139 -0.38645552319913151 0 -0.034096369460313788 -0.36339656310703322 0 -0.018044263397557131 -0.35676949042888739 0 -0.018686911073243041 -0.37245057318461761 0 -0.018044263397557131 -0.35676949042888739 0 -0.018686911073243041 -0.37245057318461761 0 -0.0042332821090469977 -0.36931681778231101 0 -0.0042332821090469977 -0.36931681778231101 0 -0.0014384839491562609 -0.38294108750953337 0 -0.01293018069981793 -0.38699951650140929 0 -0.018686911073243041 -0.37245057318461761 0 -0.0042332821090469977 -0.36931681778231101 0 -0.01293018069981793 -0.38699951650140929 0 -0.0014384839491562609 -0.38294108750953337 0 -0.01063129593948554 -0.39508981091663592 0 0.011472045166716269 -0.38952867199447438 0 -0.0014384839491562609 -0.38294108750953337 0 -0.01293018069981793 -0.38699951650140929 0 -0.01063129593948554 -0.39508981091663592 0 -0.01063129593948554 -0.39508981091663592 0 -0.0091670491733258502 -0.407137417147723 0 0.011472045166716269 -0.38952867199447438 0 -0.01063129593948554 -0.39508981091663592 0 -0.018873559194732051 -0.4050221338792524 0 -0.0091670491733258502 -0.407137417147723 0 -0.018873559194732051 -0.4050221338792524 0 -0.02836285586948685 -0.40056267234101323 0 -0.025663519942779139 -0.38645552319913151 0 -0.018873559194732051 -0.4050221338792524 0 -0.025663519942779139 -0.38645552319913151 0 -0.01063129593948554 -0.39508981091663592 0 -0.018873559194732051 -0.4050221338792524 0 -0.025663519942779139 -0.38645552319913151 0 -0.018873559194732051 -0.4050221338792524 0 -0.02836285586948685 -0.40056267234101323 0 -0.030977517198131951 -0.41001184184548872 0 -0.018686911073243041 -0.37245057318461761 0 -0.01293018069981793 -0.38699951650140929 0 -0.025663519942779139 -0.38645552319913151 0 -0.01293018069981793 -0.38699951650140929 0 -0.01063129593948554 -0.39508981091663592 0 -0.025663519942779139 -0.38645552319913151 0 -0.01293018069981793 -0.38699951650140929 0 -0.025663519942779139 -0.38645552319913151 0 -0.025663519942779139 -0.38645552319913151 0 -0.054792379857709787 -0.38521108099946061 0 -0.034096369460313788 -0.36339656310703322 0 -0.025663519942779139 -0.38645552319913151 0 -0.054792379857709787 -0.38521108099946061 0 -0.025663519942779139 -0.38645552319913151 0 -0.040378871001035203 -0.4023619242499753 0 -0.054792379857709787 -0.38521108099946061 0 -0.02836285586948685 -0.40056267234101323 0 -0.025663519942779139 -0.38645552319913151 0 -0.040378871001035203 -0.4023619242499753 0 -0.02836285586948685 -0.40056267234101323 0 -0.040378871001035203 -0.4023619242499753 0 -0.030977517198131951 -0.41001184184548872 0 -0.054792379857709787 -0.38521108099946061 0 -0.059825167014939118 -0.40722915412089022 0 -0.072775681732521871 -0.39584784537067902 0 -0.040378871001035203 -0.4023619242499753 0 -0.054792379857709787 -0.38521108099946061 0 -0.059825167014939118 -0.40722915412089022 0 -0.042229656958243142 -0.42347410177567479 0 -0.050515785400197619 -0.44529677996352279 0 -0.072027503688391378 -0.4304363902392051 0 -0.040378871001035203 -0.4023619242499753 0 -0.059825167014939118 -0.40722915412089022 0 -0.042229656958243142 -0.42347410177567479 0 -0.059825167014939118 -0.40722915412089022 0 -0.042229656958243142 -0.42347410177567479 0 -0.072027503688391378 -0.4304363902392051 0 -0.040378871001035203 -0.4023619242499753 0 -0.042229656958243142 -0.42347410177567479 0 -0.030977517198131951 -0.41001184184548872 0 -0.042229656958243142 -0.42347410177567479 0 -0.030977517198131951 -0.41001184184548872 0 -0.025042642967162548 -0.41863837698152778 0 -0.042229656958243142 -0.42347410177567479 0 -0.02466563579619491 -0.43258924065094212 0 -0.036391946892689743 -0.43794750258320281 0 -0.042229656958243142 -0.42347410177567479 0 -0.036391946892689743 -0.43794750258320281 0 -0.050515785400197619 -0.44529677996352279 0 -0.042229656958243142 -0.42347410177567479 0 -0.02466563579619491 -0.43258924065094212 0 -0.025042642967162548 -0.41863837698152778 0 -0.02466563579619491 -0.43258924065094212 0 -0.01208359844668536 -0.42358874455937362 0 -0.01135633175650611 -0.44080857306714882 0 -0.02466563579619491 -0.43258924065094212 0 -0.025042642967162548 -0.41863837698152778 0 -0.01208359844668536 -0.42358874455937362 0 -0.018873559194732051 -0.4050221338792524 0 -0.025042642967162548 -0.41863837698152778 0 -0.01208359844668536 -0.42358874455937362 0 -0.018873559194732051 -0.4050221338792524 0 -0.030977517198131951 -0.41001184184548872 0 -0.025042642967162548 -0.41863837698152778 0 -0.0091670491733258502 -0.407137417147723 0 -0.01208359844668536 -0.42358874455937362 0 0.0037810136158822729 -0.41791708709875131 0 -0.018873559194732051 -0.4050221338792524 0 -0.01208359844668536 -0.42358874455937362 0 -0.018873559194732051 -0.4050221338792524 0 -0.0091670491733258502 -0.407137417147723 0 -0.01208359844668536 -0.42358874455937362 0 -0.0091670491733258502 -0.407137417147723 0 0.005108664055598287 -0.40528738143041459 0 0.0037810136158822729 -0.41791708709875131 0 -0.01208359844668536 -0.42358874455937362 0 -0.01135633175650611 -0.44080857306714882 0 0.00079488181500260609 -0.42987501851034571 0 -0.01208359844668536 -0.42358874455937362 0 0.0037810136158822729 -0.41791708709875131 0 0.00079488181500260609 -0.42987501851034571 0 -0.01135633175650611 -0.44080857306714882 0 -0.0057475739345891896 -0.4549207533069245 0 -0.026821380350943221 -0.45052187300253432 0 -0.01135633175650611 -0.44080857306714882 0 -0.0057475739345891896 -0.4549207533069245 0 0.0068165806591294316 -0.44348526320397952 0 -0.01135633175650611 -0.44080857306714882 0 0.00079488181500260609 -0.42987501851034571 0 0.0068165806591294316 -0.44348526320397952 0 -0.0057475739345891896 -0.4549207533069245 0 -0.01053281578453142 -0.47284051234843588 0 0.013156077559905371 -0.46694754491252372 0 -0.0057475739345891896 -0.4549207533069245 0 -0.026821380350943221 -0.45052187300253432 0 -0.01053281578453142 -0.47284051234843588 0 -0.026821380350943221 -0.45052187300253432 0 -0.01053281578453142 -0.47284051234843588 0 -0.034221709128968207 -0.47873347978434821 0 -0.02466563579619491 -0.43258924065094212 0 -0.026821380350943221 -0.45052187300253432 0 -0.036391946892689743 -0.43794750258320281 0 -0.02466563579619491 -0.43258924065094212 0 -0.01135633175650611 -0.44080857306714882 0 -0.026821380350943221 -0.45052187300253432 0 -0.01053281578453142 -0.47284051234843588 0 -0.021528721160628209 -0.5 0 0.0082051736105589468 -0.5 0 -0.01053281578453142 -0.47284051234843588 0 -0.034221709128968207 -0.47873347978434821 0 -0.01053281578453142 -0.47284051234843588 0 -0.021528721160628209 -0.5 0 -0.034221709128968207 -0.47873347978434821 0 -0.021528721160628209 -0.5 0 -0.034221709128968207 -0.47873347978434821 0 -0.051262615931815303 -0.5 0 -0.059523740010860512 -0.4805696461841214 0 -0.046928985533113317 -0.46386793679958732 0 -0.064864185923778739 -0.46315270411222448 0 -0.034221709128968207 -0.47873347978434821 0 -0.059523740010860512 -0.4805696461841214 0 -0.046928985533113317 -0.46386793679958732 0 -0.034221709128968207 -0.47873347978434821 0 -0.059523740010860512 -0.4805696461841214 0 -0.051262615931815303 -0.5 0 -0.026821380350943221 -0.45052187300253432 0 -0.036391946892689743 -0.43794750258320281 0 -0.050515785400197619 -0.44529677996352279 0 -0.026821380350943221 -0.45052187300253432 0 -0.034221709128968207 -0.47873347978434821 0 -0.046928985533113317 -0.46386793679958732 0 -0.026821380350943221 -0.45052187300253432 0 -0.046928985533113317 -0.46386793679958732 0 -0.050515785400197619 -0.44529677996352279 0 -0.046928985533113317 -0.46386793679958732 0 -0.050515785400197619 -0.44529677996352279 0 -0.064864185923778739 -0.46315270411222448 0 -0.050515785400197619 -0.44529677996352279 0 -0.067207280617084753 -0.44732106669938188 0 -0.064864185923778739 -0.46315270411222448 0 -0.050515785400197619 -0.44529677996352279 0 -0.067207280617084753 -0.44732106669938188 0 -0.072027503688391378 -0.4304363902392051 0 -0.067207280617084753 -0.44732106669938188 0 -0.082815891533118816 -0.45534181676778152 0 -0.072027503688391378 -0.4304363902392051 0 -0.067207280617084753 -0.44732106669938188 0 -0.064864185923778739 -0.46315270411222448 0 -0.082815891533118816 -0.45534181676778152 0 -0.064864185923778739 -0.46315270411222448 0 -0.082815891533118816 -0.45534181676778152 0 -0.078868432844485067 -0.47766375640856817 0 -0.082815891533118816 -0.45534181676778152 0 -0.098405376953540707 -0.43777035074814158 0 -0.072027503688391378 -0.4304363902392051 0 -0.059523740010860512 -0.4805696461841214 0 -0.078868432844485067 -0.47766375640856817 0 -0.080996510703002414 -0.50000000000000011 0 -0.059523740010860512 -0.4805696461841214 0 -0.051262615931815303 -0.5 0 -0.080996510703002414 -0.50000000000000011 0 -0.059523740010860512 -0.4805696461841214 0 -0.064864185923778739 -0.46315270411222448 0 -0.078868432844485067 -0.47766375640856817 0 -0.082815891533118816 -0.45534181676778152 0 -0.078868432844485067 -0.47766375640856817 0 -0.097649384782090676 -0.47348966161849648 0 -0.078868432844485067 -0.47766375640856817 0 -0.091101191517426794 -0.4855812854125191 0 -0.097649384782090676 -0.47348966161849648 0 -0.080996510703002414 -0.50000000000000011 0 -0.091101191517426794 -0.4855812854125191 0 -0.106890437740129 -0.49117172362301192 0 -0.078868432844485067 -0.47766375640856817 0 -0.080996510703002414 -0.50000000000000011 0 -0.091101191517426794 -0.4855812854125191 0 -0.080996510703002414 -0.50000000000000011 0 -0.106890437740129 -0.49117172362301192 0 -0.080996510703002414 -0.50000000000000011 0 -0.1052795491262605 -0.5 0 -0.106890437740129 -0.49117172362301192 0 -0.091101191517426794 -0.4855812854125191 0 -0.106890437740129 -0.49117172362301192 0 -0.097649384782090676 -0.47348966161849648 0 -0.106890437740129 -0.49117172362301192 0 -0.097649384782090676 -0.47348966161849648 0 -0.1161667412357628 -0.47599129326682099 0 -0.097649384782090676 -0.47348966161849648 0 -0.1161667412357628 -0.47599129326682099 0 -0.11918173836773351 -0.45845832247928869 0 -0.13278436477725561 -0.4823434472460234 0 -0.106890437740129 -0.49117172362301192 0 -0.1161667412357628 -0.47599129326682099 0 -0.13278436477725561 -0.4823434472460234 0 -0.12956258754951869 -0.5 0 -0.106890437740129 -0.49117172362301192 0 -0.12956258754951869 -0.5 0 -0.1052795491262605 -0.5 0 -0.106890437740129 -0.49117172362301192 0 -0.13278436477725561 -0.4823434472460234 0 -0.106890437740129 -0.49117172362301192 0 -0.098405376953540707 -0.43777035074814158 0 -0.1032934630365307 -0.45295297384024952 0 -0.1184149235461696 -0.43970471758753887 0 -0.082815891533118816 -0.45534181676778152 0 -0.098405376953540707 -0.43777035074814158 0 -0.1032934630365307 -0.45295297384024952 0 -0.082815891533118816 -0.45534181676778152 0 -0.097649384782090676 -0.47348966161849648 0 -0.1032934630365307 -0.45295297384024952 0 -0.097649384782090676 -0.47348966161849648 0 -0.11918173836773351 -0.45845832247928869 0 -0.097649384782090676 -0.47348966161849648 0 -0.1032934630365307 -0.45295297384024952 0 -0.11918173836773351 -0.45845832247928869 0 -0.1272556728232932 -0.47013049556587211 0 -0.1161667412357628 -0.47599129326682099 0 -0.11918173836773351 -0.45845832247928869 0 -0.1032934630365307 -0.45295297384024952 0 -0.11918173836773351 -0.45845832247928869 0 -0.1184149235461696 -0.43970471758753887 0 -0.13370262722300191 -0.42485153358840111 0 -0.1184149235461696 -0.43970471758753887 0 -0.116306788879599 -0.41668109890019722 0 -0.098405376953540707 -0.43777035074814158 0 -0.1184149235461696 -0.43970471758753887 0 -0.116306788879599 -0.41668109890019722 0 -0.098405376953540707 -0.43777035074814158 0 -0.097023176649951706 -0.41709708103231641 0 -0.116306788879599 -0.41668109890019722 0 -0.097023176649951706 -0.41709708103231641 0 -0.116306788879599 -0.41668109890019722 0 -0.1080069522975812 -0.4033851446609884 0 -0.097023176649951706 -0.41709708103231641 0 -0.1080069522975812 -0.4033851446609884 0 -0.093849536080233595 -0.40171885712620059 0 -0.116306788879599 -0.41668109890019722 0 -0.1246151037146196 -0.40215144471962733 0 -0.1080069522975812 -0.4033851446609884 0 -0.13370262722300191 -0.42485153358840111 0 -0.116306788879599 -0.41668109890019722 0 -0.1246151037146196 -0.40215144471962733 0 -0.12942966304821441 -0.38325015625522552 0 -0.1246151037146196 -0.40215144471962733 0 -0.11435095473318441 -0.38971939249289739 0 -0.1246151037146196 -0.40215144471962733 0 -0.11435095473318441 -0.38971939249289739 0 -0.1080069522975812 -0.4033851446609884 0 -0.12942966304821441 -0.38325015625522552 0 -0.1177797586078463 -0.37381446098417098 0 -0.11435095473318441 -0.38971939249289739 0 -0.1177797586078463 -0.37381446098417098 0 -0.11435095473318441 -0.38971939249289739 0 -0.1034929330021967 -0.38313049756236911 0 -0.1034929330021967 -0.38313049756236911 0 -0.09434009405236482 -0.38826803727453157 0 -0.083921239772640238 -0.38396663879978871 0 -0.11435095473318441 -0.38971939249289739 0 -0.1034929330021967 -0.38313049756236911 0 -0.1028080940331122 -0.39324438582339738 0 -0.1034929330021967 -0.38313049756236911 0 -0.09434009405236482 -0.38826803727453157 0 -0.1028080940331122 -0.39324438582339738 0 -0.11435095473318441 -0.38971939249289739 0 -0.1080069522975812 -0.4033851446609884 0 -0.1028080940331122 -0.39324438582339738 0 -0.09434009405236482 -0.38826803727453157 0 -0.1028080940331122 -0.39324438582339738 0 -0.093849536080233595 -0.40171885712620059 0 -0.1080069522975812 -0.4033851446609884 0 -0.1028080940331122 -0.39324438582339738 0 -0.093849536080233595 -0.40171885712620059 0 -0.093849536080233595 -0.40171885712620059 0 -0.084931705096709012 -0.39557720875243713 0 -0.079771973845784508 -0.40808466519098552 0 -0.09434009405236482 -0.38826803727453157 0 -0.093849536080233595 -0.40171885712620059 0 -0.084931705096709012 -0.39557720875243713 0 -0.084931705096709012 -0.39557720875243713 0 -0.083921239772640238 -0.38396663879978871 0 -0.072775681732521871 -0.39584784537067902 0 -0.084931705096709012 -0.39557720875243713 0 -0.072775681732521871 -0.39584784537067902 0 -0.079771973845784508 -0.40808466519098552 0 -0.1034929330021967 -0.38313049756236911 0 -0.083921239772640238 -0.38396663879978871 0 -0.092143069441117886 -0.37288061806212591 0 -0.1034929330021967 -0.38313049756236911 0 -0.083921239772640238 -0.38396663879978871 0 -0.09434009405236482 -0.38826803727453157 0 -0.083921239772640238 -0.38396663879978871 0 -0.09434009405236482 -0.38826803727453157 0 -0.084931705096709012 -0.39557720875243713 0 -0.083921239772640238 -0.38396663879978871 0 -0.076899216694667677 -0.36865863427987439 0 -0.092143069441117886 -0.37288061806212591 0 -0.083921239772640238 -0.38396663879978871 0 -0.076899216694667677 -0.36865863427987439 0 -0.059008804616476777 -0.3736816009534113 0 -0.083921239772640238 -0.38396663879978871 0 -0.059008804616476777 -0.3736816009534113 0 -0.054792379857709787 -0.38521108099946061 0 -0.083921239772640238 -0.38396663879978871 0 -0.054792379857709787 -0.38521108099946061 0 -0.083921239772640238 -0.38396663879978871 0 -0.054792379857709787 -0.38521108099946061 0 -0.083921239772640238 -0.38396663879978871 0 -0.072775681732521871 -0.39584784537067902 0 -0.059008804616476777 -0.3736816009534113 0 -0.083921239772640238 -0.38396663879978871 0 -0.059825167014939118 -0.40722915412089022 0 -0.072775681732521871 -0.39584784537067902 0 -0.079771973845784508 -0.40808466519098552 0 -0.059825167014939118 -0.40722915412089022 0 -0.072027503688391378 -0.4304363902392051 0 -0.079771973845784508 -0.40808466519098552 0 -0.098405376953540707 -0.43777035074814158 0 -0.097023176649951706 -0.41709708103231641 0 -0.072027503688391378 -0.4304363902392051 0 -0.097023176649951706 -0.41709708103231641 0 -0.072027503688391378 -0.4304363902392051 0 -0.079771973845784508 -0.40808466519098552 0 -0.097023176649951706 -0.41709708103231641 0 -0.093849536080233595 -0.40171885712620059 0 -0.079771973845784508 -0.40808466519098552 0 -0.080332479827855185 -0.089132189148723034 0 -0.087659787804267197 -0.1053579589647711 0 -0.098653139325870498 -0.078072759780639212 0 -0.080332479827855185 -0.089132189148723034 0 -0.08392236851191634 -0.073343044769479643 0 -0.098653139325870498 -0.078072759780639212 0 -0.087659787804267197 -0.1053579589647711 0 -0.098653139325870498 -0.078072759780639212 0 -0.093078549589984544 -0.062615985124124363 0 -0.08392236851191634 -0.073343044769479643 0 -0.074194079442307964 -0.055813170303027348 0 -0.093078549589984544 -0.062615985124124363 0 -0.08392236851191634 -0.073343044769479643 0 -0.098653139325870498 -0.078072759780639212 0 -0.069502852475768331 -0.077808897141633637 0 -0.074194079442307964 -0.055813170303027348 0 -0.056896828677456698 -0.064957726782933892 0 -0.08392236851191634 -0.073343044769479643 0 -0.069502852475768331 -0.077808897141633637 0 -0.074194079442307964 -0.055813170303027348 0 -0.069502852475768331 -0.077808897141633637 0 -0.074194079442307964 -0.055813170303027348 0 -0.080332479827855185 -0.089132189148723034 0 -0.08392236851191634 -0.073343044769479643 0 -0.069502852475768331 -0.077808897141633637 0 -0.080332479827855185 -0.089132189148723034 0 -0.069502852475768331 -0.077808897141633637 0 -0.064978262980951509 -0.095744309556548293 0 -0.069502852475768331 -0.077808897141633637 0 -0.064978262980951509 -0.095744309556548293 0 -0.053466751150831528 -0.085728027791416223 0 -0.064978262980951509 -0.095744309556548293 0 -0.069413139924847295 -0.1120169614824971 0 -0.055973796613101583 -0.11154457769597879 0 -0.064978262980951509 -0.095744309556548293 0 -0.075595917634480286 -0.1005628547881349 0 -0.069413139924847295 -0.1120169614824971 0 -0.075595917634480286 -0.1005628547881349 0 -0.069413139924847295 -0.1120169614824971 0 -0.087659787804267197 -0.1053579589647711 0 -0.080332479827855185 -0.089132189148723034 0 -0.064978262980951509 -0.095744309556548293 0 -0.075595917634480286 -0.1005628547881349 0 -0.069413139924847295 -0.1120169614824971 0 -0.072499038737136423 -0.12336773177227039 0 -0.087659787804267197 -0.1053579589647711 0 -0.063965210873385206 -0.121372291062271 0 -0.069413139924847295 -0.1120169614824971 0 -0.072499038737136423 -0.12336773177227039 0 -0.063965210873385206 -0.121372291062271 0 -0.069413139924847295 -0.1120169614824971 0 -0.055973796613101583 -0.11154457769597879 0 -0.093729858762440374 -0.11631984424608149 0 -0.087659787804267197 -0.1053579589647711 0 -0.076666436282660663 -0.13264315814890179 0 -0.087659787804267197 -0.1053579589647711 0 -0.076666436282660663 -0.13264315814890179 0 -0.072499038737136423 -0.12336773177227039 0 -0.087659787804267197 -0.1053579589647711 0 -0.076666436282660663 -0.13264315814890179 0 -0.093729858762440374 -0.11631984424608149 0 -0.076666436282660663 -0.13264315814890179 0 -0.096101065320712109 -0.1258911452360538 0 -0.080332479827855185 -0.089132189148723034 0 -0.075595917634480286 -0.1005628547881349 0 -0.087659787804267197 -0.1053579589647711 0 -0.087659787804267197 -0.1053579589647711 0 -0.1004265812101162 -0.1089643198262948 0 -0.1006655882856296 -0.09175432640411825 0 -0.1004265812101162 -0.1089643198262948 0 -0.11487650466180439 -0.1160490357388697 0 -0.1006655882856296 -0.09175432640411825 0 -0.11487650466180439 -0.1160490357388697 0 -0.1117238545323833 -0.101270295352793 0 -0.1006655882856296 -0.09175432640411825 0 -0.11487650466180439 -0.1160490357388697 0 -0.1006655882856296 -0.09175432640411825 0 -0.10451846741591179 -0.1170766955469076 0 -0.11649007265168369 -0.1188075605425003 0 -0.096101065320712109 -0.1258911452360538 0 -0.11649007265168369 -0.1188075605425003 0 -0.096101065320712109 -0.1258911452360538 0 -0.093729858762440374 -0.11631984424608149 0 -0.10451846741591179 -0.1170766955469076 0 -0.096101065320712109 -0.1258911452360538 0 -0.093729858762440374 -0.11631984424608149 0 -0.087659787804267197 -0.1053579589647711 0 -0.1004265812101162 -0.1089643198262948 0 -0.093729858762440374 -0.11631984424608149 0 -0.1004265812101162 -0.1089643198262948 0 -0.10451846741591179 -0.1170766955469076 0 -0.1004265812101162 -0.1089643198262948 0 -0.10451846741591179 -0.1170766955469076 0 -0.11487650466180439 -0.1160490357388697 0 -0.10451846741591179 -0.1170766955469076 0 -0.11649007265168369 -0.1188075605425003 0 -0.11487650466180439 -0.1160490357388697 0 -0.11649007265168369 -0.1188075605425003 0 -0.11487650466180439 -0.1160490357388697 0 -0.11649007265168369 -0.1188075605425003 0 -0.11487650466180439 -0.1160490357388697 0 -0.12599987765418549 -0.11550364740632391 0 -0.11487650466180439 -0.1160490357388697 0 -0.12182531397588869 -0.1044134543712442 0 -0.12599987765418549 -0.11550364740632391 0 -0.11649007265168369 -0.1188075605425003 0 -0.12599987765418549 -0.11550364740632391 0 -0.11649007265168369 -0.1188075605425003 0 -0.12599987765418549 -0.11550364740632391 0 -0.1252704192176744 -0.1172440966648565 0 -0.11487650466180439 -0.1160490357388697 0 -0.1117238545323833 -0.101270295352793 0 -0.12182531397588869 -0.1044134543712442 0 -0.11487650466180439 -0.1160490357388697 0 -0.1117238545323833 -0.101270295352793 0 -0.1117238545323833 -0.101270295352793 0 -0.12182531397588869 -0.1044134543712442 0 -0.12067370026095731 -0.092005587950159118 0 -0.1117238545323833 -0.101270295352793 0 -0.12067370026095731 -0.092005587950159118 0 -0.1096737611153919 -0.085603154438093937 0 -0.12067370026095731 -0.092005587950159118 0 -0.1179915177927765 -0.081714148456293267 0 -0.12737817104852411 -0.080741270387750683 0 -0.1179915177927765 -0.081714148456293267 0 -0.1096737611153919 -0.085603154438093937 0 -0.1121838893690176 -0.075324773267663084 0 -0.12067370026095731 -0.092005587950159118 0 -0.1179915177927765 -0.081714148456293267 0 -0.1096737611153919 -0.085603154438093937 0 -0.087659787804267197 -0.1053579589647711 0 -0.1006655882856296 -0.09175432640411825 0 -0.098653139325870498 -0.078072759780639212 0 -0.1117238545323833 -0.101270295352793 0 -0.1096737611153919 -0.085603154438093937 0 -0.1006655882856296 -0.09175432640411825 0 -0.1096737611153919 -0.085603154438093937 0 -0.098653139325870498 -0.078072759780639212 0 -0.1121838893690176 -0.075324773267663084 0 -0.1096737611153919 -0.085603154438093937 0 -0.1006655882856296 -0.09175432640411825 0 -0.098653139325870498 -0.078072759780639212 0 -0.093078549589984544 -0.062615985124124363 0 -0.098653139325870498 -0.078072759780639212 0 -0.10811729135418539 -0.065091756711675844 0 -0.098653139325870498 -0.078072759780639212 0 -0.10811729135418539 -0.065091756711675844 0 -0.1121838893690176 -0.075324773267663084 0 -0.10811729135418539 -0.065091756711675844 0 -0.1121838893690176 -0.075324773267663084 0 -0.1232756904161693 -0.070411489051666373 0 -0.1179915177927765 -0.081714148456293267 0 -0.1121838893690176 -0.075324773267663084 0 -0.1232756904161693 -0.070411489051666373 0 -0.1179915177927765 -0.081714148456293267 0 -0.1232756904161693 -0.070411489051666373 0 -0.12737817104852411 -0.080741270387750683 0 -0.10811729135418539 -0.065091756711675844 0 -0.1232756904161693 -0.070411489051666373 0 -0.12131955324210091 -0.059181462630683621 0 -0.12131955324210091 -0.059181462630683621 0 -0.1197314047957487 -0.044466417495601512 0 -0.1050545945384474 -0.053665832172193451 0 -0.10811729135418539 -0.065091756711675844 0 -0.12131955324210091 -0.059181462630683621 0 -0.1050545945384474 -0.053665832172193451 0 -0.12131955324210091 -0.059181462630683621 0 -0.1197314047957487 -0.044466417495601512 0 -0.1315211872564446 -0.050314657740016588 0 -0.1197314047957487 -0.044466417495601512 0 -0.1068389650378473 -0.041887213400145028 0 -0.1185057960264221 -0.028529017004706999 0 -0.1197314047957487 -0.044466417495601512 0 -0.1185057960264221 -0.028529017004706999 0 -0.13361245343545181 -0.030305793086055629 0 -0.1197314047957487 -0.044466417495601512 0 -0.1068389650378473 -0.041887213400145028 0 -0.1050545945384474 -0.053665832172193451 0 -0.1068389650378473 -0.041887213400145028 0 -0.093783258566811134 -0.025165556691727101 0 -0.092485611966423034 -0.037114626304880938 0 -0.1068389650378473 -0.041887213400145028 0 -0.090434917852185284 -0.047588291663230448 0 -0.092485611966423034 -0.037114626304880938 0 -0.093078549589984544 -0.062615985124124363 0 -0.1050545945384474 -0.053665832172193451 0 -0.090434917852185284 -0.047588291663230448 0 -0.1068389650378473 -0.041887213400145028 0 -0.1050545945384474 -0.053665832172193451 0 -0.090434917852185284 -0.047588291663230448 0 -0.093078549589984544 -0.062615985124124363 0 -0.10811729135418539 -0.065091756711675844 0 -0.1050545945384474 -0.053665832172193451 0 -0.1236122261121546 -0.0078425818954372464 0 -0.10868121072477301 -0.016513669919031759 0 -0.1099986790197032 0.001632030897992919 0 -0.1236122261121546 -0.0078425818954372464 0 -0.10868121072477301 -0.016513669919031759 0 -0.1068389650378473 -0.041887213400145028 0 -0.1185057960264221 -0.028529017004706999 0 -0.10868121072477301 -0.016513669919031759 0 -0.1236122261121546 -0.0078425818954372464 0 -0.1185057960264221 -0.028529017004706999 0 -0.10868121072477301 -0.016513669919031759 0 -0.1068389650378473 -0.041887213400145028 0 -0.104837062895502 -0.02019526763349536 0 -0.10868121072477301 -0.016513669919031759 0 -0.1068389650378473 -0.041887213400145028 0 -0.10868121072477301 -0.016513669919031759 0 -0.1068389650378473 -0.041887213400145028 0 -0.093783258566811134 -0.025165556691727101 0 -0.104837062895502 -0.02019526763349536 0 -0.093783258566811134 -0.025165556691727101 0 -0.10868121072477301 -0.016513669919031759 0 -0.093783258566811134 -0.025165556691727101 0 -0.10868121072477301 -0.016513669919031759 0 -0.095747033840698895 -0.01524308727968717 0 -0.093783258566811134 -0.025165556691727101 0 -0.104837062895502 -0.02019526763349536 0 -0.10868121072477301 -0.016513669919031759 0 -0.104837062895502 -0.02019526763349536 0 -0.10868121072477301 -0.016513669919031759 0 -0.10868121072477301 -0.016513669919031759 0 -0.1099986790197032 0.001632030897992919 0 -0.10868121072477301 -0.016513669919031759 0 -0.097318817554363779 -0.0057286893867275063 0 -0.1099986790197032 0.001632030897992919 0 -0.10868121072477301 -0.016513669919031759 0 -0.095747033840698895 -0.01524308727968717 0 -0.097318817554363779 -0.0057286893867275063 0 -0.097318817554363779 -0.0057286893867275063 0 -0.083204848516847923 -0.01356443312126232 0 -0.087524390624848222 0.006688577221896419 0 -0.083204848516847923 -0.01356443312126232 0 -0.087524390624848222 0.006688577221896419 0 -0.083204848516847923 -0.01356443312126232 0 -0.065966226425225663 -0.0060274066981548767 0 -0.087524390624848222 0.006688577221896419 0 -0.095747033840698895 -0.01524308727968717 0 -0.097318817554363779 -0.0057286893867275063 0 -0.083204848516847923 -0.01356443312126232 0 -0.083204848516847923 -0.01356443312126232 0 -0.07434952191593272 -0.025061702399879319 0 -0.078885306408848499 -0.033817443464421199 0 -0.093783258566811134 -0.025165556691727101 0 -0.083204848516847923 -0.01356443312126232 0 -0.078885306408848499 -0.033817443464421199 0 -0.083204848516847923 -0.01356443312126232 0 -0.078885306408848499 -0.033817443464421199 0 -0.093783258566811134 -0.025165556691727101 0 -0.095747033840698895 -0.01524308727968717 0 -0.083204848516847923 -0.01356443312126232 0 -0.093783258566811134 -0.025165556691727101 0 -0.078885306408848499 -0.033817443464421199 0 -0.07434952191593272 -0.025061702399879319 0 -0.065966226425225663 -0.0060274066981548767 0 -0.069170669720302794 -0.035546986895945307 0 -0.065966226425225663 -0.0060274066981548767 0 -0.069170669720302794 -0.035546986895945307 0 -0.060499849025326763 -0.027113091598361162 0 -0.065966226425225663 -0.0060274066981548767 0 -0.069170669720302794 -0.035546986895945307 0 -0.083204848516847923 -0.01356443312126232 0 -0.07434952191593272 -0.025061702399879319 0 -0.065966226425225663 -0.0060274066981548767 0 -0.093078549589984544 -0.062615985124124363 0 -0.090434917852185284 -0.047588291663230448 0 -0.074194079442307964 -0.055813170303027348 0 -0.090434917852185284 -0.047588291663230448 0 -0.078885306408848499 -0.033817443464421199 0 -0.074194079442307964 -0.055813170303027348 0 -0.090434917852185284 -0.047588291663230448 0 -0.092485611966423034 -0.037114626304880938 0 -0.078885306408848499 -0.033817443464421199 0 -0.093783258566811134 -0.025165556691727101 0 -0.092485611966423034 -0.037114626304880938 0 -0.078885306408848499 -0.033817443464421199 0 -0.078885306408848499 -0.033817443464421199 0 -0.074194079442307964 -0.055813170303027348 0 -0.070330568719734213 -0.04601515277555971 0 -0.074520558508438778 -0.036352241819612927 0 -0.069170669720302794 -0.035546986895945307 0 -0.078885306408848499 -0.033817443464421199 0 -0.070330568719734213 -0.04601515277555971 0 -0.074194079442307964 -0.055813170303027348 0 -0.078885306408848499 -0.033817443464421199 0 -0.070330568719734213 -0.04601515277555971 0 -0.074520558508438778 -0.036352241819612927 0 -0.07434952191593272 -0.025061702399879319 0 -0.074520558508438778 -0.036352241819612927 0 -0.069170669720302794 -0.035546986895945307 0 -0.07434952191593272 -0.025061702399879319 0 -0.078885306408848499 -0.033817443464421199 0 -0.074520558508438778 -0.036352241819612927 0 -0.078885306408848499 -0.033817443464421199 0 -0.074520558508438778 -0.036352241819612927 0 -0.069170669720302794 -0.035546986895945307 0 -0.063362765034716981 -0.039125320738808887 0 -0.060499849025326763 -0.027113091598361162 0 -0.070330568719734213 -0.04601515277555971 0 -0.069170669720302794 -0.035546986895945307 0 -0.063362765034716981 -0.039125320738808887 0 -0.070330568719734213 -0.04601515277555971 0 -0.063362765034716981 -0.039125320738808887 0 -0.059858302453952031 -0.048952151576379901 0 -0.070330568719734213 -0.04601515277555971 0 -0.074194079442307964 -0.055813170303027348 0 -0.059858302453952031 -0.048952151576379901 0 -0.074194079442307964 -0.055813170303027348 0 -0.059858302453952031 -0.048952151576379901 0 -0.056896828677456698 -0.064957726782933892 0 -0.059858302453952031 -0.048952151576379901 0 -0.044923942794737923 -0.054691691027005551 0 -0.056896828677456698 -0.064957726782933892 0 -0.059858302453952031 -0.048952151576379901 0 -0.049734296148808359 -0.042485020192698987 0 -0.044923942794737923 -0.054691691027005551 0 -0.059858302453952031 -0.048952151576379901 0 -0.056954435254269083 -0.037999220847798339 0 -0.049734296148808359 -0.042485020192698987 0 -0.063362765034716981 -0.039125320738808887 0 -0.059858302453952031 -0.048952151576379901 0 -0.056954435254269083 -0.037999220847798339 0 -0.063362765034716981 -0.039125320738808887 0 -0.056954435254269083 -0.037999220847798339 0 -0.060499849025326763 -0.027113091598361162 0 -0.056954435254269083 -0.037999220847798339 0 -0.047200384798774982 -0.033276672805742737 0 -0.049734296148808359 -0.042485020192698987 0 -0.056954435254269083 -0.037999220847798339 0 -0.047200384798774982 -0.033276672805742737 0 -0.052646608023139009 -0.028133593701314161 0 -0.049734296148808359 -0.042485020192698987 0 -0.038309454021287423 -0.037485304465473157 0 -0.044923942794737923 -0.054691691027005551 0 -0.047200384798774982 -0.033276672805742737 0 -0.038309454021287423 -0.037485304465473157 0 -0.041340635405623813 -0.023634308371219701 0 -0.047200384798774982 -0.033276672805742737 0 -0.049734296148808359 -0.042485020192698987 0 -0.038309454021287423 -0.037485304465473157 0 -0.038309454021287423 -0.037485304465473157 0 -0.03208775864781041 -0.029071100487059381 0 -0.02346135141751398 -0.035355058972579741 0 -0.038309454021287423 -0.037485304465473157 0 -0.044923942794737923 -0.054691691027005551 0 -0.02964595896144296 -0.052602220053598318 0 -0.044923942794737923 -0.054691691027005551 0 -0.02964595896144296 -0.052602220053598318 0 -0.02933827121860667 -0.069671405985324328 0 -0.065966226425225663 -0.0060274066981548767 0 -0.052851520708108592 -0.013709279578128279 0 -0.060499849025326763 -0.027113091598361162 0 -0.065966226425225663 -0.0060274066981548767 0 -0.052851520708108592 -0.013709279578128279 0 -0.041285176168578859 0.002941795093874656 0 -0.052851520708108592 -0.013709279578128279 0 -0.052646608023139009 -0.028133593701314161 0 -0.041340635405623813 -0.023634308371219701 0 -0.052851520708108592 -0.013709279578128279 0 -0.060499849025326763 -0.027113091598361162 0 -0.052646608023139009 -0.028133593701314161 0 -0.056954435254269083 -0.037999220847798339 0 -0.060499849025326763 -0.027113091598361162 0 -0.052646608023139009 -0.028133593701314161 0 -0.047200384798774982 -0.033276672805742737 0 -0.052646608023139009 -0.028133593701314161 0 -0.041340635405623813 -0.023634308371219701 0 -0.041340635405623813 -0.023634308371219701 0 -0.03208775864781041 -0.029071100487059381 0 -0.025239593746816429 -0.019809730138964948 0 -0.041340635405623813 -0.023634308371219701 0 -0.035761471768298317 -0.01187809368403442 0 -0.025239593746816429 -0.019809730138964948 0 -0.052851520708108592 -0.013709279578128279 0 -0.041340635405623813 -0.023634308371219701 0 -0.035761471768298317 -0.01187809368403442 0 -0.038309454021287423 -0.037485304465473157 0 -0.041340635405623813 -0.023634308371219701 0 -0.03208775864781041 -0.029071100487059381 0 -0.052851520708108592 -0.013709279578128279 0 -0.035761471768298317 -0.01187809368403442 0 -0.041285176168578859 0.002941795093874656 0 -0.035761471768298317 -0.01187809368403442 0 -0.018090432812363919 -0.0051789454257338127 0 -0.041285176168578859 0.002941795093874656 0 -0.035761471768298317 -0.01187809368403442 0 -0.018090432812363919 -0.0051789454257338127 0 -0.025239593746816429 -0.019809730138964948 0 -0.018090432812363919 -0.0051789454257338127 0 -0.025239593746816429 -0.019809730138964948 0 -0.013061188317162169 -0.01291647294893521 0 -0.025239593746816429 -0.019809730138964948 0 -0.011210459174411659 -0.020702551241823321 0 -0.013061188317162169 -0.01291647294893521 0 -0.03208775864781041 -0.029071100487059381 0 -0.025239593746816429 -0.019809730138964948 0 -0.02346135141751398 -0.035355058972579741 0 -0.025239593746816429 -0.019809730138964948 0 -0.011210459174411659 -0.020702551241823321 0 -0.02346135141751398 -0.035355058972579741 0 -0.011210459174411659 -0.020702551241823321 0 -0.02346135141751398 -0.035355058972579741 0 -0.003476286599935095 -0.036271506326322138 0 -0.011210459174411659 -0.020702551241823321 0 -0.003476286599935095 -0.036271506326322138 0 0.0014199230119024339 -0.021574900853890581 0 -0.011210459174411659 -0.020702551241823321 0 0.0006213327713558641 -0.0089396406014967747 0 0.0014199230119024339 -0.021574900853890581 0 -0.001488115343110989 -0.0087397640735148233 0 -0.01693898921702304 0.0117618500821222 0 0.002394805847480138 -0.0071764921779012506 0 -0.018090432812363919 -0.0051789454257338127 0 -0.001488115343110989 -0.0087397640735148233 0 -0.01693898921702304 0.0117618500821222 0 -0.018090432812363919 -0.0051789454257338127 0 -0.013061188317162169 -0.01291647294893521 0 -0.001488115343110989 -0.0087397640735148233 0 -0.011210459174411659 -0.020702551241823321 0 -0.013061188317162169 -0.01291647294893521 0 -0.001488115343110989 -0.0087397640735148233 0 -0.011210459174411659 -0.020702551241823321 0 -0.001488115343110989 -0.0087397640735148233 0 0.0006213327713558641 -0.0089396406014967747 0 -0.011210459174411659 -0.020702551241823321 0 0.0006213327713558641 -0.0089396406014967747 0 -0.001488115343110989 -0.0087397640735148233 0 0.0006213327713558641 -0.0089396406014967747 0 -0.02964595896144296 -0.052602220053598318 0 -0.01526094355706222 -0.064007872731860899 0 -0.02933827121860667 -0.069671405985324328 0 -0.02964595896144296 -0.052602220053598318 0 -0.01441383554066036 -0.048546622235137428 0 -0.01526094355706222 -0.064007872731860899 0 -0.02964595896144296 -0.052602220053598318 0 -0.02346135141751398 -0.035355058972579741 0 -0.01441383554066036 -0.048546622235137428 0 -0.038309454021287423 -0.037485304465473157 0 -0.02964595896144296 -0.052602220053598318 0 -0.02346135141751398 -0.035355058972579741 0 -0.003476286599935095 -0.036271506326322138 0 -0.00022463716734756899 -0.054496453091326037 0 -0.01441383554066036 -0.048546622235137428 0 -0.02346135141751398 -0.035355058972579741 0 -0.003476286599935095 -0.036271506326322138 0 -0.01441383554066036 -0.048546622235137428 0 -0.00022463716734756899 -0.054496453091326037 0 -0.01441383554066036 -0.048546622235137428 0 -0.01526094355706222 -0.064007872731860899 0 -0.00022463716734756899 -0.054496453091326037 0 -0.01526094355706222 -0.064007872731860899 0 0.003886405537072308 -0.074985287574065307 0 -0.01526094355706222 -0.064007872731860899 0 -0.020242120847587721 -0.083511357097035596 0 0.003886405537072308 -0.074985287574065307 0 -0.0041979068999104599 -0.092692987180200151 0 -0.020242120847587721 -0.083511357097035596 0 0.003886405537072308 -0.074985287574065307 0 -0.020242120847587721 -0.083511357097035596 0 -0.037149979327061843 -0.086545702414286968 0 -0.027814197350204149 -0.1002222595639333 0 -0.020242120847587721 -0.083511357097035596 0 -0.02933827121860667 -0.069671405985324328 0 -0.037149979327061843 -0.086545702414286968 0 -0.0041979068999104599 -0.092692987180200151 0 -0.020242120847587721 -0.083511357097035596 0 -0.027814197350204149 -0.1002222595639333 0 -0.01526094355706222 -0.064007872731860899 0 -0.020242120847587721 -0.083511357097035596 0 -0.02933827121860667 -0.069671405985324328 0 -0.044923942794737923 -0.054691691027005551 0 -0.02933827121860667 -0.069671405985324328 0 -0.043795121567553899 -0.073512069705660321 0 -0.02933827121860667 -0.069671405985324328 0 -0.043795121567553899 -0.073512069705660321 0 -0.037149979327061843 -0.086545702414286968 0 -0.043795121567553899 -0.073512069705660321 0 -0.037149979327061843 -0.086545702414286968 0 -0.053466751150831528 -0.085728027791416223 0 -0.037149979327061843 -0.086545702414286968 0 -0.053466751150831528 -0.085728027791416223 0 -0.046895924631556341 -0.099640457450003272 0 -0.064978262980951509 -0.095744309556548293 0 -0.053466751150831528 -0.085728027791416223 0 -0.046895924631556341 -0.099640457450003272 0 -0.069502852475768331 -0.077808897141633637 0 -0.053466751150831528 -0.085728027791416223 0 -0.056896828677456698 -0.064957726782933892 0 -0.043795121567553899 -0.073512069705660321 0 -0.053466751150831528 -0.085728027791416223 0 -0.056896828677456698 -0.064957726782933892 0 -0.044923942794737923 -0.054691691027005551 0 -0.043795121567553899 -0.073512069705660321 0 -0.056896828677456698 -0.064957726782933892 0 -0.055973796613101583 -0.11154457769597879 0 -0.041972484009239593 -0.11125691353498 0 -0.051469099840166933 -0.12560748285855791 0 -0.063965210873385206 -0.121372291062271 0 -0.055973796613101583 -0.11154457769597879 0 -0.051469099840166933 -0.12560748285855791 0 -0.064978262980951509 -0.095744309556548293 0 -0.055973796613101583 -0.11154457769597879 0 -0.046895924631556341 -0.099640457450003272 0 -0.055973796613101583 -0.11154457769597879 0 -0.046895924631556341 -0.099640457450003272 0 -0.041972484009239593 -0.11125691353498 0 -0.046895924631556341 -0.099640457450003272 0 -0.041972484009239593 -0.11125691353498 0 -0.027814197350204149 -0.1002222595639333 0 -0.037149979327061843 -0.086545702414286968 0 -0.046895924631556341 -0.099640457450003272 0 -0.027814197350204149 -0.1002222595639333 0 -0.027958050649480481 -0.11798595469309241 0 -0.051469099840166933 -0.12560748285855791 0 -0.041972484009239593 -0.11125691353498 0 -0.027958050649480481 -0.11798595469309241 0 -0.051469099840166933 -0.12560748285855791 0 -0.041972484009239593 -0.11125691353498 0 -0.027958050649480481 -0.11798595469309241 0 -0.027814197350204149 -0.1002222595639333 0 -0.027958050649480481 -0.11798595469309241 0 -0.051469099840166933 -0.12560748285855791 0 -0.035009396245865847 -0.13138946507283039 0 -0.027958050649480481 -0.11798595469309241 0 -0.027814197350204149 -0.1002222595639333 0 -0.004447001458793981 -0.1103644265276268 0 -0.027958050649480481 -0.11798595469309241 0 -0.004447001458793981 -0.1103644265276268 0 -0.0041979068999104599 -0.092692987180200151 0 -0.027814197350204149 -0.1002222595639333 0 -0.004447001458793981 -0.1103644265276268 0 -0.027958050649480481 -0.11798595469309241 0 -0.004447001458793981 -0.1103644265276268 0 -0.0095835093286126792 -0.13067357323387099 0 -0.0095835093286126792 -0.13067357323387099 0 -0.02380622872257708 -0.13863305153198521 0 -0.011420010772425999 -0.14358906931216731 0 -0.0095835093286126792 -0.13067357323387099 0 -0.02380622872257708 -0.13863305153198521 0 -0.035009396245865847 -0.13138946507283039 0 -0.0095835093286126792 -0.13067357323387099 0 -0.035009396245865847 -0.13138946507283039 0 -0.027958050649480481 -0.11798595469309241 0 -0.0095835093286126792 -0.13067357323387099 0 -0.035009396245865847 -0.13138946507283039 0 -0.02380622872257708 -0.13863305153198521 0 -0.02156928320199206 -0.15178510772423359 0 -0.048274716116422638 -0.14250705937413011 0 -0.02380622872257708 -0.13863305153198521 0 -0.02156928320199206 -0.15178510772423359 0 -0.011420010772425999 -0.14358906931216731 0 -0.02156928320199206 -0.15178510772423359 0 0.0051361497124387812 -0.16106315607433669 0 0.00014451492137988051 -0.1496259991592768 0 -0.0095835093286126792 -0.13067357323387099 0 -0.011420010772425999 -0.14358906931216731 0 0.00014451492137988051 -0.1496259991592768 0 -0.02156928320199206 -0.15178510772423359 0 -0.011420010772425999 -0.14358906931216731 0 0.00014451492137988051 -0.1496259991592768 0 -0.011473423231508561 -0.16625464439919799 0 -0.001198061652550745 -0.17280609881212911 0 0.0051361497124387812 -0.16106315607433669 0 -0.011473423231508561 -0.16625464439919799 0 0.0051361497124387812 -0.16106315607433669 0 -0.02156928320199206 -0.15178510772423359 0 -0.011473423231508561 -0.16625464439919799 0 0.0051361497124387812 -0.16106315607433669 0 -0.02156928320199206 -0.15178510772423359 0 0.0051361497124387812 -0.16106315607433669 0 -0.011473423231508561 -0.16625464439919799 0 -0.011684220618858611 -0.1828185141711022 0 -0.001198061652550745 -0.17280609881212911 0 -0.011684220618858611 -0.1828185141711022 0 -0.001198061652550745 -0.17280609881212911 0 0.0039750345954989988 -0.18651425943902311 0 -0.011684220618858611 -0.1828185141711022 0 -0.028082996175455729 -0.1714461327240597 0 -0.02834353692262364 -0.19660149069868879 0 -0.011473423231508561 -0.16625464439919799 0 -0.011684220618858611 -0.1828185141711022 0 -0.028082996175455729 -0.1714461327240597 0 -0.028082996175455729 -0.1714461327240597 0 -0.035076942590977253 -0.17251068978070239 0 -0.02834353692262364 -0.19660149069868879 0 -0.011473423231508561 -0.16625464439919799 0 -0.028082996175455729 -0.1714461327240597 0 -0.011473423231508561 -0.16625464439919799 0 -0.022251169661310358 -0.16246870980996381 0 -0.028082996175455729 -0.1714461327240597 0 -0.02156928320199206 -0.15178510772423359 0 -0.011473423231508561 -0.16625464439919799 0 -0.022251169661310358 -0.16246870980996381 0 -0.022251169661310358 -0.16246870980996381 0 -0.028082996175455729 -0.1714461327240597 0 -0.031809345178707003 -0.1640816166355436 0 -0.02156928320199206 -0.15178510772423359 0 -0.022251169661310358 -0.16246870980996381 0 -0.031809345178707003 -0.1640816166355436 0 -0.02156928320199206 -0.15178510772423359 0 -0.031809345178707003 -0.1640816166355436 0 -0.040578875443760723 -0.15702635465982459 0 -0.031809345178707003 -0.1640816166355436 0 -0.043296803998745907 -0.16925270511447771 0 -0.040578875443760723 -0.15702635465982459 0 -0.031809345178707003 -0.1640816166355436 0 -0.043296803998745907 -0.16925270511447771 0 -0.035076942590977253 -0.17251068978070239 0 -0.028082996175455729 -0.1714461327240597 0 -0.031809345178707003 -0.1640816166355436 0 -0.035076942590977253 -0.17251068978070239 0 -0.043296803998745907 -0.16925270511447771 0 -0.040578875443760723 -0.15702635465982459 0 -0.04778301199147586 -0.16221110159835439 0 -0.035076942590977253 -0.17251068978070239 0 -0.045101912546314182 -0.17781348514508699 0 -0.045384173352602211 -0.1896086705553881 0 -0.035076942590977253 -0.17251068978070239 0 -0.02834353692262364 -0.19660149069868879 0 -0.035076942590977253 -0.17251068978070239 0 -0.02834353692262364 -0.19660149069868879 0 -0.045384173352602211 -0.1896086705553881 0 -0.043296803998745907 -0.16925270511447771 0 -0.035076942590977253 -0.17251068978070239 0 -0.045101912546314182 -0.17781348514508699 0 -0.043296803998745907 -0.16925270511447771 0 -0.045101912546314182 -0.17781348514508699 0 -0.050116399936897628 -0.17439367801967379 0 -0.053826302631423108 -0.18719098183538219 0 -0.0513777658433901 -0.18144884671813011 0 -0.045384173352602211 -0.1896086705553881 0 -0.045101912546314182 -0.17781348514508699 0 -0.0513777658433901 -0.18144884671813011 0 -0.045384173352602211 -0.1896086705553881 0 -0.053826302631423108 -0.18719098183538219 0 -0.0513777658433901 -0.18144884671813011 0 -0.05724186851000123 -0.18306086139846869 0 -0.050116399936897628 -0.17439367801967379 0 -0.056462731779267583 -0.17707926816758701 0 -0.053733136905861317 -0.1679726515631198 0 -0.0513777658433901 -0.18144884671813011 0 -0.050116399936897628 -0.17439367801967379 0 -0.056462731779267583 -0.17707926816758701 0 -0.045101912546314182 -0.17781348514508699 0 -0.0513777658433901 -0.18144884671813011 0 -0.050116399936897628 -0.17439367801967379 0 -0.061772453938110018 -0.1722676601875073 0 -0.056462731779267583 -0.17707926816758701 0 -0.064464826801710964 -0.18158017590305259 0 -0.061772453938110018 -0.1722676601875073 0 -0.056462731779267583 -0.17707926816758701 0 -0.053733136905861317 -0.1679726515631198 0 -0.056462731779267583 -0.17707926816758701 0 -0.05724186851000123 -0.18306086139846869 0 -0.064464826801710964 -0.18158017590305259 0 -0.0513777658433901 -0.18144884671813011 0 -0.056462731779267583 -0.17707926816758701 0 -0.05724186851000123 -0.18306086139846869 0 -0.05724186851000123 -0.18306086139846869 0 -0.060077715494214402 -0.1880050343681916 0 -0.064464826801710964 -0.18158017590305259 0 -0.053826302631423108 -0.18719098183538219 0 -0.05724186851000123 -0.18306086139846869 0 -0.060077715494214402 -0.1880050343681916 0 -0.04778301199147586 -0.16221110159835439 0 -0.053733136905861317 -0.1679726515631198 0 -0.054318116428342743 -0.1550095253668563 0 -0.040578875443760723 -0.15702635465982459 0 -0.04778301199147586 -0.16221110159835439 0 -0.054318116428342743 -0.1550095253668563 0 -0.043296803998745907 -0.16925270511447771 0 -0.04778301199147586 -0.16221110159835439 0 -0.053733136905861317 -0.1679726515631198 0 -0.043296803998745907 -0.16925270511447771 0 -0.050116399936897628 -0.17439367801967379 0 -0.053733136905861317 -0.1679726515631198 0 -0.061772453938110018 -0.1722676601875073 0 -0.053733136905861317 -0.1679726515631198 0 -0.064150653413557149 -0.1630994165534029 0 -0.053733136905861317 -0.1679726515631198 0 -0.054318116428342743 -0.1550095253668563 0 -0.064150653413557149 -0.1630994165534029 0 -0.054318116428342743 -0.1550095253668563 0 -0.06193597557114254 -0.14487761168208729 0 -0.07017092070895159 -0.14876485096333639 0 -0.040578875443760723 -0.15702635465982459 0 -0.054318116428342743 -0.1550095253668563 0 -0.048274716116422638 -0.14250705937413011 0 -0.054318116428342743 -0.1550095253668563 0 -0.048274716116422638 -0.14250705937413011 0 -0.06193597557114254 -0.14487761168208729 0 -0.048274716116422638 -0.14250705937413011 0 -0.06193597557114254 -0.14487761168208729 0 -0.074980149030852788 -0.13322901102402521 0 -0.048274716116422638 -0.14250705937413011 0 -0.074980149030852788 -0.13322901102402521 0 -0.048274716116422638 -0.14250705937413011 0 -0.060435283163119087 -0.13210535691178979 0 -0.035009396245865847 -0.13138946507283039 0 -0.060435283163119087 -0.13210535691178979 0 -0.051469099840166933 -0.12560748285855791 0 -0.035009396245865847 -0.13138946507283039 0 -0.060435283163119087 -0.13210535691178979 0 -0.051469099840166933 -0.12560748285855791 0 -0.074980149030852788 -0.13322901102402521 0 -0.048274716116422638 -0.14250705937413011 0 -0.060435283163119087 -0.13210535691178979 0 -0.074980149030852788 -0.13322901102402521 0 -0.060435283163119087 -0.13210535691178979 0 -0.035009396245865847 -0.13138946507283039 0 -0.02380622872257708 -0.13863305153198521 0 -0.048274716116422638 -0.14250705937413011 0 -0.035009396245865847 -0.13138946507283039 0 -0.02156928320199206 -0.15178510772423359 0 -0.048274716116422638 -0.14250705937413011 0 -0.02156928320199206 -0.15178510772423359 0 -0.040578875443760723 -0.15702635465982459 0 -0.048274716116422638 -0.14250705937413011 0 -0.012379740604400009 -0.25371681360357518 0 -0.01487672558591642 -0.24478309253466149 0 -0.032983601381048028 -0.2367885997845538 0 -0.012379740604400009 -0.25371681360357518 0 -0.032983601381048028 -0.2367885997845538 0 -0.012379740604400009 -0.25371681360357518 0 -0.027326811110253871 -0.25121816526868662 0 -0.032983601381048028 -0.2367885997845538 0 -0.012379740604400009 -0.25371681360357518 0 -0.01487672558591642 -0.24478309253466149 0 -0.0050603712554523096 -0.25502580822232418 0 -0.01487672558591642 -0.24478309253466149 0 -0.0012779613340340411 -0.24176494305706761 0 -0.01487672558591642 -0.24478309253466149 0 -0.0012779613340340411 -0.24176494305706761 0 -0.0098443816872556354 -0.23359128343904409 0 -0.01487672558591642 -0.24478309253466149 0 -0.0098443816872556354 -0.23359128343904409 0 -0.02161013125427003 -0.22069229161667511 0 -0.0098443816872556354 -0.23359128343904409 0 -0.0016127085748020571 -0.22712480654777251 0 -0.02161013125427003 -0.22069229161667511 0 -0.0012779613340340411 -0.24176494305706761 0 -0.0098443816872556354 -0.23359128343904409 0 -0.0016127085748020571 -0.22712480654777251 0 -0.02161013125427003 -0.22069229161667511 0 -0.037749047324124332 -0.2222456785719269 0 -0.032983601381048028 -0.2367885997845538 0 -0.01487672558591642 -0.24478309253466149 0 -0.02161013125427003 -0.22069229161667511 0 -0.01487672558591642 -0.24478309253466149 0 -0.02161013125427003 -0.22069229161667511 0 -0.032983601381048028 -0.2367885997845538 0 -0.02161013125427003 -0.22069229161667511 0 -0.0048422933519348798 -0.20657909219758999 0 -0.02834353692262364 -0.19660149069868879 0 -0.02161013125427003 -0.22069229161667511 0 -0.02834353692262364 -0.19660149069868879 0 -0.04042466355054887 -0.21142906939722611 0 -0.02161013125427003 -0.22069229161667511 0 -0.02834353692262364 -0.19660149069868879 0 -0.0016127085748020571 -0.22712480654777251 0 -0.02161013125427003 -0.22069229161667511 0 -0.0048422933519348798 -0.20657909219758999 0 -0.011684220618858611 -0.1828185141711022 0 -0.0048422933519348798 -0.20657909219758999 0 -0.02834353692262364 -0.19660149069868879 0 -0.011684220618858611 -0.1828185141711022 0 -0.0048422933519348798 -0.20657909219758999 0 0.0039750345954989988 -0.18651425943902311 0 -0.02834353692262364 -0.19660149069868879 0 -0.045384173352602211 -0.1896086705553881 0 -0.048680880466514129 -0.20143667782743011 0 -0.045384173352602211 -0.1896086705553881 0 -0.054600152190027743 -0.1938329285883432 0 -0.048680880466514129 -0.20143667782743011 0 -0.053826302631423108 -0.18719098183538219 0 -0.045384173352602211 -0.1896086705553881 0 -0.054600152190027743 -0.1938329285883432 0 -0.053826302631423108 -0.18719098183538219 0 -0.054600152190027743 -0.1938329285883432 0 -0.060077715494214402 -0.1880050343681916 0 -0.054600152190027743 -0.1938329285883432 0 -0.062207823669324508 -0.19415899925277841 0 -0.060077715494214402 -0.1880050343681916 0 -0.05727161150443684 -0.20059064904333551 0 -0.063912376375580449 -0.2061057797213553 0 -0.063099371948942468 -0.19895763039768499 0 -0.062207823669324508 -0.19415899925277841 0 -0.05727161150443684 -0.20059064904333551 0 -0.063099371948942468 -0.19895763039768499 0 -0.054600152190027743 -0.1938329285883432 0 -0.062207823669324508 -0.19415899925277841 0 -0.05727161150443684 -0.20059064904333551 0 -0.054600152190027743 -0.1938329285883432 0 -0.05727161150443684 -0.20059064904333551 0 -0.048680880466514129 -0.20143667782743011 0 -0.05727161150443684 -0.20059064904333551 0 -0.048680880466514129 -0.20143667782743011 0 -0.053253465001542127 -0.20792698589572001 0 -0.052910920334218993 -0.21967129177291539 0 -0.069612749235620427 -0.2166114240769427 0 -0.064663204576268285 -0.2095762323379651 0 -0.048680880466514129 -0.20143667782743011 0 -0.053253465001542127 -0.20792698589572001 0 -0.04042466355054887 -0.21142906939722611 0 -0.05727161150443684 -0.20059064904333551 0 -0.053253465001542127 -0.20792698589572001 0 -0.063912376375580449 -0.2061057797213553 0 -0.053253465001542127 -0.20792698589572001 0 -0.052910920334218993 -0.21967129177291539 0 -0.063912376375580449 -0.2061057797213553 0 -0.052910920334218993 -0.21967129177291539 0 -0.064663204576268285 -0.2095762323379651 0 -0.052910920334218993 -0.21967129177291539 0 -0.063912376375580449 -0.2061057797213553 0 -0.064663204576268285 -0.2095762323379651 0 -0.052910920334218993 -0.21967129177291539 0 -0.063912376375580449 -0.2061057797213553 0 -0.053253465001542127 -0.20792698589572001 0 -0.04042466355054887 -0.21142906939722611 0 -0.052910920334218993 -0.21967129177291539 0 -0.02834353692262364 -0.19660149069868879 0 -0.048680880466514129 -0.20143667782743011 0 -0.04042466355054887 -0.21142906939722611 0 -0.02161013125427003 -0.22069229161667511 0 -0.04042466355054887 -0.21142906939722611 0 -0.037749047324124332 -0.2222456785719269 0 -0.04042466355054887 -0.21142906939722611 0 -0.037749047324124332 -0.2222456785719269 0 -0.052910920334218993 -0.21967129177291539 0 -0.037749047324124332 -0.2222456785719269 0 -0.052910920334218993 -0.21967129177291539 0 -0.032983601381048028 -0.2367885997845538 0 -0.052910920334218993 -0.21967129177291539 0 -0.032983601381048028 -0.2367885997845538 0 -0.052910920334218993 -0.21967129177291539 0 -0.032983601381048028 -0.2367885997845538 0 -0.040118865722236351 -0.23544472852080089 0 -0.052910920334218993 -0.21967129177291539 0 -0.040118865722236351 -0.23544472852080089 0 -0.052910920334218993 -0.21967129177291539 0 -0.054603171266369793 -0.23243375726732241 0 -0.069083472660325121 -0.22748117926656231 0 -0.052910920334218993 -0.21967129177291539 0 -0.054603171266369793 -0.23243375726732241 0 -0.040118865722236351 -0.23544472852080089 0 -0.054603171266369793 -0.23243375726732241 0 -0.062344578928600528 -0.23779073398242739 0 -0.069083472660325121 -0.22748117926656231 0 -0.054603171266369793 -0.23243375726732241 0 -0.052406799216804557 -0.24459198769464191 0 -0.040118865722236351 -0.23544472852080089 0 -0.054603171266369793 -0.23243375726732241 0 -0.062344578928600528 -0.23779073398242739 0 -0.052406799216804557 -0.24459198769464191 0 -0.065421878849430556 -0.25167039592025259 0 -0.062344578928600528 -0.23779073398242739 0 -0.052406799216804557 -0.24459198769464191 0 -0.027326811110253871 -0.25121816526868662 0 -0.040785035177160277 -0.24958968680164759 0 -0.040118865722236351 -0.23544472852080089 0 -0.027326811110253871 -0.25121816526868662 0 -0.032983601381048028 -0.2367885997845538 0 -0.040118865722236351 -0.23544472852080089 0 -0.027326811110253871 -0.25121816526868662 0 -0.040118865722236351 -0.23544472852080089 0 -0.052406799216804557 -0.24459198769464191 0 -0.040785035177160277 -0.24958968680164759 0 -0.040118865722236351 -0.23544472852080089 0 -0.078278243085297239 -0.23951664672932549 0 -0.086153706899138552 -0.22983104630755541 0 -0.09423246880553815 -0.23787512664900909 0 -0.093765691765433312 -0.25258281812082478 0 -0.078278243085297239 -0.23951664672932549 0 -0.09423246880553815 -0.23787512664900909 0 -0.062344578928600528 -0.23779073398242739 0 -0.078278243085297239 -0.23951664672932549 0 -0.069083472660325121 -0.22748117926656231 0 -0.065421878849430556 -0.25167039592025259 0 -0.062344578928600528 -0.23779073398242739 0 -0.078278243085297239 -0.23951664672932549 0 -0.065421878849430556 -0.25167039592025259 0 -0.079465288233698042 -0.25846821731041458 0 -0.078278243085297239 -0.23951664672932549 0 -0.052910920334218993 -0.21967129177291539 0 -0.069083472660325121 -0.22748117926656231 0 -0.069612749235620427 -0.2166114240769427 0 -0.078278243085297239 -0.23951664672932549 0 -0.069083472660325121 -0.22748117926656231 0 -0.086153706899138552 -0.22983104630755541 0 -0.069083472660325121 -0.22748117926656231 0 -0.082890498454507591 -0.21890744373665691 0 -0.069612749235620427 -0.2166114240769427 0 -0.082890498454507591 -0.21890744373665691 0 -0.086153706899138552 -0.22983104630755541 0 -0.098908818798469189 -0.22405916704643611 0 -0.082890498454507591 -0.21890744373665691 0 -0.092414465742116453 -0.21356058677725129 0 -0.098908818798469189 -0.22405916704643611 0 -0.069083472660325121 -0.22748117926656231 0 -0.082890498454507591 -0.21890744373665691 0 -0.086153706899138552 -0.22983104630755541 0 -0.086153706899138552 -0.22983104630755541 0 -0.098908818798469189 -0.22405916704643611 0 -0.09423246880553815 -0.23787512664900909 0 -0.082890498454507591 -0.21890744373665691 0 -0.092414465742116453 -0.21356058677725129 0 -0.085039292724931326 -0.20636870672523311 0 -0.092414465742116453 -0.21356058677725129 0 -0.085039292724931326 -0.20636870672523311 0 -0.094924882140715844 -0.2023400251814354 0 -0.085039292724931326 -0.20636870672523311 0 -0.076791362556699633 -0.2103212049296195 0 -0.076415488818317417 -0.19948117290301459 0 -0.082890498454507591 -0.21890744373665691 0 -0.085039292724931326 -0.20636870672523311 0 -0.076791362556699633 -0.2103212049296195 0 -0.082890498454507591 -0.21890744373665691 0 -0.069612749235620427 -0.2166114240769427 0 -0.076791362556699633 -0.2103212049296195 0 -0.069612749235620427 -0.2166114240769427 0 -0.07187070129672643 -0.20899750856188551 0 -0.076791362556699633 -0.2103212049296195 0 -0.069612749235620427 -0.2166114240769427 0 -0.064663204576268285 -0.2095762323379651 0 -0.07187070129672643 -0.20899750856188551 0 -0.063912376375580449 -0.2061057797213553 0 -0.064663204576268285 -0.2095762323379651 0 -0.076415488818317417 -0.19948117290301459 0 -0.064663204576268285 -0.2095762323379651 0 -0.07187070129672643 -0.20899750856188551 0 -0.076415488818317417 -0.19948117290301459 0 -0.07187070129672643 -0.20899750856188551 0 -0.076791362556699633 -0.2103212049296195 0 -0.076415488818317417 -0.19948117290301459 0 -0.064663204576268285 -0.2095762323379651 0 -0.076415488818317417 -0.19948117290301459 0 -0.063912376375580449 -0.2061057797213553 0 -0.076415488818317417 -0.19948117290301459 0 -0.074913832416942036 -0.19254026766979529 0 -0.063912376375580449 -0.2061057797213553 0 -0.074913832416942036 -0.19254026766979529 0 -0.063912376375580449 -0.2061057797213553 0 -0.067162409966087119 -0.19576756974744089 0 -0.074913832416942036 -0.19254026766979529 0 -0.063912376375580449 -0.2061057797213553 0 -0.067162409966087119 -0.19576756974744089 0 -0.063099371948942468 -0.19895763039768499 0 -0.062207823669324508 -0.19415899925277841 0 -0.067162409966087119 -0.19576756974744089 0 -0.063099371948942468 -0.19895763039768499 0 -0.062207823669324508 -0.19415899925277841 0 -0.060077715494214402 -0.1880050343681916 0 -0.067992112858964282 -0.18866012404393079 0 -0.062207823669324508 -0.19415899925277841 0 -0.067162409966087119 -0.19576756974744089 0 -0.067992112858964282 -0.18866012404393079 0 -0.067162409966087119 -0.19576756974744089 0 -0.067992112858964282 -0.18866012404393079 0 -0.074913832416942036 -0.19254026766979529 0 -0.067992112858964282 -0.18866012404393079 0 -0.074913832416942036 -0.19254026766979529 0 -0.075495957942860306 -0.18151306003065079 0 -0.076415488818317417 -0.19948117290301459 0 -0.074913832416942036 -0.19254026766979529 0 -0.086799058637230975 -0.19360180682342101 0 -0.074913832416942036 -0.19254026766979529 0 -0.086799058637230975 -0.19360180682342101 0 -0.081197999186964104 -0.18678207382066461 0 -0.085039292724931326 -0.20636870672523311 0 -0.076415488818317417 -0.19948117290301459 0 -0.086799058637230975 -0.19360180682342101 0 -0.085039292724931326 -0.20636870672523311 0 -0.086799058637230975 -0.19360180682342101 0 -0.094924882140715844 -0.2023400251814354 0 -0.086799058637230975 -0.19360180682342101 0 -0.095726771505572558 -0.1875603531079979 0 -0.094924882140715844 -0.2023400251814354 0 -0.094924882140715844 -0.2023400251814354 0 -0.111160472432858 -0.1885386204747187 0 -0.094924882140715844 -0.2023400251814354 0 -0.111160472432858 -0.1885386204747187 0 -0.1114495577303883 -0.20340811176391119 0 -0.095726771505572558 -0.1875603531079979 0 -0.094924882140715844 -0.2023400251814354 0 -0.111160472432858 -0.1885386204747187 0 -0.111160472432858 -0.1885386204747187 0 -0.1221143178041114 -0.19234248283227301 0 -0.1210277983726237 -0.20080419496638871 0 -0.1221143178041114 -0.19234248283227301 0 -0.1210277983726237 -0.20080419496638871 0 -0.1287375196768317 -0.1989974444917289 0 -0.111160472432858 -0.1885386204747187 0 -0.1210277983726237 -0.20080419496638871 0 -0.1114495577303883 -0.20340811176391119 0 -0.1210277983726237 -0.20080419496638871 0 -0.1114495577303883 -0.20340811176391119 0 -0.1178360582138414 -0.2087755546500478 0 -0.1114495577303883 -0.20340811176391119 0 -0.1178360582138414 -0.2087755546500478 0 -0.1085815399970629 -0.214445376318082 0 -0.1210277983726237 -0.20080419496638871 0 -0.1178360582138414 -0.2087755546500478 0 -0.1261734044947341 -0.20832382066201691 0 -0.1178360582138414 -0.2087755546500478 0 -0.121947990474398 -0.21689626953984009 0 -0.1261734044947341 -0.20832382066201691 0 -0.1178360582138414 -0.2087755546500478 0 -0.121947990474398 -0.21689626953984009 0 -0.1085815399970629 -0.214445376318082 0 -0.092414465742116453 -0.21356058677725129 0 -0.094924882140715844 -0.2023400251814354 0 -0.1085815399970629 -0.214445376318082 0 -0.092414465742116453 -0.21356058677725129 0 -0.1085815399970629 -0.214445376318082 0 -0.098908818798469189 -0.22405916704643611 0 -0.094924882140715844 -0.2023400251814354 0 -0.1114495577303883 -0.20340811176391119 0 -0.1085815399970629 -0.214445376318082 0 -0.098908818798469189 -0.22405916704643611 0 -0.1146679177639674 -0.22763479024990699 0 -0.1064059993424292 -0.23999004584722569 0 -0.098908818798469189 -0.22405916704643611 0 -0.1064059993424292 -0.23999004584722569 0 -0.09423246880553815 -0.23787512664900909 0 -0.1085815399970629 -0.214445376318082 0 -0.098908818798469189 -0.22405916704643611 0 -0.1146679177639674 -0.22763479024990699 0 -0.1146679177639674 -0.22763479024990699 0 -0.1192340303868117 -0.24478318800158869 0 -0.13163987617815839 -0.22779776194380719 0 -0.121947990474398 -0.21689626953984009 0 -0.1085815399970629 -0.214445376318082 0 -0.1146679177639674 -0.22763479024990699 0 -0.121947990474398 -0.21689626953984009 0 -0.1146679177639674 -0.22763479024990699 0 -0.13163987617815839 -0.22779776194380719 0 -0.10928029933534041 -0.25911330461652088 0 -0.1192340303868117 -0.24478318800158869 0 -0.1064059993424292 -0.23999004584722569 0 -0.1146679177639674 -0.22763479024990699 0 -0.1192340303868117 -0.24478318800158869 0 -0.1064059993424292 -0.23999004584722569 0 -0.093765691765433312 -0.25258281812082478 0 -0.1064059993424292 -0.23999004584722569 0 -0.09423246880553815 -0.23787512664900909 0 -0.087025139202339175 -0.14924119698846519 0 -0.093760481790990557 -0.16258763704399551 0 -0.10010201785652401 -0.1437821866573995 0 -0.087025139202339175 -0.14924119698846519 0 -0.083645274202728603 -0.1360379667205176 0 -0.10010201785652401 -0.1437821866573995 0 -0.078981128367974607 -0.14447571604620801 0 -0.087025139202339175 -0.14924119698846519 0 -0.083645274202728603 -0.1360379667205176 0 -0.078981128367974607 -0.14447571604620801 0 -0.087025139202339175 -0.14924119698846519 0 -0.078636793793478016 -0.15932247847420561 0 -0.083645274202728603 -0.1360379667205176 0 -0.10010201785652401 -0.1437821866573995 0 -0.096101065320712109 -0.1258911452360538 0 -0.076666436282660663 -0.13264315814890179 0 -0.096101065320712109 -0.1258911452360538 0 -0.083645274202728603 -0.1360379667205176 0 -0.076666436282660663 -0.13264315814890179 0 -0.096101065320712109 -0.1258911452360538 0 -0.078981128367974607 -0.14447571604620801 0 -0.083645274202728603 -0.1360379667205176 0 -0.074980149030852788 -0.13322901102402521 0 -0.083645274202728603 -0.1360379667205176 0 -0.074980149030852788 -0.13322901102402521 0 -0.076666436282660663 -0.13264315814890179 0 -0.083645274202728603 -0.1360379667205176 0 -0.074980149030852788 -0.13322901102402521 0 -0.063965210873385206 -0.121372291062271 0 -0.051469099840166933 -0.12560748285855791 0 -0.074980149030852788 -0.13322901102402521 0 -0.051469099840166933 -0.12560748285855791 0 -0.074980149030852788 -0.13322901102402521 0 -0.074980149030852788 -0.13322901102402521 0 -0.076666436282660663 -0.13264315814890179 0 -0.072499038737136423 -0.12336773177227039 0 -0.074980149030852788 -0.13322901102402521 0 -0.076666436282660663 -0.13264315814890179 0 -0.063965210873385206 -0.121372291062271 0 -0.072499038737136423 -0.12336773177227039 0 -0.074980149030852788 -0.13322901102402521 0 -0.054318116428342743 -0.1550095253668563 0 -0.07017092070895159 -0.14876485096333639 0 -0.064150653413557149 -0.1630994165534029 0 -0.06193597557114254 -0.14487761168208729 0 -0.074980149030852788 -0.13322901102402521 0 -0.07017092070895159 -0.14876485096333639 0 -0.078981128367974607 -0.14447571604620801 0 -0.074980149030852788 -0.13322901102402521 0 -0.07017092070895159 -0.14876485096333639 0 -0.074980149030852788 -0.13322901102402521 0 -0.07017092070895159 -0.14876485096333639 0 -0.078981128367974607 -0.14447571604620801 0 -0.07017092070895159 -0.14876485096333639 0 -0.078636793793478016 -0.15932247847420561 0 -0.061772453938110018 -0.1722676601875073 0 -0.064150653413557149 -0.1630994165534029 0 -0.070050920790153071 -0.171606788750374 0 -0.064150653413557149 -0.1630994165534029 0 -0.070050920790153071 -0.171606788750374 0 -0.078636793793478016 -0.15932247847420561 0 -0.070050920790153071 -0.171606788750374 0 -0.079209040401629252 -0.1719092953843511 0 -0.078636793793478016 -0.15932247847420561 0 -0.07017092070895159 -0.14876485096333639 0 -0.064150653413557149 -0.1630994165534029 0 -0.078636793793478016 -0.15932247847420561 0 -0.060077715494214402 -0.1880050343681916 0 -0.067992112858964282 -0.18866012404393079 0 -0.064464826801710964 -0.18158017590305259 0 -0.067992112858964282 -0.18866012404393079 0 -0.064464826801710964 -0.18158017590305259 0 -0.075495957942860306 -0.18151306003065079 0 -0.061772453938110018 -0.1722676601875073 0 -0.070050920790153071 -0.171606788750374 0 -0.064464826801710964 -0.18158017590305259 0 -0.070050920790153071 -0.171606788750374 0 -0.064464826801710964 -0.18158017590305259 0 -0.075495957942860306 -0.18151306003065079 0 -0.070050920790153071 -0.171606788750374 0 -0.075495957942860306 -0.18151306003065079 0 -0.079209040401629252 -0.1719092953843511 0 -0.074913832416942036 -0.19254026766979529 0 -0.075495957942860306 -0.18151306003065079 0 -0.081197999186964104 -0.18678207382066461 0 -0.08758314775082314 -0.17947316075879149 0 -0.093760481790990557 -0.16258763704399551 0 -0.099296370832405903 -0.1778108956523228 0 -0.075495957942860306 -0.18151306003065079 0 -0.081197999186964104 -0.18678207382066461 0 -0.08758314775082314 -0.17947316075879149 0 -0.086799058637230975 -0.19360180682342101 0 -0.081197999186964104 -0.18678207382066461 0 -0.08758314775082314 -0.17947316075879149 0 -0.075495957942860306 -0.18151306003065079 0 -0.079209040401629252 -0.1719092953843511 0 -0.08758314775082314 -0.17947316075879149 0 -0.086799058637230975 -0.19360180682342101 0 -0.095726771505572558 -0.1875603531079979 0 -0.08758314775082314 -0.17947316075879149 0 -0.079209040401629252 -0.1719092953843511 0 -0.08758314775082314 -0.17947316075879149 0 -0.093760481790990557 -0.16258763704399551 0 -0.079209040401629252 -0.1719092953843511 0 -0.078636793793478016 -0.15932247847420561 0 -0.093760481790990557 -0.16258763704399551 0 -0.087025139202339175 -0.14924119698846519 0 -0.078636793793478016 -0.15932247847420561 0 -0.093760481790990557 -0.16258763704399551 0 -0.093760481790990557 -0.16258763704399551 0 -0.10825098068178519 -0.1708947068761103 0 -0.099296370832405903 -0.1778108956523228 0 -0.093760481790990557 -0.16258763704399551 0 -0.10825098068178519 -0.1708947068761103 0 -0.1079275826681496 -0.15587426481125419 0 -0.111160472432858 -0.1885386204747187 0 -0.10825098068178519 -0.1708947068761103 0 -0.099296370832405903 -0.1778108956523228 0 -0.095726771505572558 -0.1875603531079979 0 -0.08758314775082314 -0.17947316075879149 0 -0.099296370832405903 -0.1778108956523228 0 -0.095726771505572558 -0.1875603531079979 0 -0.111160472432858 -0.1885386204747187 0 -0.099296370832405903 -0.1778108956523228 0 -0.111160472432858 -0.1885386204747187 0 -0.12739606272500029 -0.17473721576800191 0 -0.111160472432858 -0.1885386204747187 0 -0.1221143178041114 -0.19234248283227301 0 -0.12739606272500029 -0.17473721576800191 0 -0.111160472432858 -0.1885386204747187 0 -0.10825098068178519 -0.1708947068761103 0 -0.12739606272500029 -0.17473721576800191 0 -0.1214658785418825 -0.14693817404560541 0 -0.12739606272500029 -0.17473721576800191 0 -0.1214658785418825 -0.14693817404560541 0 -0.1079275826681496 -0.15587426481125419 0 -0.12739606272500029 -0.17473721576800191 0 -0.10825098068178519 -0.1708947068761103 0 -0.1079275826681496 -0.15587426481125419 0 -0.12739606272500029 -0.17473721576800191 0 -0.1214658785418825 -0.14693817404560541 0 -0.10010201785652401 -0.1437821866573995 0 -0.10830116401947081 -0.1339376595655668 0 -0.1214658785418825 -0.14693817404560541 0 -0.10010201785652401 -0.1437821866573995 0 -0.1079275826681496 -0.15587426481125419 0 -0.093760481790990557 -0.16258763704399551 0 -0.10010201785652401 -0.1437821866573995 0 -0.1079275826681496 -0.15587426481125419 0 -0.10010201785652401 -0.1437821866573995 0 -0.10830116401947081 -0.1339376595655668 0 -0.096101065320712109 -0.1258911452360538 0 -0.11649007265168369 -0.1188075605425003 0 -0.10830116401947081 -0.1339376595655668 0 -0.096101065320712109 -0.1258911452360538 0 -0.11649007265168369 -0.1188075605425003 0 -0.12922628187284879 -0.14058113888636839 0 -0.1252704192176744 -0.1172440966648565 0 -0.11649007265168369 -0.1188075605425003 0 -0.12922628187284879 -0.14058113888636839 0 -0.11649007265168369 -0.1188075605425003 0 -0.1214658785418825 -0.14693817404560541 0 -0.11649007265168369 -0.1188075605425003 0 -0.1214658785418825 -0.14693817404560541 0 -0.10830116401947081 -0.1339376595655668 0 -0.11649007265168369 -0.1188075605425003 0 -0.1214658785418825 -0.14693817404560541 0 -0.12922628187284879 -0.14058113888636839 0 -0.12922628187284879 -0.14058113888636839 0 -0.1355018371655794 -0.1265678790332187 0 -0.1252704192176744 -0.1172440966648565 0 -0.12922628187284879 -0.14058113888636839 0 -0.1355018371655794 -0.1265678790332187 0 -0.14553009116939669 -0.13537661130197329 0 -0.1355018371655794 -0.1265678790332187 0 -0.14553009116939669 -0.13537661130197329 0 -0.14420813470266419 -0.11805716313719079 0 -0.14553009116939669 -0.13537661130197329 0 -0.15056350488257919 -0.15504324471534639 0 -0.1628079644011253 -0.13038477387159439 0 -0.14553009116939669 -0.13537661130197329 0 -0.1628079644011253 -0.13038477387159439 0 -0.14420813470266419 -0.11805716313719079 0 -0.12922628187284879 -0.14058113888636839 0 -0.14553009116939669 -0.13537661130197329 0 -0.15056350488257919 -0.15504324471534639 0 -0.12922628187284879 -0.14058113888636839 0 -0.15056350488257919 -0.15504324471534639 0 -0.14196249109401421 -0.16235471723023651 0 -0.1214658785418825 -0.14693817404560541 0 -0.12922628187284879 -0.14058113888636839 0 -0.14196249109401421 -0.16235471723023651 0 -0.12922628187284879 -0.14058113888636839 0 -0.14196249109401421 -0.16235471723023651 0 -0.1214658785418825 -0.14693817404560541 0 -0.12739606272500029 -0.17473721576800191 0 -0.14196249109401421 -0.16235471723023651 0 -0.12739606272500029 -0.17473721576800191 0 -0.14196249109401421 -0.16235471723023651 0 -0.14465078136409831 -0.16695056657522339 0 -0.12739606272500029 -0.17473721576800191 0 -0.14196249109401421 -0.16235471723023651 0 -0.14465078136409831 -0.16695056657522339 0 -0.1314192587983791 -0.19359683159909061 0 -0.12739606272500029 -0.17473721576800191 0 -0.14465078136409831 -0.16695056657522339 0 -0.1314192587983791 -0.19359683159909061 0 -0.12739606272500029 -0.17473721576800191 0 -0.1314192587983791 -0.19359683159909061 0 -0.1221143178041114 -0.19234248283227301 0 -0.12739606272500029 -0.17473721576800191 0 -0.1314192587983791 -0.19359683159909061 0 -0.1506253399441001 -0.18191391990730801 0 -0.14704446987800041 -0.17104277042357799 0 -0.1314192587983791 -0.19359683159909061 0 -0.14704446987800041 -0.17104277042357799 0 -0.14465078136409831 -0.16695056657522339 0 -0.1314192587983791 -0.19359683159909061 0 -0.1506253399441001 -0.18191391990730801 0 -0.14704446987800041 -0.17104277042357799 0 -0.15648019532635571 -0.17138255085024329 0 -0.1506253399441001 -0.18191391990730801 0 -0.16533888001856381 -0.18602690419207779 0 -0.1512090652639769 -0.1911736867042346 0 -0.15056350488257919 -0.15504324471534639 0 -0.14196249109401421 -0.16235471723023651 0 -0.15056350488257919 -0.15504324471534639 0 -0.14196249109401421 -0.16235471723023651 0 -0.14465078136409831 -0.16695056657522339 0 -0.15056350488257919 -0.15504324471534639 0 -0.14465078136409831 -0.16695056657522339 0 -0.14196249109401421 -0.16235471723023651 0 -0.14465078136409831 -0.16695056657522339 0 -0.14704446987800041 -0.17104277042357799 0 -0.14465078136409831 -0.16695056657522339 0 -0.14704446987800041 -0.17104277042357799 0 -0.14465078136409831 -0.16695056657522339 0 -0.15229814259742869 -0.1644326064251338 0 -0.14704446987800041 -0.17104277042357799 0 -0.15229814259742869 -0.1644326064251338 0 -0.15648019532635571 -0.17138255085024329 0 -0.15056350488257919 -0.15504324471534639 0 -0.14465078136409831 -0.16695056657522339 0 -0.15229814259742869 -0.1644326064251338 0 -0.15056350488257919 -0.15504324471534639 0 -0.15229814259742869 -0.1644326064251338 0 -0.16275176153611051 -0.15774389956127821 0 -0.16275176153611051 -0.15774389956127821 0 -0.15648019532635571 -0.17138255085024329 0 -0.17757024440875549 -0.16111115580157981 0 -0.15229814259742869 -0.1644326064251338 0 -0.16275176153611051 -0.15774389956127821 0 -0.15648019532635571 -0.17138255085024329 0 -0.15648019532635571 -0.17138255085024329 0 -0.18421608521209271 -0.17558962027652111 0 -0.15648019532635571 -0.17138255085024329 0 -0.16533888001856381 -0.18602690419207779 0 -0.18421608521209271 -0.17558962027652111 0 -0.1506253399441001 -0.18191391990730801 0 -0.15648019532635571 -0.17138255085024329 0 -0.16533888001856381 -0.18602690419207779 0 -0.16533888001856381 -0.18602690419207779 0 -0.18421608521209271 -0.17558962027652111 0 -0.1786295148813212 -0.19556646452315241 0 -0.15648019532635571 -0.17138255085024329 0 -0.18421608521209271 -0.17558962027652111 0 -0.17757024440875549 -0.16111115580157981 0 -0.18421608521209271 -0.17558962027652111 0 -0.17757024440875549 -0.16111115580157981 0 -0.1979143625406167 -0.1642252661741595 0 -0.17521357040146851 -0.14833135074901779 0 -0.18000311622314791 -0.13001748444371289 0 -0.188845491435889 -0.14939424719825839 0 -0.17757024440875549 -0.16111115580157981 0 -0.17521357040146851 -0.14833135074901779 0 -0.188845491435889 -0.14939424719825839 0 -0.18000311622314791 -0.13001748444371289 0 -0.1628079644011253 -0.13038477387159439 0 -0.18027610093587751 -0.1196181089702751 0 -0.17521357040146851 -0.14833135074901779 0 -0.18000311622314791 -0.13001748444371289 0 -0.16528331055286391 -0.14253036457953011 0 -0.18000311622314791 -0.13001748444371289 0 -0.16528331055286391 -0.14253036457953011 0 -0.18000311622314791 -0.13001748444371289 0 -0.1628079644011253 -0.13038477387159439 0 -0.16528331055286391 -0.14253036457953011 0 -0.15056350488257919 -0.15504324471534639 0 -0.1628079644011253 -0.13038477387159439 0 -0.15056350488257919 -0.15504324471534639 0 -0.1628079644011253 -0.13038477387159439 0 -0.16528331055286391 -0.14253036457953011 0 -0.15056350488257919 -0.15504324471534639 0 -0.16275176153611051 -0.15774389956127821 0 -0.16528331055286391 -0.14253036457953011 0 -0.15056350488257919 -0.15504324471534639 0 -0.16528331055286391 -0.14253036457953011 0 -0.16275176153611051 -0.15774389956127821 0 -0.17521357040146851 -0.14833135074901779 0 -0.16528331055286391 -0.14253036457953011 0 -0.16275176153611051 -0.15774389956127821 0 -0.17757024440875549 -0.16111115580157981 0 -0.17521357040146851 -0.14833135074901779 0 -0.15229660666407671 -0.25401824511238591 0 -0.14920126421366381 -0.23878179657915319 0 -0.13450504990001219 -0.2438564190910647 0 -0.1192340303868117 -0.24478318800158869 0 -0.13450504990001219 -0.2438564190910647 0 -0.13163987617815839 -0.22779776194380719 0 -0.14920126421366381 -0.23878179657915319 0 -0.13450504990001219 -0.2438564190910647 0 -0.13163987617815839 -0.22779776194380719 0 -0.121947990474398 -0.21689626953984009 0 -0.13163987617815839 -0.22779776194380719 0 -0.12955498125585521 -0.21362166548107719 0 -0.13163987617815839 -0.22779776194380719 0 -0.14668655776667011 -0.2223990925877565 0 -0.13817373448855541 -0.2139466733801943 0 -0.14920126421366381 -0.23878179657915319 0 -0.13163987617815839 -0.22779776194380719 0 -0.14668655776667011 -0.2223990925877565 0 -0.14920126421366381 -0.23878179657915319 0 -0.14668655776667011 -0.2223990925877565 0 -0.1666111544691056 -0.22171119925505031 0 -0.14668655776667011 -0.2223990925877565 0 -0.14920765704353961 -0.2069242839694774 0 -0.1666111544691056 -0.22171119925505031 0 -0.14920765704353961 -0.2069242839694774 0 -0.13817373448855541 -0.2139466733801943 0 -0.13929463799343569 -0.2052160077695602 0 -0.14920765704353961 -0.2069242839694774 0 -0.13929463799343569 -0.2052160077695602 0 -0.1420465959208794 -0.1984943042809322 0 -0.14668655776667011 -0.2223990925877565 0 -0.14920765704353961 -0.2069242839694774 0 -0.13817373448855541 -0.2139466733801943 0 -0.13163987617815839 -0.22779776194380719 0 -0.13817373448855541 -0.2139466733801943 0 -0.12955498125585521 -0.21362166548107719 0 -0.13817373448855541 -0.2139466733801943 0 -0.12955498125585521 -0.21362166548107719 0 -0.1326745573724277 -0.20747677911892251 0 -0.121947990474398 -0.21689626953984009 0 -0.12955498125585521 -0.21362166548107719 0 -0.1261734044947341 -0.20832382066201691 0 -0.1210277983726237 -0.20080419496638871 0 -0.12833971984693959 -0.20340181913978941 0 -0.1261734044947341 -0.20832382066201691 0 -0.12955498125585521 -0.21362166548107719 0 -0.1261734044947341 -0.20832382066201691 0 -0.1326745573724277 -0.20747677911892251 0 -0.12833971984693959 -0.20340181913978941 0 -0.1261734044947341 -0.20832382066201691 0 -0.1326745573724277 -0.20747677911892251 0 -0.12833971984693959 -0.20340181913978941 0 -0.1326745573724277 -0.20747677911892251 0 -0.13308531931808101 -0.2014068564598902 0 -0.13817373448855541 -0.2139466733801943 0 -0.1326745573724277 -0.20747677911892251 0 -0.13929463799343569 -0.2052160077695602 0 -0.1326745573724277 -0.20747677911892251 0 -0.13929463799343569 -0.2052160077695602 0 -0.13308531931808101 -0.2014068564598902 0 -0.13929463799343569 -0.2052160077695602 0 -0.13308531931808101 -0.2014068564598902 0 -0.1420465959208794 -0.1984943042809322 0 -0.13308531931808101 -0.2014068564598902 0 -0.1314192587983791 -0.19359683159909061 0 -0.1420465959208794 -0.1984943042809322 0 -0.12833971984693959 -0.20340181913978941 0 -0.13308531931808101 -0.2014068564598902 0 -0.1287375196768317 -0.1989974444917289 0 -0.13308531931808101 -0.2014068564598902 0 -0.1287375196768317 -0.1989974444917289 0 -0.1314192587983791 -0.19359683159909061 0 -0.13308531931808101 -0.2014068564598902 0 -0.1314192587983791 -0.19359683159909061 0 -0.1287375196768317 -0.1989974444917289 0 -0.1314192587983791 -0.19359683159909061 0 -0.1210277983726237 -0.20080419496638871 0 -0.12833971984693959 -0.20340181913978941 0 -0.1287375196768317 -0.1989974444917289 0 -0.1221143178041114 -0.19234248283227301 0 -0.1287375196768317 -0.1989974444917289 0 -0.1314192587983791 -0.19359683159909061 0 -0.1314192587983791 -0.19359683159909061 0 -0.1420465959208794 -0.1984943042809322 0 -0.1512090652639769 -0.1911736867042346 0 -0.14920765704353961 -0.2069242839694774 0 -0.1512090652639769 -0.1911736867042346 0 -0.16613147043060339 -0.2018841564818957 0 -0.14920765704353961 -0.2069242839694774 0 -0.1420465959208794 -0.1984943042809322 0 -0.1512090652639769 -0.1911736867042346 0 -0.1506253399441001 -0.18191391990730801 0 -0.1314192587983791 -0.19359683159909061 0 -0.1512090652639769 -0.1911736867042346 0 -0.16533888001856381 -0.18602690419207779 0 -0.1512090652639769 -0.1911736867042346 0 -0.16613147043060339 -0.2018841564818957 0 -0.16533888001856381 -0.18602690419207779 0 -0.16613147043060339 -0.2018841564818957 0 -0.1786295148813212 -0.19556646452315241 0 -0.1786295148813212 -0.19556646452315241 0 -0.17958500981378461 -0.2107334264309661 0 -0.1981990761364697 -0.20254736480388241 0 -0.18421608521209271 -0.17558962027652111 0 -0.1786295148813212 -0.19556646452315241 0 -0.1981990761364697 -0.20254736480388241 0 -0.16613147043060339 -0.2018841564818957 0 -0.1786295148813212 -0.19556646452315241 0 -0.17958500981378461 -0.2107334264309661 0 -0.17958500981378461 -0.2107334264309661 0 -0.1666111544691056 -0.22171119925505031 0 -0.19116993277822331 -0.22279453133759641 0 -0.16613147043060339 -0.2018841564818957 0 -0.17958500981378461 -0.2107334264309661 0 -0.1666111544691056 -0.22171119925505031 0 -0.14920765704353961 -0.2069242839694774 0 -0.16613147043060339 -0.2018841564818957 0 -0.1666111544691056 -0.22171119925505031 0 -0.16774304296138501 -0.24055682594909811 0 -0.1994177047143332 -0.2432145052078287 0 -0.19116993277822331 -0.22279453133759641 0 -0.18473400419263841 -0.26184427346616201 0 -0.16774304296138501 -0.24055682594909811 0 -0.1994177047143332 -0.2432145052078287 0 -0.14920126421366381 -0.23878179657915319 0 -0.1666111544691056 -0.22171119925505031 0 -0.16774304296138501 -0.24055682594909811 0 -0.1666111544691056 -0.22171119925505031 0 -0.16774304296138501 -0.24055682594909811 0 -0.19116993277822331 -0.22279453133759641 0 -0.15229660666407671 -0.25401824511238591 0 -0.14920126421366381 -0.23878179657915319 0 -0.16774304296138501 -0.24055682594909811 0 -0.1994177047143332 -0.2432145052078287 0 -0.21214113701728249 -0.228940323783688 0 -0.22937054978906041 -0.24331512362502869 0 -0.2113475615474098 -0.26183595308539898 0 -0.1994177047143332 -0.2432145052078287 0 -0.22937054978906041 -0.24331512362502869 0 -0.1994177047143332 -0.2432145052078287 0 -0.19116993277822331 -0.22279453133759641 0 -0.21214113701728249 -0.228940323783688 0 -0.19116993277822331 -0.22279453133759641 0 -0.21214113701728249 -0.228940323783688 0 -0.21151629669390881 -0.21291663877559669 0 -0.21214113701728249 -0.228940323783688 0 -0.21151629669390881 -0.21291663877559669 0 -0.2275824975951227 -0.2207461827585098 0 -0.21151629669390881 -0.21291663877559669 0 -0.1981990761364697 -0.20254736480388241 0 -0.21430725265311781 -0.19815896184605211 0 -0.21151629669390881 -0.21291663877559669 0 -0.21430725265311781 -0.19815896184605211 0 -0.22569788398323701 -0.20431246812385209 0 -0.19116993277822331 -0.22279453133759641 0 -0.21151629669390881 -0.21291663877559669 0 -0.1981990761364697 -0.20254736480388241 0 -0.17958500981378461 -0.2107334264309661 0 -0.19116993277822331 -0.22279453133759641 0 -0.1981990761364697 -0.20254736480388241 0 -0.21430725265311781 -0.19815896184605211 0 -0.2251169230399053 -0.19244957551320049 0 -0.21195197509782959 -0.17979668970279891 0 -0.1981990761364697 -0.20254736480388241 0 -0.21430725265311781 -0.19815896184605211 0 -0.21195197509782959 -0.17979668970279891 0 -0.21430725265311781 -0.19815896184605211 0 -0.2251169230399053 -0.19244957551320049 0 -0.22569788398323701 -0.20431246812385209 0 -0.2251169230399053 -0.19244957551320049 0 -0.23600322778131949 -0.19814692121484651 0 -0.22569788398323701 -0.20431246812385209 0 -0.2251169230399053 -0.19244957551320049 0 -0.23600322778131949 -0.19814692121484651 0 -0.23968786498356659 -0.18400375912907671 0 -0.23600322778131949 -0.19814692121484651 0 -0.23968786498356659 -0.18400375912907671 0 -0.25047429362874257 -0.200219847641955 0 -0.23600322778131949 -0.19814692121484651 0 -0.23949462900920199 -0.21027573078813011 0 -0.25047429362874257 -0.200219847641955 0 -0.23949462900920199 -0.21027573078813011 0 -0.25247744799357308 -0.21261594090752481 0 -0.25047429362874257 -0.200219847641955 0 -0.23949462900920199 -0.21027573078813011 0 -0.24510877540263959 -0.22548599802342939 0 -0.25247744799357308 -0.21261594090752481 0 -0.23949462900920199 -0.21027573078813011 0 -0.22569788398323701 -0.20431246812385209 0 -0.2275824975951227 -0.2207461827585098 0 -0.21151629669390881 -0.21291663877559669 0 -0.22569788398323701 -0.20431246812385209 0 -0.2275824975951227 -0.2207461827585098 0 -0.23600322778131949 -0.19814692121484651 0 -0.23949462900920199 -0.21027573078813011 0 -0.22569788398323701 -0.20431246812385209 0 -0.21214113701728249 -0.228940323783688 0 -0.2275824975951227 -0.2207461827585098 0 -0.22937054978906041 -0.24331512362502869 0 -0.2275824975951227 -0.2207461827585098 0 -0.24510877540263959 -0.22548599802342939 0 -0.22937054978906041 -0.24331512362502869 0 -0.23949462900920199 -0.21027573078813011 0 -0.2275824975951227 -0.2207461827585098 0 -0.24510877540263959 -0.22548599802342939 0 -0.24510877540263959 -0.22548599802342939 0 -0.22937054978906041 -0.24331512362502869 0 -0.2582168116042447 -0.2439014490639565 0 -0.2483490975252734 -0.26098873334868322 0 -0.22937054978906041 -0.24331512362502869 0 -0.2582168116042447 -0.2439014490639565 0 -0.2067502249108786 -0.1536135545564879 0 -0.21547877813771771 -0.14332314171572449 0 -0.20152593766547949 -0.13633519349348669 0 -0.2067502249108786 -0.1536135545564879 0 -0.21547877813771771 -0.14332314171572449 0 -0.22184111984059729 -0.15282479907953789 0 -0.21547877813771771 -0.14332314171572449 0 -0.21860961385214961 -0.13100792014620721 0 -0.20152593766547949 -0.13633519349348669 0 -0.21860961385214961 -0.13100792014620721 0 -0.20152593766547949 -0.13633519349348669 0 -0.2099810947540583 -0.12129541974841899 0 -0.18000311622314791 -0.13001748444371289 0 -0.20152593766547949 -0.13633519349348669 0 -0.19534617212360411 -0.121013351703841 0 -0.18000311622314791 -0.13001748444371289 0 -0.20152593766547949 -0.13633519349348669 0 -0.188845491435889 -0.14939424719825839 0 -0.20152593766547949 -0.13633519349348669 0 -0.2099810947540583 -0.12129541974841899 0 -0.19534617212360411 -0.121013351703841 0 -0.2067502249108786 -0.1536135545564879 0 -0.188845491435889 -0.14939424719825839 0 -0.1979143625406167 -0.1642252661741595 0 -0.2067502249108786 -0.1536135545564879 0 -0.20152593766547949 -0.13633519349348669 0 -0.188845491435889 -0.14939424719825839 0 -0.17757024440875549 -0.16111115580157981 0 -0.188845491435889 -0.14939424719825839 0 -0.1979143625406167 -0.1642252661741595 0 -0.18421608521209271 -0.17558962027652111 0 -0.1981990761364697 -0.20254736480388241 0 -0.21195197509782959 -0.17979668970279891 0 -0.18421608521209271 -0.17558962027652111 0 -0.21195197509782959 -0.17979668970279891 0 -0.18421608521209271 -0.17558962027652111 0 -0.1979143625406167 -0.1642252661741595 0 -0.21195197509782959 -0.17979668970279891 0 -0.1979143625406167 -0.1642252661741595 0 -0.21195197509782959 -0.17979668970279891 0 -0.2165382263276793 -0.1649867273485818 0 -0.2067502249108786 -0.1536135545564879 0 -0.1979143625406167 -0.1642252661741595 0 -0.2165382263276793 -0.1649867273485818 0 -0.2067502249108786 -0.1536135545564879 0 -0.2165382263276793 -0.1649867273485818 0 -0.22184111984059729 -0.15282479907953789 0 -0.2165382263276793 -0.1649867273485818 0 -0.2313091397970973 -0.16435086132264101 0 -0.233842168872713 -0.17694121357944129 0 -0.2165382263276793 -0.1649867273485818 0 -0.2313091397970973 -0.16435086132264101 0 -0.22184111984059729 -0.15282479907953789 0 -0.21195197509782959 -0.17979668970279891 0 -0.233842168872713 -0.17694121357944129 0 -0.23968786498356659 -0.18400375912907671 0 -0.2251169230399053 -0.19244957551320049 0 -0.21195197509782959 -0.17979668970279891 0 -0.23968786498356659 -0.18400375912907671 0 -0.21195197509782959 -0.17979668970279891 0 -0.2165382263276793 -0.1649867273485818 0 -0.233842168872713 -0.17694121357944129 0 -0.21195197509782959 -0.17979668970279891 0 -0.23968786498356659 -0.18400375912907671 0 -0.233842168872713 -0.17694121357944129 0 -0.25982868842644607 -0.17021686968691641 0 -0.233842168872713 -0.17694121357944129 0 -0.23968786498356659 -0.18400375912907671 0 -0.25982868842644607 -0.17021686968691641 0 -0.2313091397970973 -0.16435086132264101 0 -0.24566481473353391 -0.1652464025747532 0 -0.25343568279415951 -0.15224923159364789 0 -0.233842168872713 -0.17694121357944129 0 -0.24566481473353391 -0.1652464025747532 0 -0.25982868842644607 -0.17021686968691641 0 -0.2313091397970973 -0.16435086132264101 0 -0.25343568279415951 -0.15224923159364789 0 -0.2313091397970973 -0.16435086132264101 0 -0.233842168872713 -0.17694121357944129 0 -0.24566481473353391 -0.1652464025747532 0 -0.2313091397970973 -0.16435086132264101 0 -0.23261035815430561 -0.14322336329666011 0 -0.25343568279415951 -0.15224923159364789 0 -0.23261035815430561 -0.14322336329666011 0 -0.2478381125959237 -0.13014188093155071 0 -0.25343568279415951 -0.15224923159364789 0 -0.21547877813771771 -0.14332314171572449 0 -0.23261035815430561 -0.14322336329666011 0 -0.22184111984059729 -0.15282479907953789 0 -0.2313091397970973 -0.16435086132264101 0 -0.23261035815430561 -0.14322336329666011 0 -0.22184111984059729 -0.15282479907953789 0 -0.21547877813771771 -0.14332314171572449 0 -0.21860961385214961 -0.13100792014620721 0 -0.23261035815430561 -0.14322336329666011 0 -0.21860961385214961 -0.13100792014620721 0 -0.23261035815430561 -0.14322336329666011 0 -0.23267318929165751 -0.1266142136656879 0 -0.23261035815430561 -0.14322336329666011 0 -0.23267318929165751 -0.1266142136656879 0 -0.2478381125959237 -0.13014188093155071 0 -0.2478381125959237 -0.13014188093155071 0 -0.2401350799320488 -0.1157431384930437 0 -0.25439292330372432 -0.11161035632906929 0 -0.23267318929165751 -0.1266142136656879 0 -0.2478381125959237 -0.13014188093155071 0 -0.2401350799320488 -0.1157431384930437 0 -0.2401350799320488 -0.1157431384930437 0 -0.2438502060585381 -0.1028583717612334 0 -0.25439292330372432 -0.11161035632906929 0 -0.2438502060585381 -0.1028583717612334 0 -0.2453315870002564 -0.095437246693633959 0 -0.2525882024947626 -0.098821099717938107 0 -0.2453315870002564 -0.095437246693633959 0 -0.25144169010332901 -0.091633326375329338 0 -0.2525882024947626 -0.098821099717938107 0 -0.2438502060585381 -0.1028583717612334 0 -0.2453315870002564 -0.095437246693633959 0 -0.23922762562760841 -0.098169318759804947 0 -0.23922762562760841 -0.098169318759804947 0 -0.23518849288928181 -0.10695649013526939 0 -0.23134854976794339 -0.097632931289006297 0 -0.2453315870002564 -0.095437246693633959 0 -0.23922762562760841 -0.098169318759804947 0 -0.2404192924220224 -0.087961553919881613 0 -0.23922762562760841 -0.098169318759804947 0 -0.23134854976794339 -0.097632931289006297 0 -0.2404192924220224 -0.087961553919881613 0 -0.2438502060585381 -0.1028583717612334 0 -0.23922762562760841 -0.098169318759804947 0 -0.23518849288928181 -0.10695649013526939 0 -0.2401350799320488 -0.1157431384930437 0 -0.2438502060585381 -0.1028583717612334 0 -0.23518849288928181 -0.10695649013526939 0 -0.23518849288928181 -0.10695649013526939 0 -0.23134854976794339 -0.097632931289006297 0 -0.22417278192385959 -0.11295476546097789 0 -0.23134854976794339 -0.097632931289006297 0 -0.22417278192385959 -0.11295476546097789 0 -0.2186303362545719 -0.093883136955868224 0 -0.2401350799320488 -0.1157431384930437 0 -0.23518849288928181 -0.10695649013526939 0 -0.22417278192385959 -0.11295476546097789 0 -0.21860961385214961 -0.13100792014620721 0 -0.23267318929165751 -0.1266142136656879 0 -0.22417278192385959 -0.11295476546097789 0 -0.23267318929165751 -0.1266142136656879 0 -0.2401350799320488 -0.1157431384930437 0 -0.22417278192385959 -0.11295476546097789 0 -0.24388885687392389 -0.071688150345257468 0 -0.2338744138803254 -0.062312468216533988 0 -0.2476323682116322 -0.061520987214930753 0 -0.24388885687392389 -0.071688150345257468 0 -0.2476323682116322 -0.061520987214930753 0 -0.2529882333064245 -0.070973901803662365 0 -0.24388885687392389 -0.071688150345257468 0 -0.24682403554985069 -0.077092069586417622 0 -0.2529882333064245 -0.070973901803662365 0 -0.24388885687392389 -0.071688150345257468 0 -0.24682403554985069 -0.077092069586417622 0 -0.23610695818539329 -0.077097104601848404 0 -0.24388885687392389 -0.071688150345257468 0 -0.23610695818539329 -0.077097104601848404 0 -0.2338744138803254 -0.062312468216533988 0 -0.2404192924220224 -0.087961553919881613 0 -0.23434786935979859 -0.086445608359767251 0 -0.25855249999409979 -0.079349971077516485 0 -0.23434786935979859 -0.086445608359767251 0 -0.25855249999409979 -0.079349971077516485 0 -0.24682403554985069 -0.077092069586417622 0 -0.23434786935979859 -0.086445608359767251 0 -0.25855249999409979 -0.079349971077516485 0 -0.24682403554985069 -0.077092069586417622 0 -0.23610695818539329 -0.077097104601848404 0 -0.23434786935979859 -0.086445608359767251 0 -0.2404192924220224 -0.087961553919881613 0 -0.25356789490128989 -0.088072195653340249 0 -0.25144169010332901 -0.091633326375329338 0 -0.2453315870002564 -0.095437246693633959 0 -0.2404192924220224 -0.087961553919881613 0 -0.25144169010332901 -0.091633326375329338 0 -0.23134854976794339 -0.097632931289006297 0 -0.2404192924220224 -0.087961553919881613 0 -0.2186303362545719 -0.093883136955868224 0 -0.23434786935979859 -0.086445608359767251 0 -0.21819510633345421 -0.084818126690887299 0 -0.2186303362545719 -0.093883136955868224 0 -0.23434786935979859 -0.086445608359767251 0 -0.22784347827361409 -0.07844521728239337 0 -0.21819510633345421 -0.084818126690887299 0 -0.2404192924220224 -0.087961553919881613 0 -0.2186303362545719 -0.093883136955868224 0 -0.2404192924220224 -0.087961553919881613 0 -0.23434786935979859 -0.086445608359767251 0 -0.2186303362545719 -0.093883136955868224 0 -0.23610695818539329 -0.077097104601848404 0 -0.23434786935979859 -0.086445608359767251 0 -0.22784347827361409 -0.07844521728239337 0 -0.22561928727888081 -0.069226289525945936 0 -0.21465014164525181 -0.057056120614390499 0 -0.2338744138803254 -0.062312468216533988 0 -0.23610695818539329 -0.077097104601848404 0 -0.22784347827361409 -0.07844521728239337 0 -0.22561928727888081 -0.069226289525945936 0 -0.22784347827361409 -0.07844521728239337 0 -0.22561928727888081 -0.069226289525945936 0 -0.21562144440981909 -0.071220536914563426 0 -0.23610695818539329 -0.077097104601848404 0 -0.22561928727888081 -0.069226289525945936 0 -0.2338744138803254 -0.062312468216533988 0 -0.20283299924243431 -0.077387366601351398 0 -0.20047874574939811 -0.054521575326106748 0 -0.21465014164525181 -0.057056120614390499 0 -0.22784347827361409 -0.07844521728239337 0 -0.20283299924243431 -0.077387366601351398 0 -0.21562144440981909 -0.071220536914563426 0 -0.20283299924243431 -0.077387366601351398 0 -0.21465014164525181 -0.057056120614390499 0 -0.22784347827361409 -0.07844521728239337 0 -0.21562144440981909 -0.071220536914563426 0 -0.20283299924243431 -0.077387366601351398 0 -0.20283299924243431 -0.077387366601351398 0 -0.21465014164525181 -0.057056120614390499 0 -0.22561928727888081 -0.069226289525945936 0 -0.21562144440981909 -0.071220536914563426 0 -0.21465014164525181 -0.057056120614390499 0 -0.22784347827361409 -0.07844521728239337 0 -0.21819510633345421 -0.084818126690887299 0 -0.20283299924243431 -0.077387366601351398 0 -0.21819510633345421 -0.084818126690887299 0 -0.20732084853685229 -0.087929304255056254 0 -0.20283299924243431 -0.077387366601351398 0 -0.21819510633345421 -0.084818126690887299 0 -0.20732084853685229 -0.087929304255056254 0 -0.2186303362545719 -0.093883136955868224 0 -0.19866559760639321 -0.08455732909318063 0 -0.19684138008712149 -0.099804719991854848 0 -0.1822294403993594 -0.091272888294312293 0 -0.19866559760639321 -0.08455732909318063 0 -0.18940645687904581 -0.076819473560781115 0 -0.1822294403993594 -0.091272888294312293 0 -0.20732084853685229 -0.087929304255056254 0 -0.19866559760639321 -0.08455732909318063 0 -0.19684138008712149 -0.099804719991854848 0 -0.20732084853685229 -0.087929304255056254 0 -0.19866559760639321 -0.08455732909318063 0 -0.20283299924243431 -0.077387366601351398 0 -0.19866559760639321 -0.08455732909318063 0 -0.20283299924243431 -0.077387366601351398 0 -0.18940645687904581 -0.076819473560781115 0 -0.19866559760639321 -0.08455732909318063 0 -0.20283299924243431 -0.077387366601351398 0 -0.20283299924243431 -0.077387366601351398 0 -0.18940645687904581 -0.076819473560781115 0 -0.20047874574939811 -0.054521575326106748 0 -0.18940645687904581 -0.076819473560781115 0 -0.18709502764393729 -0.061773717592220383 0 -0.20047874574939811 -0.054521575326106748 0 -0.18940645687904581 -0.076819473560781115 0 -0.20047874574939811 -0.054521575326106748 0 -0.20283299924243431 -0.077387366601351398 0 -0.18940645687904581 -0.076819473560781115 0 -0.22417278192385959 -0.11295476546097789 0 -0.2099810947540583 -0.12129541974841899 0 -0.20756026250284701 -0.1093706759350784 0 -0.21860961385214961 -0.13100792014620721 0 -0.22417278192385959 -0.11295476546097789 0 -0.2099810947540583 -0.12129541974841899 0 -0.2099810947540583 -0.12129541974841899 0 -0.20756026250284701 -0.1093706759350784 0 -0.19534617212360411 -0.121013351703841 0 -0.2186303362545719 -0.093883136955868224 0 -0.19684138008712149 -0.099804719991854848 0 -0.20732084853685229 -0.087929304255056254 0 -0.2186303362545719 -0.093883136955868224 0 -0.19684138008712149 -0.099804719991854848 0 -0.2186303362545719 -0.093883136955868224 0 -0.20756026250284701 -0.1093706759350784 0 -0.19684138008712149 -0.099804719991854848 0 -0.22417278192385959 -0.11295476546097789 0 -0.2186303362545719 -0.093883136955868224 0 -0.20756026250284701 -0.1093706759350784 0 -0.20756026250284701 -0.1093706759350784 0 -0.19684138008712149 -0.099804719991854848 0 -0.18817082801183779 -0.1109486318043842 0 -0.20756026250284701 -0.1093706759350784 0 -0.18817082801183779 -0.1109486318043842 0 -0.19534617212360411 -0.121013351703841 0 -0.18817082801183779 -0.1109486318043842 0 -0.19534617212360411 -0.121013351703841 0 -0.18027610093587751 -0.1196181089702751 0 -0.18000311622314791 -0.13001748444371289 0 -0.19534617212360411 -0.121013351703841 0 -0.18027610093587751 -0.1196181089702751 0 -0.1628079644011253 -0.13038477387159439 0 -0.18027610093587751 -0.1196181089702751 0 -0.17505242391967141 -0.10572630302784269 0 -0.18817082801183779 -0.1109486318043842 0 -0.18027610093587751 -0.1196181089702751 0 -0.17505242391967141 -0.10572630302784269 0 -0.1628079644011253 -0.13038477387159439 0 -0.16568054242800659 -0.1082732985805344 0 -0.17505242391967141 -0.10572630302784269 0 -0.1628079644011253 -0.13038477387159439 0 -0.16568054242800659 -0.1082732985805344 0 -0.1559183975343586 -0.1153029742025357 0 -0.1628079644011253 -0.13038477387159439 0 -0.17505242391967141 -0.10572630302784269 0 -0.15766897324155929 -0.10201766098942321 0 -0.16769957127680751 -0.09718714727553697 0 -0.15631644193457139 -0.088857398989056272 0 -0.15766897324155929 -0.10201766098942321 0 -0.16568054242800659 -0.1082732985805344 0 -0.16769957127680751 -0.09718714727553697 0 -0.15766897324155929 -0.10201766098942321 0 -0.16568054242800659 -0.1082732985805344 0 -0.1559183975343586 -0.1153029742025357 0 -0.16568054242800659 -0.1082732985805344 0 -0.16769957127680751 -0.09718714727553697 0 -0.17505242391967141 -0.10572630302784269 0 -0.16568054242800659 -0.1082732985805344 0 -0.17505242391967141 -0.10572630302784269 0 -0.19684138008712149 -0.099804719991854848 0 -0.18817082801183779 -0.1109486318043842 0 -0.17505242391967141 -0.10572630302784269 0 -0.19684138008712149 -0.099804719991854848 0 -0.17505242391967141 -0.10572630302784269 0 -0.16769957127680751 -0.09718714727553697 0 -0.17505242391967141 -0.10572630302784269 0 -0.1822294403993594 -0.091272888294312293 0 -0.19684138008712149 -0.099804719991854848 0 -0.17505242391967141 -0.10572630302784269 0 -0.1822294403993594 -0.091272888294312293 0 -0.17505242391967141 -0.10572630302784269 0 -0.1822294403993594 -0.091272888294312293 0 -0.16769957127680751 -0.09718714727553697 0 -0.1822294403993594 -0.091272888294312293 0 -0.16622085479676199 -0.075838808419480111 0 -0.18940645687904581 -0.076819473560781115 0 -0.1822294403993594 -0.091272888294312293 0 -0.16622085479676199 -0.075838808419480111 0 -0.18940645687904581 -0.076819473560781115 0 -0.1822294403993594 -0.091272888294312293 0 -0.18940645687904581 -0.076819473560781115 0 -0.16622085479676199 -0.075838808419480111 0 -0.18940645687904581 -0.076819473560781115 0 -0.17672291357829811 -0.064990721505459842 0 -0.16622085479676199 -0.075838808419480111 0 -0.18940645687904581 -0.076819473560781115 0 -0.17672291357829811 -0.064990721505459842 0 -0.18709502764393729 -0.061773717592220383 0 -0.17672291357829811 -0.064990721505459842 0 -0.16622085479676199 -0.075838808419480111 0 -0.16458020880549121 -0.059492387506912943 0 -0.16622085479676199 -0.075838808419480111 0 -0.15646239569026699 -0.065906604111614212 0 -0.16458020880549121 -0.059492387506912943 0 -0.16769957127680751 -0.09718714727553697 0 -0.16622085479676199 -0.075838808419480111 0 -0.15631644193457139 -0.088857398989056272 0 -0.15631644193457139 -0.088857398989056272 0 -0.14677991412428701 -0.093732051016317916 0 -0.1430352527144782 -0.074858143278179051 0 -0.16622085479676199 -0.075838808419480111 0 -0.15631644193457139 -0.088857398989056272 0 -0.1430352527144782 -0.074858143278179051 0 -0.14677991412428701 -0.093732051016317916 0 -0.1430352527144782 -0.074858143278179051 0 -0.13451756518433111 -0.095180895342251215 0 -0.1430352527144782 -0.074858143278179051 0 -0.1411001381629465 -0.060647222888288201 0 -0.15201326644433669 -0.053437077241884359 0 -0.16622085479676199 -0.075838808419480111 0 -0.15646239569026699 -0.065906604111614212 0 -0.1430352527144782 -0.074858143278179051 0 -0.16622085479676199 -0.075838808419480111 0 -0.1430352527144782 -0.074858143278179051 0 -0.1430352527144782 -0.074858143278179051 0 -0.15201326644433669 -0.053437077241884359 0 -0.15646239569026699 -0.065906604111614212 0 -0.1430352527144782 -0.074858143278179051 0 -0.15201326644433669 -0.053437077241884359 0 -0.13708859775349791 -0.067653843581906681 0 -0.130794656111274 -0.068530613083725267 0 -0.13379805028672059 -0.060142641530726633 0 -0.1430352527144782 -0.074858143278179051 0 -0.13708859775349791 -0.067653843581906681 0 -0.1411001381629465 -0.060647222888288201 0 -0.13708859775349791 -0.067653843581906681 0 -0.13379805028672059 -0.060142641530726633 0 -0.1411001381629465 -0.060647222888288201 0 -0.13708859775349791 -0.067653843581906681 0 -0.13568082893985359 -0.07454707837658528 0 -0.130794656111274 -0.068530613083725267 0 -0.1430352527144782 -0.074858143278179051 0 -0.13708859775349791 -0.067653843581906681 0 -0.13568082893985359 -0.07454707837658528 0 -0.1430352527144782 -0.074858143278179051 0 -0.13568082893985359 -0.07454707837658528 0 -0.1232756904161693 -0.070411489051666373 0 -0.130794656111274 -0.068530613083725267 0 -0.12737817104852411 -0.080741270387750683 0 -0.13568082893985359 -0.07454707837658528 0 -0.130794656111274 -0.068530613083725267 0 -0.12737817104852411 -0.080741270387750683 0 -0.12131955324210091 -0.059181462630683621 0 -0.130794656111274 -0.068530613083725267 0 -0.13379805028672059 -0.060142641530726633 0 -0.1232756904161693 -0.070411489051666373 0 -0.12131955324210091 -0.059181462630683621 0 -0.130794656111274 -0.068530613083725267 0 -0.13568082893985359 -0.07454707837658528 0 -0.12737817104852411 -0.080741270387750683 0 -0.13451756518433111 -0.095180895342251215 0 -0.1430352527144782 -0.074858143278179051 0 -0.13568082893985359 -0.07454707837658528 0 -0.13451756518433111 -0.095180895342251215 0 -0.1430352527144782 -0.074858143278179051 0 -0.13451756518433111 -0.095180895342251215 0 -0.12067370026095731 -0.092005587950159118 0 -0.12737817104852411 -0.080741270387750683 0 -0.13451756518433111 -0.095180895342251215 0 -0.13451756518433111 -0.095180895342251215 0 -0.12599987765418549 -0.11550364740632391 0 -0.13451756518433111 -0.095180895342251215 0 -0.139855014945965 -0.1081270544919556 0 -0.13238394533585049 -0.1132856834133564 0 -0.13451756518433111 -0.095180895342251215 0 -0.12599987765418549 -0.11550364740632391 0 -0.13238394533585049 -0.1132856834133564 0 -0.12182531397588869 -0.1044134543712442 0 -0.13451756518433111 -0.095180895342251215 0 -0.12599987765418549 -0.11550364740632391 0 -0.12182531397588869 -0.1044134543712442 0 -0.12067370026095731 -0.092005587950159118 0 -0.13451756518433111 -0.095180895342251215 0 -0.12599987765418549 -0.11550364740632391 0 -0.1252704192176744 -0.1172440966648565 0 -0.13114171751694609 -0.1183715484722116 0 -0.12599987765418549 -0.11550364740632391 0 -0.1252704192176744 -0.1172440966648565 0 -0.12599987765418549 -0.11550364740632391 0 -0.13238394533585049 -0.1132856834133564 0 -0.12599987765418549 -0.11550364740632391 0 -0.13238394533585049 -0.1132856834133564 0 -0.13114171751694609 -0.1183715484722116 0 -0.1355018371655794 -0.1265678790332187 0 -0.1252704192176744 -0.1172440966648565 0 -0.13114171751694609 -0.1183715484722116 0 -0.1355018371655794 -0.1265678790332187 0 -0.13114171751694609 -0.1183715484722116 0 -0.14420813470266419 -0.11805716313719079 0 -0.139855014945965 -0.1081270544919556 0 -0.13238394533585049 -0.1132856834133564 0 -0.14420813470266419 -0.11805716313719079 0 -0.13238394533585049 -0.1132856834133564 0 -0.13114171751694609 -0.1183715484722116 0 -0.14420813470266419 -0.11805716313719079 0 -0.139855014945965 -0.1081270544919556 0 -0.14420813470266419 -0.11805716313719079 0 -0.1483104145610141 -0.1059844760750239 0 -0.1628079644011253 -0.13038477387159439 0 -0.14420813470266419 -0.11805716313719079 0 -0.1559183975343586 -0.1153029742025357 0 -0.14420813470266419 -0.11805716313719079 0 -0.1559183975343586 -0.1153029742025357 0 -0.1483104145610141 -0.1059844760750239 0 -0.15766897324155929 -0.10201766098942321 0 -0.1559183975343586 -0.1153029742025357 0 -0.1483104145610141 -0.1059844760750239 0 -0.15766897324155929 -0.10201766098942321 0 -0.15631644193457139 -0.088857398989056272 0 -0.14677991412428701 -0.093732051016317916 0 -0.15766897324155929 -0.10201766098942321 0 -0.14677991412428701 -0.093732051016317916 0 -0.1483104145610141 -0.1059844760750239 0 -0.14677991412428701 -0.093732051016317916 0 -0.13451756518433111 -0.095180895342251215 0 -0.1483104145610141 -0.1059844760750239 0 -0.13451756518433111 -0.095180895342251215 0 -0.139855014945965 -0.1081270544919556 0 -0.1483104145610141 -0.1059844760750239 0 -0.1452248522035206 -0.0135074852317284 0 -0.13361245343545181 -0.030305793086055629 0 -0.1484749629479134 -0.038477035386196637 0 -0.1452248522035206 -0.0135074852317284 0 -0.1484749629479134 -0.038477035386196637 0 -0.16099128017419639 -0.03201601120559007 0 -0.1452248522035206 -0.0135074852317284 0 -0.1660829110182864 -0.0110115892886907 0 -0.1564869492866878 -0.00059129627401754796 0 -0.1452248522035206 -0.0135074852317284 0 -0.1564869492866878 -0.00059129627401754796 0 -0.1433170204333889 0.0042533116210359059 0 -0.1452248522035206 -0.0135074852317284 0 -0.13137048688310951 -0.003337023478303953 0 -0.1433170204333889 0.0042533116210359059 0 -0.1236122261121546 -0.0078425818954372464 0 -0.1452248522035206 -0.0135074852317284 0 -0.13137048688310951 -0.003337023478303953 0 -0.1236122261121546 -0.0078425818954372464 0 -0.13137048688310951 -0.003337023478303953 0 -0.1236122261121546 -0.0078425818954372464 0 -0.13361245343545181 -0.030305793086055629 0 -0.1236122261121546 -0.0078425818954372464 0 -0.1185057960264221 -0.028529017004706999 0 -0.13361245343545181 -0.030305793086055629 0 -0.1236122261121546 -0.0078425818954372464 0 -0.1452248522035206 -0.0135074852317284 0 -0.13361245343545181 -0.030305793086055629 0 -0.13361245343545181 -0.030305793086055629 0 -0.14346563865851419 -0.05243870800993642 0 -0.1197314047957487 -0.044466417495601512 0 -0.13361245343545181 -0.030305793086055629 0 -0.1315211872564446 -0.050314657740016588 0 -0.13361245343545181 -0.030305793086055629 0 -0.1315211872564446 -0.050314657740016588 0 -0.14346563865851419 -0.05243870800993642 0 -0.12131955324210091 -0.059181462630683621 0 -0.1315211872564446 -0.050314657740016588 0 -0.13379805028672059 -0.060142641530726633 0 -0.1315211872564446 -0.050314657740016588 0 -0.1374712535911565 -0.055885807542241962 0 -0.14346563865851419 -0.05243870800993642 0 -0.1315211872564446 -0.050314657740016588 0 -0.1374712535911565 -0.055885807542241962 0 -0.13379805028672059 -0.060142641530726633 0 -0.1374712535911565 -0.055885807542241962 0 -0.13379805028672059 -0.060142641530726633 0 -0.1411001381629465 -0.060647222888288201 0 -0.1411001381629465 -0.060647222888288201 0 -0.14346563865851419 -0.05243870800993642 0 -0.15201326644433669 -0.053437077241884359 0 -0.1374712535911565 -0.055885807542241962 0 -0.1411001381629465 -0.060647222888288201 0 -0.14346563865851419 -0.05243870800993642 0 -0.14346563865851419 -0.05243870800993642 0 -0.15201326644433669 -0.053437077241884359 0 -0.1484749629479134 -0.038477035386196637 0 -0.15201326644433669 -0.053437077241884359 0 -0.1484749629479134 -0.038477035386196637 0 -0.16099128017419639 -0.03201601120559007 0 -0.13361245343545181 -0.030305793086055629 0 -0.14346563865851419 -0.05243870800993642 0 -0.1484749629479134 -0.038477035386196637 0 -0.15201326644433669 -0.053437077241884359 0 -0.16099128017419639 -0.03201601120559007 0 -0.15201326644433669 -0.053437077241884359 0 -0.16099128017419639 -0.03201601120559007 0 -0.16622336588392531 -0.046665464390732471 0 -0.16099128017419639 -0.03201601120559007 0 -0.17705927752236811 -0.038294319471390781 0 -0.1772337338696203 -0.023645926918309929 0 -0.16099128017419639 -0.03201601120559007 0 -0.16622336588392531 -0.046665464390732471 0 -0.17705927752236811 -0.038294319471390781 0 -0.15646239569026699 -0.065906604111614212 0 -0.15201326644433669 -0.053437077241884359 0 -0.16458020880549121 -0.059492387506912943 0 -0.15201326644433669 -0.053437077241884359 0 -0.16622336588392531 -0.046665464390732471 0 -0.16458020880549121 -0.059492387506912943 0 -0.16622336588392531 -0.046665464390732471 0 -0.16458020880549121 -0.059492387506912943 0 -0.17631201976625371 -0.05102922044790497 0 -0.17672291357829811 -0.064990721505459842 0 -0.16458020880549121 -0.059492387506912943 0 -0.17631201976625371 -0.05102922044790497 0 -0.17631201976625371 -0.05102922044790497 0 -0.18709502764393729 -0.061773717592220383 0 -0.18868425509965489 -0.047684834797198213 0 -0.17672291357829811 -0.064990721505459842 0 -0.17631201976625371 -0.05102922044790497 0 -0.18709502764393729 -0.061773717592220383 0 -0.16622336588392531 -0.046665464390732471 0 -0.17631201976625371 -0.05102922044790497 0 -0.17705927752236811 -0.038294319471390781 0 -0.17631201976625371 -0.05102922044790497 0 -0.17705927752236811 -0.038294319471390781 0 -0.18868425509965489 -0.047684834797198213 0 -0.17705927752236811 -0.038294319471390781 0 -0.18868425509965489 -0.047684834797198213 0 -0.19198493650835269 -0.034148616047928453 0 -0.17705927752236811 -0.038294319471390781 0 -0.1772337338696203 -0.023645926918309929 0 -0.19198493650835269 -0.034148616047928453 0 -0.1772337338696203 -0.023645926918309929 0 -0.18418091461086311 -0.0067458590849352237 0 -0.19781487964127609 -0.018046172764705552 0 -0.16099128017419639 -0.03201601120559007 0 -0.1772337338696203 -0.023645926918309929 0 -0.1660829110182864 -0.0110115892886907 0 -0.1452248522035206 -0.0135074852317284 0 -0.16099128017419639 -0.03201601120559007 0 -0.1660829110182864 -0.0110115892886907 0 -0.1660829110182864 -0.0110115892886907 0 -0.1564869492866878 -0.00059129627401754796 0 -0.17208342559322409 0.0058404778805985873 0 -0.1660829110182864 -0.0110115892886907 0 -0.18418091461086311 -0.0067458590849352237 0 -0.17208342559322409 0.0058404778805985873 0 -0.1772337338696203 -0.023645926918309929 0 -0.1660829110182864 -0.0110115892886907 0 -0.18418091461086311 -0.0067458590849352237 0 -0.18418091461086311 -0.0067458590849352237 0 -0.2008908429601583 -0.001101000049535744 0 -0.19781487964127609 -0.018046172764705552 0 -0.19781487964127609 -0.018046172764705552 0 -0.19198493650835269 -0.034148616047928453 0 -0.21155103461974961 -0.032223677091432062 0 -0.1772337338696203 -0.023645926918309929 0 -0.19781487964127609 -0.018046172764705552 0 -0.19198493650835269 -0.034148616047928453 0 -0.19781487964127609 -0.018046172764705552 0 -0.21155103461974961 -0.032223677091432062 0 -0.21882158577424271 -0.0103131571922281 0 -0.2008908429601583 -0.001101000049535744 0 -0.19781487964127609 -0.018046172764705552 0 -0.21882158577424271 -0.0103131571922281 0 -0.18709502764393729 -0.061773717592220383 0 -0.18868425509965489 -0.047684834797198213 0 -0.20047874574939811 -0.054521575326106748 0 -0.18868425509965489 -0.047684834797198213 0 -0.20047874574939811 -0.054521575326106748 0 -0.19817474299428881 -0.04214467581566636 0 -0.19817474299428881 -0.04214467581566636 0 -0.19198493650835269 -0.034148616047928453 0 -0.21155103461974961 -0.032223677091432062 0 -0.18868425509965489 -0.047684834797198213 0 -0.19817474299428881 -0.04214467581566636 0 -0.19198493650835269 -0.034148616047928453 0 -0.20047874574939811 -0.054521575326106748 0 -0.21155103461974961 -0.032223677091432062 0 -0.20047874574939811 -0.054521575326106748 0 -0.19817474299428881 -0.04214467581566636 0 -0.21155103461974961 -0.032223677091432062 0 -0.21155103461974961 -0.032223677091432062 0 -0.21465014164525181 -0.057056120614390499 0 -0.22646728404806721 -0.036724874627428489 0 -0.20047874574939811 -0.054521575326106748 0 -0.21155103461974961 -0.032223677091432062 0 -0.21465014164525181 -0.057056120614390499 0 -0.21465014164525181 -0.057056120614390499 0 -0.2338744138803254 -0.062312468216533988 0 -0.22646728404806721 -0.036724874627428489 0 -0.2338744138803254 -0.062312468216533988 0 -0.22646728404806721 -0.036724874627428489 0 -0.21465014164525181 -0.057056120614390499 0 -0.22646728404806721 -0.036724874627428489 0 -0.22646728404806721 -0.036724874627428489 0 -0.2401414722927224 -0.032241302373577058 0 -0.24278742868549399 -0.046838078323859687 0 -0.2401414722927224 -0.032241302373577058 0 -0.25378175816230958 -0.02436733484642779 0 -0.25219715932032732 -0.038265850071314 0 -0.2401414722927224 -0.032241302373577058 0 -0.24278742868549399 -0.046838078323859687 0 -0.25219715932032732 -0.038265850071314 0 -0.2338744138803254 -0.062312468216533988 0 -0.22646728404806721 -0.036724874627428489 0 -0.24278742868549399 -0.046838078323859687 0 -0.24278742868549399 -0.046838078323859687 0 -0.2476323682116322 -0.061520987214930753 0 -0.25620744044593469 -0.049667056832747067 0 -0.2338744138803254 -0.062312468216533988 0 -0.24278742868549399 -0.046838078323859687 0 -0.2476323682116322 -0.061520987214930753 0 -0.21882158577424271 -0.0103131571922281 0 -0.2374946151573453 -0.01775248911154621 0 -0.23546354233931949 0.0078270751002715265 0 -0.22646728404806721 -0.036724874627428489 0 -0.2374946151573453 -0.01775248911154621 0 -0.21155103461974961 -0.032223677091432062 0 -0.22646728404806721 -0.036724874627428489 0 -0.21882158577424271 -0.0103131571922281 0 -0.22646728404806721 -0.036724874627428489 0 -0.21882158577424271 -0.0103131571922281 0 -0.22646728404806721 -0.036724874627428489 0 -0.21882158577424271 -0.0103131571922281 0 -0.2374946151573453 -0.01775248911154621 0 -0.2374946151573453 -0.01775248911154621 0 -0.25227296286688322 -0.0076793426536460041 0 -0.25378175816230958 -0.02436733484642779 0 -0.2401414722927224 -0.032241302373577058 0 -0.2374946151573453 -0.01775248911154621 0 -0.25378175816230958 -0.02436733484642779 0 -0.22646728404806721 -0.036724874627428489 0 -0.2401414722927224 -0.032241302373577058 0 -0.2374946151573453 -0.01775248911154621 0 -0.2374946151573453 -0.01775248911154621 0 -0.25227296286688322 -0.0076793426536460041 0 -0.23546354233931949 0.0078270751002715265 0 -0.25227296286688322 -0.0076793426536460041 0 -0.27504786807920711 -0.016522946018952021 0 -0.26249405175029211 0.007662734938978108 0 -0.25227296286688322 -0.0076793426536460041 0 -0.25378175816230958 -0.02436733484642779 0 -0.27504786807920711 -0.016522946018952021 0 -0.25378175816230958 -0.02436733484642779 0 -0.27504786807920711 -0.016522946018952021 0 -0.26471526887818231 -0.03538659961621915 0 -0.27504786807920711 -0.016522946018952021 0 -0.27907013255445939 -0.03491531901183742 0 -0.26471526887818231 -0.03538659961621915 0 -0.27504786807920711 -0.016522946018952021 0 -0.26249405175029211 0.007662734938978108 0 -0.29088909275279012 0.0052797473078289572 0 -0.27504786807920711 -0.016522946018952021 0 -0.29710775469227729 -0.014596668466157351 0 -0.29088909275279012 0.0052797473078289572 0 -0.27504786807920711 -0.016522946018952021 0 -0.29121836233921761 -0.027938763998333869 0 -0.27907013255445939 -0.03491531901183742 0 -0.27504786807920711 -0.016522946018952021 0 -0.29121836233921761 -0.027938763998333869 0 -0.29710775469227729 -0.014596668466157351 0 -0.29710775469227729 -0.014596668466157351 0 -0.31759413704845219 -0.011310857140017521 0 -0.31311363369768291 -0.03310849193739672 0 -0.29121836233921761 -0.027938763998333869 0 -0.29710775469227729 -0.014596668466157351 0 -0.31311363369768291 -0.03310849193739672 0 -0.29710775469227729 -0.014596668466157351 0 -0.30518798685158838 -0.0020929360932298849 0 -0.29088909275279012 0.0052797473078289572 0 -0.29710775469227729 -0.014596668466157351 0 -0.30518798685158838 -0.0020929360932298849 0 -0.31759413704845219 -0.011310857140017521 0 -0.3114594072847322 -0.049306726894047262 0 -0.29175242267246138 -0.04055039455732605 0 -0.29253753360804391 -0.057483018047446738 0 -0.3114594072847322 -0.049306726894047262 0 -0.29253753360804391 -0.057483018047446738 0 -0.30696176126270219 -0.065158696513015008 0 -0.3114594072847322 -0.049306726894047262 0 -0.29175242267246138 -0.04055039455732605 0 -0.31311363369768291 -0.03310849193739672 0 -0.29175242267246138 -0.04055039455732605 0 -0.31311363369768291 -0.03310849193739672 0 -0.3114594072847322 -0.049306726894047262 0 -0.29175242267246138 -0.04055039455732605 0 -0.29121836233921761 -0.027938763998333869 0 -0.29175242267246138 -0.04055039455732605 0 -0.31311363369768291 -0.03310849193739672 0 -0.29175242267246138 -0.04055039455732605 0 -0.27907013255445939 -0.03491531901183742 0 -0.29121836233921761 -0.027938763998333869 0 -0.29175242267246138 -0.04055039455732605 0 -0.27907013255445939 -0.03491531901183742 0 -0.29175242267246138 -0.04055039455732605 0 -0.29253753360804391 -0.057483018047446738 0 -0.27994708571901822 -0.057980160189140359 0 -0.27994708571901822 -0.057980160189140359 0 -0.26824156593179532 -0.048741199197032549 0 -0.26874039246249382 -0.069271675174266092 0 -0.29175242267246138 -0.04055039455732605 0 -0.27994708571901822 -0.057980160189140359 0 -0.26824156593179532 -0.048741199197032549 0 -0.29175242267246138 -0.04055039455732605 0 -0.26824156593179532 -0.048741199197032549 0 -0.27907013255445939 -0.03491531901183742 0 -0.29175242267246138 -0.04055039455732605 0 -0.26824156593179532 -0.048741199197032549 0 -0.26824156593179532 -0.048741199197032549 0 -0.27907013255445939 -0.03491531901183742 0 -0.26471526887818231 -0.03538659961621915 0 -0.26824156593179532 -0.048741199197032549 0 -0.26471526887818231 -0.03538659961621915 0 -0.25620744044593469 -0.049667056832747067 0 -0.24278742868549399 -0.046838078323859687 0 -0.25219715932032732 -0.038265850071314 0 -0.25620744044593469 -0.049667056832747067 0 -0.26471526887818231 -0.03538659961621915 0 -0.25219715932032732 -0.038265850071314 0 -0.25620744044593469 -0.049667056832747067 0 -0.25378175816230958 -0.02436733484642779 0 -0.26471526887818231 -0.03538659961621915 0 -0.25219715932032732 -0.038265850071314 0 -0.26824156593179532 -0.048741199197032549 0 -0.25818533518880471 -0.062204128102381351 0 -0.26874039246249382 -0.069271675174266092 0 -0.26824156593179532 -0.048741199197032549 0 -0.25818533518880471 -0.062204128102381351 0 -0.25620744044593469 -0.049667056832747067 0 -0.2476323682116322 -0.061520987214930753 0 -0.25818533518880471 -0.062204128102381351 0 -0.25620744044593469 -0.049667056832747067 0 -0.2476323682116322 -0.061520987214930753 0 -0.25818533518880471 -0.062204128102381351 0 -0.2529882333064245 -0.070973901803662365 0 -0.25818533518880471 -0.062204128102381351 0 -0.25865454608389071 -0.0715458776642144 0 -0.2529882333064245 -0.070973901803662365 0 -0.25818533518880471 -0.062204128102381351 0 -0.25865454608389071 -0.0715458776642144 0 -0.26874039246249382 -0.069271675174266092 0 -0.25865454608389071 -0.0715458776642144 0 -0.25855249999409979 -0.079349971077516485 0 -0.26874039246249382 -0.069271675174266092 0 -0.24682403554985069 -0.077092069586417622 0 -0.25425482873356642 -0.074740455032952721 0 -0.25855249999409979 -0.079349971077516485 0 -0.25865454608389071 -0.0715458776642144 0 -0.25425482873356642 -0.074740455032952721 0 -0.25855249999409979 -0.079349971077516485 0 -0.25865454608389071 -0.0715458776642144 0 -0.25425482873356642 -0.074740455032952721 0 -0.2529882333064245 -0.070973901803662365 0 -0.24682403554985069 -0.077092069586417622 0 -0.25425482873356642 -0.074740455032952721 0 -0.2529882333064245 -0.070973901803662365 0 -0.2404192924220224 -0.087961553919881613 0 -0.25356789490128989 -0.088072195653340249 0 -0.26220824858947278 -0.082039970883894989 0 -0.2404192924220224 -0.087961553919881613 0 -0.26220824858947278 -0.082039970883894989 0 -0.2404192924220224 -0.087961553919881613 0 -0.26220824858947278 -0.082039970883894989 0 -0.25855249999409979 -0.079349971077516485 0 -0.25356789490128989 -0.088072195653340249 0 -0.25144169010332901 -0.091633326375329338 0 -0.26020234849033591 -0.090653931434255125 0 -0.25144169010332901 -0.091633326375329338 0 -0.26020234849033591 -0.090653931434255125 0 -0.2525882024947626 -0.098821099717938107 0 -0.26020234849033591 -0.090653931434255125 0 -0.26220824858947278 -0.082039970883894989 0 -0.26803774644364831 -0.088990216861234941 0 -0.26020234849033591 -0.090653931434255125 0 -0.26803774644364831 -0.088990216861234941 0 -0.26237563885443332 -0.099092169843888092 0 -0.25356789490128989 -0.088072195653340249 0 -0.26020234849033591 -0.090653931434255125 0 -0.26220824858947278 -0.082039970883894989 0 -0.26220824858947278 -0.082039970883894989 0 -0.25855249999409979 -0.079349971077516485 0 -0.27123440961567508 -0.082288547260032208 0 -0.27123440961567508 -0.082288547260032208 0 -0.26803774644364831 -0.088990216861234941 0 -0.28416808666832472 -0.090876464884104322 0 -0.26220824858947278 -0.082039970883894989 0 -0.27123440961567508 -0.082288547260032208 0 -0.26803774644364831 -0.088990216861234941 0 -0.27123440961567508 -0.082288547260032208 0 -0.28275713062840102 -0.072254333795265746 0 -0.28416808666832472 -0.090876464884104322 0 -0.26803774644364831 -0.088990216861234941 0 -0.26237563885443332 -0.099092169843888092 0 -0.28416808666832472 -0.090876464884104322 0 -0.25855249999409979 -0.079349971077516485 0 -0.28275713062840102 -0.072254333795265746 0 -0.25855249999409979 -0.079349971077516485 0 -0.26874039246249382 -0.069271675174266092 0 -0.28275713062840102 -0.072254333795265746 0 -0.25855249999409979 -0.079349971077516485 0 -0.27123440961567508 -0.082288547260032208 0 -0.28275713062840102 -0.072254333795265746 0 -0.27994708571901822 -0.057980160189140359 0 -0.26874039246249382 -0.069271675174266092 0 -0.28275713062840102 -0.072254333795265746 0 -0.2478381125959237 -0.13014188093155071 0 -0.26471173226585809 -0.1241277151614352 0 -0.25439292330372432 -0.11161035632906929 0 -0.26471173226585809 -0.1241277151614352 0 -0.25439292330372432 -0.11161035632906929 0 -0.26925149092450551 -0.1104881183943958 0 -0.25439292330372432 -0.11161035632906929 0 -0.26237563885443332 -0.099092169843888092 0 -0.26925149092450551 -0.1104881183943958 0 -0.25439292330372432 -0.11161035632906929 0 -0.2525882024947626 -0.098821099717938107 0 -0.26237563885443332 -0.099092169843888092 0 -0.2438502060585381 -0.1028583717612334 0 -0.25439292330372432 -0.11161035632906929 0 -0.2525882024947626 -0.098821099717938107 0 -0.26020234849033591 -0.090653931434255125 0 -0.2525882024947626 -0.098821099717938107 0 -0.26237563885443332 -0.099092169843888092 0 -0.26237563885443332 -0.099092169843888092 0 -0.26925149092450551 -0.1104881183943958 0 -0.28416808666832472 -0.090876464884104322 0 -0.26237563885443332 -0.099092169843888092 0 -0.28416808666832472 -0.090876464884104322 0 -0.26925149092450551 -0.1104881183943958 0 -0.28362018306611941 -0.1149768545032684 0 -0.28416808666832472 -0.090876464884104322 0 -0.26471173226585809 -0.1241277151614352 0 -0.26925149092450551 -0.1104881183943958 0 -0.28362018306611941 -0.1149768545032684 0 -0.28362018306611941 -0.1149768545032684 0 -0.30012398023346848 -0.099943372585857088 0 -0.29756340944960558 -0.1135198660677226 0 -0.28362018306611941 -0.1149768545032684 0 -0.29756340944960558 -0.1135198660677226 0 -0.29768876878828382 -0.12804597213566191 0 -0.28362018306611941 -0.1149768545032684 0 -0.30012398023346848 -0.099943372585857088 0 -0.28416808666832472 -0.090876464884104322 0 -0.30012398023346848 -0.099943372585857088 0 -0.30783691459248808 -0.106447779092323 0 -0.31567959952596442 -0.097557764174788134 0 -0.30012398023346848 -0.099943372585857088 0 -0.30783691459248808 -0.106447779092323 0 -0.29756340944960558 -0.1135198660677226 0 -0.31981531178534578 -0.1159443424066684 0 -0.31168640084693722 -0.1309238984722621 0 -0.29768876878828382 -0.12804597213566191 0 -0.31097561465500489 -0.1146061177684144 0 -0.31981531178534578 -0.1159443424066684 0 -0.29768876878828382 -0.12804597213566191 0 -0.31981531178534578 -0.1159443424066684 0 -0.29768876878828382 -0.12804597213566191 0 -0.30783691459248808 -0.106447779092323 0 -0.29756340944960558 -0.1135198660677226 0 -0.31097561465500489 -0.1146061177684144 0 -0.30783691459248808 -0.106447779092323 0 -0.31097561465500489 -0.1146061177684144 0 -0.31588048179209449 -0.1075745667651056 0 -0.29756340944960558 -0.1135198660677226 0 -0.31097561465500489 -0.1146061177684144 0 -0.29768876878828382 -0.12804597213566191 0 -0.29253753360804391 -0.057483018047446738 0 -0.28275713062840102 -0.072254333795265746 0 -0.30696176126270219 -0.065158696513015008 0 -0.28275713062840102 -0.072254333795265746 0 -0.30696176126270219 -0.065158696513015008 0 -0.29253753360804391 -0.057483018047446738 0 -0.27994708571901822 -0.057980160189140359 0 -0.28275713062840102 -0.072254333795265746 0 -0.28275713062840102 -0.072254333795265746 0 -0.28416808666832472 -0.090876464884104322 0 -0.30596053448221622 -0.082660759924320565 0 -0.30012398023346848 -0.099943372585857088 0 -0.28416808666832472 -0.090876464884104322 0 -0.30596053448221622 -0.082660759924320565 0 -0.28416808666832472 -0.090876464884104322 0 -0.30596053448221622 -0.082660759924320565 0 -0.30012398023346848 -0.099943372585857088 0 -0.30596053448221622 -0.082660759924320565 0 -0.31567959952596442 -0.097557764174788134 0 -0.28275713062840102 -0.072254333795265746 0 -0.30596053448221622 -0.082660759924320565 0 -0.30696176126270219 -0.065158696513015008 0 -0.30696176126270219 -0.065158696513015008 0 -0.32775298229610761 -0.074445054964536822 0 -0.33116639189700398 -0.058063059230765962 0 -0.30596053448221622 -0.082660759924320565 0 -0.30696176126270219 -0.065158696513015008 0 -0.32775298229610761 -0.074445054964536822 0 -0.30596053448221622 -0.082660759924320565 0 -0.32775298229610761 -0.074445054964536822 0 -0.30596053448221622 -0.082660759924320565 0 -0.32775298229610761 -0.074445054964536822 0 -0.32362127966136711 -0.087321124884110049 0 -0.30596053448221622 -0.082660759924320565 0 -0.32362127966136711 -0.087321124884110049 0 -0.31567959952596442 -0.097557764174788134 0 -0.32362127966136711 -0.087321124884110049 0 -0.31567959952596442 -0.097557764174788134 0 -0.33099901797333198 -0.096034161481027461 0 -0.32775298229610761 -0.074445054964536822 0 -0.32362127966136711 -0.087321124884110049 0 -0.33771426402921512 -0.08590788387587725 0 -0.32775298229610761 -0.074445054964536822 0 -0.33771426402921512 -0.08590788387587725 0 -0.3410929925936918 -0.075329856076351967 0 -0.32362127966136711 -0.087321124884110049 0 -0.33771426402921512 -0.08590788387587725 0 -0.33099901797333198 -0.096034161481027461 0 -0.33771426402921512 -0.08590788387587725 0 -0.34583111956259749 -0.098435285946989581 0 -0.34764631593145701 -0.084003956848892683 0 -0.33771426402921512 -0.08590788387587725 0 -0.33099901797333198 -0.096034161481027461 0 -0.34583111956259749 -0.098435285946989581 0 -0.33771426402921512 -0.08590788387587725 0 -0.3410929925936918 -0.075329856076351967 0 -0.34764631593145701 -0.084003956848892683 0 -0.32775298229610761 -0.074445054964536822 0 -0.34954543010999922 -0.066229350004753773 0 -0.32775298229610761 -0.074445054964536822 0 -0.34954543010999922 -0.066229350004753773 0 -0.33116639189700398 -0.058063059230765962 0 -0.32775298229610761 -0.074445054964536822 0 -0.3410929925936918 -0.075329856076351967 0 -0.34954543010999922 -0.066229350004753773 0 -0.31981531178534578 -0.1159443424066684 0 -0.33811662782018509 -0.1187149432167614 0 -0.32501708124079648 -0.13103464252731351 0 -0.31097561465500489 -0.1146061177684144 0 -0.31981531178534578 -0.1159443424066684 0 -0.31588048179209449 -0.1075745667651056 0 -0.31097561465500489 -0.1146061177684144 0 -0.31981531178534578 -0.1159443424066684 0 -0.31981531178534578 -0.1159443424066684 0 -0.32413251233690038 -0.10459203082738 0 -0.33754729440195652 -0.1062462215562652 0 -0.31981531178534578 -0.1159443424066684 0 -0.32413251233690038 -0.10459203082738 0 -0.31588048179209449 -0.1075745667651056 0 -0.32413251233690038 -0.10459203082738 0 -0.31588048179209449 -0.1075745667651056 0 -0.31567959952596442 -0.097557764174788134 0 -0.30783691459248808 -0.106447779092323 0 -0.31588048179209449 -0.1075745667651056 0 -0.31567959952596442 -0.097557764174788134 0 -0.32413251233690038 -0.10459203082738 0 -0.31567959952596442 -0.097557764174788134 0 -0.33099901797333198 -0.096034161481027461 0 -0.33754729440195652 -0.1062462215562652 0 -0.33811662782018509 -0.1187149432167614 0 -0.34583111956259749 -0.098435285946989581 0 -0.33099901797333198 -0.096034161481027461 0 -0.33754729440195652 -0.1062462215562652 0 -0.34583111956259749 -0.098435285946989581 0 -0.32413251233690038 -0.10459203082738 0 -0.33099901797333198 -0.096034161481027461 0 -0.33754729440195652 -0.1062462215562652 0 -0.31981531178534578 -0.1159443424066684 0 -0.33754729440195652 -0.1062462215562652 0 -0.31981531178534578 -0.1159443424066684 0 -0.33754729440195652 -0.1062462215562652 0 -0.33811662782018509 -0.1187149432167614 0 -0.31981531178534578 -0.1159443424066684 0 -0.33811662782018509 -0.1187149432167614 0 -0.33811662782018509 -0.1187149432167614 0 -0.32501708124079648 -0.13103464252731351 0 -0.33811662782018509 -0.1187149432167614 0 -0.35957868311145441 -0.098530575294378642 0 -0.36560935282136869 -0.1228770136391782 0 -0.33811662782018509 -0.1187149432167614 0 -0.36560935282136869 -0.1228770136391782 0 -0.33811662782018509 -0.1187149432167614 0 -0.35957868311145441 -0.098530575294378642 0 -0.33811662782018509 -0.1187149432167614 0 -0.34583111956259749 -0.098435285946989581 0 -0.35957868311145441 -0.098530575294378642 0 -0.37338072534044958 -0.1015395423542827 0 -0.35957868311145441 -0.098530575294378642 0 -0.36560935282136869 -0.1228770136391782 0 -0.37338072534044958 -0.1015395423542827 0 -0.35957868311145441 -0.098530575294378642 0 -0.3750868287242039 -0.083945666598845156 0 -0.35957868311145441 -0.098530575294378642 0 -0.36560935282136869 -0.1228770136391782 0 -0.37338072534044958 -0.1015395423542827 0 -0.36560935282136869 -0.1228770136391782 0 -0.38088751658449588 -0.11177605152490321 0 -0.35337645997328532 -0.073491557988243944 0 -0.34954543010999922 -0.066229350004753773 0 -0.36110028685175177 -0.071363477205066639 0 -0.34954543010999922 -0.066229350004753773 0 -0.36113753062154968 -0.061859153573384271 0 -0.35391811348297447 -0.060268720819388867 0 -0.34954543010999922 -0.066229350004753773 0 -0.36113753062154968 -0.061859153573384271 0 -0.34954543010999922 -0.066229350004753773 0 -0.36110028685175177 -0.071363477205066639 0 -0.36113753062154968 -0.061859153573384271 0 -0.34954543010999922 -0.066229350004753773 0 -0.36110028685175177 -0.071363477205066639 0 -0.3410929925936918 -0.075329856076351967 0 -0.34954543010999922 -0.066229350004753773 0 -0.34762887643352081 -0.074048264607039227 0 -0.3410929925936918 -0.075329856076351967 0 -0.34762887643352081 -0.074048264607039227 0 -0.34764631593145701 -0.084003956848892683 0 -0.35337645997328532 -0.073491557988243944 0 -0.34762887643352081 -0.074048264607039227 0 -0.34764631593145701 -0.084003956848892683 0 -0.35337645997328532 -0.073491557988243944 0 -0.34954543010999922 -0.066229350004753773 0 -0.34762887643352081 -0.074048264607039227 0 -0.35957868311145441 -0.098530575294378642 0 -0.35337645997328532 -0.073491557988243944 0 -0.34764631593145701 -0.084003956848892683 0 -0.35957868311145441 -0.098530575294378642 0 -0.35337645997328532 -0.073491557988243944 0 -0.34583111956259749 -0.098435285946989581 0 -0.35957868311145441 -0.098530575294378642 0 -0.34764631593145701 -0.084003956848892683 0 -0.35957868311145441 -0.098530575294378642 0 -0.36565466293458038 -0.077117114018749447 0 -0.3750868287242039 -0.083945666598845156 0 -0.35957868311145441 -0.098530575294378642 0 -0.35337645997328532 -0.073491557988243944 0 -0.36565466293458038 -0.077117114018749447 0 -0.35957868311145441 -0.098530575294378642 0 -0.3750868287242039 -0.083945666598845156 0 -0.36565466293458038 -0.077117114018749447 0 -0.37683012181080239 -0.068733301298065499 0 -0.3750868287242039 -0.083945666598845156 0 -0.36565466293458038 -0.077117114018749447 0 -0.36795559713598469 -0.066638105727896774 0 -0.37683012181080239 -0.068733301298065499 0 -0.36565466293458038 -0.077117114018749447 0 -0.36110028685175177 -0.071363477205066639 0 -0.36795559713598469 -0.066638105727896774 0 -0.35337645997328532 -0.073491557988243944 0 -0.36565466293458038 -0.077117114018749447 0 -0.36110028685175177 -0.071363477205066639 0 -0.36110028685175177 -0.071363477205066639 0 -0.36795559713598469 -0.066638105727896774 0 -0.36113753062154968 -0.061859153573384271 0 -0.36795559713598469 -0.066638105727896774 0 -0.37470589733927712 -0.0545527271000322 0 -0.37683012181080239 -0.068733301298065499 0 -0.35650250053147359 -0.050635726844241939 0 -0.37707154236451451 -0.044605869900925722 0 -0.37470589733927712 -0.0545527271000322 0 -0.35650250053147359 -0.050635726844241939 0 -0.36795559713598469 -0.066638105727896774 0 -0.37470589733927712 -0.0545527271000322 0 -0.36113753062154968 -0.061859153573384271 0 -0.37470589733927712 -0.0545527271000322 0 -0.35650250053147359 -0.050635726844241939 0 -0.37707154236451451 -0.044605869900925722 0 -0.37470589733927712 -0.0545527271000322 0 -0.35970252298352262 -0.056514655867325403 0 -0.35650250053147359 -0.050635726844241939 0 -0.37470589733927712 -0.0545527271000322 0 -0.35970252298352262 -0.056514655867325403 0 -0.36113753062154968 -0.061859153573384271 0 -0.35391811348297447 -0.060268720819388867 0 -0.35527395769833642 -0.05300159300784036 0 -0.33116639189700398 -0.058063059230765962 0 -0.35527395769833642 -0.05300159300784036 0 -0.35507992259877907 -0.051052758492802497 0 -0.33116639189700398 -0.058063059230765962 0 -0.34954543010999922 -0.066229350004753773 0 -0.35391811348297447 -0.060268720819388867 0 -0.33116639189700398 -0.058063059230765962 0 -0.35970252298352262 -0.056514655867325403 0 -0.36113753062154968 -0.061859153573384271 0 -0.35391811348297447 -0.060268720819388867 0 -0.35970252298352262 -0.056514655867325403 0 -0.35391811348297447 -0.060268720819388867 0 -0.35527395769833642 -0.05300159300784036 0 -0.35650250053147359 -0.050635726844241939 0 -0.35507992259877907 -0.051052758492802497 0 -0.3484308880043866 -0.044087332347355908 0 -0.35970252298352262 -0.056514655867325403 0 -0.35650250053147359 -0.050635726844241939 0 -0.35527395769833642 -0.05300159300784036 0 -0.35650250053147359 -0.050635726844241939 0 -0.35527395769833642 -0.05300159300784036 0 -0.35650250053147359 -0.050635726844241939 0 -0.35527395769833642 -0.05300159300784036 0 -0.35507992259877907 -0.051052758492802497 0 -0.35650250053147359 -0.050635726844241939 0 -0.35507992259877907 -0.051052758492802497 0 -0.35507992259877907 -0.051052758492802497 0 -0.33978397050626657 -0.048324977944356091 0 -0.35507992259877907 -0.051052758492802497 0 -0.3484308880043866 -0.044087332347355908 0 -0.33978397050626657 -0.048324977944356091 0 -0.35650250053147359 -0.050635726844241939 0 -0.3501214739100334 -0.034607419809747728 0 -0.3484308880043866 -0.044087332347355908 0 -0.35650250053147359 -0.050635726844241939 0 -0.3501214739100334 -0.034607419809747728 0 -0.36684988365240911 -0.03070925546092473 0 -0.3501214739100334 -0.034607419809747728 0 -0.3484308880043866 -0.044087332347355908 0 -0.33506880487583801 -0.038565334792038719 0 -0.35650250053147359 -0.050635726844241939 0 -0.36684988365240911 -0.03070925546092473 0 -0.37707154236451451 -0.044605869900925722 0 -0.35650250053147359 -0.050635726844241939 0 -0.36684988365240911 -0.03070925546092473 0 -0.36684988365240911 -0.03070925546092473 0 -0.37719726677334758 -0.010782784077609161 0 -0.36684988365240911 -0.03070925546092473 0 -0.35583605574812599 -0.018224686697538489 0 -0.37719726677334758 -0.010782784077609161 0 -0.35583605574812599 -0.018224686697538489 0 -0.37719726677334758 -0.010782784077609161 0 -0.37145675818362223 0.001704133189072726 0 -0.35583605574812599 -0.018224686697538489 0 -0.37719726677334758 -0.010782784077609161 0 -0.35583605574812599 -0.018224686697538489 0 -0.35182631000740072 0.0068229147672093007 0 -0.37145675818362223 0.001704133189072726 0 -0.35583605574812599 -0.018224686697538489 0 -0.33449922093445961 -0.0040818700918973123 0 -0.35182631000740072 0.0068229147672093007 0 -0.3501214739100334 -0.034607419809747728 0 -0.35583605574812599 -0.018224686697538489 0 -0.33447484472290451 -0.025666589317467611 0 -0.3501214739100334 -0.034607419809747728 0 -0.36684988365240911 -0.03070925546092473 0 -0.35583605574812599 -0.018224686697538489 0 -0.35583605574812599 -0.018224686697538489 0 -0.33447484472290451 -0.025666589317467611 0 -0.35583605574812599 -0.018224686697538489 0 -0.33447484472290451 -0.025666589317467611 0 -0.33449922093445961 -0.0040818700918973123 0 -0.33447484472290451 -0.025666589317467611 0 -0.33449922093445961 -0.0040818700918973123 0 -0.31759413704845219 -0.011310857140017521 0 -0.33449922093445961 -0.0040818700918973123 0 -0.31759413704845219 -0.011310857140017521 0 -0.32049615199215492 0.0045280339304297253 0 -0.30518798685158838 -0.0020929360932298849 0 -0.31759413704845219 -0.011310857140017521 0 -0.32049615199215492 0.0045280339304297253 0 -0.33447484472290451 -0.025666589317467611 0 -0.31759413704845219 -0.011310857140017521 0 -0.31311363369768291 -0.03310849193739672 0 -0.33447484472290451 -0.025666589317467611 0 -0.31311363369768291 -0.03310849193739672 0 -0.3114594072847322 -0.049306726894047262 0 -0.31311363369768291 -0.03310849193739672 0 -0.32448801841375452 -0.045597197395908257 0 -0.33447484472290451 -0.025666589317467611 0 -0.31311363369768291 -0.03310849193739672 0 -0.33506880487583801 -0.038565334792038719 0 -0.31311363369768291 -0.03310849193739672 0 -0.32448801841375452 -0.045597197395908257 0 -0.33506880487583801 -0.038565334792038719 0 -0.3114594072847322 -0.049306726894047262 0 -0.32448801841375452 -0.045597197395908257 0 -0.33116639189700398 -0.058063059230765962 0 -0.30696176126270219 -0.065158696513015008 0 -0.33116639189700398 -0.058063059230765962 0 -0.3114594072847322 -0.049306726894047262 0 -0.33116639189700398 -0.058063059230765962 0 -0.3114594072847322 -0.049306726894047262 0 -0.30696176126270219 -0.065158696513015008 0 -0.33116639189700398 -0.058063059230765962 0 -0.32448801841375452 -0.045597197395908257 0 -0.33116639189700398 -0.058063059230765962 0 -0.33978397050626657 -0.048324977944356091 0 -0.34954543010999922 -0.066229350004753773 0 -0.33116639189700398 -0.058063059230765962 0 -0.35507992259877907 -0.051052758492802497 0 -0.33116639189700398 -0.058063059230765962 0 -0.33978397050626657 -0.048324977944356091 0 -0.35507992259877907 -0.051052758492802497 0 -0.33116639189700398 -0.058063059230765962 0 -0.32448801841375452 -0.045597197395908257 0 -0.33978397050626657 -0.048324977944356091 0 -0.3501214739100334 -0.034607419809747728 0 -0.33447484472290451 -0.025666589317467611 0 -0.33506880487583801 -0.038565334792038719 0 -0.3484308880043866 -0.044087332347355908 0 -0.33978397050626657 -0.048324977944356091 0 -0.33506880487583801 -0.038565334792038719 0 -0.32448801841375452 -0.045597197395908257 0 -0.33978397050626657 -0.048324977944356091 0 -0.33506880487583801 -0.038565334792038719 0 -0.29859701231105729 -0.25301700882560368 0 -0.3071375446623259 -0.2335196387236223 0 -0.31421725341188372 -0.24977587129631751 0 -0.29859701231105729 -0.25301700882560368 0 -0.3071375446623259 -0.2335196387236223 0 -0.29138670340076089 -0.23873921836977791 0 -0.3071375446623259 -0.2335196387236223 0 -0.29268109579257923 -0.22411955864172181 0 -0.3060605016315725 -0.21226103782782971 0 -0.3071375446623259 -0.2335196387236223 0 -0.3060605016315725 -0.21226103782782971 0 -0.32042736925848198 -0.22641527486886631 0 -0.3071375446623259 -0.2335196387236223 0 -0.29268109579257923 -0.22411955864172181 0 -0.29138670340076089 -0.23873921836977791 0 -0.29268109579257923 -0.22411955864172181 0 -0.27778266513963018 -0.23141617934605249 0 -0.2809246376312578 -0.20830770343947971 0 -0.29268109579257923 -0.22411955864172181 0 -0.29138670340076089 -0.23873921836977791 0 -0.27778266513963018 -0.23141617934605249 0 -0.28073519909821221 -0.25162370631188929 0 -0.29138670340076089 -0.23873921836977791 0 -0.27778266513963018 -0.23141617934605249 0 -0.28073519909821221 -0.25162370631188929 0 -0.29859701231105729 -0.25301700882560368 0 -0.29138670340076089 -0.23873921836977791 0 -0.28073519909821221 -0.25162370631188929 0 -0.2582168116042447 -0.2439014490639565 0 -0.27778266513963018 -0.23141617934605249 0 -0.24510877540263959 -0.22548599802342939 0 -0.2582168116042447 -0.2439014490639565 0 -0.26321090898949828 -0.22136191750140799 0 -0.24510877540263959 -0.22548599802342939 0 -0.26321090898949828 -0.22136191750140799 0 -0.25247744799357308 -0.21261594090752481 0 -0.26321090898949828 -0.22136191750140799 0 -0.27778266513963018 -0.23141617934605249 0 -0.2809246376312578 -0.20830770343947971 0 -0.2582168116042447 -0.2439014490639565 0 -0.26321090898949828 -0.22136191750140799 0 -0.27778266513963018 -0.23141617934605249 0 -0.26321090898949828 -0.22136191750140799 0 -0.2809246376312578 -0.20830770343947971 0 -0.26409863293778341 -0.20573621058270139 0 -0.26321090898949828 -0.22136191750140799 0 -0.26409863293778341 -0.20573621058270139 0 -0.25247744799357308 -0.21261594090752481 0 -0.26409863293778341 -0.20573621058270139 0 -0.25247744799357308 -0.21261594090752481 0 -0.25047429362874257 -0.200219847641955 0 -0.26409863293778341 -0.20573621058270139 0 -0.25047429362874257 -0.200219847641955 0 -0.26742375486930359 -0.1882108285553544 0 -0.25047429362874257 -0.200219847641955 0 -0.26742375486930359 -0.1882108285553544 0 -0.23968786498356659 -0.18400375912907671 0 -0.25047429362874257 -0.200219847641955 0 -0.26742375486930359 -0.1882108285553544 0 -0.2809246376312578 -0.20830770343947971 0 -0.26742375486930359 -0.1882108285553544 0 -0.29199909585561379 -0.19193849570898799 0 -0.26742375486930359 -0.1882108285553544 0 -0.29199909585561379 -0.19193849570898799 0 -0.2809246376312578 -0.20830770343947971 0 -0.26409863293778341 -0.20573621058270139 0 -0.26742375486930359 -0.1882108285553544 0 -0.2809246376312578 -0.20830770343947971 0 -0.3060605016315725 -0.21226103782782971 0 -0.2809246376312578 -0.20830770343947971 0 -0.29199909585561379 -0.19193849570898799 0 -0.3060605016315725 -0.21226103782782971 0 -0.29268109579257923 -0.22411955864172181 0 -0.2809246376312578 -0.20830770343947971 0 -0.3060605016315725 -0.21226103782782971 0 -0.29199909585561379 -0.19193849570898799 0 -0.3060605016315725 -0.21226103782782971 0 -0.3165744368419241 -0.19566616286262159 0 -0.29199909585561379 -0.19193849570898799 0 -0.3165744368419241 -0.19566616286262159 0 -0.29199909585561379 -0.19193849570898799 0 -0.29938476110462459 -0.18143496863655581 0 -0.3165744368419241 -0.19566616286262159 0 -0.29938476110462459 -0.18143496863655581 0 -0.31036357984341878 -0.17729064654437279 0 -0.3165744368419241 -0.19566616286262159 0 -0.29938476110462459 -0.18143496863655581 0 -0.30228981993539911 -0.17082195765291869 0 -0.28961274120160779 -0.1724895052286107 0 -0.29938476110462459 -0.18143496863655581 0 -0.31036357984341878 -0.17729064654437279 0 -0.30228981993539911 -0.17082195765291869 0 -0.31036357984341878 -0.17729064654437279 0 -0.31099079812705838 -0.16810657065420029 0 -0.30228981993539911 -0.17082195765291869 0 -0.31099079812705838 -0.16810657065420029 0 -0.31180172753391222 -0.15676818190186689 0 -0.30228981993539911 -0.17082195765291869 0 -0.31180172753391222 -0.15676818190186689 0 -0.28961274120160779 -0.1724895052286107 0 -0.31180172753391222 -0.15676818190186689 0 -0.28581520798017918 -0.16349252579439161 0 -0.31180172753391222 -0.15676818190186689 0 -0.28581520798017918 -0.16349252579439161 0 -0.30248732557626462 -0.14891872701938649 0 -0.31180172753391222 -0.15676818190186689 0 -0.30228981993539911 -0.17082195765291869 0 -0.28961274120160779 -0.1724895052286107 0 -0.31180172753391222 -0.15676818190186689 0 -0.28581520798017918 -0.16349252579439161 0 -0.28961274120160779 -0.1724895052286107 0 -0.28581520798017918 -0.16349252579439161 0 -0.28961274120160779 -0.1724895052286107 0 -0.27455339795200551 -0.17354596063111 0 -0.29199909585561379 -0.19193849570898799 0 -0.29938476110462459 -0.18143496863655581 0 -0.28961274120160779 -0.1724895052286107 0 -0.26742375486930359 -0.1882108285553544 0 -0.29199909585561379 -0.19193849570898799 0 -0.28961274120160779 -0.1724895052286107 0 -0.26742375486930359 -0.1882108285553544 0 -0.28961274120160779 -0.1724895052286107 0 -0.26742375486930359 -0.1882108285553544 0 -0.28961274120160779 -0.1724895052286107 0 -0.27455339795200551 -0.17354596063111 0 -0.26742375486930359 -0.1882108285553544 0 -0.27455339795200551 -0.17354596063111 0 -0.25982868842644607 -0.17021686968691641 0 -0.23968786498356659 -0.18400375912907671 0 -0.26742375486930359 -0.1882108285553544 0 -0.23968786498356659 -0.18400375912907671 0 -0.26742375486930359 -0.1882108285553544 0 -0.25982868842644607 -0.17021686968691641 0 -0.25982868842644607 -0.17021686968691641 0 -0.27013136078807137 -0.15645680560504849 0 -0.25343568279415951 -0.15224923159364789 0 -0.24566481473353391 -0.1652464025747532 0 -0.25982868842644607 -0.17021686968691641 0 -0.25343568279415951 -0.15224923159364789 0 -0.28581520798017918 -0.16349252579439161 0 -0.25982868842644607 -0.17021686968691641 0 -0.27013136078807137 -0.15645680560504849 0 -0.28581520798017918 -0.16349252579439161 0 -0.27455339795200551 -0.17354596063111 0 -0.25982868842644607 -0.17021686968691641 0 -0.28581520798017918 -0.16349252579439161 0 -0.27013136078807137 -0.15645680560504849 0 -0.281048741890911 -0.15139895950123519 0 -0.28581520798017918 -0.16349252579439161 0 -0.25982868842644607 -0.17021686968691641 0 -0.27013136078807137 -0.15645680560504849 0 -0.281048741890911 -0.15139895950123519 0 -0.27556222579122169 -0.14014760186465491 0 -0.27013136078807137 -0.15645680560504849 0 -0.25343568279415951 -0.15224923159364789 0 -0.27556222579122169 -0.14014760186465491 0 -0.25343568279415951 -0.15224923159364789 0 -0.26038693836179072 -0.13666660738782219 0 -0.27556222579122169 -0.14014760186465491 0 -0.25343568279415951 -0.15224923159364789 0 -0.27556222579122169 -0.14014760186465491 0 -0.2478381125959237 -0.13014188093155071 0 -0.26471173226585809 -0.1241277151614352 0 -0.26038693836179072 -0.13666660738782219 0 -0.2478381125959237 -0.13014188093155071 0 -0.25343568279415951 -0.15224923159364789 0 -0.26038693836179072 -0.13666660738782219 0 -0.26471173226585809 -0.1241277151614352 0 -0.28362018306611941 -0.1149768545032684 0 -0.27556222579122169 -0.14014760186465491 0 -0.26471173226585809 -0.1241277151614352 0 -0.26038693836179072 -0.13666660738782219 0 -0.27556222579122169 -0.14014760186465491 0 -0.27556222579122169 -0.14014760186465491 0 -0.29268617300417199 -0.1454989047408457 0 -0.29768876878828382 -0.12804597213566191 0 -0.28362018306611941 -0.1149768545032684 0 -0.27556222579122169 -0.14014760186465491 0 -0.29768876878828382 -0.12804597213566191 0 -0.27556222579122169 -0.14014760186465491 0 -0.29768876878828382 -0.12804597213566191 0 -0.28581520798017918 -0.16349252579439161 0 -0.29268617300417199 -0.1454989047408457 0 -0.30248732557626462 -0.14891872701938649 0 -0.28581520798017918 -0.16349252579439161 0 -0.281048741890911 -0.15139895950123519 0 -0.29268617300417199 -0.1454989047408457 0 -0.281048741890911 -0.15139895950123519 0 -0.27556222579122169 -0.14014760186465491 0 -0.29268617300417199 -0.1454989047408457 0 -0.29268617300417199 -0.1454989047408457 0 -0.30248732557626462 -0.14891872701938649 0 -0.30370630156068762 -0.1389224563049837 0 -0.31180172753391222 -0.15676818190186689 0 -0.30248732557626462 -0.14891872701938649 0 -0.31398283958777989 -0.14122477915676221 0 -0.30248732557626462 -0.14891872701938649 0 -0.30370630156068762 -0.1389224563049837 0 -0.31398283958777989 -0.14122477915676221 0 -0.29268617300417199 -0.1454989047408457 0 -0.29768876878828382 -0.12804597213566191 0 -0.30370630156068762 -0.1389224563049837 0 -0.31168640084693722 -0.1309238984722621 0 -0.30370630156068762 -0.1389224563049837 0 -0.31398283958777989 -0.14122477915676221 0 -0.31168640084693722 -0.1309238984722621 0 -0.29768876878828382 -0.12804597213566191 0 -0.30370630156068762 -0.1389224563049837 0 -0.32501708124079648 -0.13103464252731351 0 -0.31398283958777989 -0.14122477915676221 0 -0.32769326224381667 -0.1455087240973956 0 -0.31981531178534578 -0.1159443424066684 0 -0.31168640084693722 -0.1309238984722621 0 -0.32501708124079648 -0.13103464252731351 0 -0.31168640084693722 -0.1309238984722621 0 -0.32501708124079648 -0.13103464252731351 0 -0.31398283958777989 -0.14122477915676221 0 -0.31180172753391222 -0.15676818190186689 0 -0.32298463198440808 -0.15387446252221321 0 -0.32769326224381667 -0.1455087240973956 0 -0.31180172753391222 -0.15676818190186689 0 -0.32769326224381667 -0.1455087240973956 0 -0.31180172753391222 -0.15676818190186689 0 -0.31398283958777989 -0.14122477915676221 0 -0.32769326224381667 -0.1455087240973956 0 -0.31180172753391222 -0.15676818190186689 0 -0.32298463198440808 -0.15387446252221321 0 -0.32298463198440808 -0.15387446252221321 0 -0.33102430582003672 -0.15284086827415069 0 -0.32912678435276249 -0.16184097596254959 0 -0.32298463198440808 -0.15387446252221321 0 -0.32769326224381667 -0.1455087240973956 0 -0.33102430582003672 -0.15284086827415069 0 -0.32769326224381667 -0.1455087240973956 0 -0.33779330298695009 -0.14738175250870711 0 -0.34358479695372102 -0.13424926629292419 0 -0.32769326224381667 -0.1455087240973956 0 -0.33102430582003672 -0.15284086827415069 0 -0.33779330298695009 -0.14738175250870711 0 -0.33779330298695009 -0.14738175250870711 0 -0.34838845348846031 -0.14833884467229949 0 -0.33902784532518498 -0.15634369213364299 0 -0.33102430582003672 -0.15284086827415069 0 -0.33779330298695009 -0.14738175250870711 0 -0.33902784532518498 -0.15634369213364299 0 -0.33779330298695009 -0.14738175250870711 0 -0.34358479695372102 -0.13424926629292419 0 -0.34838845348846031 -0.14833884467229949 0 -0.32501708124079648 -0.13103464252731351 0 -0.32769326224381667 -0.1455087240973956 0 -0.34358479695372102 -0.13424926629292419 0 -0.33811662782018509 -0.1187149432167614 0 -0.32501708124079648 -0.13103464252731351 0 -0.34358479695372102 -0.13424926629292419 0 -0.32769326224381667 -0.1455087240973956 0 -0.34358479695372102 -0.13424926629292419 0 -0.33811662782018509 -0.1187149432167614 0 -0.36560935282136869 -0.1228770136391782 0 -0.34358479695372102 -0.13424926629292419 0 -0.36560935282136869 -0.1228770136391782 0 -0.34358479695372102 -0.13424926629292419 0 -0.35789225520722451 -0.13996819740399649 0 -0.36560935282136869 -0.1228770136391782 0 -0.37179133304014322 -0.14783430818272611 0 -0.38404989885292651 -0.1400792958384918 0 -0.36560935282136869 -0.1228770136391782 0 -0.37179133304014322 -0.14783430818272611 0 -0.36560935282136869 -0.1228770136391782 0 -0.35789225520722451 -0.13996819740399649 0 -0.37179133304014322 -0.14783430818272611 0 -0.35789225520722451 -0.13996819740399649 0 -0.37179133304014322 -0.14783430818272611 0 -0.35884313601860912 -0.15417852746750099 0 -0.35884313601860912 -0.15417852746750099 0 -0.34838845348846031 -0.14833884467229949 0 -0.34888414490412811 -0.1629439357986564 0 -0.35789225520722451 -0.13996819740399649 0 -0.35884313601860912 -0.15417852746750099 0 -0.34838845348846031 -0.14833884467229949 0 -0.34358479695372102 -0.13424926629292419 0 -0.35789225520722451 -0.13996819740399649 0 -0.34838845348846031 -0.14833884467229949 0 -0.34838845348846031 -0.14833884467229949 0 -0.34888414490412811 -0.1629439357986564 0 -0.33902784532518498 -0.15634369213364299 0 -0.34888414490412811 -0.1629439357986564 0 -0.34454825898434782 -0.17720191583282571 0 -0.33836769259919219 -0.1670464993373886 0 -0.34888414490412811 -0.1629439357986564 0 -0.35381843126239348 -0.1726746577785957 0 -0.34454825898434782 -0.17720191583282571 0 -0.34888414490412811 -0.1629439357986564 0 -0.36338268495294579 -0.16800377969191779 0 -0.35381843126239348 -0.1726746577785957 0 -0.35884313601860912 -0.15417852746750099 0 -0.34888414490412811 -0.1629439357986564 0 -0.36338268495294579 -0.16800377969191779 0 -0.37179133304014322 -0.14783430818272611 0 -0.37797331325891809 -0.17279160272627381 0 -0.37179133304014322 -0.14783430818272611 0 -0.35884313601860912 -0.15417852746750099 0 -0.36338268495294579 -0.16800377969191779 0 -0.37179133304014322 -0.14783430818272611 0 -0.36338268495294579 -0.16800377969191779 0 -0.37797331325891809 -0.17279160272627381 0 -0.36338268495294579 -0.16800377969191779 0 -0.37192204740575269 -0.18508240213403099 0 -0.3584586362081526 -0.18254899979098321 0 -0.36338268495294579 -0.16800377969191779 0 -0.37192204740575269 -0.18508240213403099 0 -0.37797331325891809 -0.17279160272627381 0 -0.36338268495294579 -0.16800377969191779 0 -0.3584586362081526 -0.18254899979098321 0 -0.35381843126239348 -0.1726746577785957 0 -0.3584586362081526 -0.18254899979098321 0 -0.35381843126239348 -0.1726746577785957 0 -0.34454825898434782 -0.17720191583282571 0 -0.3584586362081526 -0.18254899979098321 0 -0.34454825898434782 -0.17720191583282571 0 -0.34833703943659811 -0.1887712121410032 0 -0.34454825898434782 -0.17720191583282571 0 -0.33350934598544107 -0.1865060965460745 0 -0.34833703943659811 -0.1887712121410032 0 -0.33350934598544107 -0.1865060965460745 0 -0.33087698944707578 -0.17469400287398781 0 -0.32216648346267268 -0.18034048106893991 0 -0.34454825898434782 -0.17720191583282571 0 -0.33087698944707578 -0.17469400287398781 0 -0.33836769259919219 -0.1670464993373886 0 -0.34454825898434782 -0.17720191583282571 0 -0.33350934598544107 -0.1865060965460745 0 -0.33087698944707578 -0.17469400287398781 0 -0.34888414490412811 -0.1629439357986564 0 -0.33836769259919219 -0.1670464993373886 0 -0.33902784532518498 -0.15634369213364299 0 -0.33102430582003672 -0.15284086827415069 0 -0.33902784532518498 -0.15634369213364299 0 -0.32912678435276249 -0.16184097596254959 0 -0.33836769259919219 -0.1670464993373886 0 -0.33902784532518498 -0.15634369213364299 0 -0.32912678435276249 -0.16184097596254959 0 -0.33087698944707578 -0.17469400287398781 0 -0.33836769259919219 -0.1670464993373886 0 -0.32912678435276249 -0.16184097596254959 0 -0.33087698944707578 -0.17469400287398781 0 -0.32912678435276249 -0.16184097596254959 0 -0.31950806519550368 -0.16754549651764289 0 -0.32298463198440808 -0.15387446252221321 0 -0.32912678435276249 -0.16184097596254959 0 -0.31950806519550368 -0.16754549651764289 0 -0.31180172753391222 -0.15676818190186689 0 -0.32298463198440808 -0.15387446252221321 0 -0.31950806519550368 -0.16754549651764289 0 -0.31099079812705838 -0.16810657065420029 0 -0.31180172753391222 -0.15676818190186689 0 -0.31950806519550368 -0.16754549651764289 0 -0.31036357984341878 -0.17729064654437279 0 -0.31099079812705838 -0.16810657065420029 0 -0.31950806519550368 -0.16754549651764289 0 -0.31036357984341878 -0.17729064654437279 0 -0.31950806519550368 -0.16754549651764289 0 -0.32216648346267268 -0.18034048106893991 0 -0.31036357984341878 -0.17729064654437279 0 -0.32216648346267268 -0.18034048106893991 0 -0.3165744368419241 -0.19566616286262159 0 -0.33087698944707578 -0.17469400287398781 0 -0.31950806519550368 -0.16754549651764289 0 -0.32216648346267268 -0.18034048106893991 0 -0.33350934598544107 -0.1865060965460745 0 -0.32216648346267268 -0.18034048106893991 0 -0.3165744368419241 -0.19566616286262159 0 -0.3060605016315725 -0.21226103782782971 0 -0.33119636563188709 -0.2162143722161797 0 -0.32042736925848198 -0.22641527486886631 0 -0.3060605016315725 -0.21226103782782971 0 -0.33119636563188709 -0.2162143722161797 0 -0.3060605016315725 -0.21226103782782971 0 -0.3165744368419241 -0.19566616286262159 0 -0.33119636563188709 -0.2162143722161797 0 -0.33119636563188709 -0.2162143722161797 0 -0.34114977782823441 -0.19939383001625499 0 -0.35633222963220179 -0.22016770660452969 0 -0.3165744368419241 -0.19566616286262159 0 -0.33119636563188709 -0.2162143722161797 0 -0.34114977782823441 -0.19939383001625499 0 -0.3165744368419241 -0.19566616286262159 0 -0.34114977782823441 -0.19939383001625499 0 -0.33350934598544107 -0.1865060965460745 0 -0.3165744368419241 -0.19566616286262159 0 -0.34114977782823441 -0.19939383001625499 0 -0.33350934598544107 -0.1865060965460745 0 -0.34114977782823441 -0.19939383001625499 0 -0.34833703943659811 -0.1887712121410032 0 -0.34114977782823441 -0.19939383001625499 0 -0.36572511881454461 -0.20312149716988859 0 -0.34114977782823441 -0.19939383001625499 0 -0.34833703943659811 -0.1887712121410032 0 -0.36572511881454461 -0.20312149716988859 0 -0.3584586362081526 -0.18254899979098321 0 -0.34833703943659811 -0.1887712121410032 0 -0.36572511881454461 -0.20312149716988859 0 -0.37192204740575269 -0.18508240213403099 0 -0.3584586362081526 -0.18254899979098321 0 -0.36572511881454461 -0.20312149716988859 0 -0.37192204740575269 -0.18508240213403099 0 -0.36572511881454461 -0.20312149716988859 0 -0.37832751345100762 -0.19569708509895661 0 -0.36572511881454461 -0.20312149716988859 0 -0.35633222963220179 -0.22016770660452969 0 -0.37671868671049757 -0.21209106954761561 0 -0.33119636563188709 -0.2162143722161797 0 -0.35633222963220179 -0.22016770660452969 0 -0.34114977782823441 -0.19939383001625499 0 -0.36572511881454461 -0.20312149716988859 0 -0.35633222963220179 -0.22016770660452969 0 -0.34918985577357953 -0.22996643434813971 0 -0.35633222963220179 -0.22016770660452969 0 -0.3644368395520925 -0.23786219595255659 0 -0.33119636563188709 -0.2162143722161797 0 -0.34918985577357953 -0.22996643434813971 0 -0.35633222963220179 -0.22016770660452969 0 -0.35633222963220179 -0.22016770660452969 0 -0.38146809363251649 -0.22412104099287969 0 -0.35633222963220179 -0.22016770660452969 0 -0.37359243883566862 -0.23215909975287299 0 -0.3644368395520925 -0.23786219595255659 0 -0.35633222963220179 -0.22016770660452969 0 -0.37359243883566862 -0.23215909975287299 0 -0.38146809363251649 -0.22412104099287969 0 -0.35633222963220179 -0.22016770660452969 0 -0.38146809363251649 -0.22412104099287969 0 -0.37671868671049757 -0.21209106954761561 0 -0.36999160380854529 -0.25160890498862648 0 -0.3644368395520925 -0.23786219595255659 0 -0.37872015884544641 -0.2435614714605657 0 -0.37359243883566862 -0.23215909975287299 0 -0.3644368395520925 -0.23786219595255659 0 -0.37872015884544641 -0.2435614714605657 0 -0.36999160380854529 -0.25160890498862648 0 -0.3644368395520925 -0.23786219595255659 0 -0.35707845064694121 -0.24935767075674509 0 -0.34918985577357953 -0.22996643434813971 0 -0.3644368395520925 -0.23786219595255659 0 -0.35707845064694121 -0.24935767075674509 0 -0.34918985577357953 -0.22996643434813971 0 -0.35707845064694121 -0.24935767075674509 0 -0.34918985577357953 -0.22996643434813971 0 -0.35707845064694121 -0.24935767075674509 0 -0.34161545739809862 -0.2441761224370865 0 -0.32577683519746242 -0.25897579210934468 0 -0.34161545739809862 -0.2441761224370865 0 -0.32489287339017531 -0.23961736858555491 0 -0.34918985577357953 -0.22996643434813971 0 -0.34161545739809862 -0.2441761224370865 0 -0.33284956097644908 -0.23046395699114461 0 -0.34161545739809862 -0.2441761224370865 0 -0.33284956097644908 -0.23046395699114461 0 -0.32489287339017531 -0.23961736858555491 0 -0.33119636563188709 -0.2162143722161797 0 -0.34918985577357953 -0.22996643434813971 0 -0.33284956097644908 -0.23046395699114461 0 -0.33119636563188709 -0.2162143722161797 0 -0.33284956097644908 -0.23046395699114461 0 -0.32042736925848198 -0.22641527486886631 0 -0.3071375446623259 -0.2335196387236223 0 -0.32042736925848198 -0.22641527486886631 0 -0.32489287339017531 -0.23961736858555491 0 -0.33284956097644908 -0.23046395699114461 0 -0.32042736925848198 -0.22641527486886631 0 -0.32489287339017531 -0.23961736858555491 0 -0.3071375446623259 -0.2335196387236223 0 -0.31421725341188372 -0.24977587129631751 0 -0.32489287339017531 -0.23961736858555491 0 -0.32577683519746242 -0.25897579210934468 0 -0.31421725341188372 -0.24977587129631751 0 -0.32489287339017531 -0.23961736858555491 0 -0.429193077912078 -0.24092705066174019 0 -0.42560539866416353 -0.22692866047589191 0 -0.44336769959532257 -0.23972790925379969 0 -0.429193077912078 -0.24092705066174019 0 -0.42560539866416353 -0.22692866047589191 0 -0.41466813127082142 -0.24184035413310251 0 -0.42775875008346192 -0.25507980811954323 0 -0.429193077912078 -0.24092705066174019 0 -0.41466813127082142 -0.24184035413310251 0 -0.44165736388207272 -0.25360003737878889 0 -0.42775875008346192 -0.25507980811954323 0 -0.429193077912078 -0.24092705066174019 0 -0.42560539866416353 -0.22692866047589191 0 -0.43795718746300122 -0.2140778908121922 0 -0.44658841198271632 -0.22637890077404829 0 -0.42560539866416353 -0.22692866047589191 0 -0.41054768849444062 -0.2248275857939297 0 -0.41466813127082142 -0.24184035413310251 0 -0.42560539866416353 -0.22692866047589191 0 -0.41054768849444062 -0.2248275857939297 0 -0.41728712034711612 -0.21094258822191489 0 -0.42560539866416353 -0.22692866047589191 0 -0.41728712034711612 -0.21094258822191489 0 -0.41054768849444062 -0.2248275857939297 0 -0.41466813127082142 -0.24184035413310251 0 -0.39796822484346261 -0.23652916605093899 0 -0.40220594800304021 -0.25293233307518609 0 -0.39796822484346261 -0.23652916605093899 0 -0.39442967684708991 -0.25208667127465478 0 -0.39796822484346261 -0.23652916605093899 0 -0.38700487251608578 -0.2350830837538336 0 -0.40220594800304021 -0.25293233307518609 0 -0.41466813127082142 -0.24184035413310251 0 -0.39796822484346261 -0.23652916605093899 0 -0.39442967684708991 -0.25208667127465478 0 -0.38700487251608578 -0.2350830837538336 0 -0.37872015884544641 -0.2435614714605657 0 -0.37359243883566862 -0.23215909975287299 0 -0.38700487251608578 -0.2350830837538336 0 -0.37872015884544641 -0.2435614714605657 0 -0.37359243883566862 -0.23215909975287299 0 -0.38700487251608578 -0.2350830837538336 0 -0.38146809363251649 -0.22412104099287969 0 -0.38700487251608578 -0.2350830837538336 0 -0.38146809363251649 -0.22412104099287969 0 -0.39413434232215888 -0.2216891651872302 0 -0.38146809363251649 -0.22412104099287969 0 -0.39413434232215888 -0.2216891651872302 0 -0.38565539561650702 -0.2161876100128117 0 -0.41054768849444062 -0.2248275857939297 0 -0.39796822484346261 -0.23652916605093899 0 -0.39720956734663881 -0.20789716008779879 0 -0.39796822484346261 -0.23652916605093899 0 -0.39413434232215888 -0.2216891651872302 0 -0.39720956734663881 -0.20789716008779879 0 -0.39796822484346261 -0.23652916605093899 0 -0.39720956734663881 -0.20789716008779879 0 -0.39796822484346261 -0.23652916605093899 0 -0.38700487251608578 -0.2350830837538336 0 -0.39413434232215888 -0.2216891651872302 0 -0.39796822484346261 -0.23652916605093899 0 -0.39413434232215888 -0.2216891651872302 0 -0.39720956734663881 -0.20789716008779879 0 -0.40277518483810348 -0.20053664405661509 0 -0.41728712034711612 -0.21094258822191489 0 -0.39720956734663881 -0.20789716008779879 0 -0.39030045980085482 -0.20684916432352149 0 -0.39413434232215888 -0.2216891651872302 0 -0.39720956734663881 -0.20789716008779879 0 -0.39030045980085482 -0.20684916432352149 0 -0.39413434232215888 -0.2216891651872302 0 -0.39030045980085482 -0.20684916432352149 0 -0.36572511881454461 -0.20312149716988859 0 -0.39030045980085482 -0.20684916432352149 0 -0.39413434232215888 -0.2216891651872302 0 -0.38565539561650702 -0.2161876100128117 0 -0.39030045980085482 -0.20684916432352149 0 -0.38565539561650702 -0.2161876100128117 0 -0.39030045980085482 -0.20684916432352149 0 -0.37671868671049757 -0.21209106954761561 0 -0.36572511881454461 -0.20312149716988859 0 -0.39030045980085482 -0.20684916432352149 0 -0.37671868671049757 -0.21209106954761561 0 -0.38146809363251649 -0.22412104099287969 0 -0.38565539561650702 -0.2161876100128117 0 -0.37671868671049757 -0.21209106954761561 0 -0.39030045980085482 -0.20684916432352149 0 -0.38536242778287788 -0.1877352767683855 0 -0.39030045980085482 -0.20684916432352149 0 -0.37832751345100762 -0.19569708509895661 0 -0.38536242778287788 -0.1877352767683855 0 -0.36572511881454461 -0.20312149716988859 0 -0.39030045980085482 -0.20684916432352149 0 -0.37832751345100762 -0.19569708509895661 0 -0.37192204740575269 -0.18508240213403099 0 -0.37832751345100762 -0.19569708509895661 0 -0.38536242778287788 -0.1877352767683855 0 -0.39030045980085482 -0.20684916432352149 0 -0.38536242778287788 -0.1877352767683855 0 -0.39682758983152833 -0.1934811917008569 0 -0.39720956734663881 -0.20789716008779879 0 -0.39682758983152833 -0.1934811917008569 0 -0.39720956734663881 -0.20789716008779879 0 -0.39030045980085482 -0.20684916432352149 0 -0.39682758983152833 -0.1934811917008569 0 -0.39720956734663881 -0.20789716008779879 0 -0.39682758983152833 -0.1934811917008569 0 -0.40277518483810348 -0.20053664405661509 0 -0.39682758983152833 -0.1934811917008569 0 -0.40277518483810348 -0.20053664405661509 0 -0.40786839632368732 -0.19284167875001809 0 -0.40786839632368732 -0.19284167875001809 0 -0.42071188954671479 -0.1977783538484196 0 -0.41728712034711612 -0.21094258822191489 0 -0.40277518483810348 -0.20053664405661509 0 -0.40786839632368732 -0.19284167875001809 0 -0.41728712034711612 -0.21094258822191489 0 -0.40786839632368732 -0.19284167875001809 0 -0.41728712034711612 -0.21094258822191489 0 -0.40786839632368732 -0.19284167875001809 0 -0.42071188954671479 -0.1977783538484196 0 -0.41781993309639348 -0.18473776223631169 0 -0.39720956734663881 -0.20789716008779879 0 -0.41728712034711612 -0.21094258822191489 0 -0.41054768849444062 -0.2248275857939297 0 -0.39720956734663881 -0.20789716008779879 0 -0.41728712034711612 -0.21094258822191489 0 -0.41728712034711612 -0.21094258822191489 0 -0.43042781253814327 -0.20309513998401429 0 -0.43795718746300122 -0.2140778908121922 0 -0.41728712034711612 -0.21094258822191489 0 -0.43795718746300122 -0.2140778908121922 0 -0.42071188954671479 -0.1977783538484196 0 -0.41728712034711612 -0.21094258822191489 0 -0.43042781253814327 -0.20309513998401429 0 -0.42560539866416353 -0.22692866047589191 0 -0.41728712034711612 -0.21094258822191489 0 -0.43795718746300122 -0.2140778908121922 0 -0.43042781253814327 -0.20309513998401429 0 -0.43110417706379089 -0.19272761716818959 0 -0.44507868827009389 -0.1999492498693555 0 -0.42071188954671479 -0.1977783538484196 0 -0.43110417706379089 -0.19272761716818959 0 -0.41781993309639348 -0.18473776223631169 0 -0.42071188954671479 -0.1977783538484196 0 -0.43042781253814327 -0.20309513998401429 0 -0.43110417706379089 -0.19272761716818959 0 -0.43179072736577528 -0.17970529711169 0 -0.42986163711504638 -0.16701354152048811 0 -0.41699473597813752 -0.17063285726143029 0 -0.43179072736577528 -0.17970529711169 0 -0.41699473597813752 -0.17063285726143029 0 -0.41781993309639348 -0.18473776223631169 0 -0.43110417706379089 -0.19272761716818959 0 -0.43179072736577528 -0.17970529711169 0 -0.41781993309639348 -0.18473776223631169 0 -0.43110417706379089 -0.19272761716818959 0 -0.43179072736577528 -0.17970529711169 0 -0.44559792516655838 -0.1851633886427331 0 -0.43179072736577528 -0.17970529711169 0 -0.42986163711504638 -0.16701354152048811 0 -0.44303700991658518 -0.17026832712875151 0 -0.42986163711504638 -0.16701354152048811 0 -0.43823455075000578 -0.15580669622701629 0 -0.44303700991658518 -0.17026832712875151 0 -0.42986163711504638 -0.16701354152048811 0 -0.41699473597813752 -0.17063285726143029 0 -0.41985581490816198 -0.154444998856094 0 -0.42986163711504638 -0.16701354152048811 0 -0.41985581490816198 -0.154444998856094 0 -0.43823455075000578 -0.15580669622701629 0 -0.41699473597813752 -0.17063285726143029 0 -0.39844967230025591 -0.17474076927812279 0 -0.4045200176128938 -0.16008114399198281 0 -0.41699473597813752 -0.17063285726143029 0 -0.4045200176128938 -0.16008114399198281 0 -0.41985581490816198 -0.154444998856094 0 -0.41699473597813752 -0.17063285726143029 0 -0.41781993309639348 -0.18473776223631169 0 -0.39844967230025591 -0.17474076927812279 0 -0.40786839632368732 -0.19284167875001809 0 -0.41781993309639348 -0.18473776223631169 0 -0.39844967230025591 -0.17474076927812279 0 -0.40786839632368732 -0.19284167875001809 0 -0.39844967230025591 -0.17474076927812279 0 -0.39682758983152833 -0.1934811917008569 0 -0.40786839632368732 -0.19284167875001809 0 -0.39844967230025591 -0.17474076927812279 0 -0.38536242778287788 -0.1877352767683855 0 -0.39682758983152833 -0.1934811917008569 0 -0.39844967230025591 -0.17474076927812279 0 -0.38536242778287788 -0.1877352767683855 0 -0.39844967230025591 -0.17474076927812279 0 -0.37797331325891809 -0.17279160272627381 0 -0.37192204740575269 -0.18508240213403099 0 -0.38536242778287788 -0.1877352767683855 0 -0.37797331325891809 -0.17279160272627381 0 -0.37179133304014322 -0.14783430818272611 0 -0.37797331325891809 -0.17279160272627381 0 -0.38903094827682438 -0.15663985980622741 0 -0.39844967230025591 -0.17474076927812279 0 -0.37797331325891809 -0.17279160272627381 0 -0.38903094827682438 -0.15663985980622741 0 -0.39844967230025591 -0.17474076927812279 0 -0.38903094827682438 -0.15663985980622741 0 -0.39844967230025591 -0.17474076927812279 0 -0.38903094827682438 -0.15663985980622741 0 -0.4045200176128938 -0.16008114399198281 0 -0.38903094827682438 -0.15663985980622741 0 -0.4045200176128938 -0.16008114399198281 0 -0.39938536477583741 -0.14370127207381619 0 -0.38903094827682438 -0.15663985980622741 0 -0.39938536477583741 -0.14370127207381619 0 -0.38404989885292651 -0.1400792958384918 0 -0.37179133304014322 -0.14783430818272611 0 -0.38903094827682438 -0.15663985980622741 0 -0.38404989885292651 -0.1400792958384918 0 -0.36560935282136869 -0.1228770136391782 0 -0.38404989885292651 -0.1400792958384918 0 -0.38887223831657869 -0.12639873684615319 0 -0.38887223831657869 -0.12639873684615319 0 -0.41213512381178841 -0.1299204600531296 0 -0.39938536477583741 -0.14370127207381619 0 -0.38887223831657869 -0.12639873684615319 0 -0.41213512381178841 -0.1299204600531296 0 -0.39938536477583741 -0.14370127207381619 0 -0.38404989885292651 -0.1400792958384918 0 -0.38887223831657869 -0.12639873684615319 0 -0.4045200176128938 -0.16008114399198281 0 -0.39938536477583741 -0.14370127207381619 0 -0.41985581490816198 -0.154444998856094 0 -0.39938536477583741 -0.14370127207381619 0 -0.41213512381178841 -0.1299204600531296 0 -0.41985581490816198 -0.154444998856094 0 -0.41985581490816198 -0.154444998856094 0 -0.43539800930699801 -0.1334421832601059 0 -0.43823455075000578 -0.15580669622701629 0 -0.41213512381178841 -0.1299204600531296 0 -0.41985581490816198 -0.154444998856094 0 -0.43539800930699801 -0.1334421832601059 0 -0.41213512381178841 -0.1299204600531296 0 -0.43539800930699801 -0.1334421832601059 0 -0.43259539229225402 -0.1157747654031315 0 -0.41213512381178841 -0.1299204600531296 0 -0.43539800930699801 -0.1334421832601059 0 -0.43539800930699801 -0.1334421832601059 0 -0.45866089480220767 -0.1369639064670822 0 -0.45113905152447542 -0.1175368028588321 0 -0.43539800930699801 -0.1334421832601059 0 -0.44775450515208032 -0.1461386934312979 0 -0.45866089480220767 -0.1369639064670822 0 -0.43539800930699801 -0.1334421832601059 0 -0.45866089480220767 -0.1369639064670822 0 -0.44775450515208032 -0.1461386934312979 0 -0.43823455075000578 -0.15580669622701629 0 -0.45633895227784033 -0.1576945794699274 0 -0.43539800930699801 -0.1334421832601059 0 -0.44775450515208032 -0.1461386934312979 0 -0.43823455075000578 -0.15580669622701629 0 -0.44775450515208032 -0.1461386934312979 0 -0.45866089480220767 -0.1369639064670822 0 -0.45633895227784033 -0.1576945794699274 0 -0.45866089480220767 -0.1369639064670822 0 -0.47575659097790751 -0.15007175010341289 0 -0.45633895227784033 -0.1576945794699274 0 -0.45866089480220767 -0.1369639064670822 0 -0.47575659097790751 -0.15007175010341289 0 -0.46915934665662162 -0.1230624738371303 0 -0.45866089480220767 -0.1369639064670822 0 -0.45113905152447542 -0.1175368028588321 0 -0.46915934665662162 -0.1230624738371303 0 -0.47575659097790751 -0.15007175010341289 0 -0.46915934665662162 -0.1230624738371303 0 -0.48351137830779539 -0.13386722315158131 0 -0.47575659097790751 -0.15007175010341289 0 -0.46915934665662162 -0.1230624738371303 0 -0.48351137830779539 -0.13386722315158131 0 -0.5 -0.12673639045435739 0 -0.5 -0.15610943167098409 0 -0.48351137830779539 -0.13386722315158131 0 -0.5 -0.15610943167098409 0 -0.47575659097790751 -0.15007175010341289 0 -0.47575659097790751 -0.15007175010341289 0 -0.4823538352991934 -0.17708102636969561 0 -0.47575659097790751 -0.15007175010341289 0 -0.46899934294491291 -0.16540597077255109 0 -0.4823538352991934 -0.17708102636969561 0 -0.5 -0.15610943167098409 0 -0.47575659097790751 -0.15007175010341289 0 -0.4823538352991934 -0.17708102636969561 0 -0.5 -0.15610943167098409 0 -0.49999999999999722 -0.18548247288761069 0 -0.4823538352991934 -0.17708102636969561 0 -0.4823538352991934 -0.17708102636969561 0 -0.46154799322471052 -0.17677652714716849 0 -0.47332956926376563 -0.19085067910818809 0 -0.46899934294491291 -0.16540597077255109 0 -0.4823538352991934 -0.17708102636969561 0 -0.46154799322471052 -0.17677652714716849 0 -0.46154799322471052 -0.17677652714716849 0 -0.44559792516655838 -0.1851633886427331 0 -0.46102895515839498 -0.19155331343124329 0 -0.46154799322471052 -0.17677652714716849 0 -0.46102895515839498 -0.19155331343124329 0 -0.47332956926376563 -0.19085067910818809 0 -0.46899934294491291 -0.16540597077255109 0 -0.46154799322471052 -0.17677652714716849 0 -0.45633895227784033 -0.1576945794699274 0 -0.47575659097790751 -0.15007175010341289 0 -0.46899934294491291 -0.16540597077255109 0 -0.45633895227784033 -0.1576945794699274 0 -0.46154799322471052 -0.17677652714716849 0 -0.45633895227784033 -0.1576945794699274 0 -0.44303700991658518 -0.17026832712875151 0 -0.43823455075000578 -0.15580669622701629 0 -0.45633895227784033 -0.1576945794699274 0 -0.44303700991658518 -0.17026832712875151 0 -0.46154799322471052 -0.17677652714716849 0 -0.44303700991658518 -0.17026832712875151 0 -0.44559792516655838 -0.1851633886427331 0 -0.43179072736577528 -0.17970529711169 0 -0.44303700991658518 -0.17026832712875151 0 -0.44559792516655838 -0.1851633886427331 0 -0.44559792516655838 -0.1851633886427331 0 -0.44507868827009389 -0.1999492498693555 0 -0.46102895515839498 -0.19155331343124329 0 -0.43110417706379089 -0.19272761716818959 0 -0.44559792516655838 -0.1851633886427331 0 -0.44507868827009389 -0.1999492498693555 0 -0.44507868827009389 -0.1999492498693555 0 -0.43795718746300122 -0.2140778908121922 0 -0.4586272545788867 -0.21721319340246781 0 -0.43042781253814327 -0.20309513998401429 0 -0.44507868827009389 -0.1999492498693555 0 -0.43795718746300122 -0.2140778908121922 0 -0.43795718746300122 -0.2140778908121922 0 -0.4586272545788867 -0.21721319340246781 0 -0.4586272545788867 -0.21721319340246781 0 -0.46102895515839498 -0.19155331343124329 0 -0.47276598301604827 -0.20475222595685469 0 -0.44507868827009389 -0.1999492498693555 0 -0.4586272545788867 -0.21721319340246781 0 -0.46102895515839498 -0.19155331343124329 0 -0.47332956926376563 -0.19085067910818809 0 -0.48895107962048001 -0.20409030263597791 0 -0.47276598301604827 -0.20475222595685469 0 -0.4823538352991934 -0.17708102636969561 0 -0.47332956926376563 -0.19085067910818809 0 -0.48895107962048001 -0.20409030263597791 0 -0.46102895515839498 -0.19155331343124329 0 -0.47332956926376563 -0.19085067910818809 0 -0.47276598301604827 -0.20475222595685469 0 -0.4823538352991934 -0.17708102636969561 0 -0.48895107962048001 -0.20409030263597791 0 -0.49999999999999722 -0.18548247288761069 0 -0.48895107962048001 -0.20409030263597791 0 -0.49999999999999722 -0.18548247288761069 0 -0.5 -0.2044856090206181 0 -0.48895107962048001 -0.20409030263597791 0 -0.49999999999999722 -0.18548247288761069 0 -0.4823538352991934 -0.17708102636969561 0 -0.48895107962048001 -0.20409030263597791 0 -0.5 -0.2044856090206181 0 -0.500000000000002 -0.2234887451536256 0 -0.49344650703865789 -0.22249469015893941 0 -0.5 -0.2044856090206181 0 -0.48895107962048001 -0.20409030263597791 0 -0.49344650703865789 -0.22249469015893941 0 -0.48895107962048001 -0.20409030263597791 0 -0.47929732169477218 -0.22034849599274231 0 -0.49344650703865789 -0.22249469015893941 0 -0.48895107962048001 -0.20409030263597791 0 -0.49344650703865789 -0.22249469015893941 0 -0.48895107962048001 -0.20409030263597791 0 -0.47276598301604827 -0.20475222595685469 0 -0.47929732169477218 -0.22034849599274231 0 -0.48895107962048001 -0.20409030263597791 0 -0.47929732169477218 -0.22034849599274231 0 -0.4586272545788867 -0.21721319340246781 0 -0.47276598301604827 -0.20475222595685469 0 -0.47929732169477218 -0.22034849599274231 0 -0.4586272545788867 -0.21721319340246781 0 -0.47929732169477218 -0.22034849599274231 0 -0.47929732169477218 -0.22034849599274231 0 -0.48416686203858311 -0.23469505857438669 0 -0.46465652818918263 -0.24483730068029039 0 -0.47929732169477218 -0.22034849599274231 0 -0.46465652818918263 -0.24483730068029039 0 -0.47929732169477218 -0.22034849599274231 0 -0.49344650703865789 -0.22249469015893941 0 -0.47929732169477218 -0.22034849599274231 0 -0.49344650703865789 -0.22249469015893941 0 -0.48416686203858311 -0.23469505857438669 0 -0.49344650703865789 -0.22249469015893941 0 -0.49730382647131183 -0.23828664830542051 0 -0.48416686203858311 -0.23469505857438669 0 -0.500000000000002 -0.2234887451536256 0 -0.49344650703865789 -0.22249469015893941 0 -0.49730382647131183 -0.23828664830542051 0 -0.49344650703865789 -0.22249469015893941 0 -0.49730382647131183 -0.23828664830542051 0 -0.500000000000002 -0.2234887451536256 0 -0.49344650703865789 -0.22249469015893941 0 -0.5 -0.25150281007534703 0 -0.500000000000002 -0.2234887451536256 0 -0.49730382647131183 -0.23828664830542051 0 -0.5 -0.25150281007534703 0 -0.49730382647131183 -0.23828664830542051 0 -0.48570939693172899 -0.24902992718248729 0 -0.49730382647131183 -0.23828664830542051 0 -0.48570939693172899 -0.24902992718248729 0 -0.48416686203858311 -0.23469505857438669 0 -0.48570939693172899 -0.24902992718248729 0 -0.48416686203858311 -0.23469505857438669 0 -0.46465652818918263 -0.24483730068029039 0 -0.4586272545788867 -0.21721319340246781 0 -0.47929732169477218 -0.22034849599274231 0 -0.46465652818918263 -0.24483730068029039 0 -0.4586272545788867 -0.21721319340246781 0 -0.46465652818918263 -0.24483730068029039 0 -0.44658841198271632 -0.22637890077404829 0 -0.43795718746300122 -0.2140778908121922 0 -0.4586272545788867 -0.21721319340246781 0 -0.44658841198271632 -0.22637890077404829 0 -0.42560539866416353 -0.22692866047589191 0 -0.44658841198271632 -0.22637890077404829 0 -0.44336769959532257 -0.23972790925379969 0 -0.46465652818918263 -0.24483730068029039 0 -0.44658841198271632 -0.22637890077404829 0 -0.44336769959532257 -0.23972790925379969 0 -0.44165736388207272 -0.25360003737878889 0 -0.46465652818918263 -0.24483730068029039 0 -0.44336769959532257 -0.23972790925379969 0 -0.44165736388207272 -0.25360003737878889 0 -0.429193077912078 -0.24092705066174019 0 -0.44336769959532257 -0.23972790925379969 0 -0.41631059699689099 -0.042084497863468198 0 -0.41965755993826598 -0.033894451920331033 0 -0.42761534325808798 -0.038876017594557971 0 -0.41631059699689099 -0.042084497863468198 0 -0.41965755993826598 -0.033894451920331033 0 -0.41128163845263888 -0.036426639289896208 0 -0.41965755993826598 -0.033894451920331033 0 -0.41128163845263888 -0.036426639289896208 0 -0.41258462043609562 -0.025993866725156231 0 -0.41128163845263888 -0.036426639289896208 0 -0.40704563849368902 -0.043093498236160592 0 -0.40124408047313331 -0.037519640608623422 0 -0.41128163845263888 -0.036426639289896208 0 -0.41258462043609562 -0.025993866725156231 0 -0.40124408047313331 -0.037519640608623422 0 -0.41631059699689099 -0.042084497863468198 0 -0.40704563849368902 -0.043093498236160592 0 -0.41300523529446281 -0.049717993690613083 0 -0.41631059699689099 -0.042084497863468198 0 -0.41128163845263888 -0.036426639289896208 0 -0.40704563849368902 -0.043093498236160592 0 -0.40704563849368902 -0.043093498236160592 0 -0.41300523529446281 -0.049717993690613083 0 -0.40411610338443682 -0.050557450003133962 0 -0.41300523529446281 -0.049717993690613083 0 -0.41414033076402768 -0.061585207313392322 0 -0.40411610338443682 -0.050557450003133962 0 -0.41300523529446281 -0.049717993690613083 0 -0.41414033076402768 -0.061585207313392322 0 -0.42341350683326928 -0.051269315036910318 0 -0.41631059699689099 -0.042084497863468198 0 -0.41300523529446281 -0.049717993690613083 0 -0.42341350683326928 -0.051269315036910318 0 -0.41414033076402768 -0.061585207313392322 0 -0.42341350683326928 -0.051269315036910318 0 -0.43505259438904009 -0.065314564308975948 0 -0.42341350683326928 -0.051269315036910318 0 -0.43594560852523878 -0.049663465434261311 0 -0.43505259438904009 -0.065314564308975948 0 -0.43594560852523878 -0.049663465434261311 0 -0.42761534325808798 -0.038876017594557971 0 -0.44052059365423879 -0.038318026972638523 0 -0.42341350683326928 -0.051269315036910318 0 -0.43594560852523878 -0.049663465434261311 0 -0.42761534325808798 -0.038876017594557971 0 -0.41631059699689099 -0.042084497863468198 0 -0.42341350683326928 -0.051269315036910318 0 -0.42761534325808798 -0.038876017594557971 0 -0.41965755993826598 -0.033894451920331033 0 -0.42761534325808798 -0.038876017594557971 0 -0.43049560054761637 -0.026091238128576531 0 -0.42761534325808798 -0.038876017594557971 0 -0.43049560054761637 -0.026091238128576531 0 -0.44052059365423879 -0.038318026972638523 0 -0.43049560054761637 -0.026091238128576531 0 -0.42123606753034548 -0.0078521834473191492 0 -0.44016826678282051 -0.008282799190680902 0 -0.42123606753034548 -0.0078521834473191492 0 -0.41258462043609562 -0.025993866725156231 0 -0.40359645288427559 -0.01255273007959058 0 -0.42123606753034548 -0.0078521834473191492 0 -0.40359645288427559 -0.01255273007959058 0 -0.411842978763718 0.0071810696113592566 0 -0.43049560054761637 -0.026091238128576531 0 -0.42123606753034548 -0.0078521834473191492 0 -0.41258462043609562 -0.025993866725156231 0 -0.41965755993826598 -0.033894451920331033 0 -0.43049560054761637 -0.026091238128576531 0 -0.41258462043609562 -0.025993866725156231 0 -0.41258462043609562 -0.025993866725156231 0 -0.40359645288427559 -0.01255273007959058 0 -0.40124408047313331 -0.037519640608623422 0 -0.40359645288427559 -0.01255273007959058 0 -0.39764058419755538 -0.038576012957609408 0 -0.40124408047313331 -0.037519640608623422 0 -0.40359645288427559 -0.01255273007959058 0 -0.38932648706987377 -0.013730584936831609 0 -0.38650677435962982 -0.026234410340964749 0 -0.40359645288427559 -0.01255273007959058 0 -0.38650677435962982 -0.026234410340964749 0 -0.39764058419755538 -0.038576012957609408 0 -0.40359645288427559 -0.01255273007959058 0 -0.39764058419755538 -0.038576012957609408 0 -0.40359645288427559 -0.01255273007959058 0 -0.411842978763718 0.0071810696113592566 0 -0.39856960861661739 0.0046729487720050386 0 -0.40359645288427559 -0.01255273007959058 0 -0.39149303023403142 -0.005335277537219363 0 -0.39856960861661739 0.0046729487720050386 0 -0.40359645288427559 -0.01255273007959058 0 -0.39149303023403142 -0.005335277537219363 0 -0.38932648706987377 -0.013730584936831609 0 -0.39149303023403142 -0.005335277537219363 0 -0.38087232901863782 -0.0095024514541764069 0 -0.38510027358075227 0.0044364300124967379 0 -0.39149303023403142 -0.005335277537219363 0 -0.38932648706987377 -0.013730584936831609 0 -0.38087232901863782 -0.0095024514541764069 0 -0.38932648706987377 -0.013730584936831609 0 -0.38087232901863782 -0.0095024514541764069 0 -0.38186988518864651 -0.018280442328540609 0 -0.37719726677334758 -0.010782784077609161 0 -0.38087232901863782 -0.0095024514541764069 0 -0.38186988518864651 -0.018280442328540609 0 -0.37719726677334758 -0.010782784077609161 0 -0.38087232901863782 -0.0095024514541764069 0 -0.37719726677334758 -0.010782784077609161 0 -0.38510027358075227 0.0044364300124967379 0 -0.37145675818362223 0.001704133189072726 0 -0.37719726677334758 -0.010782784077609161 0 -0.38510027358075227 0.0044364300124967379 0 -0.37719726677334758 -0.010782784077609161 0 -0.38087232901863782 -0.0095024514541764069 0 -0.38510027358075227 0.0044364300124967379 0 -0.36684988365240911 -0.03070925546092473 0 -0.38650677435962982 -0.026234410340964749 0 -0.38186988518864651 -0.018280442328540609 0 -0.36684988365240911 -0.03070925546092473 0 -0.37719726677334758 -0.010782784077609161 0 -0.38186988518864651 -0.018280442328540609 0 -0.38932648706987377 -0.013730584936831609 0 -0.38650677435962982 -0.026234410340964749 0 -0.38186988518864651 -0.018280442328540609 0 -0.36684988365240911 -0.03070925546092473 0 -0.38650677435962982 -0.026234410340964749 0 -0.37707154236451451 -0.044605869900925722 0 -0.38650677435962982 -0.026234410340964749 0 -0.37707154236451451 -0.044605869900925722 0 -0.39764058419755538 -0.038576012957609408 0 -0.37707154236451451 -0.044605869900925722 0 -0.39764058419755538 -0.038576012957609408 0 -0.39764058419755538 -0.038576012957609408 0 -0.40065489473756588 -0.045520490424667083 0 -0.40124408047313331 -0.037519640608623422 0 -0.40704563849368902 -0.043093498236160592 0 -0.40065489473756588 -0.045520490424667083 0 -0.40124408047313331 -0.037519640608623422 0 -0.40704563849368902 -0.043093498236160592 0 -0.40065489473756588 -0.045520490424667083 0 -0.40411610338443682 -0.050557450003133962 0 -0.39764058419755538 -0.038576012957609408 0 -0.40124408047313331 -0.037519640608623422 0 -0.39764058419755538 -0.038576012957609408 0 -0.40065489473756588 -0.045520490424667083 0 -0.39322806713901498 -0.057855850317809959 0 -0.41414033076402768 -0.061585207313392322 0 -0.39322806713901498 -0.057855850317809959 0 -0.40444542418072821 -0.066780626888537295 0 -0.41414033076402768 -0.061585207313392322 0 -0.40411610338443682 -0.050557450003133962 0 -0.39322806713901498 -0.057855850317809959 0 -0.39764058419755538 -0.038576012957609408 0 -0.39322806713901498 -0.057855850317809959 0 -0.41414033076402768 -0.061585207313392322 0 -0.39322806713901498 -0.057855850317809959 0 -0.40065489473756588 -0.045520490424667083 0 -0.40411610338443682 -0.050557450003133962 0 -0.39322806713901498 -0.057855850317809959 0 -0.37470589733927712 -0.0545527271000322 0 -0.39322806713901498 -0.057855850317809959 0 -0.37470589733927712 -0.0545527271000322 0 -0.37707154236451451 -0.044605869900925722 0 -0.39322806713901498 -0.057855850317809959 0 -0.37707154236451451 -0.044605869900925722 0 -0.39764058419755538 -0.038576012957609408 0 -0.39322806713901498 -0.057855850317809959 0 -0.37470589733927712 -0.0545527271000322 0 -0.39322806713901498 -0.057855850317809959 0 -0.3838397651565123 -0.062625659154805113 0 -0.37470589733927712 -0.0545527271000322 0 -0.37683012181080239 -0.068733301298065499 0 -0.3838397651565123 -0.062625659154805113 0 -0.39322806713901498 -0.057855850317809959 0 -0.3838397651565123 -0.062625659154805113 0 -0.39059497433695439 -0.069360757903312753 0 -0.37683012181080239 -0.068733301298065499 0 -0.3838397651565123 -0.062625659154805113 0 -0.39059497433695439 -0.069360757903312753 0 -0.39059497433695439 -0.069360757903312753 0 -0.3750868287242039 -0.083945666598845156 0 -0.37683012181080239 -0.068733301298065499 0 -0.39059497433695439 -0.069360757903312753 0 -0.3750868287242039 -0.083945666598845156 0 -0.39059497433695439 -0.069360757903312753 0 -0.38574124546072602 -0.090568404714108222 0 -0.3750868287242039 -0.083945666598845156 0 -0.39059497433695439 -0.069360757903312753 0 -0.38574124546072602 -0.090568404714108222 0 -0.37338072534044958 -0.1015395423542827 0 -0.38574124546072602 -0.090568404714108222 0 -0.3750868287242039 -0.083945666598845156 0 -0.39059497433695439 -0.069360757903312753 0 -0.38574124546072602 -0.090568404714108222 0 -0.39722678832591729 -0.08549102947411294 0 -0.38574124546072602 -0.090568404714108222 0 -0.39722678832591729 -0.08549102947411294 0 -0.39016591446444671 -0.1027403174982935 0 -0.39722678832591729 -0.08549102947411294 0 -0.40358704082088931 -0.10183248075400859 0 -0.40955223446300359 -0.086375659296802715 0 -0.39722678832591729 -0.08549102947411294 0 -0.40456307765117672 -0.076708553120630463 0 -0.40955223446300359 -0.086375659296802715 0 -0.39722678832591729 -0.08549102947411294 0 -0.40456307765117672 -0.076708553120630463 0 -0.39841612749299532 -0.072664694729402735 0 -0.40456307765117672 -0.076708553120630463 0 -0.40444542418072821 -0.066780626888537295 0 -0.39841612749299532 -0.072664694729402735 0 -0.39059497433695439 -0.069360757903312753 0 -0.39722678832591729 -0.08549102947411294 0 -0.39841612749299532 -0.072664694729402735 0 -0.40444542418072821 -0.066780626888537295 0 -0.39525037297019971 -0.064982506260420264 0 -0.39841612749299532 -0.072664694729402735 0 -0.39059497433695439 -0.069360757903312753 0 -0.39525037297019971 -0.064982506260420264 0 -0.39841612749299532 -0.072664694729402735 0 -0.39322806713901498 -0.057855850317809959 0 -0.39059497433695439 -0.069360757903312753 0 -0.39525037297019971 -0.064982506260420264 0 -0.39322806713901498 -0.057855850317809959 0 -0.40444542418072821 -0.066780626888537295 0 -0.39525037297019971 -0.064982506260420264 0 -0.39322806713901498 -0.057855850317809959 0 -0.39059497433695439 -0.069360757903312753 0 -0.39059497433695439 -0.069360757903312753 0 -0.39525037297019971 -0.064982506260420264 0 -0.36560935282136869 -0.1228770136391782 0 -0.38887223831657869 -0.12639873684615319 0 -0.38887223831657869 -0.12639873684615319 0 -0.38088751658449588 -0.11177605152490321 0 -0.39861419104112761 -0.1141217052544175 0 -0.38088751658449588 -0.11177605152490321 0 -0.39016591446444671 -0.1027403174982935 0 -0.39861419104112761 -0.1141217052544175 0 -0.36560935282136869 -0.1228770136391782 0 -0.38887223831657869 -0.12639873684615319 0 -0.38088751658449588 -0.11177605152490321 0 -0.38574124546072602 -0.090568404714108222 0 -0.38088751658449588 -0.11177605152490321 0 -0.38574124546072602 -0.090568404714108222 0 -0.38088751658449588 -0.11177605152490321 0 -0.39016591446444671 -0.1027403174982935 0 -0.37338072534044958 -0.1015395423542827 0 -0.38574124546072602 -0.090568404714108222 0 -0.38088751658449588 -0.11177605152490321 0 -0.40358704082088931 -0.10183248075400859 0 -0.39861419104112761 -0.1141217052544175 0 -0.4160373122485671 -0.1120621848500169 0 -0.39722678832591729 -0.08549102947411294 0 -0.39016591446444671 -0.1027403174982935 0 -0.40358704082088931 -0.10183248075400859 0 -0.39016591446444671 -0.1027403174982935 0 -0.40358704082088931 -0.10183248075400859 0 -0.39861419104112761 -0.1141217052544175 0 -0.38887223831657869 -0.12639873684615319 0 -0.41213512381178841 -0.1299204600531296 0 -0.39861419104112761 -0.1141217052544175 0 -0.41213512381178841 -0.1299204600531296 0 -0.39861419104112761 -0.1141217052544175 0 -0.4160373122485671 -0.1120621848500169 0 -0.41213512381178841 -0.1299204600531296 0 -0.4160373122485671 -0.1120621848500169 0 -0.43259539229225402 -0.1157747654031315 0 -0.4160373122485671 -0.1120621848500169 0 -0.4169341364211625 -0.097460269163205951 0 -0.43115901768430159 -0.099355876929453982 0 -0.40358704082088931 -0.10183248075400859 0 -0.4160373122485671 -0.1120621848500169 0 -0.4169341364211625 -0.097460269163205951 0 -0.40358704082088931 -0.10183248075400859 0 -0.4169341364211625 -0.097460269163205951 0 -0.40955223446300359 -0.086375659296802715 0 -0.4160373122485671 -0.1120621848500169 0 -0.43115901768430159 -0.099355876929453982 0 -0.43259539229225402 -0.1157747654031315 0 -0.43115901768430159 -0.099355876929453982 0 -0.43259539229225402 -0.1157747654031315 0 -0.44676155729694311 -0.09856935048049352 0 -0.41414033076402768 -0.061585207313392322 0 -0.41477655714820522 -0.073508962632903227 0 -0.43505259438904009 -0.065314564308975948 0 -0.41414033076402768 -0.061585207313392322 0 -0.40444542418072821 -0.066780626888537295 0 -0.41477655714820522 -0.073508962632903227 0 -0.40456307765117672 -0.076708553120630463 0 -0.40444542418072821 -0.066780626888537295 0 -0.41477655714820522 -0.073508962632903227 0 -0.40456307765117672 -0.076708553120630463 0 -0.41477655714820522 -0.073508962632903227 0 -0.40955223446300359 -0.086375659296802715 0 -0.41477655714820522 -0.073508962632903227 0 -0.40955223446300359 -0.086375659296802715 0 -0.42547236143691691 -0.079964116854811126 0 -0.4169341364211625 -0.097460269163205951 0 -0.40955223446300359 -0.086375659296802715 0 -0.42547236143691691 -0.079964116854811126 0 -0.43115901768430159 -0.099355876929453982 0 -0.42547236143691691 -0.079964116854811126 0 -0.43948503029078051 -0.084366611422258486 0 -0.4169341364211625 -0.097460269163205951 0 -0.43115901768430159 -0.099355876929453982 0 -0.42547236143691691 -0.079964116854811126 0 -0.42547236143691691 -0.079964116854811126 0 -0.43593321389199208 -0.076166958257645731 0 -0.43948503029078051 -0.084366611422258486 0 -0.41414033076402768 -0.061585207313392322 0 -0.43505259438904009 -0.065314564308975948 0 -0.42547236143691691 -0.079964116854811126 0 -0.43593321389199208 -0.076166958257645731 0 -0.43505259438904009 -0.065314564308975948 0 -0.41477655714820522 -0.073508962632903227 0 -0.42547236143691691 -0.079964116854811126 0 -0.43505259438904009 -0.065314564308975948 0 -0.43505259438904009 -0.065314564308975948 0 -0.45596485801405168 -0.069043921304564548 0 -0.45254776170430372 -0.055054247167343383 0 -0.43505259438904009 -0.065314564308975948 0 -0.44372286945123102 -0.075022540444537378 0 -0.45596485801405168 -0.069043921304564548 0 -0.43505259438904009 -0.065314564308975948 0 -0.45596485801405168 -0.069043921304564548 0 -0.44372286945123102 -0.075022540444537378 0 -0.44986078827983011 -0.084538284578158471 0 -0.45596485801405168 -0.069043921304564548 0 -0.43593321389199208 -0.076166958257645731 0 -0.43505259438904009 -0.065314564308975948 0 -0.44372286945123102 -0.075022540444537378 0 -0.43593321389199208 -0.076166958257645731 0 -0.44372286945123102 -0.075022540444537378 0 -0.43948503029078051 -0.084366611422258486 0 -0.44986078827983011 -0.084538284578158471 0 -0.44676155729694311 -0.09856935048049352 0 -0.46256210233533568 -0.096053197570847695 0 -0.44372286945123102 -0.075022540444537378 0 -0.43948503029078051 -0.084366611422258486 0 -0.44986078827983011 -0.084538284578158471 0 -0.43948503029078051 -0.084366611422258486 0 -0.44986078827983011 -0.084538284578158471 0 -0.44676155729694311 -0.09856935048049352 0 -0.46571079481874128 -0.075383853833439818 0 -0.45596485801405168 -0.069043921304564548 0 -0.46256210233533568 -0.096053197570847695 0 -0.45596485801405168 -0.069043921304564548 0 -0.46256210233533568 -0.096053197570847695 0 -0.44986078827983011 -0.084538284578158471 0 -0.45596485801405168 -0.069043921304564548 0 -0.46256210233533568 -0.096053197570847695 0 -0.46571079481874128 -0.075383853833439818 0 -0.46440728388852631 -0.065665476577682319 0 -0.45759908464129401 -0.069335358645535999 0 -0.46571079481874128 -0.075383853833439818 0 -0.46440728388852631 -0.065665476577682319 0 -0.47046251890076313 -0.067508589662998122 0 -0.45759908464129401 -0.069335358645535999 0 -0.45958199435623182 -0.062522792654202811 0 -0.45596485801405168 -0.069043921304564548 0 -0.46440728388852631 -0.065665476577682319 0 -0.45759908464129401 -0.069335358645535999 0 -0.45958199435623182 -0.062522792654202811 0 -0.45759908464129401 -0.069335358645535999 0 -0.45596485801405168 -0.069043921304564548 0 -0.46571079481874128 -0.075383853833439818 0 -0.45759908464129401 -0.069335358645535999 0 -0.45596485801405168 -0.069043921304564548 0 -0.43539800930699801 -0.1334421832601059 0 -0.43259539229225402 -0.1157747654031315 0 -0.45113905152447542 -0.1175368028588321 0 -0.43259539229225402 -0.1157747654031315 0 -0.45113905152447542 -0.1175368028588321 0 -0.44676155729694311 -0.09856935048049352 0 -0.43115901768430159 -0.099355876929453982 0 -0.43948503029078051 -0.084366611422258486 0 -0.44676155729694311 -0.09856935048049352 0 -0.45113905152447542 -0.1175368028588321 0 -0.44676155729694311 -0.09856935048049352 0 -0.46256210233533568 -0.096053197570847695 0 -0.46256210233533568 -0.096053197570847695 0 -0.46915934665662162 -0.1230624738371303 0 -0.45113905152447542 -0.1175368028588321 0 -0.46256210233533568 -0.096053197570847695 0 -0.46915934665662162 -0.1230624738371303 0 -0.48351137830779539 -0.13386722315158131 0 -0.46915934665662162 -0.1230624738371303 0 -0.48133806505124233 -0.10835548473569059 0 -0.46256210233533568 -0.096053197570847695 0 -0.46915934665662162 -0.1230624738371303 0 -0.48133806505124233 -0.10835548473569059 0 -0.46256210233533568 -0.096053197570847695 0 -0.48133806505124233 -0.10835548473569059 0 -0.4787903951136242 -0.090525190808538269 0 -0.48133806505124233 -0.10835548473569059 0 -0.500000000000001 -0.097363349237730712 0 -0.4787903951136242 -0.090525190808538269 0 -0.48351137830779539 -0.13386722315158131 0 -0.5 -0.12673639045435739 0 -0.48133806505124233 -0.10835548473569059 0 -0.5 -0.12673639045435739 0 -0.48133806505124233 -0.10835548473569059 0 -0.500000000000001 -0.097363349237730712 0 -0.48434101336280139 -0.075470068664982515 0 -0.47046251890076313 -0.067508589662998122 0 -0.46868202672560128 -0.053576788092234838 0 -0.46571079481874128 -0.075383853833439818 0 -0.48434101336280139 -0.075470068664982515 0 -0.47046251890076313 -0.067508589662998122 0 -0.48434101336280139 -0.075470068664982515 0 -0.46868202672560128 -0.053576788092234838 0 -0.46571079481874128 -0.075383853833439818 0 -0.48434101336280139 -0.075470068664982515 0 -0.4787903951136242 -0.090525190808538269 0 -0.46571079481874128 -0.075383853833439818 0 -0.46256210233533568 -0.096053197570847695 0 -0.4787903951136242 -0.090525190808538269 0 -0.500000000000001 -0.097363349237730712 0 -0.48434101336280139 -0.075470068664982515 0 -0.5 -0.067775448906690738 0 -0.500000000000001 -0.097363349237730712 0 -0.48434101336280139 -0.075470068664982515 0 -0.4787903951136242 -0.090525190808538269 0 -0.500000000000001 -0.097363349237730712 0 -0.48434101336280139 -0.075470068664982515 0 -0.48434101336280139 -0.075470068664982515 0 -0.5 -0.067775448906690738 0 -0.48551694096935982 -0.058082376044726818 0 -0.5 -0.067775448906690738 0 -0.48551694096935982 -0.058082376044726818 0 -0.5 -0.038187548575650758 0 -0.48551694096935982 -0.058082376044726818 0 -0.5 -0.038187548575650758 0 -0.47983884509016961 -0.04559408958900394 0 -0.5 -0.038187548575650758 0 -0.47627813796950452 -0.032068202833415903 0 -0.47983884509016961 -0.04559408958900394 0 -0.47627813796950452 -0.032068202833415903 0 -0.47983884509016961 -0.04559408958900394 0 -0.46868202672560128 -0.053576788092234838 0 -0.48434101336280139 -0.075470068664982515 0 -0.48551694096935982 -0.058082376044726818 0 -0.46868202672560128 -0.053576788092234838 0 -0.48551694096935982 -0.058082376044726818 0 -0.47983884509016961 -0.04559408958900394 0 -0.46868202672560128 -0.053576788092234838 0 -0.46440728388852631 -0.065665476577682319 0 -0.47046251890076313 -0.067508589662998122 0 -0.46868202672560128 -0.053576788092234838 0 -0.45958199435623182 -0.062522792654202811 0 -0.46868202672560128 -0.053576788092234838 0 -0.45254776170430372 -0.055054247167343383 0 -0.46440728388852631 -0.065665476577682319 0 -0.45958199435623182 -0.062522792654202811 0 -0.46868202672560128 -0.053576788092234838 0 -0.45596485801405168 -0.069043921304564548 0 -0.45254776170430372 -0.055054247167343383 0 -0.45958199435623182 -0.062522792654202811 0 -0.45596485801405168 -0.069043921304564548 0 -0.45254776170430372 -0.055054247167343383 0 -0.46868202672560128 -0.053576788092234838 0 -0.45302304008840111 -0.031683507519487203 0 -0.45254776170430372 -0.055054247167343383 0 -0.46868202672560128 -0.053576788092234838 0 -0.45302304008840111 -0.031683507519487203 0 -0.47627813796950452 -0.032068202833415903 0 -0.46868202672560128 -0.053576788092234838 0 -0.45302304008840111 -0.031683507519487203 0 -0.43049560054761637 -0.026091238128576531 0 -0.45302304008840111 -0.031683507519487203 0 -0.44052059365423879 -0.038318026972638523 0 -0.45302304008840111 -0.031683507519487203 0 -0.44052059365423879 -0.038318026972638523 0 -0.45254776170430372 -0.055054247167343383 0 -0.43594560852523878 -0.049663465434261311 0 -0.44052059365423879 -0.038318026972638523 0 -0.45254776170430372 -0.055054247167343383 0 -0.43594560852523878 -0.049663465434261311 0 -0.43505259438904009 -0.065314564308975948 0 -0.45254776170430372 -0.055054247167343383 0 -0.44016826678282051 -0.008282799190680902 0 -0.46819439313074318 -0.0088485217403602174 0 -0.44910531892432481 0.0088256729137652749 0 -0.43049560054761637 -0.026091238128576531 0 -0.45302304008840111 -0.031683507519487203 0 -0.44016826678282051 -0.008282799190680902 0 -0.45302304008840111 -0.031683507519487203 0 -0.44016826678282051 -0.008282799190680902 0 -0.46819439313074318 -0.0088485217403602174 0 -0.47627813796950452 -0.032068202833415903 0 -0.45302304008840111 -0.031683507519487203 0 -0.46819439313074318 -0.0088485217403602174 0 -0.47627813796950452 -0.032068202833415903 0 -0.46819439313074318 -0.0088485217403602174 0 -0.5 -0.0085996482446106803 0 -0.46819439313074318 -0.0088485217403602174 0 -0.5 -0.0085996482446106803 0 -0.48327269561072528 0.0075949784500739621 0 -0.5 -0.038187548575650758 0 -0.47627813796950452 -0.032068202833415903 0 -0.5 -0.0085996482446106803 0 -0.5 -0.0085996482446106803 0 -0.500000000000001 0.020988252086429401 0 -0.48327269561072528 0.0075949784500739621 0 -0.500000000000001 0.020988252086429401 0 -0.4818334059336834 0.02486827538731046 0 -0.48327269561072528 0.0075949784500739621 0 -0.500000000000001 0.020988252086429401 0 -0.4818334059336834 0.02486827538731046 0 -0.48627387230376801 0.042906068467448051 0 -0.4818334059336834 0.02486827538731046 0 -0.46506519868097418 0.040930436164492531 0 -0.46608959876636241 0.01500864777446809 0 -0.4818334059336834 0.02486827538731046 0 -0.48327269561072528 0.0075949784500739621 0 -0.46608959876636241 0.01500864777446809 0 -0.46819439313074318 -0.0088485217403602174 0 -0.48327269561072528 0.0075949784500739621 0 -0.46608959876636241 0.01500864777446809 0 -0.5 0.047519219301533577 0 -0.48827346409411548 0.06027768147110632 0 -0.48627387230376801 0.042906068467448051 0 -0.5 0.047519219301533577 0 -0.48827346409411548 0.06027768147110632 0 -0.5 0.074050186516637917 0 -0.500000000000001 0.020988252086429401 0 -0.48627387230376801 0.042906068467448051 0 -0.500000000000001 0.020988252086429401 0 -0.5 0.047519219301533577 0 -0.48627387230376801 0.042906068467448051 0 -0.4818334059336834 0.02486827538731046 0 -0.48627387230376801 0.042906068467448051 0 -0.46506519868097418 0.040930436164492531 0 -0.48627387230376801 0.042906068467448051 0 -0.46506519868097418 0.040930436164492531 0 -0.47254774460753413 0.064823884848466309 0 -0.48827346409411548 0.06027768147110632 0 -0.48627387230376801 0.042906068467448051 0 -0.47254774460753413 0.064823884848466309 0 -0.48627387230376801 0.042906068467448051 0 -0.47254774460753413 0.064823884848466309 0 -0.46506519868097418 0.040930436164492531 0 -0.44375990034961432 0.061031549153910312 0 -0.47254774460753413 0.064823884848466309 0 -0.46506519868097418 0.040930436164492531 0 -0.44486031810931148 0.031744527408694517 0 -0.44375990034961432 0.061031549153910312 0 -0.46819439313074318 -0.0088485217403602174 0 -0.46608959876636241 0.01500864777446809 0 -0.44910531892432481 0.0088256729137652749 0 -0.46506519868097418 0.040930436164492531 0 -0.44486031810931148 0.031744527408694517 0 -0.46608959876636241 0.01500864777446809 0 -0.44486031810931148 0.031744527408694517 0 -0.46608959876636241 0.01500864777446809 0 -0.44910531892432481 0.0088256729137652749 0 -0.44486031810931148 0.031744527408694517 0 -0.44910531892432481 0.0088256729137652749 0 -0.43171222321057451 0.016975124179167082 0 -0.44016826678282051 -0.008282799190680902 0 -0.44910531892432481 0.0088256729137652749 0 -0.43171222321057451 0.016975124179167082 0 -0.42123606753034548 -0.0078521834473191492 0 -0.44016826678282051 -0.008282799190680902 0 -0.43171222321057451 0.016975124179167082 0 -0.44016826678282051 -0.008282799190680902 0 -0.43171222321057451 0.016975124179167082 0 -0.42123606753034548 -0.0078521834473191492 0 -0.411842978763718 0.0071810696113592566 0 -0.43171222321057451 0.016975124179167082 0 -0.411842978763718 0.0071810696113592566 0 -0.40872204527111111 0.022867749962900141 0 -0.39856960861661739 0.0046729487720050386 0 -0.40872204527111111 0.022867749962900141 0 -0.43171222321057451 0.016975124179167082 0 -0.4232561796383284 0.042233047549015017 0 -0.411842978763718 0.0071810696113592566 0 -0.40872204527111111 0.022867749962900141 0 -0.43171222321057451 0.016975124179167082 0 -0.44486031810931148 0.031744527408694517 0 -0.43171222321057451 0.016975124179167082 0 -0.4232561796383284 0.042233047549015017 0 -0.43171222321057451 0.016975124179167082 0 -0.4232561796383284 0.042233047549015017 0 -0.44486031810931148 0.031744527408694517 0 -0.44375990034961432 0.061031549153910312 0 -0.4232561796383284 0.042233047549015017 0 -0.44375990034961432 0.061031549153910312 0 -0.4232561796383284 0.042233047549015017 0 -0.41480013606608229 0.067490970918863163 0 -0.4232561796383284 0.042233047549015017 0 -0.41480013606608229 0.067490970918863163 0 -0.4232561796383284 0.042233047549015017 0 -0.40217936848404251 0.040656332868689943 0 -0.41480013606608229 0.067490970918863163 0 -0.40872204527111111 0.022867749962900141 0 -0.4232561796383284 0.042233047549015017 0 -0.40217936848404251 0.040656332868689943 0 -0.40217936848404251 0.040656332868689943 0 -0.38532972384356262 0.04987884220830327 0 -0.38670634030283008 0.033034015008687988 0 -0.40217936848404251 0.040656332868689943 0 -0.39445515791527019 0.0661614229995688 0 -0.41480013606608229 0.067490970918863163 0 -0.40217936848404251 0.040656332868689943 0 -0.38532972384356262 0.04987884220830327 0 -0.39445515791527019 0.0661614229995688 0 -0.38532972384356262 0.04987884220830327 0 -0.36842953035862158 0.050481425088617103 0 -0.37191756568804107 0.066739953928913298 0 -0.38532972384356262 0.04987884220830327 0 -0.39445515791527019 0.0661614229995688 0 -0.37191756568804107 0.066739953928913298 0 -0.38532972384356262 0.04987884220830327 0 -0.38670634030283008 0.033034015008687988 0 -0.37363166703579942 0.035604814688565273 0 -0.38532972384356262 0.04987884220830327 0 -0.37363166703579942 0.035604814688565273 0 -0.36842953035862158 0.050481425088617103 0 -0.38670634030283008 0.033034015008687988 0 -0.37938766176258892 0.01937444117527904 0 -0.37363166703579942 0.035604814688565273 0 -0.38670634030283008 0.033034015008687988 0 -0.37938766176258892 0.01937444117527904 0 -0.39300328038815729 0.019655644102602461 0 -0.37938766176258892 0.01937444117527904 0 -0.38510027358075227 0.0044364300124967379 0 -0.37145675818362223 0.001704133189072726 0 -0.38510027358075227 0.0044364300124967379 0 -0.39300328038815729 0.019655644102602461 0 -0.37938766176258892 0.01937444117527904 0 -0.38510027358075227 0.0044364300124967379 0 -0.39300328038815729 0.019655644102602461 0 -0.38510027358075227 0.0044364300124967379 0 -0.39856960861661739 0.0046729487720050386 0 -0.39300328038815729 0.019655644102602461 0 -0.39149303023403142 -0.005335277537219363 0 -0.38510027358075227 0.0044364300124967379 0 -0.39856960861661739 0.0046729487720050386 0 -0.40872204527111111 0.022867749962900141 0 -0.40217936848404251 0.040656332868689943 0 -0.39300328038815729 0.019655644102602461 0 -0.40217936848404251 0.040656332868689943 0 -0.38670634030283008 0.033034015008687988 0 -0.39300328038815729 0.019655644102602461 0 -0.40872204527111111 0.022867749962900141 0 -0.39856960861661739 0.0046729487720050386 0 -0.39300328038815729 0.019655644102602461 0 -0.3875766108720648 0.10801011350679229 0 -0.40575939566394709 0.088936040450249165 0 -0.41194990864025682 0.1130743234930766 0 -0.3875766108720648 0.10801011350679229 0 -0.41194990864025682 0.1130743234930766 0 -0.39303850838018423 0.12948099644521679 0 -0.3875766108720648 0.10801011350679229 0 -0.39303850838018423 0.12948099644521679 0 -0.36938718168541179 0.1255902499967409 0 -0.3875766108720648 0.10801011350679229 0 -0.37678680274428078 0.095920052983538381 0 -0.36262419495280129 0.1038515713423341 0 -0.3875766108720648 0.10801011350679229 0 -0.37678680274428078 0.095920052983538381 0 -0.38674475774594591 0.083266397622394045 0 -0.37678680274428078 0.095920052983538381 0 -0.38674475774594591 0.083266397622394045 0 -0.37138104083623391 0.082703932652830325 0 -0.38674475774594591 0.083266397622394045 0 -0.37191756568804107 0.066739953928913298 0 -0.37138104083623391 0.082703932652830325 0 -0.38674475774594591 0.083266397622394045 0 -0.39445515791527019 0.0661614229995688 0 -0.37191756568804107 0.066739953928913298 0 -0.39445515791527019 0.0661614229995688 0 -0.40575939566394709 0.088936040450249165 0 -0.41480013606608229 0.067490970918863163 0 -0.38674475774594591 0.083266397622394045 0 -0.39445515791527019 0.0661614229995688 0 -0.40575939566394709 0.088936040450249165 0 -0.3875766108720648 0.10801011350679229 0 -0.38674475774594591 0.083266397622394045 0 -0.40575939566394709 0.088936040450249165 0 -0.40575939566394709 0.088936040450249165 0 -0.41480013606608229 0.067490970918863163 0 -0.43079976792318958 0.090862199026124468 0 -0.44375990034961432 0.061031549153910312 0 -0.41480013606608229 0.067490970918863163 0 -0.43079976792318958 0.090862199026124468 0 -0.43079976792318958 0.090862199026124468 0 -0.41194990864025682 0.1130743234930766 0 -0.43625153759456498 0.1245866202337218 0 -0.40575939566394709 0.088936040450249165 0 -0.43079976792318958 0.090862199026124468 0 -0.41194990864025682 0.1130743234930766 0 -0.43079976792318958 0.090862199026124468 0 -0.43625153759456498 0.1245866202337218 0 -0.45075561745381781 0.10580031757457831 0 -0.43625153759456498 0.1245866202337218 0 -0.45075561745381781 0.10580031757457831 0 -0.46287227134589981 0.1236989169114972 0 -0.43079976792318958 0.090862199026124468 0 -0.45075561745381781 0.10580031757457831 0 -0.4588216169113003 0.086741701229484575 0 -0.45075561745381781 0.10580031757457831 0 -0.4588216169113003 0.086741701229484575 0 -0.47201107007212878 0.1037065685212097 0 -0.45075561745381781 0.10580031757457831 0 -0.46287227134589981 0.1236989169114972 0 -0.47201107007212878 0.1037065685212097 0 -0.44375990034961432 0.061031549153910312 0 -0.43079976792318958 0.090862199026124468 0 -0.4588216169113003 0.086741701229484575 0 -0.44375990034961432 0.061031549153910312 0 -0.4588216169113003 0.086741701229484575 0 -0.47254774460753413 0.064823884848466309 0 -0.4588216169113003 0.086741701229484575 0 -0.47254774460753413 0.064823884848466309 0 -0.4588216169113003 0.086741701229484575 0 -0.47254774460753413 0.064823884848466309 0 -0.4818122771930986 0.082263337292499406 0 -0.48827346409411548 0.06027768147110632 0 -0.47254774460753413 0.064823884848466309 0 -0.4818122771930986 0.082263337292499406 0 -0.4588216169113003 0.086741701229484575 0 -0.4818122771930986 0.082263337292499406 0 -0.47201107007212878 0.1037065685212097 0 -0.4818122771930986 0.082263337292499406 0 -0.5 0.074050186516637917 0 -0.5 0.1005811537317424 0 -0.48827346409411548 0.06027768147110632 0 -0.4818122771930986 0.082263337292499406 0 -0.5 0.074050186516637917 0 -0.46287227134589981 0.1236989169114972 0 -0.48219315692656572 0.1205151432882924 0 -0.47201107007212878 0.1037065685212097 0 -0.4818122771930986 0.082263337292499406 0 -0.47201107007212878 0.1037065685212097 0 -0.5 0.1005811537317424 0 -0.48219315692656572 0.1205151432882924 0 -0.47201107007212878 0.1037065685212097 0 -0.5 0.1005811537317424 0 -0.48219315692656572 0.1205151432882924 0 -0.5 0.1005811537317424 0 -0.5 0.12711212094684679 0 -0.48219315692656572 0.1205151432882924 0 -0.5 0.12711212094684679 0 -0.47883924748460222 0.14018161060892731 0 -0.5 0.12711212094684679 0 -0.47883924748460222 0.14018161060892731 0 -0.5 0.15364308816195121 0 -0.46287227134589981 0.1236989169114972 0 -0.48219315692656572 0.1205151432882924 0 -0.47883924748460222 0.14018161060892731 0 -0.47883924748460222 0.14018161060892731 0 -0.5 0.15364308816195121 0 -0.47008479780898071 0.1615400033189848 0 -0.5 0.15364308816195121 0 -0.50000000000000089 0.18017405537705561 0 -0.48213074815480522 0.17495155205334359 0 -0.50000000000000089 0.18017405537705561 0 -0.48146292621815812 0.19355635563559381 0 -0.50000000000000089 0.18017405537705561 0 -0.48213074815480522 0.17495155205334359 0 -0.48146292621815812 0.19355635563559381 0 -0.48213074815480522 0.17495155205334359 0 -0.45945765920556431 0.18493118343544621 0 -0.48146292621815812 0.19355635563559381 0 -0.48213074815480522 0.17495155205334359 0 -0.47008479780898071 0.1615400033189848 0 -0.45945765920556431 0.18493118343544621 0 -0.5 0.15364308816195121 0 -0.48213074815480522 0.17495155205334359 0 -0.47008479780898071 0.1615400033189848 0 -0.47008479780898071 0.1615400033189848 0 -0.45945765920556431 0.18493118343544621 0 -0.44491624466772411 0.16813711573335099 0 -0.47008479780898071 0.1615400033189848 0 -0.44491624466772411 0.16813711573335099 0 -0.45700588157118233 0.14460720660399121 0 -0.45945765920556431 0.18493118343544621 0 -0.44491624466772411 0.16813711573335099 0 -0.43474290047699488 0.19015608798310391 0 -0.44491624466772411 0.16813711573335099 0 -0.45700588157118233 0.14460720660399121 0 -0.43611169665434868 0.1504606440305504 0 -0.43625153759456498 0.1245866202337218 0 -0.45700588157118233 0.14460720660399121 0 -0.43611169665434868 0.1504606440305504 0 -0.43625153759456498 0.1245866202337218 0 -0.46287227134589981 0.1236989169114972 0 -0.45700588157118233 0.14460720660399121 0 -0.46287227134589981 0.1236989169114972 0 -0.47883924748460222 0.14018161060892731 0 -0.45700588157118233 0.14460720660399121 0 -0.47883924748460222 0.14018161060892731 0 -0.47008479780898071 0.1615400033189848 0 -0.45700588157118233 0.14460720660399121 0 -0.48207357253193078 0.21739097549918149 0 -0.5 0.2118815469096284 0 -0.5 0.25502500317745308 0 -0.48207357253193078 0.21739097549918149 0 -0.46802780128701832 0.22930896654194979 0 -0.5 0.25502500317745308 0 -0.46802780128701832 0.22930896654194979 0 -0.5 0.25502500317745308 0 -0.46826200115894351 0.25268254595322559 0 -0.50000000000000089 0.18017405537705561 0 -0.5 0.2118815469096284 0 -0.48146292621815812 0.19355635563559381 0 -0.48207357253193078 0.21739097549918149 0 -0.46292585243631501 0.20693865589413171 0 -0.46802780128701832 0.22930896654194979 0 -0.48207357253193078 0.21739097549918149 0 -0.48146292621815812 0.19355635563559381 0 -0.46292585243631501 0.20693865589413171 0 -0.48207357253193078 0.21739097549918149 0 -0.5 0.2118815469096284 0 -0.48146292621815812 0.19355635563559381 0 -0.48146292621815812 0.19355635563559381 0 -0.46292585243631501 0.20693865589413171 0 -0.45945765920556431 0.18493118343544621 0 -0.44696073447060752 0.20212681262101459 0 -0.46292585243631501 0.20693865589413171 0 -0.45945765920556431 0.18493118343544621 0 -0.48146292621815812 0.19355635563559381 0 -0.46292585243631501 0.20693865589413171 0 -0.45945765920556431 0.18493118343544621 0 -0.44696073447060752 0.20212681262101459 0 -0.43474290047699488 0.19015608798310391 0 -0.44696073447060752 0.20212681262101459 0 -0.43414988282090411 0.20902301392359759 0 -0.43474290047699488 0.19015608798310391 0 -0.44696073447060752 0.20212681262101459 0 -0.44438877865447191 0.2203209561526695 0 -0.43414988282090411 0.20902301392359759 0 -0.44696073447060752 0.20212681262101459 0 -0.46292585243631501 0.20693865589413171 0 -0.44438877865447191 0.2203209561526695 0 -0.46292585243631501 0.20693865589413171 0 -0.46802780128701832 0.22930896654194979 0 -0.45690026230445402 0.21971898361319381 0 -0.46292585243631501 0.20693865589413171 0 -0.44438877865447191 0.2203209561526695 0 -0.46292585243631501 0.20693865589413171 0 -0.45690026230445402 0.21971898361319381 0 -0.44438877865447191 0.2203209561526695 0 -0.46802780128701832 0.22930896654194979 0 -0.45424796336563722 0.22861724854116511 0 -0.45412118124825718 0.2395922552223117 0 -0.46802780128701832 0.22930896654194979 0 -0.45424796336563722 0.22861724854116511 0 -0.45690026230445402 0.21971898361319381 0 -0.45424796336563722 0.22861724854116511 0 -0.45690026230445402 0.21971898361319381 0 -0.44707608940517052 0.22231138206831691 0 -0.44707608940517052 0.22231138206831691 0 -0.44438877865447191 0.2203209561526695 0 -0.42586105085507731 0.219809117860577 0 -0.45690026230445402 0.21971898361319381 0 -0.44707608940517052 0.22231138206831691 0 -0.44438877865447191 0.2203209561526695 0 -0.44707608940517052 0.22231138206831691 0 -0.43755936465329281 0.22698532229141799 0 -0.44511448258328629 0.23215465526005299 0 -0.43755936465329281 0.22698532229141799 0 -0.44511448258328629 0.23215465526005299 0 -0.43218583576963709 0.2336661339767252 0 -0.45424796336563722 0.22861724854116511 0 -0.44707608940517052 0.22231138206831691 0 -0.44511448258328629 0.23215465526005299 0 -0.45424796336563722 0.22861724854116511 0 -0.44511448258328629 0.23215465526005299 0 -0.45412118124825718 0.2395922552223117 0 -0.44511448258328629 0.23215465526005299 0 -0.44161393816558842 0.24155257742212199 0 -0.45412118124825718 0.2395922552223117 0 -0.44511448258328629 0.23215465526005299 0 -0.44161393816558842 0.24155257742212199 0 -0.43218583576963709 0.2336661339767252 0 -0.44161393816558842 0.24155257742212199 0 -0.43243648966469961 0.24825823729562091 0 -0.44622747097204157 0.25447826500352411 0 -0.44161393816558842 0.24155257742212199 0 -0.45412118124825718 0.2395922552223117 0 -0.44622747097204157 0.25447826500352411 0 -0.46802780128701832 0.22930896654194979 0 -0.45412118124825718 0.2395922552223117 0 -0.46826200115894351 0.25268254595322559 0 -0.45412118124825718 0.2395922552223117 0 -0.46826200115894351 0.25268254595322559 0 -0.44622747097204157 0.25447826500352411 0 -0.40931020750963998 0.23948355441692229 0 -0.40101037553383972 0.24850817254535781 0 -0.4154354269666965 0.25327969466909228 0 -0.40931020750963998 0.23948355441692229 0 -0.42148184861410209 0.2406921978309261 0 -0.41698703102379953 0.22969989485302911 0 -0.40931020750963998 0.23948355441692229 0 -0.42148184861410209 0.2406921978309261 0 -0.4154354269666965 0.25327969466909228 0 -0.42148184861410209 0.2406921978309261 0 -0.43243648966469961 0.24825823729562091 0 -0.4154354269666965 0.25327969466909228 0 -0.44161393816558842 0.24155257742212199 0 -0.43243648966469961 0.24825823729562091 0 -0.43218583576963709 0.2336661339767252 0 -0.42148184861410209 0.2406921978309261 0 -0.43243648966469961 0.24825823729562091 0 -0.43218583576963709 0.2336661339767252 0 -0.42148184861410209 0.2406921978309261 0 -0.43218583576963709 0.2336661339767252 0 -0.41698703102379953 0.22969989485302911 0 -0.43218583576963709 0.2336661339767252 0 -0.42586105085507731 0.219809117860577 0 -0.41698703102379953 0.22969989485302911 0 -0.44707608940517052 0.22231138206831691 0 -0.42586105085507731 0.219809117860577 0 -0.44707608940517052 0.22231138206831691 0 -0.43755936465329281 0.22698532229141799 0 -0.42586105085507731 0.219809117860577 0 -0.43755936465329281 0.22698532229141799 0 -0.43218583576963709 0.2336661339767252 0 -0.42586105085507731 0.219809117860577 0 -0.42586105085507731 0.219809117860577 0 -0.41698703102379953 0.22969989485302911 0 -0.4046460123049842 0.2173068536528372 0 -0.40931020750963998 0.23948355441692229 0 -0.41698703102379953 0.22969989485302911 0 -0.40590702596286521 0.22946517391640911 0 -0.41698703102379953 0.22969989485302911 0 -0.4046460123049842 0.2173068536528372 0 -0.40590702596286521 0.22946517391640911 0 -0.42586105085507731 0.219809117860577 0 -0.4046460123049842 0.2173068536528372 0 -0.41722227291546332 0.20591524768845371 0 -0.39877196507631202 0.20270266476287849 0 -0.4046460123049842 0.2173068536528372 0 -0.42586105085507731 0.219809117860577 0 -0.41722227291546332 0.20591524768845371 0 -0.4046460123049842 0.2173068536528372 0 -0.42586105085507731 0.219809117860577 0 -0.41722227291546332 0.20591524768845371 0 -0.43414988282090411 0.20902301392359759 0 -0.44438877865447191 0.2203209561526695 0 -0.42586105085507731 0.219809117860577 0 -0.43414988282090411 0.20902301392359759 0 -0.41722227291546332 0.20591524768845371 0 -0.43414988282090411 0.20902301392359759 0 -0.43474290047699488 0.19015608798310391 0 -0.41722227291546332 0.20591524768845371 0 -0.40891615430536432 0.18798503216574861 0 -0.39877196507631202 0.20270266476287849 0 -0.41722227291546332 0.20591524768845371 0 -0.43474290047699488 0.19015608798310391 0 -0.40891615430536432 0.18798503216574861 0 -0.40891615430536432 0.18798503216574861 0 -0.39877196507631202 0.20270266476287849 0 -0.38648279715089662 0.18713020989402271 0 -0.38343097375489099 0.21480458944509739 0 -0.38648279715089662 0.18713020989402271 0 -0.37238122863976891 0.2002171120067491 0 -0.39877196507631202 0.20270266476287849 0 -0.38343097375489099 0.21480458944509739 0 -0.38648279715089662 0.18713020989402271 0 -0.38343097375489099 0.21480458944509739 0 -0.38648279715089662 0.18713020989402271 0 -0.38343097375489099 0.21480458944509739 0 -0.37154761244084089 0.2134029747549531 0 -0.37238122863976891 0.2002171120067491 0 -0.38343097375489099 0.21480458944509739 0 -0.37566813965858681 0.2234148702422048 0 -0.37154761244084089 0.2134029747549531 0 -0.38343097375489099 0.21480458944509739 0 -0.37154761244084089 0.2134029747549531 0 -0.38343097375489099 0.21480458944509739 0 -0.4046460123049842 0.2173068536528372 0 -0.38992427199157043 0.22185450724293909 0 -0.38343097375489099 0.21480458944509739 0 -0.4046460123049842 0.2173068536528372 0 -0.39877196507631202 0.20270266476287849 0 -0.38343097375489099 0.21480458944509739 0 -0.4046460123049842 0.2173068536528372 0 -0.4046460123049842 0.2173068536528372 0 -0.39872340832513992 0.226351764622962 0 -0.40590702596286521 0.22946517391640911 0 -0.39872340832513992 0.226351764622962 0 -0.40590702596286521 0.22946517391640911 0 -0.39648996776890633 0.23582301492399779 0 -0.39872340832513992 0.226351764622962 0 -0.38992427199157043 0.22185450724293909 0 -0.39648996776890633 0.23582301492399779 0 -0.4046460123049842 0.2173068536528372 0 -0.39872340832513992 0.226351764622962 0 -0.38992427199157043 0.22185450724293909 0 -0.38343097375489099 0.21480458944509739 0 -0.37566813965858681 0.2234148702422048 0 -0.38119555285080597 0.2350757121572056 0 -0.38343097375489099 0.21480458944509739 0 -0.38992427199157043 0.22185450724293909 0 -0.38119555285080597 0.2350757121572056 0 -0.38343097375489099 0.21480458944509739 0 -0.38119555285080597 0.2350757121572056 0 -0.38119555285080597 0.2350757121572056 0 -0.37210575503526089 0.24405057661464391 0 -0.37896013194671968 0.25534683486931381 0 -0.38119555285080597 0.2350757121572056 0 -0.37896013194671968 0.25534683486931381 0 -0.38992427199157043 0.22185450724293909 0 -0.38119555285080597 0.2350757121572056 0 -0.38722819947627368 0.24843385443806909 0 -0.38992427199157043 0.22185450724293909 0 -0.38722819947627368 0.24843385443806909 0 -0.38119555285080597 0.2350757121572056 0 -0.38722819947627368 0.24843385443806909 0 -0.37896013194671968 0.25534683486931381 0 -0.38992427199157043 0.22185450724293909 0 -0.38722819947627368 0.24843385443806909 0 -0.39648996776890633 0.23582301492399779 0 -0.38722819947627368 0.24843385443806909 0 -0.39648996776890633 0.23582301492399779 0 -0.40101037553383972 0.24850817254535781 0 -0.40931020750963998 0.23948355441692229 0 -0.39648996776890633 0.23582301492399779 0 -0.40101037553383972 0.24850817254535781 0 -0.40931020750963998 0.23948355441692229 0 -0.40590702596286521 0.22946517391640911 0 -0.39648996776890633 0.23582301492399779 0 -0.41530534823700072 0.1390315752597536 0 -0.41919069938251302 0.1652820875776414 0 -0.39528973877013662 0.15130477977831461 0 -0.41194990864025682 0.1130743234930766 0 -0.41530534823700072 0.1390315752597536 0 -0.39303850838018423 0.12948099644521679 0 -0.41194990864025682 0.1130743234930766 0 -0.43625153759456498 0.1245866202337218 0 -0.41530534823700072 0.1390315752597536 0 -0.43625153759456498 0.1245866202337218 0 -0.41530534823700072 0.1390315752597536 0 -0.43611169665434868 0.1504606440305504 0 -0.41530534823700072 0.1390315752597536 0 -0.43611169665434868 0.1504606440305504 0 -0.41919069938251302 0.1652820875776414 0 -0.44491624466772411 0.16813711573335099 0 -0.43611169665434868 0.1504606440305504 0 -0.41919069938251302 0.1652820875776414 0 -0.44491624466772411 0.16813711573335099 0 -0.43474290047699488 0.19015608798310391 0 -0.41919069938251302 0.1652820875776414 0 -0.40891615430536432 0.18798503216574861 0 -0.41919069938251302 0.1652820875776414 0 -0.39971758700540821 0.17129016696027699 0 -0.43474290047699488 0.19015608798310391 0 -0.40891615430536432 0.18798503216574861 0 -0.41919069938251302 0.1652820875776414 0 -0.41919069938251302 0.1652820875776414 0 -0.39971758700540821 0.17129016696027699 0 -0.39528973877013662 0.15130477977831461 0 -0.40891615430536432 0.18798503216574861 0 -0.39971758700540821 0.17129016696027699 0 -0.38648279715089662 0.18713020989402271 0 -0.39971758700540821 0.17129016696027699 0 -0.38648279715089662 0.18713020989402271 0 -0.372146074932449 0.16344591630492469 0 -0.39971758700540821 0.17129016696027699 0 -0.39528973877013662 0.15130477977831461 0 -0.372146074932449 0.16344591630492469 0 -0.37815506306193358 0.1433222327004802 0 -0.39528973877013662 0.15130477977831461 0 -0.39303850838018423 0.12948099644521679 0 -0.37815506306193358 0.1433222327004802 0 -0.39528973877013662 0.15130477977831461 0 -0.372146074932449 0.16344591630492469 0 -0.41530534823700072 0.1390315752597536 0 -0.39528973877013662 0.15130477977831461 0 -0.39303850838018423 0.12948099644521679 0 -0.37815506306193358 0.1433222327004802 0 -0.39303850838018423 0.12948099644521679 0 -0.36938718168541179 0.1255902499967409 0 -0.36938718168541179 0.1255902499967409 0 -0.35200794605681629 0.12502238642781019 0 -0.36027383228078641 0.14176664061691219 0 -0.37815506306193358 0.1433222327004802 0 -0.36938718168541179 0.1255902499967409 0 -0.36027383228078641 0.14176664061691219 0 -0.35200794605681629 0.12502238642781019 0 -0.36027383228078641 0.14176664061691219 0 -0.34238396195098092 0.13747367741656721 0 -0.34692124746973713 0.1542878562826405 0 -0.36027383228078641 0.14176664061691219 0 -0.34238396195098092 0.13747367741656721 0 -0.34692124746973713 0.1542878562826405 0 -0.36027383228078641 0.14176664061691219 0 -0.372146074932449 0.16344591630492469 0 -0.37815506306193358 0.1433222327004802 0 -0.36027383228078641 0.14176664061691219 0 -0.372146074932449 0.16344591630492469 0 -0.38648279715089662 0.18713020989402271 0 -0.372146074932449 0.16344591630492469 0 -0.35825464468573548 0.18846491094187309 0 -0.372146074932449 0.16344591630492469 0 -0.35358483912925948 0.17080886943100959 0 -0.35825464468573548 0.18846491094187309 0 -0.35358483912925948 0.17080886943100959 0 -0.35825464468573548 0.18846491094187309 0 -0.33660402194939321 0.18841081708856641 0 -0.34692124746973713 0.1542878562826405 0 -0.372146074932449 0.16344591630492469 0 -0.35358483912925948 0.17080886943100959 0 -0.34692124746973713 0.1542878562826405 0 -0.35358483912925948 0.17080886943100959 0 -0.33500456297109971 0.16792639800837539 0 -0.33500456297109971 0.16792639800837539 0 -0.31851102729851588 0.15590236448055639 0 -0.33255517435583237 0.14646848770795259 0 -0.35358483912925948 0.17080886943100959 0 -0.33500456297109971 0.16792639800837539 0 -0.33660402194939321 0.18841081708856641 0 -0.33500456297109971 0.16792639800837539 0 -0.31289652582642141 0.1805837036697519 0 -0.33660402194939321 0.18841081708856641 0 -0.33500456297109971 0.16792639800837539 0 -0.31289652582642141 0.1805837036697519 0 -0.33500456297109971 0.16792639800837539 0 -0.31289652582642141 0.1805837036697519 0 -0.31851102729851588 0.15590236448055639 0 -0.31851102729851588 0.15590236448055639 0 -0.31283651791160189 0.14254581953933751 0 -0.32160496684282269 0.13812883269818441 0 -0.31851102729851588 0.15590236448055639 0 -0.32160496684282269 0.13812883269818441 0 -0.33255517435583237 0.14646848770795259 0 -0.31283651791160189 0.14254581953933751 0 -0.32160496684282269 0.13812883269818441 0 -0.31723531685176609 0.1198603304800319 0 -0.32160496684282269 0.13812883269818441 0 -0.33282908497732799 0.12691684344983439 0 -0.31723531685176609 0.1198603304800319 0 -0.32160496684282269 0.13812883269818441 0 -0.33282908497732799 0.12691684344983439 0 -0.33255517435583237 0.14646848770795259 0 -0.35200794605681629 0.12502238642781019 0 -0.34238396195098092 0.13747367741656721 0 -0.33282908497732799 0.12691684344983439 0 -0.34238396195098092 0.13747367741656721 0 -0.33282908497732799 0.12691684344983439 0 -0.33255517435583237 0.14646848770795259 0 -0.34692124746973713 0.1542878562826405 0 -0.34238396195098092 0.13747367741656721 0 -0.33255517435583237 0.14646848770795259 0 -0.34692124746973713 0.1542878562826405 0 -0.33500456297109971 0.16792639800837539 0 -0.33255517435583237 0.14646848770795259 0 -0.36182205832064851 0.24457456243760281 0 -0.34139946132247112 0.24041351753421181 0 -0.35754908974886279 0.25815157521253052 0 -0.36182205832064851 0.24457456243760281 0 -0.36649841958780932 0.23037620461156319 0 -0.34139946132247112 0.24041351753421181 0 -0.36182205832064851 0.24457456243760281 0 -0.37210575503526089 0.24405057661464391 0 -0.36759241766554501 0.2538245840294952 0 -0.38119555285080597 0.2350757121572056 0 -0.37210575503526089 0.24405057661464391 0 -0.36649841958780932 0.23037620461156319 0 -0.36182205832064851 0.24457456243760281 0 -0.37210575503526089 0.24405057661464391 0 -0.36649841958780932 0.23037620461156319 0 -0.36649841958780932 0.23037620461156319 0 -0.35688565293773689 0.21871143604885451 0 -0.37154761244084089 0.2134029747549531 0 -0.37566813965858681 0.2234148702422048 0 -0.36649841958780932 0.23037620461156319 0 -0.37154761244084089 0.2134029747549531 0 -0.37566813965858681 0.2234148702422048 0 -0.38119555285080597 0.2350757121572056 0 -0.36649841958780932 0.23037620461156319 0 -0.35688565293773689 0.21871143604885451 0 -0.34289792395499269 0.21218791974938919 0 -0.34139946132247112 0.24041351753421181 0 -0.36649841958780932 0.23037620461156319 0 -0.35688565293773689 0.21871143604885451 0 -0.34139946132247112 0.24041351753421181 0 -0.35688565293773689 0.21871143604885451 0 -0.36039341253181489 0.20659687070036381 0 -0.34289792395499269 0.21218791974938919 0 -0.35688565293773689 0.21871143604885451 0 -0.37154761244084089 0.2134029747549531 0 -0.36039341253181489 0.20659687070036381 0 -0.37154761244084089 0.2134029747549531 0 -0.36039341253181489 0.20659687070036381 0 -0.37238122863976891 0.2002171120067491 0 -0.38648279715089662 0.18713020989402271 0 -0.37238122863976891 0.2002171120067491 0 -0.35825464468573548 0.18846491094187309 0 -0.36039341253181489 0.20659687070036381 0 -0.37238122863976891 0.2002171120067491 0 -0.35825464468573548 0.18846491094187309 0 -0.36039341253181489 0.20659687070036381 0 -0.35825464468573548 0.18846491094187309 0 -0.34289792395499269 0.21218791974938919 0 -0.35825464468573548 0.18846491094187309 0 -0.33660402194939321 0.18841081708856641 0 -0.34289792395499269 0.21218791974938919 0 -0.33660402194939321 0.18841081708856641 0 -0.32037844320246261 0.2049322073775762 0 -0.34289792395499269 0.21218791974938919 0 -0.31289652582642141 0.1805837036697519 0 -0.33660402194939321 0.18841081708856641 0 -0.32037844320246261 0.2049322073775762 0 -0.32037844320246261 0.2049322073775762 0 -0.32007631676378118 0.22793178832776281 0 -0.30808679103638181 0.2157672566230279 0 -0.32037844320246261 0.2049322073775762 0 -0.34289792395499269 0.21218791974938919 0 -0.32007631676378118 0.22793178832776281 0 -0.34289792395499269 0.21218791974938919 0 -0.34139946132247112 0.24041351753421181 0 -0.34289792395499269 0.21218791974938919 0 -0.32007631676378118 0.22793178832776281 0 -0.34139946132247112 0.24041351753421181 0 -0.32007631676378118 0.22793178832776281 0 -0.30683534910107541 0.24131982490484771 0 -0.32052316857880009 0.25199218265017043 0 -0.32007631676378118 0.22793178832776281 0 -0.34139946132247112 0.24041351753421181 0 -0.32052316857880009 0.25199218265017043 0 -0.28520633826073721 0.24204505302591109 0 -0.29177957584356251 0.2379097909607483 0 -0.29813700426351908 0.2549985658140525 0 -0.28520633826073721 0.24204505302591109 0 -0.29177957584356251 0.2379097909607483 0 -0.28620422144783292 0.23331914670984491 0 -0.28520633826073721 0.24204505302591109 0 -0.28620422144783292 0.23331914670984491 0 -0.2743775822837069 0.2311971640619615 0 -0.28520633826073721 0.24204505302591109 0 -0.29177957584356251 0.2379097909607483 0 -0.28520633826073721 0.24204505302591109 0 -0.29813700426351908 0.2549985658140525 0 -0.29177957584356251 0.2379097909607483 0 -0.30683534910107541 0.24131982490484771 0 -0.29813700426351908 0.2549985658140525 0 -0.30683534910107541 0.24131982490484771 0 -0.32052316857880009 0.25199218265017043 0 -0.29813700426351908 0.2549985658140525 0 -0.29177957584356251 0.2379097909607483 0 -0.30683534910107541 0.24131982490484771 0 -0.3025311369596701 0.2279451799051346 0 -0.32007631676378118 0.22793178832776281 0 -0.3025311369596701 0.2279451799051346 0 -0.30808679103638181 0.2157672566230279 0 -0.32007631676378118 0.22793178832776281 0 -0.30683534910107541 0.24131982490484771 0 -0.3025311369596701 0.2279451799051346 0 -0.3025311369596701 0.2279451799051346 0 -0.29339823295664158 0.22906557906458669 0 -0.29484583138699982 0.21546216672010021 0 -0.3025311369596701 0.2279451799051346 0 -0.29484583138699982 0.21546216672010021 0 -0.30808679103638181 0.2157672566230279 0 -0.28556364975324361 0.2258194074993474 0 -0.29484583138699982 0.21546216672010021 0 -0.2791973288468384 0.21790572090905611 0 -0.29339823295664158 0.22906557906458669 0 -0.28556364975324361 0.2258194074993474 0 -0.29484583138699982 0.21546216672010021 0 -0.29177957584356251 0.2379097909607483 0 -0.29339823295664158 0.22906557906458669 0 -0.28620422144783292 0.23331914670984491 0 -0.29177957584356251 0.2379097909607483 0 -0.3025311369596701 0.2279451799051346 0 -0.29339823295664158 0.22906557906458669 0 -0.29339823295664158 0.22906557906458669 0 -0.28620422144783292 0.23331914670984491 0 -0.28556364975324361 0.2258194074993474 0 -0.28620422144783292 0.23331914670984491 0 -0.28556364975324361 0.2258194074993474 0 -0.2743775822837069 0.2311971640619615 0 -0.29484583138699982 0.21546216672010021 0 -0.2791973288468384 0.21790572090905611 0 -0.28722286546432818 0.20701443054747121 0 -0.29484583138699982 0.21546216672010021 0 -0.2791973288468384 0.21790572090905611 0 -0.28722286546432818 0.20701443054747121 0 -0.29484583138699982 0.21546216672010021 0 -0.30260222686899518 0.20256494078456561 0 -0.32037844320246261 0.2049322073775762 0 -0.30808679103638181 0.2157672566230279 0 -0.30260222686899518 0.20256494078456561 0 -0.29484583138699982 0.21546216672010021 0 -0.30808679103638181 0.2157672566230279 0 -0.30260222686899518 0.20256494078456561 0 -0.31289652582642141 0.1805837036697519 0 -0.30260222686899518 0.20256494078456561 0 -0.29078848868174278 0.1932410093311285 0 -0.31289652582642141 0.1805837036697519 0 -0.32037844320246261 0.2049322073775762 0 -0.30260222686899518 0.20256494078456561 0 -0.28722286546432818 0.20701443054747121 0 -0.29078848868174278 0.1932410093311285 0 -0.26868045153706449 0.20589831499250541 0 -0.28722286546432818 0.20701443054747121 0 -0.30260222686899518 0.20256494078456561 0 -0.29078848868174278 0.1932410093311285 0 -0.29078848868174278 0.1932410093311285 0 -0.27856333876668132 0.18821622517566469 0 -0.28884814108856732 0.1821072455122304 0 -0.29078848868174278 0.1932410093311285 0 -0.27856333876668132 0.18821622517566469 0 -0.26868045153706449 0.20589831499250541 0 -0.27856333876668132 0.18821622517566469 0 -0.26868045153706449 0.20589831499250541 0 -0.29078848868174278 0.1932410093311285 0 -0.26868045153706449 0.20589831499250541 0 -0.27856333876668132 0.18821622517566469 0 -0.26868045153706449 0.20589831499250541 0 -0.26716833294266512 0.18744146854889909 0 -0.25462413856064708 0.2114088186030785 0 -0.26716833294266512 0.18744146854889909 0 -0.25193880530206408 0.19370481573741441 0 -0.26716833294266512 0.18744146854889909 0 -0.25648243047464631 0.1826357185327456 0 -0.25193880530206408 0.19370481573741441 0 -0.25462413856064708 0.2114088186030785 0 -0.26716833294266512 0.18744146854889909 0 -0.25462413856064708 0.2114088186030785 0 -0.26868045153706449 0.20589831499250541 0 -0.26716833294266512 0.18744146854889909 0 -0.2562356768596219 0.21302320427817639 0 -0.26868045153706449 0.20589831499250541 0 -0.25462413856064708 0.2114088186030785 0 -0.2562356768596219 0.21302320427817639 0 -0.26868045153706449 0.20589831499250541 0 -0.25272816581491458 0.21503132644266379 0 -0.25462413856064708 0.2114088186030785 0 -0.25272816581491458 0.21503132644266379 0 -0.2562356768596219 0.21302320427817639 0 -0.25272816581491458 0.21503132644266379 0 -0.25462413856064708 0.2114088186030785 0 -0.2562356768596219 0.21302320427817639 0 -0.25462413856064708 0.2114088186030785 0 -0.2562356768596219 0.21302320427817639 0 -0.25272816581491458 0.21503132644266379 0 -0.2562356768596219 0.21302320427817639 0 -0.25599591734786031 0.2173373503046071 0 -0.2562356768596219 0.21302320427817639 0 -0.25599591734786031 0.2173373503046071 0 -0.25801218981811458 0.2175055682723043 0 -0.25272816581491458 0.21503132644266379 0 -0.25599591734786031 0.2173373503046071 0 -0.2564563288255462 0.2214567869436789 0 -0.25599591734786031 0.2173373503046071 0 -0.25801218981811458 0.2175055682723043 0 -0.25703316838862827 0.21958787938824861 0 -0.2562356768596219 0.21302320427817639 0 -0.26166069193192981 0.2184578046382698 0 -0.26868045153706449 0.20589831499250541 0 -0.25801218981811458 0.2175055682723043 0 -0.25913549456253288 0.21912160275221951 0 -0.25703316838862827 0.21958787938824861 0 -0.26166069193192981 0.2184578046382698 0 -0.26868045153706449 0.20589831499250541 0 -0.26354882630667698 0.22034927509801169 0 -0.2562356768596219 0.21302320427817639 0 -0.26166069193192981 0.2184578046382698 0 -0.26166069193192981 0.2184578046382698 0 -0.26868045153706449 0.20589831499250541 0 -0.25801218981811458 0.2175055682723043 0 -0.26166069193192981 0.2184578046382698 0 -0.25913549456253288 0.21912160275221951 0 -0.2562356768596219 0.21302320427817639 0 -0.25801218981811458 0.2175055682723043 0 -0.26166069193192981 0.2184578046382698 0 -0.28722286546432818 0.20701443054747121 0 -0.26868045153706449 0.20589831499250541 0 -0.2791973288468384 0.21790572090905611 0 -0.26868045153706449 0.20589831499250541 0 -0.2791973288468384 0.21790572090905611 0 -0.26354882630667698 0.22034927509801169 0 -0.2791973288468384 0.21790572090905611 0 -0.26354882630667698 0.22034927509801169 0 -0.2791973288468384 0.21790572090905611 0 -0.2743775822837069 0.2311971640619615 0 -0.26354882630667698 0.22034927509801169 0 -0.28556364975324361 0.2258194074993474 0 -0.2791973288468384 0.21790572090905611 0 -0.2743775822837069 0.2311971640619615 0 -0.2743775822837069 0.2311971640619615 0 -0.26322708885207657 0.23130122429223079 0 -0.27053130904085088 0.23989425105438689 0 -0.2743775822837069 0.2311971640619615 0 -0.26354882630667698 0.22034927509801169 0 -0.26322708885207657 0.23130122429223079 0 -0.2743775822837069 0.2311971640619615 0 -0.26354882630667698 0.22034927509801169 0 -0.26354882630667698 0.22034927509801169 0 -0.26032187107898369 0.22085317251209219 0 -0.26322708885207657 0.23130122429223079 0 -0.26354882630667698 0.22034927509801169 0 -0.26032187107898369 0.22085317251209219 0 -0.26166069193192981 0.2184578046382698 0 -0.26354882630667698 0.22034927509801169 0 -0.26032187107898369 0.22085317251209219 0 -0.26166069193192981 0.2184578046382698 0 -0.26354882630667698 0.22034927509801169 0 -0.26166069193192981 0.2184578046382698 0 -0.26032187107898369 0.22085317251209219 0 -0.26166069193192981 0.2184578046382698 0 -0.26032187107898369 0.22085317251209219 0 -0.25913549456253288 0.21912160275221951 0 -0.26032187107898369 0.22085317251209219 0 -0.2564563288255462 0.2214567869436789 0 -0.26032187107898369 0.22085317251209219 0 -0.25703316838862827 0.21958787938824861 0 -0.2564563288255462 0.2214567869436789 0 -0.26032187107898369 0.22085317251209219 0 -0.25913549456253288 0.21912160275221951 0 -0.25703316838862827 0.21958787938824861 0 -0.25599591734786031 0.2173373503046071 0 -0.25703316838862827 0.21958787938824861 0 -0.2564563288255462 0.2214567869436789 0 -0.2564563288255462 0.2214567869436789 0 -0.25210514226647263 0.23555423440704959 0 -0.248734035528067 0.22266264303674471 0 -0.26032187107898369 0.22085317251209219 0 -0.2564563288255462 0.2214567869436789 0 -0.25210514226647263 0.23555423440704959 0 -0.25703316838862827 0.21958787938824861 0 -0.2564563288255462 0.2214567869436789 0 -0.25272816581491458 0.21503132644266379 0 -0.2564563288255462 0.2214567869436789 0 -0.248734035528067 0.22266264303674471 0 -0.2564563288255462 0.2214567869436789 0 -0.248734035528067 0.22266264303674471 0 -0.25272816581491458 0.21503132644266379 0 -0.248734035528067 0.22266264303674471 0 -0.26032187107898369 0.22085317251209219 0 -0.25210514226647263 0.23555423440704959 0 -0.2564563288255462 0.2214567869436789 0 -0.25210514226647263 0.23555423440704959 0 -0.26032187107898369 0.22085317251209219 0 -0.26322708885207657 0.23130122429223079 0 -0.25210514226647263 0.23555423440704959 0 -0.26322708885207657 0.23130122429223079 0 -0.25210514226647263 0.23555423440704959 0 -0.25993357060704247 0.2432609816545768 0 -0.25054816238852479 0.24059870715785611 0 -0.25993357060704247 0.2432609816545768 0 -0.2546175921406465 0.26128861144859822 0 -0.26322708885207657 0.23130122429223079 0 -0.25993357060704247 0.2432609816545768 0 -0.27053130904085088 0.23989425105438689 0 -0.25054816238852479 0.24059870715785611 0 -0.25210514226647263 0.23555423440704959 0 -0.25993357060704247 0.2432609816545768 0 -0.25054816238852479 0.24059870715785611 0 -0.25210514226647263 0.23555423440704959 0 -0.25993357060704247 0.2432609816545768 0 -0.27053130904085088 0.23989425105438689 0 -0.26991196520069161 0.25166683223725428 0 -0.28520633826073721 0.24204505302591109 0 -0.2743775822837069 0.2311971640619615 0 -0.27053130904085088 0.23989425105438689 0 -0.28520633826073721 0.24204505302591109 0 -0.2743775822837069 0.2311971640619615 0 -0.28520633826073721 0.24204505302591109 0 -0.26991196520069161 0.25166683223725428 0 -0.28520633826073721 0.24204505302591109 0 -0.27053130904085088 0.23989425105438689 0 -0.26991196520069161 0.25166683223725428 0 -0.29367763624156518 0.14580120048619691 0 -0.30132029725935677 0.14489814247345079 0 -0.28540527766694768 0.16993595446686949 0 -0.30132029725935677 0.14489814247345079 0 -0.29832911322591421 0.15285204554198301 0 -0.28540527766694768 0.16993595446686949 0 -0.29225672170669897 0.1395067684405393 0 -0.27971252732468282 0.16347411849471971 0 -0.29367763624156518 0.14580120048619691 0 -0.29225672170669897 0.1395067684405393 0 -0.27971252732468282 0.16347411849471971 0 -0.29225672170669897 0.1395067684405393 0 -0.27971252732468282 0.16347411849471971 0 -0.27793738210199243 0.14829742822643491 0 -0.29367763624156518 0.14580120048619691 0 -0.29225672170669897 0.1395067684405393 0 -0.29367763624156518 0.14580120048619691 0 -0.29225672170669897 0.1395067684405393 0 -0.29707098058306791 0.1417275861303573 0 -0.29225672170669897 0.1395067684405393 0 -0.27793738210199243 0.14829742822643491 0 -0.28046643513796882 0.14013597811185341 0 -0.29225672170669897 0.1395067684405393 0 -0.27842990629181991 0.12905884737457521 0 -0.28046643513796882 0.14013597811185341 0 -0.29225672170669897 0.1395067684405393 0 -0.27842990629181991 0.12905884737457521 0 -0.2863041877154166 0.1131379617402274 0 -0.29225672170669897 0.1395067684405393 0 -0.2863041877154166 0.1131379617402274 0 -0.29225672170669897 0.1395067684405393 0 -0.2981778848162786 0.128193599602963 0 -0.2863041877154166 0.1131379617402274 0 -0.29225672170669897 0.1395067684405393 0 -0.30121224024343363 0.13483728542546841 0 -0.29707098058306791 0.1417275861303573 0 -0.29225672170669897 0.1395067684405393 0 -0.2981778848162786 0.128193599602963 0 -0.29225672170669897 0.1395067684405393 0 -0.30121224024343363 0.13483728542546841 0 -0.2981778848162786 0.128193599602963 0 -0.30121224024343363 0.13483728542546841 0 -0.2981778848162786 0.128193599602963 0 -0.31723531685176609 0.1198603304800319 0 -0.30132029725935677 0.14489814247345079 0 -0.31723531685176609 0.1198603304800319 0 -0.30121224024343363 0.13483728542546841 0 -0.30132029725935677 0.14489814247345079 0 -0.29707098058306791 0.1417275861303573 0 -0.31283651791160189 0.14254581953933751 0 -0.30132029725935677 0.14489814247345079 0 -0.31723531685176609 0.1198603304800319 0 -0.30121224024343363 0.13483728542546841 0 -0.30132029725935677 0.14489814247345079 0 -0.31723531685176609 0.1198603304800319 0 -0.31283651791160189 0.14254581953933751 0 -0.30132029725935677 0.14489814247345079 0 -0.30551098130554788 0.1539394275644638 0 -0.29367763624156518 0.14580120048619691 0 -0.30132029725935677 0.14489814247345079 0 -0.29707098058306791 0.1417275861303573 0 -0.30132029725935677 0.14489814247345079 0 -0.29832911322591421 0.15285204554198301 0 -0.30551098130554788 0.1539394275644638 0 -0.31851102729851588 0.15590236448055639 0 -0.31283651791160189 0.14254581953933751 0 -0.30551098130554788 0.1539394275644638 0 -0.31289652582642141 0.1805837036697519 0 -0.31851102729851588 0.15590236448055639 0 -0.30548605551313601 0.16580850627828139 0 -0.31851102729851588 0.15590236448055639 0 -0.30551098130554788 0.1539394275644638 0 -0.30548605551313601 0.16580850627828139 0 -0.30548605551313601 0.16580850627828139 0 -0.29764345600278319 0.16844986735664469 0 -0.29759451090954719 0.17643761218330459 0 -0.30548605551313601 0.16580850627828139 0 -0.29764345600278319 0.16844986735664469 0 -0.29908316640873578 0.16231679642003941 0 -0.29832911322591421 0.15285204554198301 0 -0.30551098130554788 0.1539394275644638 0 -0.29908316640873578 0.16231679642003941 0 -0.30551098130554788 0.1539394275644638 0 -0.30548605551313601 0.16580850627828139 0 -0.29908316640873578 0.16231679642003941 0 -0.31289652582642141 0.1805837036697519 0 -0.29078848868174278 0.1932410093311285 0 -0.29759451090954719 0.17643761218330459 0 -0.31289652582642141 0.1805837036697519 0 -0.29078848868174278 0.1932410093311285 0 -0.31289652582642141 0.1805837036697519 0 -0.30548605551313601 0.16580850627828139 0 -0.29759451090954719 0.17643761218330459 0 -0.27856333876668132 0.18821622517566469 0 -0.28844622599629782 0.17053413535882381 0 -0.27856333876668132 0.18821622517566469 0 -0.28884814108856732 0.1821072455122304 0 -0.28844622599629782 0.17053413535882381 0 -0.27856333876668132 0.18821622517566469 0 -0.28540527766694768 0.16993595446686949 0 -0.28844622599629782 0.17053413535882381 0 -0.29078848868174278 0.1932410093311285 0 -0.29759451090954719 0.17643761218330459 0 -0.28884814108856732 0.1821072455122304 0 -0.29759451090954719 0.17643761218330459 0 -0.28884814108856732 0.1821072455122304 0 -0.28844622599629782 0.17053413535882381 0 -0.29832911322591421 0.15285204554198301 0 -0.29908316640873578 0.16231679642003941 0 -0.28844622599629782 0.17053413535882381 0 -0.30132029725935677 0.14489814247345079 0 -0.28540527766694768 0.16993595446686949 0 -0.29367763624156518 0.14580120048619691 0 -0.28540527766694768 0.16993595446686949 0 -0.27971252732468282 0.16347411849471971 0 -0.29832911322591421 0.15285204554198301 0 -0.28540527766694768 0.16993595446686949 0 -0.28844622599629782 0.17053413535882381 0 -0.29832911322591421 0.15285204554198301 0 -0.28844622599629782 0.17053413535882381 0 -0.29764345600278319 0.16844986735664469 0 -0.29759451090954719 0.17643761218330459 0 -0.28844622599629782 0.17053413535882381 0 -0.29764345600278319 0.16844986735664469 0 -0.29908316640873578 0.16231679642003941 0 -0.28844622599629782 0.17053413535882381 0 -0.27971252732468282 0.16347411849471971 0 -0.26681583754358312 0.15703960248194049 0 -0.27793738210199243 0.14829742822643491 0 -0.27971252732468282 0.16347411849471971 0 -0.26864544582317851 0.1695326912228835 0 -0.26681583754358312 0.15703960248194049 0 -0.28540527766694768 0.16993595446686949 0 -0.27971252732468282 0.16347411849471971 0 -0.26716833294266512 0.18744146854889909 0 -0.27971252732468282 0.16347411849471971 0 -0.26716833294266512 0.18744146854889909 0 -0.27856333876668132 0.18821622517566469 0 -0.28540527766694768 0.16993595446686949 0 -0.26716833294266512 0.18744146854889909 0 -0.27971252732468282 0.16347411849471971 0 -0.26864544582317851 0.1695326912228835 0 -0.26716833294266512 0.18744146854889909 0 -0.26088508548178302 0.1701755753659748 0 -0.24346313069296871 0.16633892637512099 0 -0.24593749817207319 0.17922101447869401 0 -0.26864544582317851 0.1695326912228835 0 -0.26716833294266512 0.18744146854889909 0 -0.26088508548178302 0.1701755753659748 0 -0.26716833294266512 0.18744146854889909 0 -0.25648243047464631 0.1826357185327456 0 -0.26088508548178302 0.1701755753659748 0 -0.25648243047464631 0.1826357185327456 0 -0.26088508548178302 0.1701755753659748 0 -0.24593749817207319 0.17922101447869401 0 -0.25193880530206408 0.19370481573741441 0 -0.25648243047464631 0.1826357185327456 0 -0.24593749817207319 0.17922101447869401 0 -0.26681583754358312 0.15703960248194049 0 -0.26088508548178302 0.1701755753659748 0 -0.25072842261960387 0.15603505327837411 0 -0.26088508548178302 0.1701755753659748 0 -0.25072842261960387 0.15603505327837411 0 -0.24346313069296871 0.16633892637512099 0 -0.26864544582317851 0.1695326912228835 0 -0.26681583754358312 0.15703960248194049 0 -0.26088508548178302 0.1701755753659748 0 -0.26088508548178302 0.1701755753659748 0 -0.25072842261960387 0.15603505327837411 0 -0.26681583754358312 0.15703960248194049 0 -0.25608290515330878 0.14176455504424121 0 -0.27043538879702828 0.1413306736031216 0 -0.26681583754358312 0.15703960248194049 0 -0.25072842261960387 0.15603505327837411 0 -0.25608290515330878 0.14176455504424121 0 -0.26681583754358312 0.15703960248194049 0 -0.27043538879702828 0.1413306736031216 0 -0.27793738210199243 0.14829742822643491 0 -0.27043538879702828 0.1413306736031216 0 -0.27793738210199243 0.14829742822643491 0 -0.28046643513796882 0.14013597811185341 0 -0.27043538879702828 0.1413306736031216 0 -0.27842990629181991 0.12905884737457521 0 -0.28046643513796882 0.14013597811185341 0 -0.27043538879702828 0.1413306736031216 0 -0.27842990629181991 0.12905884737457521 0 -0.2648400147316442 0.13011893998476409 0 -0.27842990629181991 0.12905884737457521 0 -0.2648400147316442 0.13011893998476409 0 -0.26830038075826779 0.11624375259475619 0 -0.25608290515330878 0.14176455504424121 0 -0.2648400147316442 0.13011893998476409 0 -0.24895710550971339 0.12165530893482571 0 -0.25608290515330878 0.14176455504424121 0 -0.27043538879702828 0.1413306736031216 0 -0.2648400147316442 0.13011893998476409 0 -0.25734245126200062 0.1014160866788785 0 -0.26830038075826779 0.11624375259475619 0 -0.24895710550971339 0.12165530893482571 0 -0.2648400147316442 0.13011893998476409 0 -0.26830038075826779 0.11624375259475619 0 -0.24895710550971339 0.12165530893482571 0 -0.25734245126200062 0.1014160866788785 0 -0.24895710550971339 0.12165530893482571 0 -0.25734245126200062 0.1014160866788785 0 -0.27392861903901239 0.1020753708552664 0 -0.26830038075826779 0.11624375259475619 0 -0.27392861903901239 0.1020753708552664 0 -0.2863041877154166 0.1131379617402274 0 -0.28035165372413551 0.086769155039914989 0 -0.25734245126200062 0.1014160866788785 0 -0.27392861903901239 0.1020753708552664 0 -0.26572779701428773 0.081176864422931191 0 -0.27842990629181991 0.12905884737457521 0 -0.26830038075826779 0.11624375259475619 0 -0.2863041877154166 0.1131379617402274 0 -0.27392861903901239 0.1020753708552664 0 -0.26830038075826779 0.11624375259475619 0 -0.2863041877154166 0.1131379617402274 0 -0.2981778848162786 0.128193599602963 0 -0.2863041877154166 0.1131379617402274 0 -0.30134905106005738 0.1164832023402728 0 -0.2863041877154166 0.1131379617402274 0 -0.28035165372413551 0.086769155039914989 0 -0.2863041877154166 0.1131379617402274 0 -0.29405774138327462 0.094893752904386258 0 -0.28035165372413551 0.086769155039914989 0 -0.2863041877154166 0.1131379617402274 0 -0.29405774138327462 0.094893752904386258 0 -0.30367881485676818 0.104740917537869 0 -0.29405774138327462 0.094893752904386258 0 -0.30367881485676818 0.104740917537869 0 -0.30859009333780452 0.087437634974232029 0 -0.30367881485676818 0.104740917537869 0 -0.30859009333780452 0.087437634974232029 0 -0.31724517505712951 0.098806923667406316 0 -0.2981778848162786 0.128193599602963 0 -0.30134905106005738 0.1164832023402728 0 -0.31723531685176609 0.1198603304800319 0 -0.2863041877154166 0.1131379617402274 0 -0.30367881485676818 0.104740917537869 0 -0.30134905106005738 0.1164832023402728 0 -0.30367881485676818 0.104740917537869 0 -0.30134905106005738 0.1164832023402728 0 -0.31723531685176609 0.1198603304800319 0 -0.30660633332941051 0.074378369855040594 0 -0.29366682663590249 0.070755320590707688 0 -0.31081826144354868 0.060679329518446831 0 -0.30660633332941051 0.074378369855040594 0 -0.29665452968210548 0.0828468466728563 0 -0.29366682663590249 0.070755320590707688 0 -0.29405774138327462 0.094893752904386258 0 -0.30859009333780452 0.087437634974232029 0 -0.29665452968210548 0.0828468466728563 0 -0.30660633332941051 0.074378369855040594 0 -0.30859009333780452 0.087437634974232029 0 -0.29665452968210548 0.0828468466728563 0 -0.29665452968210548 0.0828468466728563 0 -0.29366682663590249 0.070755320590707688 0 -0.28035165372413551 0.086769155039914989 0 -0.29405774138327462 0.094893752904386258 0 -0.29665452968210548 0.0828468466728563 0 -0.28035165372413551 0.086769155039914989 0 -0.29366682663590249 0.070755320590707688 0 -0.28035165372413551 0.086769155039914989 0 -0.2743991197328543 0.06040034833960263 0 -0.28035165372413551 0.086769155039914989 0 -0.2743991197328543 0.06040034833960263 0 -0.28035165372413551 0.086769155039914989 0 -0.26572779701428773 0.081176864422931191 0 -0.2743991197328543 0.06040034833960263 0 -0.27392861903901239 0.1020753708552664 0 -0.28035165372413551 0.086769155039914989 0 -0.26572779701428773 0.081176864422931191 0 -0.25734245126200062 0.1014160866788785 0 -0.26572779701428773 0.081176864422931191 0 -0.24672703352553629 0.080158677613093823 0 -0.25734245126200062 0.1014160866788785 0 -0.26572779701428773 0.081176864422931191 0 -0.26572779701428773 0.081176864422931191 0 -0.2559826395353394 0.061597363551489349 0 -0.2743991197328543 0.06040034833960263 0 -0.26572779701428773 0.081176864422931191 0 -0.2559826395353394 0.061597363551489349 0 -0.24672703352553629 0.080158677613093823 0 -0.2559826395353394 0.061597363551489349 0 -0.26844658574157321 0.034031541639290362 0 -0.24450296286368231 0.049373315754277197 0 -0.26844658574157321 0.034031541639290362 0 -0.24192231969137759 0.032530148466345048 0 -0.24450296286368231 0.049373315754277197 0 -0.26844658574157321 0.034031541639290362 0 -0.2743991197328543 0.06040034833960263 0 -0.28919208176463768 0.041254089627619089 0 -0.26844658574157321 0.034031541639290362 0 -0.28503043027369879 0.024646141826126219 0 -0.28919208176463768 0.041254089627619089 0 -0.2559826395353394 0.061597363551489349 0 -0.26844658574157321 0.034031541639290362 0 -0.2743991197328543 0.06040034833960263 0 -0.26844658574157321 0.034031541639290362 0 -0.2743991197328543 0.06040034833960263 0 -0.25227296286688322 -0.0076793426536460041 0 -0.26249405175029211 0.007662734938978108 0 -0.23546354233931949 0.0078270751002715265 0 -0.26844658574157321 0.034031541639290362 0 -0.26249405175029211 0.007662734938978108 0 -0.26844658574157321 0.034031541639290362 0 -0.26249405175029211 0.007662734938978108 0 -0.24192231969137759 0.032530148466345048 0 -0.26844658574157321 0.034031541639290362 0 -0.26249405175029211 0.007662734938978108 0 -0.28503043027369879 0.024646141826126219 0 -0.26249405175029211 0.007662734938978108 0 -0.29088909275279012 0.0052797473078289572 0 -0.28503043027369879 0.024646141826126219 0 -0.28503043027369879 0.024646141826126219 0 -0.30319396424779033 0.026796870749645822 0 -0.28919208176463768 0.041254089627619089 0 -0.29088909275279012 0.0052797473078289572 0 -0.28503043027369879 0.024646141826126219 0 -0.30319396424779033 0.026796870749645822 0 -0.30319396424779033 0.026796870749645822 0 -0.30957503066598552 0.011427225412800709 0 -0.32058731744473762 0.019928587991941731 0 -0.29088909275279012 0.0052797473078289572 0 -0.30319396424779033 0.026796870749645822 0 -0.30957503066598552 0.011427225412800709 0 -0.30518798685158838 -0.0020929360932298849 0 -0.29088909275279012 0.0052797473078289572 0 -0.30957503066598552 0.011427225412800709 0 -0.30518798685158838 -0.0020929360932298849 0 -0.30957503066598552 0.011427225412800709 0 -0.32049615199215492 0.0045280339304297253 0 -0.2743991197328543 0.06040034833960263 0 -0.29603323201561299 0.055812399873303893 0 -0.28919208176463768 0.041254089627619089 0 -0.29366682663590249 0.070755320590707688 0 -0.2743991197328543 0.06040034833960263 0 -0.29603323201561299 0.055812399873303893 0 -0.30319396424779033 0.026796870749645822 0 -0.28919208176463768 0.041254089627619089 0 -0.31060618731623352 0.044985865152084623 0 -0.30319396424779033 0.026796870749645822 0 -0.31060618731623352 0.044985865152084623 0 -0.31880783956767128 0.032922242476857162 0 -0.29603323201561299 0.055812399873303893 0 -0.28919208176463768 0.041254089627619089 0 -0.31060618731623352 0.044985865152084623 0 -0.29603323201561299 0.055812399873303893 0 -0.31060618731623352 0.044985865152084623 0 -0.31081826144354868 0.060679329518446831 0 -0.29366682663590249 0.070755320590707688 0 -0.29603323201561299 0.055812399873303893 0 -0.31081826144354868 0.060679329518446831 0 -0.31060618731623352 0.044985865152084623 0 -0.32788744175529538 0.041514351910999107 0 -0.32831049041907839 0.055921771907720449 0 -0.31060618731623352 0.044985865152084623 0 -0.31081826144354868 0.060679329518446831 0 -0.32831049041907839 0.055921771907720449 0 -0.31060618731623352 0.044985865152084623 0 -0.31880783956767128 0.032922242476857162 0 -0.32788744175529538 0.041514351910999107 0 -0.31880783956767128 0.032922242476857162 0 -0.32788744175529538 0.041514351910999107 0 -0.33284048064853922 0.02898560650307868 0 -0.34306862850599618 0.040992927417729488 0 -0.33284048064853922 0.02898560650307868 0 -0.34878147881263583 0.02639136098039228 0 -0.32788744175529538 0.041514351910999107 0 -0.34306862850599618 0.040992927417729488 0 -0.32831049041907839 0.055921771907720449 0 -0.32788744175529538 0.041514351910999107 0 -0.34306862850599618 0.040992927417729488 0 -0.33284048064853922 0.02898560650307868 0 -0.32831049041907839 0.055921771907720449 0 -0.34909822148757808 0.06037421403352132 0 -0.3353113387102199 0.067919589230939131 0 -0.34306862850599618 0.040992927417729488 0 -0.32831049041907839 0.055921771907720449 0 -0.34909822148757808 0.06037421403352132 0 -0.30957503066598552 0.011427225412800709 0 -0.32049615199215492 0.0045280339304297253 0 -0.32058731744473762 0.019928587991941731 0 -0.32049615199215492 0.0045280339304297253 0 -0.32058731744473762 0.019928587991941731 0 -0.33553321900770577 0.01329805350298063 0 -0.30319396424779033 0.026796870749645822 0 -0.31880783956767128 0.032922242476857162 0 -0.32058731744473762 0.019928587991941731 0 -0.31880783956767128 0.032922242476857162 0 -0.32058731744473762 0.019928587991941731 0 -0.33284048064853922 0.02898560650307868 0 -0.33284048064853922 0.02898560650307868 0 -0.33553321900770577 0.01329805350298063 0 -0.34878147881263583 0.02639136098039228 0 -0.32058731744473762 0.019928587991941731 0 -0.33284048064853922 0.02898560650307868 0 -0.33553321900770577 0.01329805350298063 0 -0.33449922093445961 -0.0040818700918973123 0 -0.32049615199215492 0.0045280339304297253 0 -0.33553321900770577 0.01329805350298063 0 -0.33449922093445961 -0.0040818700918973123 0 -0.33553321900770577 0.01329805350298063 0 -0.35182631000740072 0.0068229147672093007 0 -0.33553321900770577 0.01329805350298063 0 -0.35182631000740072 0.0068229147672093007 0 -0.34878147881263583 0.02639136098039228 0 -0.34878147881263583 0.02639136098039228 0 -0.3640039126182737 0.02126082680388874 0 -0.35655106705292511 0.040817520418704747 0 -0.35182631000740072 0.0068229147672093007 0 -0.34878147881263583 0.02639136098039228 0 -0.3640039126182737 0.02126082680388874 0 -0.3640039126182737 0.02126082680388874 0 -0.35655106705292511 0.040817520418704747 0 -0.37938766176258892 0.01937444117527904 0 -0.3640039126182737 0.02126082680388874 0 -0.37363166703579942 0.035604814688565273 0 -0.3640039126182737 0.02126082680388874 0 -0.37145675818362223 0.001704133189072726 0 -0.35182631000740072 0.0068229147672093007 0 -0.3640039126182737 0.02126082680388874 0 -0.37145675818362223 0.001704133189072726 0 -0.37938766176258892 0.01937444117527904 0 -0.3640039126182737 0.02126082680388874 0 -0.37145675818362223 0.001704133189072726 0 -0.34909822148757808 0.06037421403352132 0 -0.35655106705292511 0.040817520418704747 0 -0.34306862850599618 0.040992927417729488 0 -0.34909822148757808 0.06037421403352132 0 -0.35655106705292511 0.040817520418704747 0 -0.34306862850599618 0.040992927417729488 0 -0.34909822148757808 0.06037421403352132 0 -0.34909822148757808 0.06037421403352132 0 -0.35655106705292511 0.040817520418704747 0 -0.36842953035862158 0.050481425088617103 0 -0.34306862850599618 0.040992927417729488 0 -0.34878147881263583 0.02639136098039228 0 -0.35655106705292511 0.040817520418704747 0 -0.3640039126182737 0.02126082680388874 0 -0.35655106705292511 0.040817520418704747 0 -0.37363166703579942 0.035604814688565273 0 -0.35655106705292511 0.040817520418704747 0 -0.37363166703579942 0.035604814688565273 0 -0.36842953035862158 0.050481425088617103 0 -0.34909822148757808 0.06037421403352132 0 -0.36842953035862158 0.050481425088617103 0 -0.37191756568804107 0.066739953928913298 0 -0.37191756568804107 0.066739953928913298 0 -0.35586120822019068 0.082112892687927444 0 -0.37138104083623391 0.082703932652830325 0 -0.34909822148757808 0.06037421403352132 0 -0.35586120822019068 0.082112892687927444 0 -0.34909822148757808 0.06037421403352132 0 -0.35586120822019068 0.082112892687927444 0 -0.34122595447521131 0.081031493547087358 0 -0.34909822148757808 0.06037421403352132 0 -0.37191756568804107 0.066739953928913298 0 -0.35586120822019068 0.082112892687927444 0 -0.34909822148757808 0.06037421403352132 0 -0.34122595447521131 0.081031493547087358 0 -0.35586120822019068 0.082112892687927444 0 -0.36262419495280129 0.1038515713423341 0 -0.35586120822019068 0.082112892687927444 0 -0.36262419495280129 0.1038515713423341 0 -0.34676829850597268 0.094510259469289468 0 -0.35586120822019068 0.082112892687927444 0 -0.34676829850597268 0.094510259469289468 0 -0.34122595447521131 0.081031493547087358 0 -0.35586120822019068 0.082112892687927444 0 -0.37138104083623391 0.082703932652830325 0 -0.36262419495280129 0.1038515713423341 0 -0.37678680274428078 0.095920052983538381 0 -0.37138104083623391 0.082703932652830325 0 -0.36262419495280129 0.1038515713423341 0 -0.36938718168541179 0.1255902499967409 0 -0.35200794605681629 0.12502238642781019 0 -0.36262419495280129 0.1038515713423341 0 -0.3875766108720648 0.10801011350679229 0 -0.36938718168541179 0.1255902499967409 0 -0.36262419495280129 0.1038515713423341 0 -0.36938718168541179 0.1255902499967409 0 -0.36262419495280129 0.1038515713423341 0 -0.35200794605681629 0.12502238642781019 0 -0.36262419495280129 0.1038515713423341 0 -0.34097979843748499 0.11073282128248541 0 -0.36262419495280129 0.1038515713423341 0 -0.34676829850597268 0.094510259469289468 0 -0.34097979843748499 0.11073282128248541 0 -0.33315033644417541 0.094822518486612939 0 -0.34097979843748499 0.11073282128248541 0 -0.31723531685176609 0.1198603304800319 0 -0.34676829850597268 0.094510259469289468 0 -0.33315033644417541 0.094822518486612939 0 -0.34097979843748499 0.11073282128248541 0 -0.35200794605681629 0.12502238642781019 0 -0.33282908497732799 0.12691684344983439 0 -0.34097979843748499 0.11073282128248541 0 -0.33282908497732799 0.12691684344983439 0 -0.34097979843748499 0.11073282128248541 0 -0.31723531685176609 0.1198603304800319 0 -0.30367881485676818 0.104740917537869 0 -0.31723531685176609 0.1198603304800319 0 -0.31724517505712951 0.098806923667406316 0 -0.33315033644417541 0.094822518486612939 0 -0.31723531685176609 0.1198603304800319 0 -0.33315033644417541 0.094822518486612939 0 -0.31723531685176609 0.1198603304800319 0 -0.31724517505712951 0.098806923667406316 0 -0.30859009333780452 0.087437634974232029 0 -0.31724517505712951 0.098806923667406316 0 -0.32357131379513321 0.087173216858285787 0 -0.33315033644417541 0.094822518486612939 0 -0.31724517505712951 0.098806923667406316 0 -0.32357131379513321 0.087173216858285787 0 -0.30660633332941051 0.074378369855040594 0 -0.30859009333780452 0.087437634974232029 0 -0.32274642435413547 0.073355371094589714 0 -0.30859009333780452 0.087437634974232029 0 -0.32357131379513321 0.087173216858285787 0 -0.32274642435413547 0.073355371094589714 0 -0.31081826144354868 0.060679329518446831 0 -0.32831049041907839 0.055921771907720449 0 -0.32274642435413547 0.073355371094589714 0 -0.30660633332941051 0.074378369855040594 0 -0.31081826144354868 0.060679329518446831 0 -0.32274642435413547 0.073355371094589714 0 -0.32831049041907839 0.055921771907720449 0 -0.32274642435413547 0.073355371094589714 0 -0.3353113387102199 0.067919589230939131 0 -0.34909822148757808 0.06037421403352132 0 -0.3353113387102199 0.067919589230939131 0 -0.34122595447521131 0.081031493547087358 0 -0.32274642435413547 0.073355371094589714 0 -0.3353113387102199 0.067919589230939131 0 -0.34122595447521131 0.081031493547087358 0 -0.33315033644417541 0.094822518486612939 0 -0.32357131379513321 0.087173216858285787 0 -0.34122595447521131 0.081031493547087358 0 -0.32357131379513321 0.087173216858285787 0 -0.32274642435413547 0.073355371094589714 0 -0.34122595447521131 0.081031493547087358 0 -0.34676829850597268 0.094510259469289468 0 -0.33315033644417541 0.094822518486612939 0 -0.34122595447521131 0.081031493547087358 0 -0.39098080248864292 0.48082949146892462 0 -0.39688472812408349 0.46225301958370763 0 -0.40654981809613899 0.47943816589621452 0 -0.39098080248864292 0.48082949146892462 0 -0.40517642966730788 0.5 0 -0.40654981809613899 0.47943816589621452 0 -0.39098080248864292 0.48082949146892462 0 -0.40517642966730788 0.5 0 -0.37984386551400101 0.5 0 -0.39098080248864292 0.48082949146892462 0 -0.37984386551400101 0.5 0 -0.36562800957556379 0.48144847740775781 0 -0.39098080248864292 0.48082949146892462 0 -0.37674471779043378 0.46289695481551602 0 -0.36562800957556379 0.48144847740775781 0 -0.39098080248864292 0.48082949146892462 0 -0.37674471779043378 0.46289695481551602 0 -0.39688472812408349 0.46225301958370763 0 -0.37674471779043378 0.46289695481551602 0 -0.38786142600530288 0.44434543222327372 0 -0.37674471779043378 0.46289695481551602 0 -0.38786142600530288 0.44434543222327372 0 -0.3636594906987341 0.45259116813215772 0 -0.37674471779043378 0.46289695481551602 0 -0.38786142600530288 0.44434543222327372 0 -0.39688472812408349 0.46225301958370763 0 -0.38786142600530288 0.44434543222327372 0 -0.38219330561030318 0.43733759585905729 0 -0.37031446948010971 0.44164379239859503 0 -0.38786142600530288 0.44434543222327372 0 -0.3636594906987341 0.45259116813215772 0 -0.38786142600530288 0.44434543222327372 0 -0.39005529127119792 0.44068431777663197 0 -0.38219330561030318 0.43733759585905729 0 -0.38786142600530288 0.44434543222327372 0 -0.39005529127119792 0.44068431777663197 0 -0.38786142600530288 0.44434543222327372 0 -0.40276516754681568 0.43926764339155733 0 -0.39688472812408349 0.46225301958370763 0 -0.38786142600530288 0.44434543222327372 0 -0.40276516754681568 0.43926764339155733 0 -0.38786142600530288 0.44434543222327372 0 -0.39005529127119792 0.44068431777663197 0 -0.40276516754681568 0.43926764339155733 0 -0.40276516754681568 0.43926764339155733 0 -0.39688472812408349 0.46225301958370763 0 -0.41912534642966243 0.46276605766276058 0 -0.39688472812408349 0.46225301958370763 0 -0.41912534642966243 0.46276605766276058 0 -0.40654981809613899 0.47943816589621452 0 -0.40276516754681568 0.43926764339155733 0 -0.41912534642966243 0.46276605766276058 0 -0.41766890908832871 0.43418985455984122 0 -0.41912534642966243 0.46276605766276058 0 -0.41766890908832871 0.43418985455984122 0 -0.43637228529971711 0.45059119829788907 0 -0.44062134191292651 0.43194009349776402 0 -0.42355994468304931 0.43218274549486041 0 -0.41912534642966243 0.46276605766276058 0 -0.43637228529971711 0.45059119829788907 0 -0.41766890908832871 0.43418985455984122 0 -0.43637228529971711 0.45059119829788907 0 -0.42355994468304931 0.43218274549486041 0 -0.41766890908832871 0.43418985455984122 0 -0.41912534642966243 0.46276605766276058 0 -0.43637228529971711 0.45059119829788907 0 -0.43819607322225379 0.4802098919466351 0 -0.41912534642966243 0.46276605766276058 0 -0.42058178377099831 0.49134226076567977 0 -0.43819607322225379 0.4802098919466351 0 -0.41912534642966243 0.46276605766276058 0 -0.40654981809613899 0.47943816589621452 0 -0.42058178377099831 0.49134226076567977 0 -0.41912534642966243 0.46276605766276058 0 -0.42058178377099831 0.49134226076567977 0 -0.40517642966730788 0.5 0 -0.40654981809613899 0.47943816589621452 0 -0.42058178377099831 0.49134226076567977 0 -0.40517642966730788 0.5 0 -0.42058178377099831 0.49134226076567977 0 -0.43050899382061492 0.5 0 -0.42058178377099831 0.49134226076567977 0 -0.43050899382061492 0.5 0 -0.43819607322225379 0.4802098919466351 0 -0.43050899382061492 0.5 0 -0.43819607322225379 0.4802098919466351 0 -0.4558415579739219 0.50000000000000289 0 -0.5 0.5 0 -0.45848093797747058 0.44107104525054719 0 -0.5 0.39368719930634488 0 -0.43819607322225379 0.4802098919466351 0 -0.45716124797569629 0.47053552262527509 0 -0.4558415579739219 0.50000000000000289 0 -0.45716124797569629 0.47053552262527509 0 -0.4558415579739219 0.50000000000000289 0 -0.45716124797569629 0.47053552262527509 0 -0.5 0.5 0 -0.45848093797747058 0.44107104525054719 0 -0.45716124797569629 0.47053552262527509 0 -0.4558415579739219 0.50000000000000289 0 -0.5 0.5 0 -0.45716124797569629 0.47053552262527509 0 -0.45848093797747058 0.44107104525054719 0 -0.43637228529971711 0.45059119829788907 0 -0.45716124797569629 0.47053552262527509 0 -0.45848093797747058 0.44107104525054719 0 -0.43637228529971711 0.45059119829788907 0 -0.43819607322225379 0.4802098919466351 0 -0.45716124797569629 0.47053552262527509 0 -0.43637228529971711 0.45059119829788907 0 -0.45848093797747058 0.44107104525054719 0 -0.44062134191292651 0.43194009349776402 0 -0.45848093797747058 0.44107104525054719 0 -0.44062134191292651 0.43194009349776402 0 -0.45980062797924498 0.41160656787581928 0 -0.44121582346845373 0.41376147505037958 0 -0.45980062797924498 0.41160656787581928 0 -0.45143531712829632 0.39504510946912502 0 -0.44062134191292651 0.43194009349776402 0 -0.44121582346845373 0.41376147505037958 0 -0.45980062797924498 0.41160656787581928 0 -0.45848093797747058 0.44107104525054719 0 -0.45980062797924498 0.41160656787581928 0 -0.45848093797747058 0.44107104525054719 0 -0.45980062797924498 0.41160656787581928 0 -0.5 0.39368719930634488 0 -0.45980062797924498 0.41160656787581928 0 -0.5 0.39368719930634488 0 -0.47061151440635052 0.38738233066939171 0 -0.5 0.39368719930634488 0 -0.47061151440635052 0.38738233066939171 0 -0.47244599738177773 0.36378702031114818 0 -0.47061151440635052 0.38738233066939171 0 -0.45360913424094712 0.37591717629495691 0 -0.45143531712829632 0.39504510946912502 0 -0.47061151440635052 0.38738233066939171 0 -0.45360913424094712 0.37591717629495691 0 -0.47244599738177773 0.36378702031114818 0 -0.45980062797924498 0.41160656787581928 0 -0.47061151440635052 0.38738233066939171 0 -0.45143531712829632 0.39504510946912502 0 -0.44121582346845373 0.41376147505037958 0 -0.45143531712829632 0.39504510946912502 0 -0.43115992967391842 0.40404311620122768 0 -0.45143531712829632 0.39504510946912502 0 -0.43477227110011651 0.38804733227876548 0 -0.43115992967391842 0.40404311620122768 0 -0.45360913424094712 0.37591717629495691 0 -0.43477227110011651 0.38804733227876548 0 -0.43761421779729981 0.36799172170783712 0 -0.45360913424094712 0.37591717629495691 0 -0.43477227110011651 0.38804733227876548 0 -0.45360913424094712 0.37591717629495691 0 -0.45143531712829632 0.39504510946912502 0 -0.43477227110011651 0.38804733227876548 0 -0.41504006019910189 0.38261021041501481 0 -0.43761421779729981 0.36799172170783712 0 -0.43477227110011651 0.38804733227876548 0 -0.41504006019910189 0.38261021041501481 0 -0.43761421779729981 0.36799172170783712 0 -0.43477227110011651 0.38804733227876548 0 -0.41504006019910189 0.38261021041501481 0 -0.4159354079592873 0.40017748826257649 0 -0.41504006019910189 0.38261021041501481 0 -0.41164644412426671 0.3848078356442457 0 -0.42787124419666578 0.3625299828724986 0 -0.41164644412426671 0.3848078356442457 0 -0.40212947449434688 0.3748414468342991 0 -0.41107150013157362 0.36619624614190099 0 -0.41504006019910189 0.38261021041501481 0 -0.41164644412426671 0.3848078356442457 0 -0.41109804598765209 0.39149102164547678 0 -0.41504006019910189 0.38261021041501481 0 -0.41164644412426671 0.3848078356442457 0 -0.41504006019910189 0.38261021041501481 0 -0.4159354079592873 0.40017748826257649 0 -0.41504006019910189 0.38261021041501481 0 -0.41109804598765209 0.39149102164547678 0 -0.4159354079592873 0.40017748826257649 0 -0.41164644412426671 0.3848078356442457 0 -0.41109804598765209 0.39149102164547678 0 -0.40177027166795132 0.3983685522600704 0 -0.41109804598765209 0.39149102164547678 0 -0.4159354079592873 0.40017748826257649 0 -0.40177027166795132 0.3983685522600704 0 -0.41164644412426671 0.3848078356442457 0 -0.40177027166795132 0.3983685522600704 0 -0.43477227110011651 0.38804733227876548 0 -0.4159354079592873 0.40017748826257649 0 -0.43477227110011651 0.38804733227876548 0 -0.4159354079592873 0.40017748826257649 0 -0.43115992967391842 0.40404311620122768 0 -0.44121582346845373 0.41376147505037958 0 -0.43115992967391842 0.40404311620122768 0 -0.42986314558338468 0.42022497384430652 0 -0.43115992967391842 0.40404311620122768 0 -0.42986314558338468 0.42022497384430652 0 -0.41680215852380748 0.41718367141120882 0 -0.44062134191292651 0.43194009349776402 0 -0.44121582346845373 0.41376147505037958 0 -0.42986314558338468 0.42022497384430652 0 -0.44062134191292651 0.43194009349776402 0 -0.42986314558338468 0.42022497384430652 0 -0.42355994468304931 0.43218274549486041 0 -0.42986314558338468 0.42022497384430652 0 -0.42355994468304931 0.43218274549486041 0 -0.41680215852380748 0.41718367141120882 0 -0.41766890908832871 0.43418985455984122 0 -0.41680215852380748 0.41718367141120882 0 -0.41766890908832871 0.43418985455984122 0 -0.41680215852380748 0.41718367141120882 0 -0.40452415779474138 0.42721409118458831 0 -0.42355994468304931 0.43218274549486041 0 -0.41766890908832871 0.43418985455984122 0 -0.41680215852380748 0.41718367141120882 0 -0.42355994468304931 0.43218274549486041 0 -0.41766890908832871 0.43418985455984122 0 -0.40276516754681568 0.43926764339155733 0 -0.41766890908832871 0.43418985455984122 0 -0.40276516754681568 0.43926764339155733 0 -0.41766890908832871 0.43418985455984122 0 -0.40452415779474138 0.42721409118458831 0 -0.4159354079592873 0.40017748826257649 0 -0.43115992967391842 0.40404311620122768 0 -0.41680215852380748 0.41718367141120882 0 -0.4159354079592873 0.40017748826257649 0 -0.41680215852380748 0.41718367141120882 0 -0.4159354079592873 0.40017748826257649 0 -0.41680215852380748 0.41718367141120882 0 -0.39328619543943649 0.41476263859902718 0 -0.39328619543943649 0.41476263859902718 0 -0.39189409921163532 0.41192926887589459 0 -0.40177027166795132 0.3983685522600704 0 -0.4159354079592873 0.40017748826257649 0 -0.39328619543943649 0.41476263859902718 0 -0.41680215852380748 0.41718367141120882 0 -0.39328619543943649 0.41476263859902718 0 -0.40452415779474138 0.42721409118458831 0 -0.39328619543943649 0.41476263859902718 0 -0.40452415779474138 0.42721409118458831 0 -0.39209835837531859 0.43066664796130649 0 -0.40276516754681568 0.43926764339155733 0 -0.40452415779474138 0.42721409118458831 0 -0.39209835837531859 0.43066664796130649 0 -0.39005529127119792 0.44068431777663197 0 -0.40276516754681568 0.43926764339155733 0 -0.39209835837531859 0.43066664796130649 0 -0.39328619543943649 0.41476263859902718 0 -0.37063698291958719 0.42934778893548009 0 -0.39209835837531859 0.43066664796130649 0 -0.38219330561030318 0.43733759585905729 0 -0.37063698291958719 0.42934778893548009 0 -0.39328619543943649 0.41476263859902718 0 -0.39209835837531859 0.43066664796130649 0 -0.37063698291958719 0.42934778893548009 0 -0.39005529127119792 0.44068431777663197 0 -0.39209835837531859 0.43066664796130649 0 -0.38219330561030318 0.43733759585905729 0 -0.39189409921163532 0.41192926887589459 0 -0.39195655763330312 0.3975585388349005 0 -0.37226667114234002 0.41030924202555608 0 -0.39328619543943649 0.41476263859902718 0 -0.39189409921163532 0.41192926887589459 0 -0.37226667114234002 0.41030924202555608 0 -0.39328619543943649 0.41476263859902718 0 -0.37226667114234002 0.41030924202555608 0 -0.37063698291958719 0.42934778893548009 0 -0.39195655763330312 0.3975585388349005 0 -0.37226667114234002 0.41030924202555608 0 -0.39195655763330312 0.3975585388349005 0 -0.37495024184161951 0.39669027322643757 0 -0.37226667114234002 0.41030924202555608 0 -0.38343510648805168 0.38508963626910381 0 -0.39195655763330312 0.3975585388349005 0 -0.37495024184161951 0.39669027322643757 0 -0.38343510648805168 0.38508963626910381 0 -0.36896039956082288 0.38726624238899698 0 -0.37495024184161951 0.39669027322643757 0 -0.38343510648805168 0.38508963626910381 0 -0.37817844187468841 0.37049799817574158 0 -0.36896039956082288 0.38726624238899698 0 -0.38343510648805168 0.38508963626910381 0 -0.39677184295297052 0.38392901966133991 0 -0.39106782088146019 0.37499676007273403 0 -0.38343510648805168 0.38508963626910381 0 -0.39106782088146019 0.37499676007273403 0 -0.37817844187468841 0.37049799817574158 0 -0.38343510648805168 0.38508963626910381 0 -0.39677184295297052 0.38392901966133991 0 -0.39195655763330312 0.3975585388349005 0 -0.41164644412426671 0.3848078356442457 0 -0.39677184295297052 0.38392901966133991 0 -0.39195655763330312 0.3975585388349005 0 -0.39677184295297052 0.38392901966133991 0 -0.40212947449434688 0.3748414468342991 0 -0.39106782088146019 0.37499676007273403 0 -0.41164644412426671 0.3848078356442457 0 -0.39677184295297052 0.38392901966133991 0 -0.40212947449434688 0.3748414468342991 0 -0.41164644412426671 0.3848078356442457 0 -0.39195655763330312 0.3975585388349005 0 -0.4159354079592873 0.40017748826257649 0 -0.39328619543943649 0.41476263859902718 0 -0.40177027166795132 0.3983685522600704 0 -0.41164644412426671 0.3848078356442457 0 -0.40177027166795132 0.3983685522600704 0 -0.39195655763330312 0.3975585388349005 0 -0.39189409921163532 0.41192926887589459 0 -0.40177027166795132 0.3983685522600704 0 -0.39195655763330312 0.3975585388349005 0 -0.39189409921163532 0.41192926887589459 0 -0.40177027166795132 0.3983685522600704 0 -0.38763875309648088 0.35121150247505228 0 -0.41586739868277361 0.34573181628790323 0 -0.39706953126344319 0.36332699894800602 0 -0.38763875309648088 0.35121150247505228 0 -0.41586739868277361 0.34573181628790323 0 -0.38763875309648088 0.35121150247505228 0 -0.3937872350367228 0.33507229671605809 0 -0.41586739868277361 0.34573181628790323 0 -0.40212947449434688 0.3748414468342991 0 -0.39706953126344319 0.36332699894800602 0 -0.41107150013157362 0.36619624614190099 0 -0.40212947449434688 0.3748414468342991 0 -0.39106782088146019 0.37499676007273403 0 -0.39706953126344319 0.36332699894800602 0 -0.37817844187468841 0.37049799817574158 0 -0.38763875309648088 0.35121150247505228 0 -0.35941010751018809 0.3566911886622014 0 -0.39706953126344319 0.36332699894800602 0 -0.37817844187468841 0.37049799817574158 0 -0.38763875309648088 0.35121150247505228 0 -0.39106782088146019 0.37499676007273403 0 -0.39706953126344319 0.36332699894800602 0 -0.37817844187468841 0.37049799817574158 0 -0.38659885775585739 0.31565850626255348 0 -0.3937872350367228 0.33507229671605809 0 -0.371857819856382 0.33718357931137699 0 -0.38763875309648088 0.35121150247505228 0 -0.3937872350367228 0.33507229671605809 0 -0.371857819856382 0.33718357931137699 0 -0.38659885775585739 0.31565850626255348 0 -0.371857819856382 0.33718357931137699 0 -0.38659885775585739 0.31565850626255348 0 -0.3736940231061725 0.31398947852622111 0 -0.371857819856382 0.33718357931137699 0 -0.38659885775585739 0.31565850626255348 0 -0.3937872350367228 0.33507229671605809 0 -0.40697334579212008 0.32557607924340459 0 -0.38659885775585739 0.31565850626255348 0 -0.40697334579212008 0.32557607924340459 0 -0.40344199037643141 0.31069905435295109 0 -0.3937872350367228 0.33507229671605809 0 -0.40697334579212008 0.32557607924340459 0 -0.41586739868277361 0.34573181628790323 0 -0.40697334579212008 0.32557607924340459 0 -0.42641657962310969 0.33014507151577532 0 -0.41586739868277361 0.34573181628790323 0 -0.40697334579212008 0.32557607924340459 0 -0.42482201379485501 0.3164116993459492 0 -0.40344199037643141 0.31069905435295109 0 -0.40697334579212008 0.32557607924340459 0 -0.42482201379485501 0.3164116993459492 0 -0.42641657962310969 0.33014507151577532 0 -0.42482201379485501 0.3164116993459492 0 -0.44032409557673402 0.32275363260086698 0 -0.44093041861641502 0.30629419798598828 0 -0.42482201379485501 0.3164116993459492 0 -0.42641657962310969 0.33014507151577532 0 -0.44032409557673402 0.32275363260086698 0 -0.42641657962310969 0.33014507151577532 0 -0.41586739868277361 0.34573181628790323 0 -0.44409604426906601 0.34025213010075239 0 -0.42641657962310969 0.33014507151577532 0 -0.44409604426906601 0.34025213010075239 0 -0.44032409557673402 0.32275363260086698 0 -0.41586739868277361 0.34573181628790323 0 -0.44409604426906601 0.34025213010075239 0 -0.42787124419666578 0.3625299828724986 0 -0.44409604426906601 0.34025213010075239 0 -0.41586739868277361 0.34573181628790323 0 -0.42787124419666578 0.3625299828724986 0 -0.44409604426906601 0.34025213010075239 0 -0.41586739868277361 0.34573181628790323 0 -0.41107150013157362 0.36619624614190099 0 -0.42787124419666578 0.3625299828724986 0 -0.39706953126344319 0.36332699894800602 0 -0.41586739868277361 0.34573181628790323 0 -0.41107150013157362 0.36619624614190099 0 -0.41164644412426671 0.3848078356442457 0 -0.41107150013157362 0.36619624614190099 0 -0.42787124419666578 0.3625299828724986 0 -0.41164644412426671 0.3848078356442457 0 -0.42787124419666578 0.3625299828724986 0 -0.41504006019910189 0.38261021041501481 0 -0.42787124419666578 0.3625299828724986 0 -0.43761421779729981 0.36799172170783712 0 -0.42787124419666578 0.3625299828724986 0 -0.43761421779729981 0.36799172170783712 0 -0.44532995730629832 0.35516754502531411 0 -0.5 0.39368719930634488 0 -0.5 0.31375562759013931 0 -0.49236992051172512 0.33088130527536841 0 -0.5 0.39368719930634488 0 -0.49236992051172512 0.33088130527536841 0 -0.48276253299369798 0.33875474429348529 0 -0.43761421779729981 0.36799172170783712 0 -0.46018837539549878 0.35337323300066131 0 -0.45360913424094712 0.37591717629495691 0 -0.43761421779729981 0.36799172170783712 0 -0.46018837539549878 0.35337323300066131 0 -0.44532995730629832 0.35516754502531411 0 -0.46018837539549878 0.35337323300066131 0 -0.44409604426906601 0.34025213010075239 0 -0.42787124419666578 0.3625299828724986 0 -0.44532995730629832 0.35516754502531411 0 -0.44409604426906601 0.34025213010075239 0 -0.43761421779729981 0.36799172170783712 0 -0.44532995730629832 0.35516754502531411 0 -0.46018837539549878 0.35337323300066131 0 -0.45360913424094712 0.37591717629495691 0 -0.47244599738177773 0.36378702031114818 0 -0.45360913424094712 0.37591717629495691 0 -0.46018837539549878 0.35337323300066131 0 -0.47244599738177773 0.36378702031114818 0 -0.5 0.39368719930634488 0 -0.47244599738177773 0.36378702031114818 0 -0.48276253299369798 0.33875474429348529 0 -0.46018837539549878 0.35337323300066131 0 -0.47244599738177773 0.36378702031114818 0 -0.48276253299369798 0.33875474429348529 0 -0.46018837539549878 0.35337323300066131 0 -0.48276253299369798 0.33875474429348529 0 -0.5 0.31375562759013931 0 -0.49236992051172512 0.33088130527536841 0 -0.47844448370196352 0.32365782782372382 0 -0.49236992051172512 0.33088130527536841 0 -0.48276253299369798 0.33875474429348529 0 -0.46823298239039562 0.33556671768806118 0 -0.49236992051172512 0.33088130527536841 0 -0.47844448370196352 0.32365782782372382 0 -0.46823298239039562 0.33556671768806118 0 -0.46018837539549878 0.35337323300066131 0 -0.48276253299369798 0.33875474429348529 0 -0.46823298239039562 0.33556671768806118 0 -0.49236992051172512 0.33088130527536841 0 -0.46823298239039562 0.33556671768806118 0 -0.5 0.31375562759013931 0 -0.47844448370196352 0.32365782782372382 0 -0.47326150671693828 0.30885130336962702 0 -0.47844448370196352 0.32365782782372382 0 -0.46553845445045222 0.32292377735302652 0 -0.46823298239039562 0.33556671768806118 0 -0.47844448370196352 0.32365782782372382 0 -0.46553845445045222 0.32292377735302652 0 -0.47326150671693828 0.30885130336962702 0 -0.46553845445045222 0.32292377735302652 0 -0.45536731290503107 0.31414791777939732 0 -0.47326150671693828 0.30885130336962702 0 -0.46553845445045222 0.32292377735302652 0 -0.45342644041040631 0.32744080480790411 0 -0.45536731290503107 0.31414791777939732 0 -0.46823298239039562 0.33556671768806118 0 -0.44409604426906601 0.34025213010075239 0 -0.46018837539549878 0.35337323300066131 0 -0.46823298239039562 0.33556671768806118 0 -0.44409604426906601 0.34025213010075239 0 -0.45342644041040631 0.32744080480790411 0 -0.46823298239039562 0.33556671768806118 0 -0.44409604426906601 0.34025213010075239 0 -0.46553845445045222 0.32292377735302652 0 -0.45342644041040631 0.32744080480790411 0 -0.46823298239039562 0.33556671768806118 0 -0.45342644041040631 0.32744080480790411 0 -0.44409604426906601 0.34025213010075239 0 -0.44032409557673402 0.32275363260086698 0 -0.45342644041040631 0.32744080480790411 0 -0.44409604426906601 0.34025213010075239 0 -0.45536731290503107 0.31414791777939732 0 -0.44032409557673402 0.32275363260086698 0 -0.44093041861641502 0.30629419798598828 0 -0.45342644041040631 0.32744080480790411 0 -0.45536731290503107 0.31414791777939732 0 -0.44032409557673402 0.32275363260086698 0 -0.44093041861641502 0.30629419798598828 0 -0.44456522433562062 0.28987896746967612 0 -0.45784842118247587 0.29630392741269229 0 -0.45536731290503107 0.31414791777939732 0 -0.44093041861641502 0.30629419798598828 0 -0.45784842118247587 0.29630392741269229 0 -0.44456522433562062 0.28987896746967612 0 -0.45784842118247587 0.29630392741269229 0 -0.45683589886731429 0.27944522996227389 0 -0.45784842118247587 0.29630392741269229 0 -0.47613016565353689 0.27920594790919162 0 -0.45683589886731429 0.27944522996227389 0 -0.45536731290503107 0.31414791777939732 0 -0.45784842118247587 0.29630392741269229 0 -0.47326150671693828 0.30885130336962702 0 -0.5 0.31375562759013931 0 -0.47326150671693828 0.30885130336962702 0 -0.47613016565353689 0.27920594790919162 0 -0.5 0.31375562759013931 0 -0.5 0.25502500317745308 0 -0.47613016565353689 0.27920594790919162 0 -0.45784842118247587 0.29630392741269229 0 -0.47326150671693828 0.30885130336962702 0 -0.47613016565353689 0.27920594790919162 0 -0.5 0.25502500317745308 0 -0.47613016565353689 0.27920594790919162 0 -0.46826200115894351 0.25268254595322559 0 -0.46826200115894351 0.25268254595322559 0 -0.46001429554523132 0.26715439528268792 0 -0.44622747097204157 0.25447826500352411 0 -0.47613016565353689 0.27920594790919162 0 -0.46001429554523132 0.26715439528268792 0 -0.45683589886731429 0.27944522996227389 0 -0.47613016565353689 0.27920594790919162 0 -0.46826200115894351 0.25268254595322559 0 -0.46001429554523132 0.26715439528268792 0 -0.44456522433562062 0.28987896746967612 0 -0.45683589886731429 0.27944522996227389 0 -0.43912327732866052 0.27082845975049152 0 -0.46001429554523132 0.26715439528268792 0 -0.45683589886731429 0.27944522996227389 0 -0.43912327732866052 0.27082845975049152 0 -0.43912327732866052 0.27082845975049152 0 -0.44622747097204157 0.25447826500352411 0 -0.4271662496375016 0.26119471126077209 0 -0.46001429554523132 0.26715439528268792 0 -0.43912327732866052 0.27082845975049152 0 -0.44622747097204157 0.25447826500352411 0 -0.43243648966469961 0.24825823729562091 0 -0.4271662496375016 0.26119471126077209 0 -0.4154354269666965 0.25327969466909228 0 -0.43243648966469961 0.24825823729562091 0 -0.44622747097204157 0.25447826500352411 0 -0.4271662496375016 0.26119471126077209 0 -0.4154354269666965 0.25327969466909228 0 -0.41608093355480807 0.27260836016490658 0 -0.3994904005985685 0.26310408063752239 0 -0.4271662496375016 0.26119471126077209 0 -0.4154354269666965 0.25327969466909228 0 -0.41608093355480807 0.27260836016490658 0 -0.43912327732866052 0.27082845975049152 0 -0.4271662496375016 0.26119471126077209 0 -0.41608093355480807 0.27260836016490658 0 -0.43912327732866052 0.27082845975049152 0 -0.41608093355480807 0.27260836016490658 0 -0.42569467822547491 0.29333324823827622 0 -0.44093041861641502 0.30629419798598828 0 -0.44456522433562062 0.28987896746967612 0 -0.42569467822547491 0.29333324823827622 0 -0.44456522433562062 0.28987896746967612 0 -0.43912327732866052 0.27082845975049152 0 -0.42569467822547491 0.29333324823827622 0 -0.42482201379485501 0.3164116993459492 0 -0.44093041861641502 0.30629419798598828 0 -0.42569467822547491 0.29333324823827622 0 -0.42482201379485501 0.3164116993459492 0 -0.42569467822547491 0.29333324823827622 0 -0.41580892915603301 0.30455156730479449 0 -0.41580892915603301 0.30455156730479449 0 -0.40133989565533279 0.29413343321372998 0 -0.40344199037643141 0.31069905435295109 0 -0.42569467822547491 0.29333324823827622 0 -0.41580892915603301 0.30455156730479449 0 -0.40133989565533279 0.29413343321372998 0 -0.42482201379485501 0.3164116993459492 0 -0.41580892915603301 0.30455156730479449 0 -0.40344199037643141 0.31069905435295109 0 -0.41608093355480807 0.27260836016490658 0 -0.42569467822547491 0.29333324823827622 0 -0.40133989565533279 0.29413343321372998 0 -0.41608093355480807 0.27260836016490658 0 -0.40133989565533279 0.29413343321372998 0 -0.40133989565533279 0.29413343321372998 0 -0.391405356210975 0.28736794428101681 0 -0.38183605444568008 0.30159254882832942 0 -0.41608093355480807 0.27260836016490658 0 -0.40133989565533279 0.29413343321372998 0 -0.39791334778191012 0.27873259344880857 0 -0.40133989565533279 0.29413343321372998 0 -0.391405356210975 0.28736794428101681 0 -0.39791334778191012 0.27873259344880857 0 -0.38659885775585739 0.31565850626255348 0 -0.40133989565533279 0.29413343321372998 0 -0.40344199037643141 0.31069905435295109 0 -0.38659885775585739 0.31565850626255348 0 -0.40133989565533279 0.29413343321372998 0 -0.38659885775585739 0.31565850626255348 0 -0.40133989565533279 0.29413343321372998 0 -0.38183605444568008 0.30159254882832942 0 -0.38183605444568008 0.30159254882832942 0 -0.37466468983423318 0.28951354051077988 0 -0.36997315068782782 0.30191223918603199 0 -0.38183605444568008 0.30159254882832942 0 -0.36997315068782782 0.30191223918603199 0 -0.3736940231061725 0.31398947852622111 0 -0.38659885775585739 0.31565850626255348 0 -0.38183605444568008 0.30159254882832942 0 -0.3736940231061725 0.31398947852622111 0 -0.391405356210975 0.28736794428101681 0 -0.38183605444568008 0.30159254882832942 0 -0.38453212696097688 0.2750132016331992 0 -0.38183605444568008 0.30159254882832942 0 -0.38453212696097688 0.2750132016331992 0 -0.37466468983423318 0.28951354051077988 0 -0.38183605444568008 0.30159254882832942 0 -0.38453212696097688 0.2750132016331992 0 -0.37672471104263361 0.27561795758142188 0 -0.38453212696097688 0.2750132016331992 0 -0.37466468983423318 0.28951354051077988 0 -0.37672471104263361 0.27561795758142188 0 -0.38453212696097688 0.2750132016331992 0 -0.37896013194671968 0.25534683486931381 0 -0.38722819947627368 0.24843385443806909 0 -0.38453212696097688 0.2750132016331992 0 -0.37896013194671968 0.25534683486931381 0 -0.37672471104263361 0.27561795758142188 0 -0.37896013194671968 0.25534683486931381 0 -0.38722819947627368 0.24843385443806909 0 -0.38453212696097688 0.2750132016331992 0 -0.3994904005985685 0.26310408063752239 0 -0.38722819947627368 0.24843385443806909 0 -0.38453212696097688 0.2750132016331992 0 -0.40101037553383972 0.24850817254535781 0 -0.4154354269666965 0.25327969466909228 0 -0.3994904005985685 0.26310408063752239 0 -0.38722819947627368 0.24843385443806909 0 -0.40101037553383972 0.24850817254535781 0 -0.3994904005985685 0.26310408063752239 0 -0.38453212696097688 0.2750132016331992 0 -0.3994904005985685 0.26310408063752239 0 -0.39791334778191012 0.27873259344880857 0 -0.41608093355480807 0.27260836016490658 0 -0.3994904005985685 0.26310408063752239 0 -0.39791334778191012 0.27873259344880857 0 -0.391405356210975 0.28736794428101681 0 -0.38453212696097688 0.2750132016331992 0 -0.39791334778191012 0.27873259344880857 0 -0.35754908974886279 0.25815157521253052 0 -0.35995394297715549 0.27846885519039472 0 -0.3399009986899495 0.26863911531903439 0 -0.34139946132247112 0.24041351753421181 0 -0.35754908974886279 0.25815157521253052 0 -0.3399009986899495 0.26863911531903439 0 -0.37672471104263361 0.27561795758142188 0 -0.37896013194671968 0.25534683486931381 0 -0.3691483330232409 0.26445373858247911 0 -0.35754908974886279 0.25815157521253052 0 -0.36759241766554501 0.2538245840294952 0 -0.3691483330232409 0.26445373858247911 0 -0.36182205832064851 0.24457456243760281 0 -0.35754908974886279 0.25815157521253052 0 -0.36759241766554501 0.2538245840294952 0 -0.37210575503526089 0.24405057661464391 0 -0.37896013194671968 0.25534683486931381 0 -0.36759241766554501 0.2538245840294952 0 -0.37896013194671968 0.25534683486931381 0 -0.36759241766554501 0.2538245840294952 0 -0.3691483330232409 0.26445373858247911 0 -0.35754908974886279 0.25815157521253052 0 -0.3691483330232409 0.26445373858247911 0 -0.35995394297715549 0.27846885519039472 0 -0.37672471104263361 0.27561795758142188 0 -0.3691483330232409 0.26445373858247911 0 -0.35995394297715549 0.27846885519039472 0 -0.37672471104263361 0.27561795758142188 0 -0.35995394297715549 0.27846885519039472 0 -0.37466468983423318 0.28951354051077988 0 -0.35995394297715549 0.27846885519039472 0 -0.37466468983423318 0.28951354051077988 0 -0.36067095067979221 0.29568292426180159 0 -0.37466468983423318 0.28951354051077988 0 -0.36067095067979221 0.29568292426180159 0 -0.36997315068782782 0.30191223918603199 0 -0.36067095067979221 0.29568292426180159 0 -0.36997315068782782 0.30191223918603199 0 -0.35820423278511537 0.31360051904281339 0 -0.36997315068782782 0.30191223918603199 0 -0.35820423278511537 0.31360051904281339 0 -0.3736940231061725 0.31398947852622111 0 -0.36067095067979221 0.29568292426180159 0 -0.33840253605742793 0.29686471310385681 0 -0.35820423278511537 0.31360051904281339 0 -0.33840253605742793 0.29686471310385681 0 -0.33690407342490619 0.32509031088867912 0 -0.35820423278511537 0.31360051904281339 0 -0.35995394297715549 0.27846885519039472 0 -0.33840253605742793 0.29686471310385681 0 -0.3399009986899495 0.26863911531903439 0 -0.35995394297715549 0.27846885519039472 0 -0.36067095067979221 0.29568292426180159 0 -0.33840253605742793 0.29686471310385681 0 -0.33840253605742793 0.29686471310385681 0 -0.3399009986899495 0.26863911531903439 0 -0.33840253605742793 0.29686471310385681 0 -0.31331907053128433 0.313878567385664 0 -0.33690407342490619 0.32509031088867912 0 -0.33840253605742793 0.29686471310385681 0 -0.33690407342490619 0.32509031088867912 0 -0.33840253605742793 0.29686471310385681 0 -0.31760133335066493 0.29423642541125972 0 -0.31331907053128433 0.313878567385664 0 -0.33840253605742793 0.29686471310385681 0 -0.31760133335066493 0.29423642541125972 0 -0.31493928155445272 0.27430993559415479 0 -0.33840253605742793 0.29686471310385681 0 -0.31493928155445272 0.27430993559415479 0 -0.3399009986899495 0.26863911531903439 0 -0.34139946132247112 0.24041351753421181 0 -0.3399009986899495 0.26863911531903439 0 -0.34139946132247112 0.24041351753421181 0 -0.3399009986899495 0.26863911531903439 0 -0.32052316857880009 0.25199218265017043 0 -0.31493928155445272 0.27430993559415479 0 -0.3399009986899495 0.26863911531903439 0 -0.32052316857880009 0.25199218265017043 0 -0.31493928155445272 0.27430993559415479 0 -0.32052316857880009 0.25199218265017043 0 -0.29813700426351908 0.2549985658140525 0 -0.31493928155445272 0.27430993559415479 0 -0.29813700426351908 0.2549985658140525 0 -0.29529200006252948 0.27158343417855851 0 -0.31493928155445272 0.27430993559415479 0 -0.29529200006252948 0.27158343417855851 0 -0.29860197381843362 0.29024571476828781 0 -0.29529200006252948 0.27158343417855851 0 -0.28356153015689661 0.26077246338072052 0 -0.28122021051934548 0.27759049133557667 0 -0.29529200006252948 0.27158343417855851 0 -0.28122021051934548 0.27759049133557667 0 -0.29860197381843362 0.29024571476828781 0 -0.29813700426351908 0.2549985658140525 0 -0.29529200006252948 0.27158343417855851 0 -0.28356153015689661 0.26077246338072052 0 -0.28520633826073721 0.24204505302591109 0 -0.29813700426351908 0.2549985658140525 0 -0.28356153015689661 0.26077246338072052 0 -0.28520633826073721 0.24204505302591109 0 -0.28356153015689661 0.26077246338072052 0 -0.26991196520069161 0.25166683223725428 0 -0.28356153015689661 0.26077246338072052 0 -0.26991196520069161 0.25166683223725428 0 -0.26982671458757052 0.26781375962876097 0 -0.28356153015689661 0.26077246338072052 0 -0.26982671458757052 0.26781375962876097 0 -0.28122021051934548 0.27759049133557667 0 -0.26982671458757052 0.26781375962876097 0 -0.28122021051934548 0.27759049133557667 0 -0.25982227492027221 0.287750399741656 0 -0.2546175921406465 0.26128861144859822 0 -0.25982227492027221 0.287750399741656 0 -0.26982671458757052 0.26781375962876097 0 -0.2546175921406465 0.26128861144859822 0 -0.25982227492027221 0.287750399741656 0 -0.2546175921406465 0.26128861144859822 0 -0.25982227492027221 0.287750399741656 0 -0.24164285362834059 0.26945109504960563 0 -0.25054816238852479 0.24059870715785611 0 -0.2546175921406465 0.26128861144859822 0 -0.26991196520069161 0.25166683223725428 0 -0.26982671458757052 0.26781375962876097 0 -0.2546175921406465 0.26128861144859822 0 -0.25993357060704247 0.2432609816545768 0 -0.26991196520069161 0.25166683223725428 0 -0.2546175921406465 0.26128861144859822 0 -0.26991196520069161 0.25166683223725428 0 -0.2546175921406465 0.26128861144859822 0 -0.25982227492027221 0.287750399741656 0 -0.26502695769989643 0.31421218803471418 0 -0.25040582964490582 0.29567583303740069 0 -0.26031873506221342 0.31817490468258641 0 -0.26502695769989643 0.31421218803471418 0 -0.25040582964490582 0.29567583303740069 0 -0.26031873506221342 0.31817490468258641 0 -0.25040582964490582 0.29567583303740069 0 -0.25982227492027221 0.287750399741656 0 -0.26502695769989643 0.31421218803471418 0 -0.25040582964490582 0.29567583303740069 0 -0.26031873506221342 0.31817490468258641 0 -0.2434150889916675 0.31528126182336752 0 -0.25040582964490582 0.29567583303740069 0 -0.25982227492027221 0.287750399741656 0 -0.2404929242275981 0.27317676139221531 0 -0.28122021051934548 0.27759049133557667 0 -0.25982227492027221 0.287750399741656 0 -0.27872696579211859 0.29653502721740232 0 -0.27872696579211859 0.29653502721740232 0 -0.2889634120026453 0.31287634220677663 0 -0.26502695769989643 0.31421218803471418 0 -0.25982227492027221 0.287750399741656 0 -0.27872696579211859 0.29653502721740232 0 -0.26502695769989643 0.31421218803471418 0 -0.27872696579211859 0.29653502721740232 0 -0.29860197381843362 0.29024571476828781 0 -0.2889634120026453 0.31287634220677663 0 -0.28122021051934548 0.27759049133557667 0 -0.27872696579211859 0.29653502721740232 0 -0.29860197381843362 0.29024571476828781 0 -0.31760133335066493 0.29423642541125972 0 -0.31493928155445272 0.27430993559415479 0 -0.29860197381843362 0.29024571476828781 0 -0.29860197381843362 0.29024571476828781 0 -0.2889634120026453 0.31287634220677663 0 -0.31331907053128433 0.313878567385664 0 -0.31760133335066493 0.29423642541125972 0 -0.29860197381843362 0.29024571476828781 0 -0.31331907053128433 0.313878567385664 0 -0.29891576475332582 0.33197597815543639 0 -0.2889634120026453 0.31287634220677663 0 -0.31331907053128433 0.313878567385664 0 -0.29891576475332582 0.33197597815543639 0 -0.31508677610875602 0.33246264155886579 0 -0.31331907053128433 0.313878567385664 0 -0.29891576475332582 0.33197597815543639 0 -0.30998113757288742 0.35016350933599311 0 -0.31508677610875602 0.33246264155886579 0 -0.29891576475332582 0.33197597815543639 0 -0.27956012110933898 0.33426516842927712 0 -0.28899367546018362 0.34990607578599969 0 -0.27956012110933898 0.33426516842927712 0 -0.27835705654663001 0.3466973614805422 0 -0.28899367546018362 0.34990607578599969 0 -0.29891576475332582 0.33197597815543639 0 -0.2889634120026453 0.31287634220677663 0 -0.27956012110933898 0.33426516842927712 0 -0.27023164047952081 0.34067397632777208 0 -0.26502695769989643 0.31421218803471418 0 -0.2889634120026453 0.31287634220677663 0 -0.27956012110933898 0.33426516842927712 0 -0.26502695769989643 0.31421218803471418 0 -0.27956012110933898 0.33426516842927712 0 -0.27023164047952081 0.34067397632777208 0 -0.26502695769989643 0.31421218803471418 0 -0.27956012110933898 0.33426516842927712 0 -0.27023164047952081 0.34067397632777208 0 -0.27835705654663001 0.3466973614805422 0 -0.27023164047952081 0.34067397632777208 0 -0.25008303346203908 0.33611797840414298 0 -0.26058904667577898 0.35313253120237981 0 -0.27023164047952081 0.34067397632777208 0 -0.25008303346203908 0.33611797840414298 0 -0.26031873506221342 0.31817490468258641 0 -0.27023164047952081 0.34067397632777208 0 -0.26031873506221342 0.31817490468258641 0 -0.27023164047952081 0.34067397632777208 0 -0.26031873506221342 0.31817490468258641 0 -0.26502695769989643 0.31421218803471418 0 -0.25008303346203908 0.33611797840414298 0 -0.26031873506221342 0.31817490468258641 0 -0.2434150889916675 0.31528126182336752 0 -0.2592717334901794 0.37344143954643821 0 -0.26058904667577898 0.35313253120237981 0 -0.245130999697667 0.35617292401417999 0 -0.2592717334901794 0.37344143954643821 0 -0.26058904667577898 0.35313253120237981 0 -0.2742317000365197 0.36101118680509853 0 -0.25008303346203908 0.33611797840414298 0 -0.26058904667577898 0.35313253120237981 0 -0.245130999697667 0.35617292401417999 0 -0.27023164047952081 0.34067397632777208 0 -0.27835705654663001 0.3466973614805422 0 -0.2742317000365197 0.36101118680509853 0 -0.27023164047952081 0.34067397632777208 0 -0.26058904667577898 0.35313253120237981 0 -0.2742317000365197 0.36101118680509853 0 -0.27023164047952081 0.34067397632777208 0 -0.2742317000365197 0.36101118680509853 0 -0.27835705654663001 0.3466973614805422 0 -0.2742317000365197 0.36101118680509853 0 -0.28899367546018362 0.34990607578599969 0 -0.2592717334901794 0.37344143954643821 0 -0.2742317000365197 0.36101118680509853 0 -0.27666944541277583 0.38068284486427251 0 -0.2742317000365197 0.36101118680509853 0 -0.2918056253057611 0.36977816091582622 0 -0.27666944541277583 0.38068284486427251 0 -0.2742317000365197 0.36101118680509853 0 -0.2918056253057611 0.36977816091582622 0 -0.28899367546018362 0.34990607578599969 0 -0.2918056253057611 0.36977816091582622 0 -0.28899367546018362 0.34990607578599969 0 -0.30998113757288742 0.35016350933599311 0 -0.29891576475332582 0.33197597815543639 0 -0.28899367546018362 0.34990607578599969 0 -0.30998113757288742 0.35016350933599311 0 -0.2918056253057611 0.36977816091582622 0 -0.30998113757288742 0.35016350933599311 0 -0.30751920709622288 0.37811993239733782 0 -0.30998113757288742 0.35016350933599311 0 -0.3241796865990505 0.37446232129606583 0 -0.30998113757288742 0.35016350933599311 0 -0.3241796865990505 0.37446232129606583 0 -0.3311814619238953 0.36217087484935062 0 -0.30998113757288742 0.35016350933599311 0 -0.3241796865990505 0.37446232129606583 0 -0.30751920709622288 0.37811993239733782 0 -0.3241796865990505 0.37446232129606583 0 -0.3311814619238953 0.36217087484935062 0 -0.3450213805631549 0.37637896488870742 0 -0.3311814619238953 0.36217087484935062 0 -0.34248144252655999 0.3449329262912757 0 -0.32671787735756741 0.34394441277493482 0 -0.30998113757288742 0.35016350933599311 0 -0.3311814619238953 0.36217087484935062 0 -0.32671787735756741 0.34394441277493482 0 -0.30998113757288742 0.35016350933599311 0 -0.32671787735756741 0.34394441277493482 0 -0.31508677610875602 0.33246264155886579 0 -0.32671787735756741 0.34394441277493482 0 -0.31508677610875602 0.33246264155886579 0 -0.33690407342490619 0.32509031088867912 0 -0.31508677610875602 0.33246264155886579 0 -0.31331907053128433 0.313878567385664 0 -0.33690407342490619 0.32509031088867912 0 -0.34248144252655999 0.3449329262912757 0 -0.32671787735756741 0.34394441277493482 0 -0.33690407342490619 0.32509031088867912 0 -0.34248144252655999 0.3449329262912757 0 -0.33690407342490619 0.32509031088867912 0 -0.35402019531300261 0.33435003863570822 0 -0.33690407342490619 0.32509031088867912 0 -0.35402019531300261 0.33435003863570822 0 -0.35820423278511537 0.31360051904281339 0 -0.35820423278511537 0.31360051904281339 0 -0.3736940231061725 0.31398947852622111 0 -0.371857819856382 0.33718357931137699 0 -0.35402019531300261 0.33435003863570822 0 -0.35820423278511537 0.31360051904281339 0 -0.371857819856382 0.33718357931137699 0 -0.35402019531300261 0.33435003863570822 0 -0.371857819856382 0.33718357931137699 0 -0.35941010751018809 0.3566911886622014 0 -0.38763875309648088 0.35121150247505228 0 -0.371857819856382 0.33718357931137699 0 -0.35941010751018809 0.3566911886622014 0 -0.38763875309648088 0.35121150247505228 0 -0.35941010751018809 0.3566911886622014 0 -0.37817844187468841 0.37049799817574158 0 -0.35941010751018809 0.3566911886622014 0 -0.36132744716974019 0.37598607000928502 0 -0.35941010751018809 0.3566911886622014 0 -0.3450213805631549 0.37637896488870742 0 -0.36132744716974019 0.37598607000928502 0 -0.3311814619238953 0.36217087484935062 0 -0.35941010751018809 0.3566911886622014 0 -0.3450213805631549 0.37637896488870742 0 -0.3311814619238953 0.36217087484935062 0 -0.35941010751018809 0.3566911886622014 0 -0.34248144252655999 0.3449329262912757 0 -0.35402019531300261 0.33435003863570822 0 -0.35941010751018809 0.3566911886622014 0 -0.3311814619238953 0.36217087484935062 0 -0.34248144252655999 0.3449329262912757 0 -0.35941010751018809 0.3566911886622014 0 -0.35813247438357998 0.40322770661363078 0 -0.35506690633984689 0.38909595593077778 0 -0.33837823562521357 0.3987611332561386 0 -0.3450213805631549 0.37637896488870742 0 -0.35506690633984689 0.38909595593077778 0 -0.36132744716974019 0.37598607000928502 0 -0.3450213805631549 0.37637896488870742 0 -0.35506690633984689 0.38909595593077778 0 -0.33837823562521357 0.3987611332561386 0 -0.37817844187468841 0.37049799817574158 0 -0.36132744716974019 0.37598607000928502 0 -0.36896039956082288 0.38726624238899698 0 -0.35506690633984689 0.38909595593077778 0 -0.36132744716974019 0.37598607000928502 0 -0.36896039956082288 0.38726624238899698 0 -0.35813247438357998 0.40322770661363078 0 -0.35506690633984689 0.38909595593077778 0 -0.36896039956082288 0.38726624238899698 0 -0.35813247438357998 0.40322770661363078 0 -0.36896039956082288 0.38726624238899698 0 -0.37495024184161951 0.39669027322643757 0 -0.35813247438357998 0.40322770661363078 0 -0.37495024184161951 0.39669027322643757 0 -0.37226667114234002 0.41030924202555608 0 -0.37226667114234002 0.41030924202555608 0 -0.37063698291958719 0.42934778893548009 0 -0.35257678465137682 0.42305994521621149 0 -0.37226667114234002 0.41030924202555608 0 -0.35257678465137682 0.42305994521621149 0 -0.35813247438357998 0.40322770661363078 0 -0.37226667114234002 0.41030924202555608 0 -0.35257678465137682 0.42305994521621149 0 -0.37063698291958719 0.42934778893548009 0 -0.35509229673206349 0.42736488897625841 0 -0.35257678465137682 0.42305994521621149 0 -0.38219330561030318 0.43733759585905729 0 -0.37063698291958719 0.42934778893548009 0 -0.37031446948010971 0.44164379239859503 0 -0.37063698291958719 0.42934778893548009 0 -0.35100800832540779 0.43373908660655719 0 -0.34797539811694939 0.44391372641119659 0 -0.35257678465137682 0.42305994521621149 0 -0.34703292232895172 0.42665001888350013 0 -0.33490384995054723 0.4214646834239163 0 -0.37063698291958719 0.42934778893548009 0 -0.35509229673206349 0.42736488897625841 0 -0.35100800832540779 0.43373908660655719 0 -0.37063698291958719 0.42934778893548009 0 -0.34797539811694939 0.44391372641119659 0 -0.35509229673206349 0.42736488897625841 0 -0.35257678465137682 0.42305994521621149 0 -0.35120601168128568 0.42714359628681298 0 -0.35509229673206349 0.42736488897625841 0 -0.35120601168128568 0.42714359628681298 0 -0.35100800832540779 0.43373908660655719 0 -0.35509229673206349 0.42736488897625841 0 -0.35257678465137682 0.42305994521621149 0 -0.35257678465137682 0.42305994521621149 0 -0.34703292232895172 0.42665001888350013 0 -0.35120601168128568 0.42714359628681298 0 -0.35257678465137682 0.42305994521621149 0 -0.34703292232895172 0.42665001888350013 0 -0.34703292232895172 0.42665001888350013 0 -0.35120601168128568 0.42714359628681298 0 -0.35100800832540779 0.43373908660655719 0 -0.34703292232895172 0.42665001888350013 0 -0.35100800832540779 0.43373908660655719 0 -0.3416144021158749 0.43307637903049229 0 -0.35100800832540779 0.43373908660655719 0 -0.3416144021158749 0.43307637903049229 0 -0.34797539811694939 0.44391372641119659 0 -0.35257678465137682 0.42305994521621149 0 -0.33837823562521357 0.3987611332561386 0 -0.35813247438357998 0.40322770661363078 0 -0.35257678465137682 0.42305994521621149 0 -0.33837823562521357 0.3987611332561386 0 -0.35257678465137682 0.42305994521621149 0 -0.33490384995054723 0.4214646834239163 0 -0.33837823562521357 0.3987611332561386 0 -0.33490384995054723 0.4214646834239163 0 -0.32139182098691871 0.40894936325787168 0 -0.33837823562521357 0.3987611332561386 0 -0.34703292232895172 0.42665001888350013 0 -0.33490384995054723 0.4214646834239163 0 -0.3416144021158749 0.43307637903049229 0 -0.33490384995054723 0.4214646834239163 0 -0.3416144021158749 0.43307637903049229 0 -0.32915885350338547 0.436077628681731 0 -0.32915885350338547 0.436077628681731 0 -0.31540425984898302 0.42282960227343241 0 -0.31037484696397899 0.44222133160263499 0 -0.33490384995054723 0.4214646834239163 0 -0.32915885350338547 0.436077628681731 0 -0.31540425984898302 0.42282960227343241 0 -0.31540425984898302 0.42282960227343241 0 -0.32139182098691871 0.40894936325787168 0 -0.30380921659141291 0.40737586576510598 0 -0.33490384995054723 0.4214646834239163 0 -0.31540425984898302 0.42282960227343241 0 -0.32139182098691871 0.40894936325787168 0 -0.32139182098691871 0.40894936325787168 0 -0.31446354291843659 0.3943155315707651 0 -0.30380921659141291 0.40737586576510598 0 -0.32139182098691871 0.40894936325787168 0 -0.31446354291843659 0.3943155315707651 0 -0.33837823562521357 0.3987611332561386 0 -0.3241796865990505 0.37446232129606583 0 -0.33837823562521357 0.3987611332561386 0 -0.3241796865990505 0.37446232129606583 0 -0.3450213805631549 0.37637896488870742 0 -0.33837823562521357 0.3987611332561386 0 -0.3241796865990505 0.37446232129606583 0 -0.31446354291843659 0.3943155315707651 0 -0.33837823562521357 0.3987611332561386 0 -0.3241796865990505 0.37446232129606583 0 -0.31446354291843659 0.3943155315707651 0 -0.30751920709622288 0.37811993239733782 0 -0.31446354291843659 0.3943155315707651 0 -0.30751920709622288 0.37811993239733782 0 -0.29017157169787189 0.39747123853798338 0 -0.31446354291843659 0.3943155315707651 0 -0.29017157169787189 0.39747123853798338 0 -0.30380921659141291 0.40737586576510598 0 -0.31446354291843659 0.3943155315707651 0 -0.29017157169787189 0.39747123853798338 0 -0.2918056253057611 0.36977816091582622 0 -0.29017157169787189 0.39747123853798338 0 -0.27666944541277583 0.38068284486427251 0 -0.2918056253057611 0.36977816091582622 0 -0.30751920709622288 0.37811993239733782 0 -0.29017157169787189 0.39747123853798338 0 -0.2592717334901794 0.37344143954643821 0 -0.27666944541277583 0.38068284486427251 0 -0.26587960047730708 0.40062694550520161 0 -0.29017157169787189 0.39747123853798338 0 -0.26587960047730708 0.40062694550520161 0 -0.29017157169787189 0.39747123853798338 0 -0.27666944541277583 0.38068284486427251 0 -0.26587960047730708 0.40062694550520161 0 -0.26587960047730708 0.40062694550520161 0 -0.24390026663595221 0.4098265108577458 0 -0.24158762925674229 0.40378265247242029 0 -0.26587960047730708 0.40062694550520161 0 -0.24855740320059311 0.38849035142128929 0 -0.24158762925674229 0.40378265247242029 0 -0.26587960047730708 0.40062694550520161 0 -0.24158762925674229 0.40378265247242029 0 -0.2592717334901794 0.37344143954643821 0 -0.24855740320059311 0.38849035142128929 0 -0.24298804513369371 0.37489662163126852 0 -0.2592717334901794 0.37344143954643821 0 -0.26587960047730708 0.40062694550520161 0 -0.24855740320059311 0.38849035142128929 0 -0.26486291021761232 0.42723466671622251 0 -0.25440434670568679 0.43727792757369249 0 -0.24390026663595221 0.4098265108577458 0 -0.26486291021761232 0.42723466671622251 0 -0.25440434670568679 0.43727792757369249 0 -0.268601175871508 0.43936588513269881 0 -0.26587960047730708 0.40062694550520161 0 -0.26486291021761232 0.42723466671622251 0 -0.24390026663595221 0.4098265108577458 0 -0.26486291021761232 0.42723466671622251 0 -0.24390026663595221 0.4098265108577458 0 -0.26587960047730708 0.40062694550520161 0 -0.26486291021761232 0.42723466671622251 0 -0.29212211282505068 0.42111929002973092 0 -0.26486291021761232 0.42723466671622251 0 -0.28582555379927221 0.44464282257469973 0 -0.26486291021761232 0.42723466671622251 0 -0.29212211282505068 0.42111929002973092 0 -0.28582555379927221 0.44464282257469973 0 -0.26486291021761232 0.42723466671622251 0 -0.28582555379927221 0.44464282257469973 0 -0.268601175871508 0.43936588513269881 0 -0.29212211282505068 0.42111929002973092 0 -0.31037484696397899 0.44222133160263499 0 -0.28582555379927221 0.44464282257469973 0 -0.29017157169787189 0.39747123853798338 0 -0.26587960047730708 0.40062694550520161 0 -0.29212211282505068 0.42111929002973092 0 -0.29017157169787189 0.39747123853798338 0 -0.29212211282505068 0.42111929002973092 0 -0.30380921659141291 0.40737586576510598 0 -0.31540425984898302 0.42282960227343241 0 -0.29212211282505068 0.42111929002973092 0 -0.30380921659141291 0.40737586576510598 0 -0.31540425984898302 0.42282960227343241 0 -0.29212211282505068 0.42111929002973092 0 -0.31037484696397899 0.44222133160263499 0 -0.31037484696397899 0.44222133160263499 0 -0.30678819738092977 0.46205097843317938 0 -0.28582555379927221 0.44464282257469973 0 -0.30678819738092977 0.46205097843317938 0 -0.28923783613749188 0.46977947950295129 0 -0.30678819738092977 0.46205097843317938 0 -0.28923783613749188 0.46977947950295129 0 -0.30891410950205461 0.46909475087526598 0 -0.30891410950205461 0.46909475087526598 0 -0.31325745709166991 0.46742329137141808 0 -0.30678819738092977 0.46205097843317938 0 -0.30891410950205461 0.46909475087526598 0 -0.31325745709166991 0.46742329137141808 0 -0.30891410950205461 0.46909475087526598 0 -0.31525562008559699 0.46908263994992622 0 -0.31325745709166991 0.46742329137141808 0 -0.30678819738092977 0.46205097843317938 0 -0.31325745709166991 0.46742329137141808 0 -0.30678819738092977 0.46205097843317938 0 -0.29206160947224158 0.45498445755246653 0 -0.28582555379927221 0.44464282257469973 0 -0.30678819738092977 0.46205097843317938 0 -0.28582555379927221 0.44464282257469973 0 -0.30678819738092977 0.46205097843317938 0 -0.29206160947224158 0.45498445755246653 0 -0.28923783613749188 0.46977947950295129 0 -0.29206160947224158 0.45498445755246653 0 -0.28923783613749188 0.46977947950295129 0 -0.29206160947224158 0.45498445755246653 0 -0.27802275223802481 0.45856884181986929 0 -0.28923783613749188 0.46977947950295129 0 -0.29206160947224158 0.45498445755246653 0 -0.28582555379927221 0.44464282257469973 0 -0.27802275223802481 0.45856884181986929 0 -0.28582555379927221 0.44464282257469973 0 -0.26931189276346068 0.44830812366618028 0 -0.27802275223802481 0.45856884181986929 0 -0.28582555379927221 0.44464282257469973 0 -0.268601175871508 0.43936588513269881 0 -0.26931189276346068 0.44830812366618028 0 -0.26931189276346068 0.44830812366618028 0 -0.27802275223802481 0.45856884181986929 0 -0.26490842677542209 0.46472934428963919 0 -0.27802275223802481 0.45856884181986929 0 -0.26490842677542209 0.46472934428963919 0 -0.27188202748178247 0.47742230712921863 0 -0.27802275223802481 0.45856884181986929 0 -0.27188202748178247 0.47742230712921863 0 -0.28923783613749188 0.46977947950295129 0 -0.26190074499161498 0.45925492802712919 0 -0.25374771190227041 0.46769530379170138 0 -0.2470835307717511 0.45204209071788648 0 -0.25440434670568679 0.43727792757369249 0 -0.26190074499161498 0.45925492802712919 0 -0.26490842677542209 0.46472934428963919 0 -0.26190074499161498 0.45925492802712919 0 -0.26490842677542209 0.46472934428963919 0 -0.25374771190227041 0.46769530379170138 0 -0.26190074499161498 0.45925492802712919 0 -0.26490842677542209 0.46472934428963919 0 -0.25440434670568679 0.43727792757369249 0 -0.26190074499161498 0.45925492802712919 0 -0.2470835307717511 0.45204209071788648 0 -0.25440434670568679 0.43727792757369249 0 -0.26490842677542209 0.46472934428963919 0 -0.25440434670568679 0.43727792757369249 0 -0.26931189276346068 0.44830812366618028 0 -0.26490842677542209 0.46472934428963919 0 -0.25440434670568679 0.43727792757369249 0 -0.268601175871508 0.43936588513269881 0 -0.26931189276346068 0.44830812366618028 0 -0.25847810702610519 0.48850414280974469 0 -0.27007053304879808 0.47822001929417107 0 -0.24534086517324849 0.48911000964708612 0 -0.25847810702610519 0.48850414280974469 0 -0.26092149103342371 0.50000000000000044 0 -0.24271601658602809 0.5 0 -0.25847810702610519 0.48850414280974469 0 -0.27201266959149478 0.48329560889354789 0 -0.25847810702610519 0.48850414280974469 0 -0.26092149103342371 0.50000000000000044 0 -0.26665442019254082 0.49000718405533439 0 -0.26490842677542209 0.46472934428963919 0 -0.25374771190227041 0.46769530379170138 0 -0.27007053304879808 0.47822001929417107 0 -0.25374771190227041 0.46769530379170138 0 -0.27007053304879808 0.47822001929417107 0 -0.24534086517324849 0.48911000964708612 0 -0.27007053304879808 0.47822001929417107 0 -0.24534086517324849 0.48911000964708612 0 -0.27188202748178247 0.47742230712921863 0 -0.28923783613749188 0.46977947950295129 0 -0.25847810702610519 0.48850414280974469 0 -0.27007053304879808 0.47822001929417107 0 -0.27201266959149478 0.48329560889354789 0 -0.27188202748178247 0.47742230712921863 0 -0.27456848518075422 0.48231204905436859 0 -0.28781911866264892 0.47721278015904062 0 -0.27007053304879808 0.47822001929417107 0 -0.27188202748178247 0.47742230712921863 0 -0.27210308472192962 0.4803444769229962 0 -0.27188202748178247 0.47742230712921863 0 -0.27456848518075422 0.48231204905436859 0 -0.27188202748178247 0.47742230712921863 0 -0.27210308472192962 0.4803444769229962 0 -0.27456848518075422 0.48231204905436859 0 -0.27007053304879808 0.47822001929417107 0 -0.27188202748178247 0.47742230712921863 0 -0.27007053304879808 0.47822001929417107 0 -0.27201266959149478 0.48329560889354789 0 -0.27210308472192962 0.4803444769229962 0 -0.27201266959149478 0.48329560889354789 0 -0.27456848518075422 0.48231204905436859 0 -0.27007053304879808 0.47822001929417107 0 -0.27210308472192962 0.4803444769229962 0 -0.27201266959149478 0.48329560889354789 0 -0.27201266959149478 0.48329560889354789 0 -0.27456848518075422 0.48231204905436859 0 -0.26490842677542209 0.46472934428963919 0 -0.27188202748178247 0.47742230712921863 0 -0.26490842677542209 0.46472934428963919 0 -0.27007053304879808 0.47822001929417107 0 -0.27188202748178247 0.47742230712921863 0 -0.26490842677542209 0.46472934428963919 0 -0.27007053304879808 0.47822001929417107 0 -0.27456848518075422 0.48231204905436859 0 -0.28781911866264892 0.47721278015904062 0 -0.26092149103342371 0.50000000000000044 0 -0.27494821351356852 0.49096737443205551 0 -0.27840448038632598 0.49999999999999989 0 -0.27456848518075422 0.48231204905436859 0 -0.27818028796098981 0.48888605298774751 0 -0.28662963421400323 0.4834450256126463 0 -0.27818028796098981 0.48888605298774751 0 -0.27494821351356852 0.49096737443205551 0 -0.27201266959149478 0.48329560889354789 0 -0.27494821351356852 0.49096737443205551 0 -0.27201266959149478 0.48329560889354789 0 -0.27456848518075422 0.48231204905436859 0 -0.27818028796098981 0.48888605298774751 0 -0.27201266959149478 0.48329560889354789 0 -0.27818028796098981 0.48888605298774751 0 -0.27494821351356852 0.49096737443205551 0 -0.27456848518075422 0.48231204905436859 0 -0.27818028796098981 0.48888605298774751 0 -0.27201266959149478 0.48329560889354789 0 -0.27494821351356852 0.49096737443205551 0 -0.26665442019254082 0.49000718405533439 0 -0.25847810702610519 0.48850414280974469 0 -0.27201266959149478 0.48329560889354789 0 -0.26665442019254082 0.49000718405533439 0 -0.26092149103342371 0.50000000000000044 0 -0.27494821351356852 0.49096737443205551 0 -0.26092149103342371 0.50000000000000044 0 -0.27494821351356852 0.49096737443205551 0 -0.26665442019254082 0.49000718405533439 0 -0.27494821351356852 0.49096737443205551 0 -0.27840448038632598 0.49999999999999989 0 -0.27818028796098981 0.48888605298774751 0 -0.27840448038632598 0.49999999999999989 0 -0.28368044823936328 0.49889714094141469 0 -0.27818028796098981 0.48888605298774751 0 -0.27494821351356852 0.49096737443205551 0 -0.27840448038632598 0.49999999999999989 0 -0.27818028796098981 0.48888605298774751 0 -0.28368044823936328 0.49889714094141469 0 -0.28368044823936328 0.49889714094141469 0 -0.29224888689071188 0.49344190183271952 0 -0.30769467815930068 0.5 0 -0.27818028796098981 0.48888605298774751 0 -0.28368044823936328 0.49889714094141469 0 -0.28662963421400323 0.4834450256126463 0 -0.28368044823936328 0.49889714094141469 0 -0.28662963421400323 0.4834450256126463 0 -0.28368044823936328 0.49889714094141469 0 -0.29224888689071188 0.49344190183271952 0 -0.28662963421400323 0.4834450256126463 0 -0.27818028796098981 0.48888605298774751 0 -0.28662963421400323 0.4834450256126463 0 -0.29224888689071188 0.49344190183271952 0 -0.28662963421400323 0.4834450256126463 0 -0.30094150763636901 0.48708058862929682 0 -0.28781911866264892 0.47721278015904062 0 -0.28923783613749188 0.46977947950295129 0 -0.30891410950205461 0.46909475087526598 0 -0.27188202748178247 0.47742230712921863 0 -0.28781911866264892 0.47721278015904062 0 -0.28923783613749188 0.46977947950295129 0 -0.28781911866264892 0.47721278015904062 0 -0.28923783613749188 0.46977947950295129 0 -0.27456848518075422 0.48231204905436859 0 -0.28781911866264892 0.47721278015904062 0 -0.28662963421400323 0.4834450256126463 0 -0.28781911866264892 0.47721278015904062 0 -0.28662963421400323 0.4834450256126463 0 -0.28662963421400323 0.4834450256126463 0 -0.30182933433063519 0.4736570512592001 0 -0.30094150763636901 0.48708058862929682 0 -0.28781911866264892 0.47721278015904062 0 -0.28662963421400323 0.4834450256126463 0 -0.30182933433063519 0.4736570512592001 0 -0.28662963421400323 0.4834450256126463 0 -0.30182933433063519 0.4736570512592001 0 -0.28781911866264892 0.47721278015904062 0 -0.30182933433063519 0.4736570512592001 0 -0.30182933433063519 0.4736570512592001 0 -0.31729910476423501 0.48596558745179752 0 -0.31525562008559699 0.46908263994992622 0 -0.30182933433063519 0.4736570512592001 0 -0.30094150763636901 0.48708058862929682 0 -0.31729910476423501 0.48596558745179752 0 -0.28781911866264892 0.47721278015904062 0 -0.30182933433063519 0.4736570512592001 0 -0.30891410950205461 0.46909475087526598 0 -0.28781911866264892 0.47721278015904062 0 -0.30891410950205461 0.46909475087526598 0 -0.30182933433063519 0.4736570512592001 0 -0.31525562008559699 0.46908263994992622 0 -0.30182933433063519 0.4736570512592001 0 -0.30891410950205461 0.46909475087526598 0 -0.31525562008559699 0.46908263994992622 0 -0.30182933433063519 0.4736570512592001 0 -0.30891410950205461 0.46909475087526598 0 -0.30094150763636901 0.48708058862929682 0 -0.30769467815930068 0.5 0 -0.31729910476423501 0.48596558745179752 0 -0.29224888689071188 0.49344190183271952 0 -0.30094150763636901 0.48708058862929682 0 -0.30769467815930068 0.5 0 -0.31729910476423501 0.48596558745179752 0 -0.33427013892530733 0.48487300084816443 0 -0.33110298975999741 0.5 0 -0.30769467815930068 0.5 0 -0.31729910476423501 0.48596558745179752 0 -0.33110298975999741 0.5 0 -0.33427013892530733 0.48487300084816443 0 -0.33110298975999741 0.5 0 -0.35451130136069398 0.4999999999999995 0 -0.33427013892530733 0.48487300084816443 0 -0.33945755539216582 0.46083690404104272 0 -0.34969032548814538 0.47637365565428952 0 -0.33427013892530733 0.48487300084816443 0 -0.31525562008559699 0.46908263994992622 0 -0.33945755539216582 0.46083690404104272 0 -0.31729910476423501 0.48596558745179752 0 -0.33427013892530733 0.48487300084816443 0 -0.31525562008559699 0.46908263994992622 0 -0.33427013892530733 0.48487300084816443 0 -0.31525562008559699 0.46908263994992622 0 -0.31525562008559699 0.46908263994992622 0 -0.31325745709166991 0.46742329137141808 0 -0.33361387207467458 0.45958948977355291 0 -0.31325745709166991 0.46742329137141808 0 -0.33024094015483157 0.45536115943149169 0 -0.33361387207467458 0.45958948977355291 0 -0.31525562008559699 0.46908263994992622 0 -0.31325745709166991 0.46742329137141808 0 -0.30678819738092977 0.46205097843317938 0 -0.32738179774893988 0.45298235242218882 0 -0.30678819738092977 0.46205097843317938 0 -0.31325745709166991 0.46742329137141808 0 -0.32738179774893988 0.45298235242218882 0 -0.31325745709166991 0.46742329137141808 0 -0.33024094015483157 0.45536115943149169 0 -0.31325745709166991 0.46742329137141808 0 -0.32738179774893988 0.45298235242218882 0 -0.33024094015483157 0.45536115943149169 0 -0.31325745709166991 0.46742329137141808 0 -0.33361387207467458 0.45958948977355291 0 -0.31525562008559699 0.46908263994992622 0 -0.33945755539216582 0.46083690404104272 0 -0.31037484696397899 0.44222133160263499 0 -0.30678819738092977 0.46205097843317938 0 -0.32738179774893988 0.45298235242218882 0 -0.32915885350338547 0.436077628681731 0 -0.31037484696397899 0.44222133160263499 0 -0.32738179774893988 0.45298235242218882 0 -0.32915885350338547 0.436077628681731 0 -0.32738179774893988 0.45298235242218882 0 -0.34797539811694939 0.44391372641119659 0 -0.32738179774893988 0.45298235242218882 0 -0.34797539811694939 0.44391372641119659 0 -0.33024094015483157 0.45536115943149169 0 -0.33361387207467458 0.45958948977355291 0 -0.34797539811694939 0.44391372641119659 0 -0.3416144021158749 0.43307637903049229 0 -0.32915885350338547 0.436077628681731 0 -0.34797539811694939 0.44391372641119659 0 -0.33024094015483157 0.45536115943149169 0 -0.34797539811694939 0.44391372641119659 0 -0.32738179774893988 0.45298235242218882 0 -0.33024094015483157 0.45536115943149169 0 -0.34797539811694939 0.44391372641119659 0 -0.31525562008559699 0.46908263994992622 0 -0.33361387207467458 0.45958948977355291 0 -0.33945755539216582 0.46083690404104272 0 -0.33361387207467458 0.45958948977355291 0 -0.33945755539216582 0.46083690404104272 0 -0.35397028705767941 0.45175568817568751 0 -0.33945755539216582 0.46083690404104272 0 -0.35397028705767941 0.45175568817568751 0 -0.3636594906987341 0.45259116813215772 0 -0.33945755539216582 0.46083690404104272 0 -0.35903601978900862 0.4668294320101527 0 -0.3636594906987341 0.45259116813215772 0 -0.33945755539216582 0.46083690404104272 0 -0.35903601978900862 0.4668294320101527 0 -0.34969032548814538 0.47637365565428952 0 -0.33361387207467458 0.45958948977355291 0 -0.35397028705767941 0.45175568817568751 0 -0.33945755539216582 0.46083690404104272 0 -0.3636594906987341 0.45259116813215772 0 -0.35397028705767941 0.45175568817568751 0 -0.34797539811694939 0.44391372641119659 0 -0.3636594906987341 0.45259116813215772 0 -0.33361387207467458 0.45958948977355291 0 -0.35397028705767941 0.45175568817568751 0 -0.34797539811694939 0.44391372641119659 0 -0.38786142600530288 0.44434543222327372 0 -0.3636594906987341 0.45259116813215772 0 -0.37031446948010971 0.44164379239859503 0 -0.34797539811694939 0.44391372641119659 0 -0.3636594906987341 0.45259116813215772 0 -0.37031446948010971 0.44164379239859503 0 -0.37063698291958719 0.42934778893548009 0 -0.34797539811694939 0.44391372641119659 0 -0.37031446948010971 0.44164379239859503 0 -0.37674471779043378 0.46289695481551602 0 -0.35903601978900862 0.4668294320101527 0 -0.3636594906987341 0.45259116813215772 0 -0.37674471779043378 0.46289695481551602 0 -0.35903601978900862 0.4668294320101527 0 -0.36562800957556379 0.48144847740775781 0 -0.37674471779043378 0.46289695481551602 0 -0.36562800957556379 0.48144847740775781 0 -0.36562800957556379 0.48144847740775781 0 -0.35451130136069398 0.4999999999999995 0 -0.37984386551400101 0.5 0 -0.36562800957556379 0.48144847740775781 0 -0.35451130136069398 0.4999999999999995 0 -0.33427013892530733 0.48487300084816443 0 -0.35451130136069398 0.4999999999999995 0 -0.34969032548814538 0.47637365565428952 0 -0.36562800957556379 0.48144847740775781 0 -0.35451130136069398 0.4999999999999995 0 -0.34969032548814538 0.47637365565428952 0 -0.35903601978900862 0.4668294320101527 0 -0.36562800957556379 0.48144847740775781 0 -0.34969032548814538 0.47637365565428952 0 -0.13298062755884579 0.48255116261061692 0 -0.15843735091332889 0.4710522502620903 0 -0.13298062755884579 0.48255116261061692 0 -0.14150291950411281 0.46425469992345519 0 -0.15843735091332889 0.4710522502620903 0 -0.13975760046378269 0.49999999999999878 0 -0.15843735091332889 0.4710522502620903 0 -0.16099880066542119 0.50000000000000022 0 -0.13975760046378269 0.49999999999999878 0 -0.13298062755884579 0.48255116261061692 0 -0.15843735091332889 0.4710522502620903 0 -0.13975760046378269 0.49999999999999878 0 -0.13298062755884579 0.48255116261061692 0 -0.13975760046378269 0.49999999999999878 0 -0.13298062755884579 0.48255116261061692 0 -0.11380605494256869 0.5 0 -0.13298062755884579 0.48255116261061692 0 -0.12544051825853689 0.4631374593356033 0 -0.14150291950411281 0.46425469992345519 0 -0.13298062755884579 0.48255116261061692 0 -0.12544051825853689 0.4631374593356033 0 -0.1336307511693739 0.45491465667522191 0 -0.12544051825853689 0.4631374593356033 0 -0.14150291950411281 0.46425469992345519 0 -0.1336307511693739 0.45491465667522191 0 -0.13175207046494611 0.44346192959665548 0 -0.11475987009784661 0.45084407402711402 0 -0.13175207046494611 0.44346192959665548 0 -0.15702534962047851 0.44961797073374349 0 -0.14544522351027661 0.43702334659483638 0 -0.1336307511693739 0.45491465667522191 0 -0.13175207046494611 0.44346192959665548 0 -0.15702534962047851 0.44961797073374349 0 -0.15702534962047851 0.44961797073374349 0 -0.14544522351027661 0.43702334659483638 0 -0.1556699124179855 0.4290423380990836 0 -0.13175207046494611 0.44346192959665548 0 -0.15702534962047851 0.44961797073374349 0 -0.1336307511693739 0.45491465667522191 0 -0.14150291950411281 0.46425469992345519 0 -0.15702534962047851 0.44961797073374349 0 -0.14150291950411281 0.46425469992345519 0 -0.15702534962047851 0.44961797073374349 0 -0.15843735091332889 0.4710522502620903 0 -0.15702534962047851 0.44961797073374349 0 -0.15843735091332889 0.4710522502620903 0 -0.16426353778385031 0.46842053638370362 0 -0.16193071402987511 0.45081281469960982 0 -0.15843735091332889 0.4710522502620903 0 -0.15702534962047851 0.44961797073374349 0 -0.16193071402987511 0.45081281469960982 0 -0.15843735091332889 0.4710522502620903 0 -0.16426353778385031 0.46842053638370362 0 -0.16193071402987511 0.45081281469960982 0 -0.17220307999619611 0.44534927840499378 0 -0.16426353778385031 0.46842053638370362 0 -0.17220307999619611 0.44534927840499378 0 -0.15702534962047851 0.44961797073374349 0 -0.1556699124179855 0.4290423380990836 0 -0.16306062424848339 0.44050736484390751 0 -0.15702534962047851 0.44961797073374349 0 -0.1556699124179855 0.4290423380990836 0 -0.16306062424848339 0.44050736484390751 0 -0.15702534962047851 0.44961797073374349 0 -0.16193071402987511 0.45081281469960982 0 -0.15702534962047851 0.44961797073374349 0 -0.16193071402987511 0.45081281469960982 0 -0.16306062424848339 0.44050736484390751 0 -0.16193071402987511 0.45081281469960982 0 -0.17220307999619611 0.44534927840499378 0 -0.16306062424848339 0.44050736484390751 0 -0.17220307999619611 0.44534927840499378 0 -0.16780974434499221 0.43040982398245581 0 -0.17220307999619611 0.44534927840499378 0 -0.18281758700689349 0.4600395918781951 0 -0.19105692089556489 0.43334490180876922 0 -0.18281758700689349 0.4600395918781951 0 -0.19105692089556489 0.43334490180876922 0 -0.18281758700689349 0.4600395918781951 0 -0.17801000380965989 0.47561572280906489 0 -0.19482622675472999 0.46587529032893948 0 -0.16426353778385031 0.46842053638370362 0 -0.17220307999619611 0.44534927840499378 0 -0.18281758700689349 0.4600395918781951 0 -0.16426353778385031 0.46842053638370362 0 -0.18281758700689349 0.4600395918781951 0 -0.17801000380965989 0.47561572280906489 0 -0.16426353778385031 0.46842053638370362 0 -0.18281758700689349 0.4600395918781951 0 -0.18281758700689349 0.4600395918781951 0 -0.17801000380965989 0.47561572280906489 0 -0.17801000380965989 0.47561572280906489 0 -0.17320242061242691 0.49119185373993512 0 -0.190689979325044 0.47856994519631457 0 -0.17801000380965989 0.47561572280906489 0 -0.17014513666291531 0.48171822366538508 0 -0.17320242061242691 0.49119185373993512 0 -0.17801000380965989 0.47561572280906489 0 -0.17320242061242691 0.49119185373993512 0 -0.16116749874829769 0.47741721571243328 0 -0.15843735091332889 0.4710522502620903 0 -0.16099880066542119 0.50000000000000022 0 -0.16426353778385031 0.46842053638370362 0 -0.17801000380965989 0.47561572280906489 0 -0.17014513666291531 0.48171822366538508 0 -0.16426353778385031 0.46842053638370362 0 -0.17014513666291531 0.48171822366538508 0 -0.16116749874829769 0.47741721571243328 0 -0.16426353778385031 0.46842053638370362 0 -0.16116749874829769 0.47741721571243328 0 -0.15843735091332889 0.4710522502620903 0 -0.16426353778385031 0.46842053638370362 0 -0.16116749874829769 0.47741721571243328 0 -0.16426353778385031 0.46842053638370362 0 -0.15843735091332889 0.4710522502620903 0 -0.17014513666291531 0.48171822366538508 0 -0.16116749874829769 0.47741721571243328 0 -0.16099880066542119 0.50000000000000022 0 -0.17014513666291531 0.48171822366538508 0 -0.16099880066542119 0.50000000000000022 0 -0.17320242061242691 0.49119185373993512 0 -0.15843735091332889 0.4710522502620903 0 -0.16099880066542119 0.50000000000000022 0 -0.17048378039640921 0.499999999999996 0 -0.17320242061242691 0.49119185373993512 0 -0.16099880066542119 0.50000000000000022 0 -0.17048378039640921 0.499999999999996 0 -0.17320242061242691 0.49119185373993512 0 -0.16099880066542119 0.50000000000000022 0 -0.17320242061242691 0.49119185373993512 0 -0.17320242061242691 0.49119185373993512 0 -0.190689979325044 0.47856994519631457 0 -0.17048378039640921 0.499999999999996 0 -0.17320242061242691 0.49119185373993512 0 -0.18581873262730181 0.49118729788902749 0 -0.17320242061242691 0.49119185373993512 0 -0.18581873262730181 0.49118729788902749 0 -0.190689979325044 0.47856994519631457 0 -0.17048378039640921 0.499999999999996 0 -0.18581873262730181 0.49118729788902749 0 -0.19554748884705389 0.5 0 -0.18581873262730181 0.49118729788902749 0 -0.19487595816744871 0.48827984865781948 0 -0.19554748884705389 0.5 0 -0.19487595816744871 0.48827984865781948 0 -0.19554748884705389 0.5 0 -0.20744763187039511 0.48336215154593609 0 -0.18581873262730181 0.49118729788902749 0 -0.19487595816744871 0.48827984865781948 0 -0.190689979325044 0.47856994519631457 0 -0.190689979325044 0.47856994519631457 0 -0.20817753803766101 0.46594803665269391 0 -0.190689979325044 0.47856994519631457 0 -0.20817753803766101 0.46594803665269391 0 -0.19482622675472999 0.46587529032893948 0 -0.19487595816744871 0.48827984865781948 0 -0.190689979325044 0.47856994519631457 0 -0.20744763187039511 0.48336215154593609 0 -0.17801000380965989 0.47561572280906489 0 -0.190689979325044 0.47856994519631457 0 -0.19482622675472999 0.46587529032893948 0 -0.190689979325044 0.47856994519631457 0 -0.20744763187039511 0.48336215154593609 0 -0.20817753803766101 0.46594803665269391 0 -0.20744763187039511 0.48336215154593609 0 -0.2232475932131088 0.47874498222143241 0 -0.20817753803766101 0.46594803665269391 0 -0.2232475932131088 0.47874498222143241 0 -0.22334275735617259 0.46647783610587229 0 -0.20817753803766101 0.46594803665269391 0 -0.19554748884705389 0.5 0 -0.20744763187039511 0.48336215154593609 0 -0.22061119729769851 0.50000000000000044 0 -0.20744763187039511 0.48336215154593609 0 -0.22061119729769851 0.50000000000000044 0 -0.2232475932131088 0.47874498222143241 0 -0.22061119729769851 0.50000000000000044 0 -0.22451054213863281 0.50000000000000233 0 -0.24534086517324849 0.48911000964708612 0 -0.22061119729769851 0.50000000000000044 0 -0.2232475932131088 0.47874498222143241 0 -0.24534086517324849 0.48911000964708612 0 -0.22061119729769851 0.50000000000000044 0 -0.24534086517324849 0.48911000964708612 0 -0.22451054213863281 0.50000000000000233 0 -0.24148255890114151 0.49421753813106339 0 -0.2232475932131088 0.47874498222143241 0 -0.23628080142364249 0.46789219744028959 0 -0.22334275735617259 0.46647783610587229 0 -0.2232475932131088 0.47874498222143241 0 -0.24534086517324849 0.48911000964708612 0 -0.23628080142364249 0.46789219744028959 0 -0.25374771190227041 0.46769530379170138 0 -0.24534086517324849 0.48911000964708612 0 -0.23628080142364249 0.46789219744028959 0 -0.22451054213863281 0.50000000000000233 0 -0.24534086517324849 0.48911000964708612 0 -0.24148255890114151 0.49421753813106339 0 -0.25847810702610519 0.48850414280974469 0 -0.24534086517324849 0.48911000964708612 0 -0.24148255890114151 0.49421753813106339 0 -0.22451054213863281 0.50000000000000233 0 -0.24271601658602809 0.5 0 -0.24148255890114151 0.49421753813106339 0 -0.25847810702610519 0.48850414280974469 0 -0.24271601658602809 0.5 0 -0.24148255890114151 0.49421753813106339 0 -0.25847810702610519 0.48850414280974469 0 -0.24148255890114151 0.49421753813106339 0 -0.25440434670568679 0.43727792757369249 0 -0.2470835307717511 0.45204209071788648 0 -0.23583124119127399 0.4374763133559072 0 -0.2470835307717511 0.45204209071788648 0 -0.2256650967502781 0.4533261281090733 0 -0.23583124119127399 0.4374763133559072 0 -0.2470835307717511 0.45204209071788648 0 -0.23628080142364249 0.46789219744028959 0 -0.2256650967502781 0.4533261281090733 0 -0.25374771190227041 0.46769530379170138 0 -0.2470835307717511 0.45204209071788648 0 -0.23628080142364249 0.46789219744028959 0 -0.22334275735617259 0.46647783610587229 0 -0.2256650967502781 0.4533261281090733 0 -0.20817753803766101 0.46594803665269391 0 -0.23628080142364249 0.46789219744028959 0 -0.22334275735617259 0.46647783610587229 0 -0.2256650967502781 0.4533261281090733 0 -0.2256650967502781 0.4533261281090733 0 -0.22084070426585289 0.43538371924467612 0 -0.23583124119127399 0.4374763133559072 0 -0.2256650967502781 0.4533261281090733 0 -0.20831066890565611 0.44852425621752878 0 -0.22084070426585289 0.43538371924467612 0 -0.2256650967502781 0.4533261281090733 0 -0.20831066890565611 0.44852425621752878 0 -0.20817753803766101 0.46594803665269391 0 -0.2256650967502781 0.4533261281090733 0 -0.20817753803766101 0.46594803665269391 0 -0.20831066890565611 0.44852425621752878 0 -0.20817753803766101 0.46594803665269391 0 -0.19482622675472999 0.46587529032893948 0 -0.18281758700689349 0.4600395918781951 0 -0.20831066890565611 0.44852425621752878 0 -0.19482622675472999 0.46587529032893948 0 -0.18281758700689349 0.4600395918781951 0 -0.20831066890565611 0.44852425621752878 0 -0.18281758700689349 0.4600395918781951 0 -0.20831066890565611 0.44852425621752878 0 -0.19105692089556489 0.43334490180876922 0 -0.20831066890565611 0.44852425621752878 0 -0.19105692089556489 0.43334490180876922 0 -0.20810391325395439 0.42398758438242701 0 -0.19105692089556489 0.43334490180876922 0 -0.1992962547842371 0.40665021173934351 0 -0.19105692089556489 0.43334490180876922 0 -0.1992962547842371 0.40665021173934351 0 -0.18014262220854191 0.42227802042628387 0 -0.1992962547842371 0.40665021173934351 0 -0.18808216442088779 0.39920676244757408 0 -0.18014262220854191 0.42227802042628387 0 -0.19105692089556489 0.43334490180876922 0 -0.1992962547842371 0.40665021173934351 0 -0.20810391325395439 0.42398758438242701 0 -0.1992962547842371 0.40665021173934351 0 -0.21742618678061951 0.40692140278904287 0 -0.20810391325395439 0.42398758438242701 0 -0.21742618678061951 0.40692140278904287 0 -0.20810391325395439 0.42398758438242701 0 -0.22035716728969429 0.42060188859009112 0 -0.20831066890565611 0.44852425621752878 0 -0.20810391325395439 0.42398758438242701 0 -0.22084070426585289 0.43538371924467612 0 -0.20810391325395439 0.42398758438242701 0 -0.22084070426585289 0.43538371924467612 0 -0.22035716728969429 0.42060188859009112 0 -0.22084070426585289 0.43538371924467612 0 -0.22806234900785671 0.42609527632417488 0 -0.23583124119127399 0.4374763133559072 0 -0.22806234900785671 0.42609527632417488 0 -0.23583124119127399 0.4374763133559072 0 -0.23813634159033989 0.42290976463926327 0 -0.22084070426585289 0.43538371924467612 0 -0.22806234900785671 0.42609527632417488 0 -0.22035716728969429 0.42060188859009112 0 -0.21742618678061951 0.40692140278904287 0 -0.22961658629595061 0.41319157683878799 0 -0.24158762925674229 0.40378265247242029 0 -0.22806234900785671 0.42609527632417488 0 -0.22035716728969429 0.42060188859009112 0 -0.22961658629595061 0.41319157683878799 0 -0.21742618678061951 0.40692140278904287 0 -0.22035716728969429 0.42060188859009112 0 -0.22961658629595061 0.41319157683878799 0 -0.22806234900785671 0.42609527632417488 0 -0.22961658629595061 0.41319157683878799 0 -0.23813634159033989 0.42290976463926327 0 -0.22961658629595061 0.41319157683878799 0 -0.239163799237434 0.41168781992760201 0 -0.23813634159033989 0.42290976463926327 0 -0.239163799237434 0.41168781992760201 0 -0.24390026663595221 0.4098265108577458 0 -0.23813634159033989 0.42290976463926327 0 -0.22961658629595061 0.41319157683878799 0 -0.239163799237434 0.41168781992760201 0 -0.24158762925674229 0.40378265247242029 0 -0.239163799237434 0.41168781992760201 0 -0.24390026663595221 0.4098265108577458 0 -0.24158762925674229 0.40378265247242029 0 -0.24390026663595221 0.4098265108577458 0 -0.24158762925674229 0.40378265247242029 0 -0.25440434670568679 0.43727792757369249 0 -0.24390026663595221 0.4098265108577458 0 -0.25440434670568679 0.43727792757369249 0 -0.23583124119127399 0.4374763133559072 0 -0.23813634159033989 0.42290976463926327 0 -0.25440434670568679 0.43727792757369249 0 -0.24390026663595221 0.4098265108577458 0 -0.23813634159033989 0.42290976463926327 0 -0.23424469339825599 0.38459258624753379 0 -0.22773539588177269 0.371785806926901 0 -0.24298804513369371 0.37489662163126852 0 -0.24855740320059311 0.38849035142128929 0 -0.23424469339825599 0.38459258624753379 0 -0.24298804513369371 0.37489662163126852 0 -0.24158762925674229 0.40378265247242029 0 -0.23424469339825599 0.38459258624753379 0 -0.24855740320059311 0.38849035142128929 0 -0.24158762925674229 0.40378265247242029 0 -0.23424469339825599 0.38459258624753379 0 -0.24158762925674229 0.40378265247242029 0 -0.22554848148559539 0.39550039904942808 0 -0.23424469339825599 0.38459258624753379 0 -0.21742618678061951 0.40692140278904287 0 -0.24158762925674229 0.40378265247242029 0 -0.21742618678061951 0.40692140278904287 0 -0.24158762925674229 0.40378265247242029 0 -0.22554848148559539 0.39550039904942808 0 -0.21742618678061951 0.40692140278904287 0 -0.22554848148559539 0.39550039904942808 0 -0.2145442316967007 0.39558569262158683 0 -0.22554848148559539 0.39550039904942808 0 -0.2206001822887777 0.38503322384510019 0 -0.2145442316967007 0.39558569262158683 0 -0.22554848148559539 0.39550039904942808 0 -0.2206001822887777 0.38503322384510019 0 -0.23424469339825599 0.38459258624753379 0 -0.2206001822887777 0.38503322384510019 0 -0.23424469339825599 0.38459258624753379 0 -0.22773539588177269 0.371785806926901 0 -0.2206001822887777 0.38503322384510019 0 -0.2075355886729093 0.37995552166991781 0 -0.22773539588177269 0.371785806926901 0 -0.2206001822887777 0.38503322384510019 0 -0.2075355886729093 0.37995552166991781 0 -0.2145442316967007 0.39558569262158683 0 -0.1992962547842371 0.40665021173934351 0 -0.21742618678061951 0.40692140278904287 0 -0.2145442316967007 0.39558569262158683 0 -0.1992962547842371 0.40665021173934351 0 -0.2075355886729093 0.37995552166991781 0 -0.2145442316967007 0.39558569262158683 0 -0.1992962547842371 0.40665021173934351 0 -0.2075355886729093 0.37995552166991781 0 -0.1992962547842371 0.40665021173934351 0 -0.2075355886729093 0.37995552166991781 0 -0.19773392862781691 0.3904870000814249 0 -0.1992962547842371 0.40665021173934351 0 -0.18808216442088779 0.39920676244757408 0 -0.19773392862781691 0.3904870000814249 0 -0.18808216442088779 0.39920676244757408 0 -0.19602170663323359 0.37613550446886429 0 -0.18808216442088779 0.39920676244757408 0 -0.19602170663323359 0.37613550446886429 0 -0.19773392862781691 0.3904870000814249 0 -0.18808216442088779 0.39920676244757408 0 -0.19602170663323359 0.37613550446886429 0 -0.18047408951467989 0.38368683415264299 0 -0.2075355886729093 0.37995552166991781 0 -0.19602170663323359 0.37613550446886429 0 -0.19773392862781691 0.3904870000814249 0 -0.18047408951467989 0.38368683415264299 0 -0.16393263101776051 0.377811301899728 0 -0.17738562461233581 0.36620191856746193 0 -0.19602170663323359 0.37613550446886429 0 -0.18047408951467989 0.38368683415264299 0 -0.18587119209385661 0.37354081621318608 0 -0.16393263101776051 0.377811301899728 0 -0.1697532507094677 0.3985670854867942 0 -0.14892453724321039 0.38998910039625528 0 -0.18047408951467989 0.38368683415264299 0 -0.16393263101776051 0.377811301899728 0 -0.1697532507094677 0.3985670854867942 0 -0.1697532507094677 0.3985670854867942 0 -0.1543144752154926 0.40846670546442382 0 -0.14892453724321039 0.38998910039625528 0 -0.18808216442088779 0.39920676244757408 0 -0.18047408951467989 0.38368683415264299 0 -0.1697532507094677 0.3985670854867942 0 -0.18808216442088779 0.39920676244757408 0 -0.1697532507094677 0.3985670854867942 0 -0.1764876300481629 0.40873099662466561 0 -0.18808216442088779 0.39920676244757408 0 -0.1764876300481629 0.40873099662466561 0 -0.18014262220854191 0.42227802042628387 0 -0.18808216442088779 0.39920676244757408 0 -0.18014262220854191 0.42227802042628387 0 -0.1764876300481629 0.40873099662466561 0 -0.18014262220854191 0.42227802042628387 0 -0.16797248285375421 0.41487211813801012 0 -0.17220307999619611 0.44534927840499378 0 -0.18014262220854191 0.42227802042628387 0 -0.17220307999619611 0.44534927840499378 0 -0.19105692089556489 0.43334490180876922 0 -0.18014262220854191 0.42227802042628387 0 -0.17220307999619611 0.44534927840499378 0 -0.18014262220854191 0.42227802042628387 0 -0.16780974434499221 0.43040982398245581 0 -0.18014262220854191 0.42227802042628387 0 -0.16780974434499221 0.43040982398245581 0 -0.16797248285375421 0.41487211813801012 0 -0.16780974434499221 0.43040982398245581 0 -0.16797248285375421 0.41487211813801012 0 -0.1556699124179855 0.4290423380990836 0 -0.16306062424848339 0.44050736484390751 0 -0.16780974434499221 0.43040982398245581 0 -0.1556699124179855 0.4290423380990836 0 -0.1697532507094677 0.3985670854867942 0 -0.1764876300481629 0.40873099662466561 0 -0.16797248285375421 0.41487211813801012 0 -0.16797248285375421 0.41487211813801012 0 -0.1543144752154926 0.40846670546442382 0 -0.1556699124179855 0.4290423380990836 0 -0.1697532507094677 0.3985670854867942 0 -0.16797248285375421 0.41487211813801012 0 -0.1543144752154926 0.40846670546442382 0 -0.1543144752154926 0.40846670546442382 0 -0.13955083839820601 0.41331054213078378 0 -0.1342738988421254 0.39940632656162323 0 -0.1543144752154926 0.40846670546442382 0 -0.1556699124179855 0.4290423380990836 0 -0.13955083839820601 0.41331054213078378 0 -0.1543144752154926 0.40846670546442382 0 -0.1556699124179855 0.4290423380990836 0 -0.14544522351027661 0.43702334659483638 0 -0.1556699124179855 0.4290423380990836 0 -0.13656638764367751 0.42782024169105087 0 -0.1556699124179855 0.4290423380990836 0 -0.13656638764367751 0.42782024169105087 0 -0.13955083839820601 0.41331054213078378 0 -0.13175207046494611 0.44346192959665548 0 -0.13656638764367751 0.42782024169105087 0 -0.1221002198223846 0.42926878838971572 0 -0.13175207046494611 0.44346192959665548 0 -0.14544522351027661 0.43702334659483638 0 -0.13656638764367751 0.42782024169105087 0 -0.13656638764367751 0.42782024169105087 0 -0.12548201032280559 0.41579856094527679 0 -0.1221002198223846 0.42926878838971572 0 -0.13955083839820601 0.41331054213078378 0 -0.12548201032280559 0.41579856094527679 0 -0.1342738988421254 0.39940632656162323 0 -0.13656638764367751 0.42782024169105087 0 -0.13955083839820601 0.41331054213078378 0 -0.12548201032280559 0.41579856094527679 0 -0.1342738988421254 0.39940632656162323 0 -0.12655549565904481 0.38459039506062281 0 -0.14892453724321039 0.38998910039625528 0 -0.12655549565904481 0.38459039506062281 0 -0.14892453724321039 0.38998910039625528 0 -0.14471747201537141 0.37109278790434008 0 -0.16393263101776051 0.377811301899728 0 -0.14892453724321039 0.38998910039625528 0 -0.14471747201537141 0.37109278790434008 0 -0.1543144752154926 0.40846670546442382 0 -0.1342738988421254 0.39940632656162323 0 -0.14892453724321039 0.38998910039625528 0 -0.14165043288496271 0.34906334461799549 0 -0.15843984593516669 0.3353087962765417 0 -0.16020893970901179 0.3578896071927124 0 -0.14165043288496271 0.34906334461799549 0 -0.14471747201537141 0.37109278790434008 0 -0.16020893970901179 0.3578896071927124 0 -0.12655549565904481 0.38459039506062281 0 -0.14471747201537141 0.37109278790434008 0 -0.12710123171609961 0.3622807710251873 0 -0.14165043288496271 0.34906334461799549 0 -0.14471747201537141 0.37109278790434008 0 -0.12710123171609961 0.3622807710251873 0 -0.14165043288496271 0.34906334461799549 0 -0.12710123171609961 0.3622807710251873 0 -0.1189994847652637 0.3425748687043878 0 -0.14165043288496271 0.34906334461799549 0 -0.1315170279352865 0.33102482385584192 0 -0.1189994847652637 0.3425748687043878 0 -0.14165043288496271 0.34906334461799549 0 -0.1315170279352865 0.33102482385584192 0 -0.1443776795059328 0.33390895980560381 0 -0.1315170279352865 0.33102482385584192 0 -0.14495419486811961 0.31734813855161759 0 -0.12577302420238409 0.3093301053864293 0 -0.1315170279352865 0.33102482385584192 0 -0.14495419486811961 0.31734813855161759 0 -0.1443776795059328 0.33390895980560381 0 -0.14495419486811961 0.31734813855161759 0 -0.15843984593516669 0.3353087962765417 0 -0.16290230207748849 0.31861206890147392 0 -0.14495419486811961 0.31734813855161759 0 -0.1443776795059328 0.33390895980560381 0 -0.15843984593516669 0.3353087962765417 0 -0.14165043288496271 0.34906334461799549 0 -0.1443776795059328 0.33390895980560381 0 -0.15843984593516669 0.3353087962765417 0 -0.15843984593516669 0.3353087962765417 0 -0.17774973011518999 0.33020764546750409 0 -0.17749789925717871 0.34686132115754031 0 -0.15843984593516669 0.3353087962765417 0 -0.16290230207748849 0.31861206890147392 0 -0.17774973011518999 0.33020764546750409 0 -0.17774973011518999 0.33020764546750409 0 -0.19720201262974121 0.32662885324472202 0 -0.17861358928141469 0.31234998356939919 0 -0.16290230207748849 0.31861206890147392 0 -0.17774973011518999 0.33020764546750409 0 -0.17861358928141469 0.31234998356939919 0 -0.17774973011518999 0.33020764546750409 0 -0.17749789925717871 0.34686132115754031 0 -0.1924972983359893 0.34358046834146699 0 -0.17749789925717871 0.34686132115754031 0 -0.17738562461233581 0.36620191856746193 0 -0.1942619271162552 0.36094369023707662 0 -0.17749789925717871 0.34686132115754031 0 -0.16020893970901179 0.3578896071927124 0 -0.17738562461233581 0.36620191856746193 0 -0.15843984593516669 0.3353087962765417 0 -0.17749789925717871 0.34686132115754031 0 -0.16020893970901179 0.3578896071927124 0 -0.16393263101776051 0.377811301899728 0 -0.16020893970901179 0.3578896071927124 0 -0.17738562461233581 0.36620191856746193 0 -0.16393263101776051 0.377811301899728 0 -0.14471747201537141 0.37109278790434008 0 -0.16020893970901179 0.3578896071927124 0 -0.18047408951467989 0.38368683415264299 0 -0.17738562461233581 0.36620191856746193 0 -0.18587119209385661 0.37354081621318608 0 -0.17738562461233581 0.36620191856746193 0 -0.18587119209385661 0.37354081621318608 0 -0.1942619271162552 0.36094369023707662 0 -0.19602170663323359 0.37613550446886429 0 -0.18587119209385661 0.37354081621318608 0 -0.1942619271162552 0.36094369023707662 0 -0.2075355886729093 0.37995552166991781 0 -0.19602170663323359 0.37613550446886429 0 -0.1942619271162552 0.36094369023707662 0 -0.1942619271162552 0.36094369023707662 0 -0.2157749225615814 0.35326083160049221 0 -0.1924972983359893 0.34358046834146699 0 -0.17749789925717871 0.34686132115754031 0 -0.1942619271162552 0.36094369023707662 0 -0.1924972983359893 0.34358046834146699 0 -0.2075355886729093 0.37995552166991781 0 -0.2157749225615814 0.35326083160049221 0 -0.2075355886729093 0.37995552166991781 0 -0.2157749225615814 0.35326083160049221 0 -0.22773539588177269 0.371785806926901 0 -0.2075355886729093 0.37995552166991781 0 -0.1942619271162552 0.36094369023707662 0 -0.2157749225615814 0.35326083160049221 0 -0.2157749225615814 0.35326083160049221 0 -0.22773539588177269 0.371785806926901 0 -0.245130999697667 0.35617292401417999 0 -0.2157749225615814 0.35326083160049221 0 -0.245130999697667 0.35617292401417999 0 -0.23295058751304551 0.34252643707592823 0 -0.25008303346203908 0.33611797840414298 0 -0.245130999697667 0.35617292401417999 0 -0.23295058751304551 0.34252643707592823 0 -0.22773539588177269 0.371785806926901 0 -0.245130999697667 0.35617292401417999 0 -0.24298804513369371 0.37489662163126852 0 -0.2592717334901794 0.37344143954643821 0 -0.245130999697667 0.35617292401417999 0 -0.24298804513369371 0.37489662163126852 0 -0.25008303346203908 0.33611797840414298 0 -0.2434150889916675 0.31528126182336752 0 -0.22401425645025361 0.32656614153106639 0 -0.25008303346203908 0.33611797840414298 0 -0.23295058751304551 0.34252643707592823 0 -0.22401425645025361 0.32656614153106639 0 -0.2157749225615814 0.35326083160049221 0 -0.22401425645025361 0.32656614153106639 0 -0.2157749225615814 0.35326083160049221 0 -0.23295058751304551 0.34252643707592823 0 -0.22401425645025361 0.32656614153106639 0 -0.2434150889916675 0.31528126182336752 0 -0.22401425645025361 0.32656614153106639 0 -0.2322535903389257 0.29987145146164079 0 -0.22401425645025361 0.32656614153106639 0 -0.2322535903389257 0.29987145146164079 0 -0.22401425645025361 0.32656614153106639 0 -0.19720201262974121 0.32662885324472202 0 -0.19906220937645289 0.30981321912625731 0 -0.2157749225615814 0.35326083160049221 0 -0.22401425645025361 0.32656614153106639 0 -0.19720201262974121 0.32662885324472202 0 -0.2157749225615814 0.35326083160049221 0 -0.1924972983359893 0.34358046834146699 0 -0.19720201262974121 0.32662885324472202 0 -0.17774973011518999 0.33020764546750409 0 -0.1924972983359893 0.34358046834146699 0 -0.19720201262974121 0.32662885324472202 0 -0.19720201262974121 0.32662885324472202 0 -0.19906220937645289 0.30981321912625731 0 -0.17861358928141469 0.31234998356939919 0 -0.19906220937645289 0.30981321912625731 0 -0.19856760929965681 0.29512163553205928 0 -0.18259298835682489 0.29782857031946008 0 -0.19085311474529701 0.28244454806871849 0 -0.19856760929965681 0.29512163553205928 0 -0.18259298835682489 0.29782857031946008 0 -0.19085311474529701 0.28244454806871849 0 -0.19856760929965681 0.29512163553205928 0 -0.2071077174296316 0.28582887531117668 0 -0.2071077174296316 0.28582887531117668 0 -0.21338280024082609 0.30038413056083629 0 -0.2192288693812762 0.28355186314419151 0 -0.19856760929965681 0.29512163553205928 0 -0.2071077174296316 0.28582887531117668 0 -0.21338280024082609 0.30038413056083629 0 -0.2071077174296316 0.28582887531117668 0 -0.2192288693812762 0.28355186314419151 0 -0.2134516182061634 0.27614892865934582 0 -0.22401425645025361 0.32656614153106639 0 -0.19906220937645289 0.30981321912625731 0 -0.21338280024082609 0.30038413056083629 0 -0.19906220937645289 0.30981321912625731 0 -0.19856760929965681 0.29512163553205928 0 -0.21338280024082609 0.30038413056083629 0 -0.22401425645025361 0.32656614153106639 0 -0.21338280024082609 0.30038413056083629 0 -0.2322535903389257 0.29987145146164079 0 -0.21338280024082609 0.30038413056083629 0 -0.2322535903389257 0.29987145146164079 0 -0.2192288693812762 0.28355186314419151 0 -0.2322535903389257 0.29987145146164079 0 -0.2192288693812762 0.28355186314419151 0 -0.2404929242275981 0.27317676139221531 0 -0.2322535903389257 0.29987145146164079 0 -0.2404929242275981 0.27317676139221531 0 -0.25040582964490582 0.29567583303740069 0 -0.2322535903389257 0.29987145146164079 0 -0.2404929242275981 0.27317676139221531 0 -0.25040582964490582 0.29567583303740069 0 -0.2404929242275981 0.27317676139221531 0 -0.25040582964490582 0.29567583303740069 0 -0.2434150889916675 0.31528126182336752 0 -0.2322535903389257 0.29987145146164079 0 -0.25054816238852479 0.24059870715785611 0 -0.2546175921406465 0.26128861144859822 0 -0.24164285362834059 0.26945109504960563 0 -0.25054816238852479 0.24059870715785611 0 -0.24164285362834059 0.26945109504960563 0 -0.24164285362834059 0.26945109504960563 0 -0.23310158204141429 0.25640081827561029 0 -0.2466801300010773 0.2452604621424746 0 -0.25054816238852479 0.24059870715785611 0 -0.24164285362834059 0.26945109504960563 0 -0.2466801300010773 0.2452604621424746 0 -0.24164285362834059 0.26945109504960563 0 -0.2394572339012683 0.27082608115536438 0 -0.23310158204141429 0.25640081827561029 0 -0.2394572339012683 0.27082608115536438 0 -0.23310158204141429 0.25640081827561029 0 -0.2546175921406465 0.26128861144859822 0 -0.24164285362834059 0.26945109504960563 0 -0.25982227492027221 0.287750399741656 0 -0.24164285362834059 0.26945109504960563 0 -0.2404929242275981 0.27317676139221531 0 -0.24164285362834059 0.26945109504960563 0 -0.2404929242275981 0.27317676139221531 0 -0.24164285362834059 0.26945109504960563 0 -0.2394572339012683 0.27082608115536438 0 -0.24164285362834059 0.26945109504960563 0 -0.2404929242275981 0.27317676139221531 0 -0.2394572339012683 0.27082608115536438 0 -0.2404929242275981 0.27317676139221531 0 -0.2394572339012683 0.27082608115536438 0 -0.2192288693812762 0.28355186314419151 0 -0.2404929242275981 0.27317676139221531 0 -0.2394572339012683 0.27082608115536438 0 -0.2192288693812762 0.28355186314419151 0 -0.2394572339012683 0.27082608115536438 0 -0.2223662512991782 0.27304179816788748 0 -0.2192288693812762 0.28355186314419151 0 -0.2394572339012683 0.27082608115536438 0 -0.2394572339012683 0.27082608115536438 0 -0.2223662512991782 0.27304179816788748 0 -0.23310158204141429 0.25640081827561029 0 -0.2223662512991782 0.27304179816788748 0 -0.23310158204141429 0.25640081827561029 0 -0.2355501434136231 0.2478522206023164 0 -0.2223662512991782 0.27304179816788748 0 -0.2355501434136231 0.2478522206023164 0 -0.2223662512991782 0.27304179816788748 0 -0.222192014233517 0.25700640751059239 0 -0.2355501434136231 0.2478522206023164 0 -0.2223662512991782 0.27304179816788748 0 -0.222192014233517 0.25700640751059239 0 -0.21287289659801359 0.26516855002046552 0 -0.222192014233517 0.25700640751059239 0 -0.22222104444170529 0.2467327462878163 0 -0.2355501434136231 0.2478522206023164 0 -0.222192014233517 0.25700640751059239 0 -0.21371201764358261 0.25214650866738469 0 -0.22222104444170529 0.2467327462878163 0 -0.222192014233517 0.25700640751059239 0 -0.21371201764358261 0.25214650866738469 0 -0.21287289659801359 0.26516855002046552 0 -0.21371201764358261 0.25214650866738469 0 -0.21287289659801359 0.26516855002046552 0 -0.20206212765223941 0.25873777709478579 0 -0.21287289659801359 0.26516855002046552 0 -0.20374397774259509 0.27266482885045462 0 -0.20206212765223941 0.25873777709478579 0 -0.21371201764358261 0.25214650866738469 0 -0.20206212765223941 0.25873777709478579 0 -0.20132404028626799 0.2438270423260239 0 -0.2192288693812762 0.28355186314419151 0 -0.2223662512991782 0.27304179816788748 0 -0.2134516182061634 0.27614892865934582 0 -0.2223662512991782 0.27304179816788748 0 -0.21287289659801359 0.26516855002046552 0 -0.2134516182061634 0.27614892865934582 0 -0.21287289659801359 0.26516855002046552 0 -0.2134516182061634 0.27614892865934582 0 -0.20374397774259509 0.27266482885045462 0 -0.2071077174296316 0.28582887531117668 0 -0.2134516182061634 0.27614892865934582 0 -0.20374397774259509 0.27266482885045462 0 -0.19085311474529701 0.28244454806871849 0 -0.2071077174296316 0.28582887531117668 0 -0.20374397774259509 0.27266482885045462 0 -0.20374397774259509 0.27266482885045462 0 -0.19076826268548239 0.26827287779833747 0 -0.20206212765223941 0.25873777709478579 0 -0.19085311474529701 0.28244454806871849 0 -0.20374397774259509 0.27266482885045462 0 -0.19076826268548239 0.26827287779833747 0 -0.19076826268548239 0.26827287779833747 0 -0.20206212765223941 0.25873777709478579 0 -0.18859670902218051 0.25052543551881717 0 -0.20206212765223941 0.25873777709478579 0 -0.18859670902218051 0.25052543551881717 0 -0.20132404028626799 0.2438270423260239 0 -0.18859670902218051 0.25052543551881717 0 -0.17798103800664031 0.2589484764895198 0 -0.1765110772481347 0.2431385849621667 0 -0.19076826268548239 0.26827287779833747 0 -0.18859670902218051 0.25052543551881717 0 -0.17798103800664031 0.2589484764895198 0 -0.1593990608277665 0.26226189644582071 0 -0.1613020889038615 0.23837444865205379 0 -0.14911298171075679 0.24967097175487091 0 -0.17798103800664031 0.2589484764895198 0 -0.1593990608277665 0.26226189644582071 0 -0.1765110772481347 0.2431385849621667 0 -0.1593990608277665 0.26226189644582071 0 -0.1613020889038615 0.23837444865205379 0 -0.17798103800664031 0.2589484764895198 0 -0.1593990608277665 0.26226189644582071 0 -0.17625891120693621 0.27267786553860818 0 -0.1593990608277665 0.26226189644582071 0 -0.1625734141651913 0.27864750634068558 0 -0.17625891120693621 0.27267786553860818 0 -0.1625734141651913 0.27864750634068558 0 -0.17625891120693621 0.27267786553860818 0 -0.1759785768112396 0.28549188808856729 0 -0.19076826268548239 0.26827287779833747 0 -0.17798103800664031 0.2589484764895198 0 -0.17625891120693621 0.27267786553860818 0 -0.19085311474529701 0.28244454806871849 0 -0.19076826268548239 0.26827287779833747 0 -0.17625891120693621 0.27267786553860818 0 -0.19085311474529701 0.28244454806871849 0 -0.17625891120693621 0.27267786553860818 0 -0.1759785768112396 0.28549188808856729 0 -0.19085311474529701 0.28244454806871849 0 -0.1759785768112396 0.28549188808856729 0 -0.18259298835682489 0.29782857031946008 0 -0.1759785768112396 0.28549188808856729 0 -0.18259298835682489 0.29782857031946008 0 -0.16136995080389721 0.29864400117774398 0 -0.17861358928141469 0.31234998356939919 0 -0.18259298835682489 0.29782857031946008 0 -0.16136995080389721 0.29864400117774398 0 -0.19906220937645289 0.30981321912625731 0 -0.17861358928141469 0.31234998356939919 0 -0.18259298835682489 0.29782857031946008 0 -0.14495419486811961 0.31734813855161759 0 -0.16290230207748849 0.31861206890147392 0 -0.16136995080389721 0.29864400117774398 0 -0.16290230207748849 0.31861206890147392 0 -0.17861358928141469 0.31234998356939919 0 -0.16136995080389721 0.29864400117774398 0 -0.1625734141651913 0.27864750634068558 0 -0.16136995080389721 0.29864400117774398 0 -0.1450808597671244 0.27950790118027541 0 -0.1625734141651913 0.27864750634068558 0 -0.1759785768112396 0.28549188808856729 0 -0.16136995080389721 0.29864400117774398 0 -0.16136995080389721 0.29864400117774398 0 -0.14126992245711781 0.29947087285495883 0 -0.1450808597671244 0.27950790118027541 0 -0.14495419486811961 0.31734813855161759 0 -0.16136995080389721 0.29864400117774398 0 -0.14126992245711781 0.29947087285495883 0 -0.14126992245711781 0.29947087285495883 0 -0.12577302420238409 0.3093301053864293 0 -0.12922822593455879 0.28960894173240792 0 -0.14495419486811961 0.31734813855161759 0 -0.14126992245711781 0.29947087285495883 0 -0.12577302420238409 0.3093301053864293 0 -0.14126992245711781 0.29947087285495883 0 -0.12922822593455879 0.28960894173240792 0 -0.1450808597671244 0.27950790118027541 0 -0.12922822593455879 0.28960894173240792 0 -0.1349930010153193 0.26255216121800568 0 -0.12922822593455879 0.28960894173240792 0 -0.1349930010153193 0.26255216121800568 0 -0.1450808597671244 0.27950790118027541 0 -0.12922822593455879 0.28960894173240792 0 -0.1349930010153193 0.26255216121800568 0 -0.1154385093851408 0.26413547420137762 0 -0.1593990608277665 0.26226189644582071 0 -0.1349930010153193 0.26255216121800568 0 -0.14911298171075679 0.24967097175487091 0 -0.1593990608277665 0.26226189644582071 0 -0.1349930010153193 0.26255216121800568 0 -0.1450808597671244 0.27950790118027541 0 -0.1593990608277665 0.26226189644582071 0 -0.1625734141651913 0.27864750634068558 0 -0.1450808597671244 0.27950790118027541 0 -0.1125365884501535 0.28353815127968629 0 -0.09362037031597753 0.26527792879994888 0 -0.1125365884501535 0.28353815127968629 0 -0.093128128460342754 0.28254352657507131 0 -0.09362037031597753 0.26527792879994888 0 -0.1154385093851408 0.26413547420137762 0 -0.1125365884501535 0.28353815127968629 0 -0.09362037031597753 0.26527792879994888 0 -0.1154385093851408 0.26413547420137762 0 -0.09362037031597753 0.26527792879994888 0 -0.097135213821017974 0.2450179218164267 0 -0.1154385093851408 0.26413547420137762 0 -0.097135213821017974 0.2450179218164267 0 -0.11832329044822951 0.24304604882281969 0 -0.1349930010153193 0.26255216121800568 0 -0.1154385093851408 0.26413547420137762 0 -0.11832329044822951 0.24304604882281969 0 -0.12922822593455879 0.28960894173240792 0 -0.1154385093851408 0.26413547420137762 0 -0.1125365884501535 0.28353815127968629 0 -0.12922822593455879 0.28960894173240792 0 -0.1125365884501535 0.28353815127968629 0 -0.11715930820710339 0.29724977554595788 0 -0.1125365884501535 0.28353815127968629 0 -0.11715930820710339 0.29724977554595788 0 -0.1038404580068167 0.30398166541893579 0 -0.12577302420238409 0.3093301053864293 0 -0.1038404580068167 0.30398166541893579 0 -0.11250071635914489 0.32397018824961021 0 -0.12577302420238409 0.3093301053864293 0 -0.11715930820710339 0.29724977554595788 0 -0.1038404580068167 0.30398166541893579 0 -0.12577302420238409 0.3093301053864293 0 -0.12922822593455879 0.28960894173240792 0 -0.11715930820710339 0.29724977554595788 0 -0.1125365884501535 0.28353815127968629 0 -0.1038404580068167 0.30398166541893579 0 -0.093128128460342754 0.28254352657507131 0 -0.083140595227089928 0.29591471829194321 0 -0.093128128460342754 0.28254352657507131 0 -0.06936539161773822 0.28020753346750782 0 -0.1038404580068167 0.30398166541893579 0 -0.083140595227089928 0.29591471829194321 0 -0.093128128460342754 0.28254352657507131 0 -0.1038404580068167 0.30398166541893579 0 -0.083140595227089928 0.29591471829194321 0 -0.090988500091643998 0.31647506579520901 0 -0.083140595227089928 0.29591471829194321 0 -0.073171874186503463 0.31004866742903531 0 -0.090988500091643998 0.31647506579520901 0 -0.083140595227089928 0.29591471829194321 0 -0.073171874186503463 0.31004866742903531 0 -0.058649820332164468 0.29485946887662068 0 -0.073171874186503463 0.31004866742903531 0 -0.058649820332164468 0.29485946887662068 0 -0.056101506374375817 0.3128319137626559 0 -0.083140595227089928 0.29591471829194321 0 -0.06936539161773822 0.28020753346750782 0 -0.058649820332164468 0.29485946887662068 0 -0.06936539161773822 0.28020753346750782 0 -0.077315147936728598 0.26324091235374891 0 -0.061029816546774987 0.26105054837526498 0 -0.093128128460342754 0.28254352657507131 0 -0.09362037031597753 0.26527792879994888 0 -0.077315147936728598 0.26324091235374891 0 -0.093128128460342754 0.28254352657507131 0 -0.06936539161773822 0.28020753346750782 0 -0.077315147936728598 0.26324091235374891 0 -0.09362037031597753 0.26527792879994888 0 -0.097135213821017974 0.2450179218164267 0 -0.074704152181801681 0.24701770632021169 0 -0.09362037031597753 0.26527792879994888 0 -0.077315147936728598 0.26324091235374891 0 -0.074704152181801681 0.24701770632021169 0 -0.09362037031597753 0.26527792879994888 0 -0.074704152181801681 0.24701770632021169 0 -0.061029816546774987 0.26105054837526498 0 -0.074704152181801681 0.24701770632021169 0 -0.057747386715908428 0.24463041023760571 0 -0.077315147936728598 0.26324091235374891 0 -0.061029816546774987 0.26105054837526498 0 -0.074704152181801681 0.24701770632021169 0 -0.061029816546774987 0.26105054837526498 0 -0.03742977218140614 0.26357467527551443 0 -0.046594812073733123 0.24823599275617891 0 -0.061029816546774987 0.26105054837526498 0 -0.046594812073733123 0.24823599275617891 0 -0.057747386715908428 0.24463041023760571 0 -0.06936539161773822 0.28020753346750782 0 -0.061029816546774987 0.26105054837526498 0 -0.048476972550706023 0.27982564543664679 0 -0.061029816546774987 0.26105054837526498 0 -0.048476972550706023 0.27982564543664679 0 -0.03742977218140614 0.26357467527551443 0 -0.061029816546774987 0.26105054837526498 0 -0.048476972550706023 0.27982564543664679 0 -0.048476972550706023 0.27982564543664679 0 -0.031819983271387867 0.27999546987022927 0 -0.03742977218140614 0.26357467527551443 0 -0.03742977218140614 0.26357467527551443 0 -0.03189830216395443 0.24568919817845219 0 -0.046594812073733123 0.24823599275617891 0 -0.03742977218140614 0.26357467527551443 0 -0.020565667716041462 0.25572736355358933 0 -0.03189830216395443 0.24568919817845219 0 -0.03742977218140614 0.26357467527551443 0 -0.020565667716041462 0.25572736355358933 0 -0.022715456858953278 0.26994870387583431 0 -0.020565667716041462 0.25572736355358933 0 -0.022715456858953278 0.26994870387583431 0 -0.0080731797928139601 0.26595294531788349 0 -0.031819983271387867 0.27999546987022927 0 -0.03742977218140614 0.26357467527551443 0 -0.022715456858953278 0.26994870387583431 0 -0.031819983271387867 0.27999546987022927 0 -0.022715456858953278 0.26994870387583431 0 -0.01304989637173277 0.28246747093767138 0 -0.022715456858953278 0.26994870387583431 0 -0.0080731797928139601 0.26595294531788349 0 -0.01304989637173277 0.28246747093767138 0 -0.0080731797928139601 0.26595294531788349 0 -0.01304989637173277 0.28246747093767138 0 0.0042686616650212863 0.27440264234540929 0 -0.0080731797928139601 0.26595294531788349 0 -0.004361582131907446 0.25012675423618741 0 0.0045166499774289158 0.26107549289106269 0 -0.020565667716041462 0.25572736355358933 0 -0.0080731797928139601 0.26595294531788349 0 -0.004361582131907446 0.25012675423618741 0 -0.0025045175740335168 0.31031314766219981 0 -0.001308369768482999 0.29320410557187471 0 -0.016598711115656001 0.30159589275249321 0 -0.0025045175740335168 0.31031314766219981 0 -0.016598711115656001 0.30159589275249321 0 -0.021593132986752129 0.32003539370993961 0 -0.001308369768482999 0.29320410557187471 0 -0.01304989637173277 0.28246747093767138 0 0.0042686616650212863 0.27440264234540929 0 -0.001308369768482999 0.29320410557187471 0 -0.01304989637173277 0.28246747093767138 0 -0.016598711115656001 0.30159589275249321 0 -0.01304989637173277 0.28246747093767138 0 -0.035924128554638488 0.29860074249802943 0 -0.01304989637173277 0.28246747093767138 0 -0.016598711115656001 0.30159589275249321 0 -0.035924128554638488 0.29860074249802943 0 -0.031819983271387867 0.27999546987022927 0 -0.01304989637173277 0.28246747093767138 0 -0.035924128554638488 0.29860074249802943 0 -0.016598711115656001 0.30159589275249321 0 -0.035924128554638488 0.29860074249802943 0 -0.021593132986752129 0.32003539370993961 0 -0.035924128554638488 0.29860074249802943 0 -0.021593132986752129 0.32003539370993961 0 -0.035924128554638488 0.29860074249802943 0 -0.056101506374375817 0.3128319137626559 0 -0.035924128554638488 0.29860074249802943 0 -0.038849285662232391 0.31623083740802288 0 -0.021593132986752129 0.32003539370993961 0 -0.035924128554638488 0.29860074249802943 0 -0.056101506374375817 0.3128319137626559 0 -0.038849285662232391 0.31623083740802288 0 -0.048476972550706023 0.27982564543664679 0 -0.031819983271387867 0.27999546987022927 0 -0.035924128554638488 0.29860074249802943 0 -0.048476972550706023 0.27982564543664679 0 -0.035924128554638488 0.29860074249802943 0 -0.06936539161773822 0.28020753346750782 0 -0.048476972550706023 0.27982564543664679 0 -0.058649820332164468 0.29485946887662068 0 -0.048476972550706023 0.27982564543664679 0 -0.035924128554638488 0.29860074249802943 0 -0.058649820332164468 0.29485946887662068 0 -0.035924128554638488 0.29860074249802943 0 -0.058649820332164468 0.29485946887662068 0 -0.056101506374375817 0.3128319137626559 0 -0.056101506374375817 0.3128319137626559 0 -0.061273612338163523 0.34168082392211641 0 -0.041778374733163148 0.33345529966146709 0 -0.041778374733163148 0.33345529966146709 0 -0.038849285662232391 0.31623083740802288 0 -0.021593132986752129 0.32003539370993961 0 -0.056101506374375817 0.3128319137626559 0 -0.041778374733163148 0.33345529966146709 0 -0.038849285662232391 0.31623083740802288 0 -0.021593132986752129 0.32003539370993961 0 -0.0072621374188671052 0.34147004492185079 0 -0.026756520995263839 0.34622662442059521 0 -0.041778374733163148 0.33345529966146709 0 -0.021593132986752129 0.32003539370993961 0 -0.026756520995263839 0.34622662442059521 0 -0.021593132986752129 0.32003539370993961 0 -0.0072621374188671052 0.34147004492185079 0 -0.021593132986752129 0.32003539370993961 0 -0.0072621374188671052 0.34147004492185079 0 -0.00017254440855824261 0.32560037032276101 0 -0.0025045175740335168 0.31031314766219981 0 -0.021593132986752129 0.32003539370993961 0 -0.00017254440855824261 0.32560037032276101 0 -0.017975249263795932 0.36469023687930041 0 -0.0036227877329230301 0.37947700469323042 0 0.0070688581490178301 0.36290469613376197 0 -0.017975249263795932 0.36469023687930041 0 -0.017202423973373768 0.37968737263981228 0 -0.0036227877329230301 0.37947700469323042 0 -0.0072621374188671052 0.34147004492185079 0 0.0070688581490178301 0.36290469613376197 0 -0.0072621374188671052 0.34147004492185079 0 -0.017975249263795932 0.36469023687930041 0 0.0070688581490178301 0.36290469613376197 0 -0.0072621374188671052 0.34147004492185079 0 -0.026756520995263839 0.34622662442059521 0 -0.017975249263795932 0.36469023687930041 0 -0.026756520995263839 0.34622662442059521 0 -0.017975249263795932 0.36469023687930041 0 -0.044972299261370183 0.36017708579622421 0 -0.017975249263795932 0.36469023687930041 0 -0.044972299261370183 0.36017708579622421 0 -0.033696569954803593 0.38151106350699548 0 -0.044972299261370183 0.36017708579622421 0 -0.056355392512392112 0.37995563405969551 0 -0.033696569954803593 0.38151106350699548 0 -0.041778374733163148 0.33345529966146709 0 -0.026756520995263839 0.34622662442059521 0 -0.044972299261370183 0.36017708579622421 0 -0.061273612338163523 0.34168082392211641 0 -0.044972299261370183 0.36017708579622421 0 -0.06521228616511808 0.36405037212009378 0 -0.061273612338163523 0.34168082392211641 0 -0.041778374733163148 0.33345529966146709 0 -0.044972299261370183 0.36017708579622421 0 -0.044972299261370183 0.36017708579622421 0 -0.06521228616511808 0.36405037212009378 0 -0.056355392512392112 0.37995563405969551 0 -0.06521228616511808 0.36405037212009378 0 -0.083611302269088666 0.35468926302163939 0 -0.079848824444575958 0.38374905380079372 0 -0.083611302269088666 0.35468926302163939 0 -0.096975471326963783 0.37148378381343322 0 -0.079848824444575958 0.38374905380079372 0 -0.061273612338163523 0.34168082392211641 0 -0.06521228616511808 0.36405037212009378 0 -0.083611302269088666 0.35468926302163939 0 -0.061273612338163523 0.34168082392211641 0 -0.083611302269088666 0.35468926302163939 0 -0.076278884194113258 0.32706308502728249 0 -0.056101506374375817 0.3128319137626559 0 -0.076278884194113258 0.32706308502728249 0 -0.056101506374375817 0.3128319137626559 0 -0.061273612338163523 0.34168082392211641 0 -0.076278884194113258 0.32706308502728249 0 -0.073171874186503463 0.31004866742903531 0 -0.056101506374375817 0.3128319137626559 0 -0.076278884194113258 0.32706308502728249 0 -0.076278884194113258 0.32706308502728249 0 -0.090988500091643998 0.31647506579520901 0 -0.096998472576195746 0.33787207035444761 0 -0.073171874186503463 0.31004866742903531 0 -0.076278884194113258 0.32706308502728249 0 -0.090988500091643998 0.31647506579520901 0 -0.083611302269088666 0.35468926302163939 0 -0.076278884194113258 0.32706308502728249 0 -0.096998472576195746 0.33787207035444761 0 -0.090988500091643998 0.31647506579520901 0 -0.096998472576195746 0.33787207035444761 0 -0.11250071635914489 0.32397018824961021 0 -0.1038404580068167 0.30398166541893579 0 -0.090988500091643998 0.31647506579520901 0 -0.11250071635914489 0.32397018824961021 0 -0.1315170279352865 0.33102482385584192 0 -0.12577302420238409 0.3093301053864293 0 -0.11250071635914489 0.32397018824961021 0 -0.1315170279352865 0.33102482385584192 0 -0.11250071635914489 0.32397018824961021 0 -0.1189994847652637 0.3425748687043878 0 -0.096998472576195746 0.33787207035444761 0 -0.11250071635914489 0.32397018824961021 0 -0.1189994847652637 0.3425748687043878 0 -0.12710123171609961 0.3622807710251873 0 -0.1189994847652637 0.3425748687043878 0 -0.1089146800649551 0.3561770594294375 0 -0.12710123171609961 0.3622807710251873 0 -0.1130895959368447 0.37246627340933908 0 -0.1089146800649551 0.3561770594294375 0 -0.12655549565904481 0.38459039506062281 0 -0.12710123171609961 0.3622807710251873 0 -0.1130895959368447 0.37246627340933908 0 -0.1130895959368447 0.37246627340933908 0 -0.096975471326963783 0.37148378381343322 0 -0.1089146800649551 0.3561770594294375 0 -0.083611302269088666 0.35468926302163939 0 -0.096975471326963783 0.37148378381343322 0 -0.1089146800649551 0.3561770594294375 0 -0.096998472576195746 0.33787207035444761 0 -0.1189994847652637 0.3425748687043878 0 -0.1089146800649551 0.3561770594294375 0 -0.083611302269088666 0.35468926302163939 0 -0.096998472576195746 0.33787207035444761 0 -0.1089146800649551 0.3561770594294375 0 -0.10335637586111809 0.38776536102133979 0 -0.1122756033997336 0.40440751886529608 0 -0.092626744140319878 0.40339206391310989 0 -0.1130895959368447 0.37246627340933908 0 -0.096975471326963783 0.37148378381343322 0 -0.10335637586111809 0.38776536102133979 0 -0.12655549565904481 0.38459039506062281 0 -0.1130895959368447 0.37246627340933908 0 -0.10335637586111809 0.38776536102133979 0 -0.12655549565904481 0.38459039506062281 0 -0.10335637586111809 0.38776536102133979 0 -0.1122756033997336 0.40440751886529608 0 -0.1342738988421254 0.39940632656162323 0 -0.12655549565904481 0.38459039506062281 0 -0.1122756033997336 0.40440751886529608 0 -0.12548201032280559 0.41579856094527679 0 -0.1122756033997336 0.40440751886529608 0 -0.1104394098233438 0.42174348832390141 0 -0.12548201032280559 0.41579856094527679 0 -0.1342738988421254 0.39940632656162323 0 -0.1122756033997336 0.40440751886529608 0 -0.13175207046494611 0.44346192959665548 0 -0.1221002198223846 0.42926878838971572 0 -0.1064787913094135 0.43730588845956792 0 -0.12548201032280559 0.41579856094527679 0 -0.1104394098233438 0.42174348832390141 0 -0.1221002198223846 0.42926878838971572 0 -0.1104394098233438 0.42174348832390141 0 -0.1221002198223846 0.42926878838971572 0 -0.1064787913094135 0.43730588845956792 0 -0.1064787913094135 0.43730588845956792 0 -0.08120551215388104 0.43114984732248018 0 -0.1064787913094135 0.43730588845956792 0 -0.097026127818036836 0.42472771569137829 0 -0.08120551215388104 0.43114984732248018 0 -0.1104394098233438 0.42174348832390141 0 -0.1064787913094135 0.43730588845956792 0 -0.097026127818036836 0.42472771569137829 0 -0.1122756033997336 0.40440751886529608 0 -0.098824778170087071 0.41543684488035082 0 -0.092626744140319878 0.40339206391310989 0 -0.1122756033997336 0.40440751886529608 0 -0.1104394098233438 0.42174348832390141 0 -0.098824778170087071 0.41543684488035082 0 -0.1104394098233438 0.42174348832390141 0 -0.097026127818036836 0.42472771569137829 0 -0.098824778170087071 0.41543684488035082 0 -0.097026127818036836 0.42472771569137829 0 -0.098824778170087071 0.41543684488035082 0 -0.088182147633458732 0.41800250947059109 0 -0.088182147633458732 0.41800250947059109 0 -0.075766822878524695 0.41019172804676379 0 -0.092626744140319878 0.40339206391310989 0 -0.088182147633458732 0.41800250947059109 0 -0.08120551215388104 0.43114984732248018 0 -0.075766822878524695 0.41019172804676379 0 -0.098824778170087071 0.41543684488035082 0 -0.088182147633458732 0.41800250947059109 0 -0.092626744140319878 0.40339206391310989 0 -0.08120551215388104 0.43114984732248018 0 -0.071684821312473307 0.43663440229273398 0 -0.093222345705159748 0.44373923815992428 0 -0.097026127818036836 0.42472771569137829 0 -0.088182147633458732 0.41800250947059109 0 -0.08120551215388104 0.43114984732248018 0 -0.1064787913094135 0.43730588845956792 0 -0.08120551215388104 0.43114984732248018 0 -0.093222345705159748 0.44373923815992428 0 -0.065135249615538293 0.42231944082984091 0 -0.071684821312473307 0.43663440229273398 0 -0.055943765893954757 0.43144171565494821 0 -0.065135249615538293 0.42231944082984091 0 -0.071684821312473307 0.43663440229273398 0 -0.075766822878524695 0.41019172804676379 0 -0.08120551215388104 0.43114984732248018 0 -0.071684821312473307 0.43663440229273398 0 -0.075766822878524695 0.41019172804676379 0 -0.071684821312473307 0.43663440229273398 0 -0.055943765893954757 0.43144171565494821 0 -0.071684821312473307 0.43663440229273398 0 -0.075766822878524695 0.41019172804676379 0 -0.065135249615538293 0.42231944082984091 0 -0.075766822878524695 0.41019172804676379 0 -0.05600936231039217 0.41342904923233581 0 -0.075766822878524695 0.41019172804676379 0 -0.063299398534094969 0.39691509799282482 0 -0.05600936231039217 0.41342904923233581 0 -0.075766822878524695 0.41019172804676379 0 -0.063299398534094969 0.39691509799282482 0 -0.079848824444575958 0.38374905380079372 0 -0.075766822878524695 0.41019172804676379 0 -0.079848824444575958 0.38374905380079372 0 -0.10335637586111809 0.38776536102133979 0 -0.092626744140319878 0.40339206391310989 0 -0.079848824444575958 0.38374905380079372 0 -0.075766822878524695 0.41019172804676379 0 -0.092626744140319878 0.40339206391310989 0 -0.079848824444575958 0.38374905380079372 0 -0.096975471326963783 0.37148378381343322 0 -0.10335637586111809 0.38776536102133979 0 -0.079848824444575958 0.38374905380079372 0 -0.06521228616511808 0.36405037212009378 0 -0.079848824444575958 0.38374905380079372 0 -0.056355392512392112 0.37995563405969551 0 -0.063299398534094969 0.39691509799282482 0 -0.079848824444575958 0.38374905380079372 0 -0.056355392512392112 0.37995563405969551 0 -0.063299398534094969 0.39691509799282482 0 -0.056355392512392112 0.37995563405969551 0 -0.048516590524589932 0.3972500248245352 0 -0.063299398534094969 0.39691509799282482 0 -0.048516590524589932 0.3972500248245352 0 -0.05600936231039217 0.41342904923233581 0 -0.048516590524589932 0.3972500248245352 0 -0.032850518460687449 0.39898186447299261 0 -0.037770955976974781 0.41204834058667128 0 -0.048516590524589932 0.3972500248245352 0 -0.032850518460687449 0.39898186447299261 0 -0.033696569954803593 0.38151106350699548 0 -0.056355392512392112 0.37995563405969551 0 -0.048516590524589932 0.3972500248245352 0 -0.033696569954803593 0.38151106350699548 0 -0.017975249263795932 0.36469023687930041 0 -0.033696569954803593 0.38151106350699548 0 -0.017202423973373768 0.37968737263981228 0 -0.033696569954803593 0.38151106350699548 0 -0.017202423973373768 0.37968737263981228 0 -0.018646700241063071 0.39302480292672293 0 -0.018646700241063071 0.39302480292672293 0 -0.0081246324890641812 0.40805065625530412 0 -0.02380123978217763 0.41023834757766542 0 -0.032850518460687449 0.39898186447299261 0 -0.018646700241063071 0.39302480292672293 0 -0.02380123978217763 0.41023834757766542 0 -0.032850518460687449 0.39898186447299261 0 -0.033696569954803593 0.38151106350699548 0 -0.018646700241063071 0.39302480292672293 0 -0.018646700241063071 0.39302480292672293 0 -0.0081246324890641812 0.40805065625530412 0 0.0058412231562265226 0.39891749499975832 0 -0.018646700241063071 0.39302480292672293 0 -0.0036227877329230301 0.37947700469323042 0 0.0058412231562265226 0.39891749499975832 0 -0.017202423973373768 0.37968737263981228 0 -0.018646700241063071 0.39302480292672293 0 -0.0036227877329230301 0.37947700469323042 0 -0.0072392309157056894 0.43649428994281841 0 -0.01082192781792536 0.4212785973985777 0 -0.025245314308565012 0.42614172839533782 0 -0.0072392309157056894 0.43649428994281841 0 -0.01082192781792536 0.4212785973985777 0 0.0059488009041311612 0.41735624870114602 0 -0.0081246324890641812 0.40805065625530412 0 -0.01082192781792536 0.4212785973985777 0 -0.02380123978217763 0.41023834757766542 0 -0.0081246324890641812 0.40805065625530412 0 -0.01082192781792536 0.4212785973985777 0 0.0059488009041311612 0.41735624870114602 0 -0.02380123978217763 0.41023834757766542 0 -0.025245314308565012 0.42614172839533782 0 -0.037770955976974781 0.41204834058667128 0 -0.01082192781792536 0.4212785973985777 0 -0.02380123978217763 0.41023834757766542 0 -0.025245314308565012 0.42614172839533782 0 -0.0072392309157056894 0.43649428994281841 0 -0.025245314308565012 0.42614172839533782 0 -0.027102965719072159 0.44246949839488359 0 -0.025245314308565012 0.42614172839533782 0 -0.040202710475436512 0.4262490290171615 0 -0.027102965719072159 0.44246949839488359 0 -0.040202710475436512 0.4262490290171615 0 -0.037770955976974781 0.41204834058667128 0 -0.05600936231039217 0.41342904923233581 0 -0.032850518460687449 0.39898186447299261 0 -0.02380123978217763 0.41023834757766542 0 -0.037770955976974781 0.41204834058667128 0 -0.025245314308565012 0.42614172839533782 0 -0.040202710475436512 0.4262490290171615 0 -0.037770955976974781 0.41204834058667128 0 -0.048516590524589932 0.3972500248245352 0 -0.037770955976974781 0.41204834058667128 0 -0.05600936231039217 0.41342904923233581 0 -0.040202710475436512 0.4262490290171615 0 -0.055943765893954757 0.43144171565494821 0 -0.065135249615538293 0.42231944082984091 0 -0.05600936231039217 0.41342904923233581 0 -0.055943765893954757 0.43144171565494821 0 -0.040202710475436512 0.4262490290171615 0 -0.055943765893954757 0.43144171565494821 0 -0.044517274739645132 0.44459183642540612 0 -0.040202710475436512 0.4262490290171615 0 -0.05600936231039217 0.41342904923233581 0 -0.055943765893954757 0.43144171565494821 0 -0.058335943557526457 0.44624868987483279 0 -0.051109653666529857 0.46081922680591902 0 -0.044517274739645132 0.44459183642540612 0 -0.071684821312473307 0.43663440229273398 0 -0.055943765893954757 0.43144171565494821 0 -0.058335943557526457 0.44624868987483279 0 -0.055943765893954757 0.43144171565494821 0 -0.058335943557526457 0.44624868987483279 0 -0.044517274739645132 0.44459183642540612 0 -0.051109653666529857 0.46081922680591902 0 -0.065163583037585071 0.47887813409757868 0 -0.068424202175029258 0.45775626819515641 0 -0.058335943557526457 0.44624868987483279 0 -0.051109653666529857 0.46081922680591902 0 -0.068424202175029258 0.45775626819515641 0 -0.051109653666529857 0.46081922680591902 0 -0.032757904119458489 0.46093040696708881 0 -0.044531910374045837 0.48023148171387958 0 -0.051109653666529857 0.46081922680591902 0 -0.032757904119458489 0.46093040696708881 0 -0.044517274739645132 0.44459183642540612 0 -0.040202710475436512 0.4262490290171615 0 -0.044517274739645132 0.44459183642540612 0 -0.027102965719072159 0.44246949839488359 0 -0.032757904119458489 0.46093040696708881 0 -0.044517274739645132 0.44459183642540612 0 -0.027102965719072159 0.44246949839488359 0 -0.0072392309157056894 0.43649428994281841 0 -0.027102965719072159 0.44246949839488359 0 -0.01461213653914459 0.45725057482734738 0 -0.032757904119458489 0.46093040696708881 0 -0.027102965719072159 0.44246949839488359 0 -0.01461213653914459 0.45725057482734738 0 -0.032757904119458489 0.46093040696708881 0 -0.01461213653914459 0.45725057482734738 0 -0.02185909025790168 0.48076112241269181 0 -0.01461213653914459 0.45725057482734738 0 -0.003089566724048357 0.47326761514296101 0 0.0026031304198410629 0.45131346537392758 0 -0.0072392309157056894 0.43649428994281841 0 -0.01461213653914459 0.45725057482734738 0 0.0026031304198410629 0.45131346537392758 0 -0.0068935706251778139 0.5 0 -0.003089566724048357 0.47326761514296101 0 -0.02185909025790168 0.48076112241269181 0 -0.01461213653914459 0.45725057482734738 0 -0.003089566724048357 0.47326761514296101 0 -0.02185909025790168 0.48076112241269181 0 -0.0068935706251778139 0.5 0 -0.02185909025790168 0.48076112241269181 0 -0.034398267262659273 0.5 0 -0.02185909025790168 0.48076112241269181 0 -0.034398267262659273 0.5 0 -0.044531910374045837 0.48023148171387958 0 -0.032757904119458489 0.46093040696708881 0 -0.02185909025790168 0.48076112241269181 0 -0.044531910374045837 0.48023148171387958 0 -0.051109653666529857 0.46081922680591902 0 -0.044531910374045837 0.48023148171387958 0 -0.065163583037585071 0.47887813409757868 0 -0.044531910374045837 0.48023148171387958 0 -0.061902963900140731 0.50000000000000089 0 -0.065163583037585071 0.47887813409757868 0 -0.034398267262659273 0.5 0 -0.044531910374045837 0.48023148171387958 0 -0.061902963900140731 0.50000000000000089 0 -0.061902963900140731 0.50000000000000089 0 -0.065163583037585071 0.47887813409757868 0 -0.061902963900140731 0.50000000000000089 0 -0.077838109667281524 0.48710250329852411 0 -0.087854509421354754 0.5 0 -0.061902963900140731 0.50000000000000089 0 -0.077838109667281524 0.48710250329852411 0 -0.065163583037585071 0.47887813409757868 0 -0.077838109667281524 0.48710250329852411 0 -0.087854509421354754 0.5 0 -0.093631833857276997 0.48378290981445132 0 -0.077838109667281524 0.48710250329852411 0 -0.093631833857276997 0.48378290981445132 0 -0.080637658120050082 0.47285147258059063 0 -0.093631833857276997 0.48378290981445132 0 -0.080637658120050082 0.47285147258059063 0 -0.095304075467821936 0.46893627996427029 0 -0.080637658120050082 0.47285147258059063 0 -0.065163583037585071 0.47887813409757868 0 -0.068424202175029258 0.45775626819515641 0 -0.077838109667281524 0.48710250329852411 0 -0.080637658120050082 0.47285147258059063 0 -0.065163583037585071 0.47887813409757868 0 -0.065163583037585071 0.47887813409757868 0 -0.068424202175029258 0.45775626819515641 0 -0.068424202175029258 0.45775626819515641 0 -0.079579065155363032 0.44906004053067289 0 -0.084984891428789844 0.45811025347487683 0 -0.080637658120050082 0.47285147258059063 0 -0.068424202175029258 0.45775626819515641 0 -0.084984891428789844 0.45811025347487683 0 -0.071684821312473307 0.43663440229273398 0 -0.058335943557526457 0.44624868987483279 0 -0.068424202175029258 0.45775626819515641 0 -0.071684821312473307 0.43663440229273398 0 -0.068424202175029258 0.45775626819515641 0 -0.071684821312473307 0.43663440229273398 0 -0.068424202175029258 0.45775626819515641 0 -0.079579065155363032 0.44906004053067289 0 -0.071684821312473307 0.43663440229273398 0 -0.079579065155363032 0.44906004053067289 0 -0.093222345705159748 0.44373923815992428 0 -0.071684821312473307 0.43663440229273398 0 -0.093222345705159748 0.44373923815992428 0 -0.079579065155363032 0.44906004053067289 0 -0.093222345705159748 0.44373923815992428 0 -0.084984891428789844 0.45811025347487683 0 -0.093222345705159748 0.44373923815992428 0 -0.084984891428789844 0.45811025347487683 0 -0.099437105326258865 0.45731761566948659 0 -0.084984891428789844 0.45811025347487683 0 -0.099437105326258865 0.45731761566948659 0 -0.095304075467821936 0.46893627996427029 0 -0.080637658120050082 0.47285147258059063 0 -0.084984891428789844 0.45811025347487683 0 -0.095304075467821936 0.46893627996427029 0 -0.099437105326258865 0.45731761566948659 0 -0.10891434393167621 0.46495823272124781 0 -0.095304075467821936 0.46893627996427029 0 -0.099437105326258865 0.45731761566948659 0 -0.10891434393167621 0.46495823272124781 0 -0.11475987009784661 0.45084407402711402 0 -0.093222345705159748 0.44373923815992428 0 -0.099437105326258865 0.45731761566948659 0 -0.11475987009784661 0.45084407402711402 0 -0.1064787913094135 0.43730588845956792 0 -0.093222345705159748 0.44373923815992428 0 -0.11475987009784661 0.45084407402711402 0 -0.093222345705159748 0.44373923815992428 0 -0.11475987009784661 0.45084407402711402 0 -0.13175207046494611 0.44346192959665548 0 -0.1064787913094135 0.43730588845956792 0 -0.13175207046494611 0.44346192959665548 0 -0.1064787913094135 0.43730588845956792 0 -0.11475987009784661 0.45084407402711402 0 -0.1336307511693739 0.45491465667522191 0 -0.12544051825853689 0.4631374593356033 0 -0.11475987009784661 0.45084407402711402 0 -0.12544051825853689 0.4631374593356033 0 -0.10891434393167621 0.46495823272124781 0 -0.1136160252334053 0.47771856728300521 0 -0.12544051825853689 0.4631374593356033 0 -0.10891434393167621 0.46495823272124781 0 -0.11475987009784661 0.45084407402711402 0 -0.13298062755884579 0.48255116261061692 0 -0.12544051825853689 0.4631374593356033 0 -0.1136160252334053 0.47771856728300521 0 -0.13298062755884579 0.48255116261061692 0 -0.1058458182692171 0.49480807365413371 0 -0.13298062755884579 0.48255116261061692 0 -0.11380605494256869 0.5 0 -0.1058458182692171 0.49480807365413371 0 -0.13298062755884579 0.48255116261061692 0 -0.1136160252334053 0.47771856728300521 0 -0.1058458182692171 0.49480807365413371 0 -0.087854509421354754 0.5 0 -0.11380605494256869 0.5 0 -0.1058458182692171 0.49480807365413371 0 -0.087854509421354754 0.5 0 -0.093631833857276997 0.48378290981445132 0 -0.1058458182692171 0.49480807365413371 0 -0.1136160252334053 0.47771856728300521 0 -0.1058458182692171 0.49480807365413371 0 -0.1043559736166358 0.48381945471134902 0 -0.093631833857276997 0.48378290981445132 0 -0.1058458182692171 0.49480807365413371 0 -0.1043559736166358 0.48381945471134902 0 -0.093631833857276997 0.48378290981445132 0 -0.1048057889081305 0.47442420204765762 0 -0.1043559736166358 0.48381945471134902 0 -0.093631833857276997 0.48378290981445132 0 -0.095304075467821936 0.46893627996427029 0 -0.1048057889081305 0.47442420204765762 0 -0.10891434393167621 0.46495823272124781 0 -0.1136160252334053 0.47771856728300521 0 -0.1048057889081305 0.47442420204765762 0 -0.10891434393167621 0.46495823272124781 0 -0.095304075467821936 0.46893627996427029 0 -0.1048057889081305 0.47442420204765762 0 -0.1136160252334053 0.47771856728300521 0 -0.1048057889081305 0.47442420204765762 0 -0.1043559736166358 0.48381945471134902 0 -0.16372231175516949 0.08442819848465731 0 -0.15093626356447659 0.087069345181943508 0 -0.15518952671466241 0.069788713381716036 0 -0.16372231175516949 0.08442819848465731 0 -0.1756345505012066 0.070889783495268699 0 -0.1751333004977583 0.097143888168289519 0 -0.16372231175516949 0.08442819848465731 0 -0.1751333004977583 0.097143888168289519 0 -0.16171791749774381 0.097249262196068775 0 -0.16372231175516949 0.08442819848465731 0 -0.16171791749774381 0.097249262196068775 0 -0.15093626356447659 0.087069345181943508 0 -0.16372231175516949 0.08442819848465731 0 -0.1756345505012066 0.070889783495268699 0 -0.15518952671466241 0.069788713381716036 0 -0.1756345505012066 0.070889783495268699 0 -0.15518952671466241 0.069788713381716036 0 -0.16223695238926561 0.052594200190125132 0 -0.1756345505012066 0.070889783495268699 0 -0.19053419445951161 0.052610770621845292 0 -0.19612483249420401 0.068091746174319415 0 -0.1756345505012066 0.070889783495268699 0 -0.18871947576181089 0.093673214670465021 0 -0.19612483249420401 0.068091746174319415 0 -0.1756345505012066 0.070889783495268699 0 -0.1751333004977583 0.097143888168289519 0 -0.1756345505012066 0.070889783495268699 0 -0.1751333004977583 0.097143888168289519 0 -0.18871947576181089 0.093673214670465021 0 -0.18131411902941769 0.11925468316661041 0 -0.18871947576181089 0.093673214670465021 0 -0.1751333004977583 0.097143888168289519 0 -0.18131411902941769 0.11925468316661041 0 -0.18871947576181089 0.093673214670465021 0 -0.1751333004977583 0.097143888168289519 0 -0.17463205049430791 0.1233979928413103 0 -0.18131411902941769 0.11925468316661041 0 -0.17463205049430791 0.1233979928413103 0 -0.19892457962824481 0.1205653340059829 0 -0.17463205049430791 0.1233979928413103 0 -0.19892457962824481 0.1205653340059829 0 -0.18530606321329801 0.12949084902847491 0 -0.1751333004977583 0.097143888168289519 0 -0.18131411902941769 0.11925468316661041 0 -0.17463205049430791 0.1233979928413103 0 -0.17463205049430791 0.1233979928413103 0 -0.19892457962824481 0.1205653340059829 0 -0.1751333004977583 0.097143888168289519 0 -0.17463205049430791 0.1233979928413103 0 -0.165591889364022 0.1100935584672583 0 -0.17463205049430791 0.1233979928413103 0 -0.1598554046101329 0.12512104095579701 0 -0.17463205049430791 0.1233979928413103 0 -0.16396547557359309 0.1179523604009539 0 -0.1598554046101329 0.12512104095579701 0 -0.17463205049430791 0.1233979928413103 0 -0.165591889364022 0.1100935584672583 0 -0.16396547557359309 0.1179523604009539 0 -0.165591889364022 0.1100935584672583 0 -0.16396547557359309 0.1179523604009539 0 -0.1557825578259103 0.11319684933944919 0 -0.16396547557359309 0.1179523604009539 0 -0.1557825578259103 0.11319684933944919 0 -0.1598554046101329 0.12512104095579701 0 -0.1751333004977583 0.097143888168289519 0 -0.165591889364022 0.1100935584672583 0 -0.16171791749774381 0.097249262196068775 0 -0.165591889364022 0.1100935584672583 0 -0.1513048045227823 0.10252569531319269 0 -0.1557825578259103 0.11319684933944919 0 -0.165591889364022 0.1100935584672583 0 -0.16171791749774381 0.097249262196068775 0 -0.1513048045227823 0.10252569531319269 0 -0.1513048045227823 0.10252569531319269 0 -0.1355182161913136 0.10914070680675041 0 -0.13964798444238999 0.092855372928561969 0 -0.16171791749774381 0.097249262196068775 0 -0.1513048045227823 0.10252569531319269 0 -0.15093626356447659 0.087069345181943508 0 -0.1513048045227823 0.10252569531319269 0 -0.1557825578259103 0.11319684933944919 0 -0.1355182161913136 0.10914070680675041 0 -0.1513048045227823 0.10252569531319269 0 -0.13964798444238999 0.092855372928561969 0 -0.15093626356447659 0.087069345181943508 0 -0.1557825578259103 0.11319684933944919 0 -0.1355182161913136 0.10914070680675041 0 -0.1598554046101329 0.12512104095579701 0 -0.1355182161913136 0.10914070680675041 0 -0.1598554046101329 0.12512104095579701 0 -0.14280445220814469 0.1192500300409249 0 -0.1598554046101329 0.12512104095579701 0 -0.13922952195075211 0.12752614618091959 0 -0.14280445220814469 0.1192500300409249 0 -0.1355182161913136 0.10914070680675041 0 -0.1598554046101329 0.12512104095579701 0 -0.13074244959953979 0.11946175785799951 0 -0.1355182161913136 0.10914070680675041 0 -0.123743476780604 0.10140915347104661 0 -0.14280445220814469 0.1192500300409249 0 -0.13074244959953979 0.11946175785799951 0 -0.13922952195075211 0.12752614618091959 0 -0.14280445220814469 0.1192500300409249 0 -0.1355182161913136 0.10914070680675041 0 -0.14280445220814469 0.1192500300409249 0 -0.13074244959953979 0.11946175785799951 0 -0.1355182161913136 0.10914070680675041 0 -0.1355182161913136 0.10914070680675041 0 -0.12576525993317081 0.095608920700106598 0 -0.13964798444238999 0.092855372928561969 0 -0.1355182161913136 0.10914070680675041 0 -0.12576525993317081 0.095608920700106598 0 -0.1355182161913136 0.10914070680675041 0 -0.12576525993317081 0.095608920700106598 0 -0.123743476780604 0.10140915347104661 0 -0.1355182161913136 0.10914070680675041 0 -0.123743476780604 0.10140915347104661 0 -0.12576525993317081 0.095608920700106598 0 -0.13964798444238999 0.092855372928561969 0 -0.13471537800020611 0.069932196640817734 0 -0.12576525993317081 0.095608920700106598 0 -0.13471537800020611 0.069932196640817734 0 -0.1158200249735767 0.081810356583590621 0 -0.12576525993317081 0.095608920700106598 0 -0.13471537800020611 0.069932196640817734 0 -0.13964798444238999 0.092855372928561969 0 -0.15093626356447659 0.087069345181943508 0 -0.13471537800020611 0.069932196640817734 0 -0.15093626356447659 0.087069345181943508 0 -0.15518952671466241 0.069788713381716036 0 -0.13471537800020611 0.069932196640817734 0 -0.13471537800020611 0.069932196640817734 0 -0.12657932631233151 0.049909814768299969 0 -0.1143187324205953 0.061132814960732959 0 -0.13471537800020611 0.069932196640817734 0 -0.14366549606724091 0.044255472581528732 0 -0.13471537800020611 0.069932196640817734 0 -0.12657932631233151 0.049909814768299969 0 -0.14366549606724091 0.044255472581528732 0 -0.12657932631233151 0.049909814768299969 0 -0.1284208098020175 0.033179877632891097 0 -0.14366549606724091 0.044255472581528732 0 -0.1284208098020175 0.033179877632891097 0 -0.14366549606724091 0.044255472581528732 0 -0.1467564914265658 0.025061264112791169 0 -0.14366549606724091 0.044255472581528732 0 -0.16223695238926561 0.052594200190125132 0 -0.1605593881585633 0.033401352669864208 0 -0.14366549606724091 0.044255472581528732 0 -0.1467564914265658 0.025061264112791169 0 -0.1605593881585633 0.033401352669864208 0 -0.15518952671466241 0.069788713381716036 0 -0.13471537800020611 0.069932196640817734 0 -0.14366549606724091 0.044255472581528732 0 -0.15518952671466241 0.069788713381716036 0 -0.14366549606724091 0.044255472581528732 0 -0.16223695238926561 0.052594200190125132 0 -0.13137048688310951 -0.003337023478303953 0 -0.13460564055411489 0.01723703355858653 0 -0.11131614731463491 0.019777731715017489 0 -0.13137048688310951 -0.003337023478303953 0 -0.13460564055411489 0.01723703355858653 0 -0.1433170204333889 0.0042533116210359059 0 -0.13137048688310951 -0.003337023478303953 0 -0.1433170204333889 0.0042533116210359059 0 -0.1284208098020175 0.033179877632891097 0 -0.13460564055411489 0.01723703355858653 0 -0.1467564914265658 0.025061264112791169 0 -0.13460564055411489 0.01723703355858653 0 -0.1467564914265658 0.025061264112791169 0 -0.15542372099760421 0.0119454102405231 0 -0.1467564914265658 0.025061264112791169 0 -0.15542372099760421 0.0119454102405231 0 -0.1605593881585633 0.033401352669864208 0 -0.13460564055411489 0.01723703355858653 0 -0.15542372099760421 0.0119454102405231 0 -0.1433170204333889 0.0042533116210359059 0 -0.15542372099760421 0.0119454102405231 0 -0.1433170204333889 0.0042533116210359059 0 -0.1564869492866878 -0.00059129627401754796 0 -0.15542372099760421 0.0119454102405231 0 -0.1433170204333889 0.0042533116210359059 0 -0.15542372099760421 0.0119454102405231 0 -0.17947695511209899 0.027227843959349921 0 -0.17208342559322409 0.0058404778805985873 0 -0.1564869492866878 -0.00059129627401754796 0 -0.15542372099760421 0.0119454102405231 0 -0.17208342559322409 0.0058404778805985873 0 -0.15542372099760421 0.0119454102405231 0 -0.17947695511209899 0.027227843959349921 0 -0.1605593881585633 0.033401352669864208 0 -0.15542372099760421 0.0119454102405231 0 -0.17947695511209899 0.027227843959349921 0 -0.18418091461086311 -0.0067458590849352237 0 -0.17208342559322409 0.0058404778805985873 0 -0.19246094727398991 0.01350162855121731 0 -0.17947695511209899 0.027227843959349921 0 -0.17208342559322409 0.0058404778805985873 0 -0.19246094727398991 0.01350162855121731 0 -0.1756345505012066 0.070889783495268699 0 -0.16223695238926561 0.052594200190125132 0 -0.17613580050465499 0.044635678822247941 0 -0.16223695238926561 0.052594200190125132 0 -0.1605593881585633 0.033401352669864208 0 -0.17613580050465499 0.044635678822247941 0 -0.17947695511209899 0.027227843959349921 0 -0.17613580050465499 0.044635678822247941 0 -0.19053419445951161 0.052610770621845292 0 -0.17947695511209899 0.027227843959349921 0 -0.1605593881585633 0.033401352669864208 0 -0.17613580050465499 0.044635678822247941 0 -0.1756345505012066 0.070889783495268699 0 -0.17613580050465499 0.044635678822247941 0 -0.1756345505012066 0.070889783495268699 0 -0.17613580050465499 0.044635678822247941 0 -0.19053419445951161 0.052610770621845292 0 -0.20353018922659619 0.042510277678173593 0 -0.19612483249420401 0.068091746174319415 0 -0.19053419445951161 0.052610770621845292 0 -0.20353018922659619 0.042510277678173593 0 -0.19612483249420401 0.068091746174319415 0 -0.17947695511209899 0.027227843959349921 0 -0.20353018922659619 0.042510277678173593 0 -0.17947695511209899 0.027227843959349921 0 -0.19053419445951161 0.052610770621845292 0 -0.20353018922659619 0.042510277678173593 0 -0.20353018922659619 0.042510277678173593 0 -0.21955159654467851 0.052689619643397433 0 -0.22113039192623851 0.032431486205985689 0 -0.20353018922659619 0.042510277678173593 0 -0.2127216369241372 0.066942535097736622 0 -0.19612483249420401 0.068091746174319415 0 -0.20353018922659619 0.042510277678173593 0 -0.21955159654467851 0.052689619643397433 0 -0.20353018922659619 0.042510277678173593 0 -0.21955159654467851 0.052689619643397433 0 -0.2127216369241372 0.066942535097736622 0 -0.2008908429601583 -0.001101000049535744 0 -0.19246094727398991 0.01350162855121731 0 -0.21117588750041991 0.016098560242972841 0 -0.18418091461086311 -0.0067458590849352237 0 -0.2008908429601583 -0.001101000049535744 0 -0.19246094727398991 0.01350162855121731 0 -0.17947695511209899 0.027227843959349921 0 -0.20353018922659619 0.042510277678173593 0 -0.19246094727398991 0.01350162855121731 0 -0.20353018922659619 0.042510277678173593 0 -0.19246094727398991 0.01350162855121731 0 -0.21117588750041991 0.016098560242972841 0 -0.20353018922659619 0.042510277678173593 0 -0.21117588750041991 0.016098560242972841 0 -0.22113039192623851 0.032431486205985689 0 -0.20353018922659619 0.042510277678173593 0 -0.21117588750041991 0.016098560242972841 0 -0.21882158577424271 -0.0103131571922281 0 -0.21117588750041991 0.016098560242972841 0 -0.2008908429601583 -0.001101000049535744 0 -0.21882158577424271 -0.0103131571922281 0 -0.21117588750041991 0.016098560242972841 0 -0.21882158577424271 -0.0103131571922281 0 -0.21117588750041991 0.016098560242972841 0 -0.23546354233931949 0.0078270751002715265 0 -0.23546354233931949 0.0078270751002715265 0 -0.22113039192623851 0.032431486205985689 0 -0.24192231969137759 0.032530148466345048 0 -0.21117588750041991 0.016098560242972841 0 -0.23546354233931949 0.0078270751002715265 0 -0.22113039192623851 0.032431486205985689 0 -0.26249405175029211 0.007662734938978108 0 -0.23546354233931949 0.0078270751002715265 0 -0.24192231969137759 0.032530148466345048 0 -0.21955159654467851 0.052689619643397433 0 -0.235573003862763 0.062868961608618018 0 -0.21955159654467851 0.052689619643397433 0 -0.235573003862763 0.062868961608618018 0 -0.2127216369241372 0.066942535097736622 0 -0.21955159654467851 0.052689619643397433 0 -0.24450296286368231 0.049373315754277197 0 -0.235573003862763 0.062868961608618018 0 -0.21955159654467851 0.052689619643397433 0 -0.22113039192623851 0.032431486205985689 0 -0.24192231969137759 0.032530148466345048 0 -0.21955159654467851 0.052689619643397433 0 -0.24192231969137759 0.032530148466345048 0 -0.24450296286368231 0.049373315754277197 0 -0.2559826395353394 0.061597363551489349 0 -0.24450296286368231 0.049373315754277197 0 -0.235573003862763 0.062868961608618018 0 -0.2559826395353394 0.061597363551489349 0 -0.235573003862763 0.062868961608618018 0 -0.24672703352553629 0.080158677613093823 0 -0.235573003862763 0.062868961608618018 0 -0.24672703352553629 0.080158677613093823 0 -0.2291931736768115 0.079240865998811236 0 -0.24672703352553629 0.080158677613093823 0 -0.2291931736768115 0.079240865998811236 0 -0.23621836434907981 0.095400964388867249 0 -0.25734245126200062 0.1014160866788785 0 -0.24672703352553629 0.080158677613093823 0 -0.23621836434907981 0.095400964388867249 0 -0.2291931736768115 0.079240865998811236 0 -0.21482055865464289 0.083254774020096164 0 -0.2224133943648228 0.095863443882093446 0 -0.2291931736768115 0.079240865998811236 0 -0.2224133943648228 0.095863443882093446 0 -0.23621836434907981 0.095400964388867249 0 -0.235573003862763 0.062868961608618018 0 -0.2291931736768115 0.079240865998811236 0 -0.2127216369241372 0.066942535097736622 0 -0.2291931736768115 0.079240865998811236 0 -0.2127216369241372 0.066942535097736622 0 -0.21482055865464289 0.083254774020096164 0 -0.2127216369241372 0.066942535097736622 0 -0.21482055865464289 0.083254774020096164 0 -0.203099952488771 0.082051867707200909 0 -0.2127216369241372 0.066942535097736622 0 -0.203099952488771 0.082051867707200909 0 -0.19612483249420401 0.068091746174319415 0 -0.21482055865464289 0.083254774020096164 0 -0.203099952488771 0.082051867707200909 0 -0.20375886312158339 0.098403164090322431 0 -0.21482055865464289 0.083254774020096164 0 -0.20375886312158339 0.098403164090322431 0 -0.2224133943648228 0.095863443882093446 0 -0.203099952488771 0.082051867707200909 0 -0.18871947576181089 0.093673214670465021 0 -0.19612483249420401 0.068091746174319415 0 -0.203099952488771 0.082051867707200909 0 -0.18871947576181089 0.093673214670465021 0 -0.20375886312158339 0.098403164090322431 0 -0.18871947576181089 0.093673214670465021 0 -0.19612483249420401 0.068091746174319415 0 -0.18131411902941769 0.11925468316661041 0 -0.19892457962824481 0.1205653340059829 0 -0.19516396372389291 0.10855896077987801 0 -0.19892457962824481 0.1205653340059829 0 -0.19516396372389291 0.10855896077987801 0 -0.2064149638336307 0.1103678524700213 0 -0.18131411902941769 0.11925468316661041 0 -0.18871947576181089 0.093673214670465021 0 -0.19516396372389291 0.10855896077987801 0 -0.18871947576181089 0.093673214670465021 0 -0.19516396372389291 0.10855896077987801 0 -0.20375886312158339 0.098403164090322431 0 -0.19516396372389291 0.10855896077987801 0 -0.20375886312158339 0.098403164090322431 0 -0.2064149638336307 0.1103678524700213 0 -0.20375886312158339 0.098403164090322431 0 -0.21522430961498251 0.1066047727861448 0 -0.2064149638336307 0.1103678524700213 0 -0.20375886312158339 0.098403164090322431 0 -0.21522430961498251 0.1066047727861448 0 -0.2224133943648228 0.095863443882093446 0 -0.19892457962824481 0.1205653340059829 0 -0.2064149638336307 0.1103678524700213 0 -0.22321710876218179 0.117732675170656 0 -0.19892457962824481 0.1205653340059829 0 -0.22321710876218179 0.117732675170656 0 -0.21198243415042209 0.1273270768851994 0 -0.19892457962824481 0.1205653340059829 0 -0.22321710876218179 0.117732675170656 0 -0.21522430961498251 0.1066047727861448 0 -0.2064149638336307 0.1103678524700213 0 -0.22321710876218179 0.117732675170656 0 -0.22321710876218179 0.117732675170656 0 -0.22699489982736379 0.11729216141517949 0 -0.22321710876218179 0.117732675170656 0 -0.22699489982736379 0.11729216141517949 0 -0.22407622611686431 0.1086811689817279 0 -0.21522430961498251 0.1066047727861448 0 -0.22321710876218179 0.117732675170656 0 -0.21522430961498251 0.1066047727861448 0 -0.22321710876218179 0.117732675170656 0 -0.22407622611686431 0.1086811689817279 0 -0.22699489982736379 0.11729216141517949 0 -0.22407622611686431 0.1086811689817279 0 -0.23779668997176759 0.1099640720218579 0 -0.21522430961498251 0.1066047727861448 0 -0.2224133943648228 0.095863443882093446 0 -0.22407622611686431 0.1086811689817279 0 -0.22407622611686431 0.1086811689817279 0 -0.23621836434907981 0.095400964388867249 0 -0.23779668997176759 0.1099640720218579 0 -0.2224133943648228 0.095863443882093446 0 -0.22407622611686431 0.1086811689817279 0 -0.23621836434907981 0.095400964388867249 0 -0.25734245126200062 0.1014160866788785 0 -0.23621836434907981 0.095400964388867249 0 -0.23779668997176759 0.1099640720218579 0 -0.25734245126200062 0.1014160866788785 0 -0.23779668997176759 0.1099640720218579 0 -0.24895710550971339 0.12165530893482571 0 -0.2385801137665676 0.122701518390659 0 -0.23779668997176759 0.1099640720218579 0 -0.24895710550971339 0.12165530893482571 0 -0.22699489982736379 0.11729216141517949 0 -0.2385801137665676 0.122701518390659 0 -0.23779668997176759 0.1099640720218579 0 -0.22699489982736379 0.11729216141517949 0 -0.2385801137665676 0.122701518390659 0 -0.2405717597574257 0.1418945311907728 0 -0.2385801137665676 0.122701518390659 0 -0.24895710550971339 0.12165530893482571 0 -0.2405717597574257 0.1418945311907728 0 -0.25608290515330878 0.14176455504424121 0 -0.24895710550971339 0.12165530893482571 0 -0.2405717597574257 0.1418945311907728 0 -0.24895710550971339 0.12165530893482571 0 -0.2405717597574257 0.1418945311907728 0 -0.22321710876218179 0.117732675170656 0 -0.22354757195218369 0.13155214617265881 0 -0.2405717597574257 0.1418945311907728 0 -0.22321710876218179 0.117732675170656 0 -0.22699489982736379 0.11729216141517949 0 -0.2405717597574257 0.1418945311907728 0 -0.22321710876218179 0.117732675170656 0 -0.2405717597574257 0.1418945311907728 0 -0.22354757195218369 0.13155214617265881 0 -0.22866128532361621 0.14153149423513051 0 -0.2405717597574257 0.1418945311907728 0 -0.21878746546912231 0.1392010645796998 0 -0.22354757195218369 0.13155214617265881 0 -0.22866128532361621 0.14153149423513051 0 -0.21878746546912231 0.1392010645796998 0 -0.22354757195218369 0.13155214617265881 0 -0.2159650745918322 0.13357921232561451 0 -0.22321710876218179 0.117732675170656 0 -0.22354757195218369 0.13155214617265881 0 -0.21198243415042209 0.1273270768851994 0 -0.22866128532361621 0.14153149423513051 0 -0.2405717597574257 0.1418945311907728 0 -0.23379856030635021 0.15824260950785349 0 -0.2220979066771098 0.14976549412664819 0 -0.22866128532361621 0.14153149423513051 0 -0.23379856030635021 0.15824260950785349 0 -0.2220979066771098 0.14976549412664819 0 -0.23379856030635021 0.15824260950785349 0 -0.21909321543322929 0.1606009590281276 0 -0.21878746546912231 0.1392010645796998 0 -0.2220979066771098 0.14976549412664819 0 -0.22866128532361621 0.14153149423513051 0 -0.25072842261960387 0.15603505327837411 0 -0.2405717597574257 0.1418945311907728 0 -0.23379856030635021 0.15824260950785349 0 -0.2405717597574257 0.1418945311907728 0 -0.23379856030635021 0.15824260950785349 0 -0.25072842261960387 0.15603505327837411 0 -0.25608290515330878 0.14176455504424121 0 -0.2405717597574257 0.1418945311907728 0 -0.25072842261960387 0.15603505327837411 0 -0.2405717597574257 0.1418945311907728 0 -0.24346313069296871 0.16633892637512099 0 -0.22702536085527411 0.17459068782493389 0 -0.23379856030635021 0.15824260950785349 0 -0.25072842261960387 0.15603505327837411 0 -0.24346313069296871 0.16633892637512099 0 -0.23379856030635021 0.15824260950785349 0 -0.24593749817207319 0.17922101447869401 0 -0.22702536085527411 0.17459068782493389 0 -0.23531355475386351 0.19206411553567329 0 -0.24346313069296871 0.16633892637512099 0 -0.24593749817207319 0.17922101447869401 0 -0.22702536085527411 0.17459068782493389 0 -0.22702536085527411 0.17459068782493389 0 -0.23531355475386351 0.19206411553567329 0 -0.21668486691279551 0.1896349297876268 0 -0.22702536085527411 0.17459068782493389 0 -0.21909321543322929 0.1606009590281276 0 -0.21078083849551829 0.1734645188772713 0 -0.22702536085527411 0.17459068782493389 0 -0.23379856030635021 0.15824260950785349 0 -0.22702536085527411 0.17459068782493389 0 -0.23379856030635021 0.15824260950785349 0 -0.21909321543322929 0.1606009590281276 0 -0.21909321543322929 0.1606009590281276 0 -0.20917883787537819 0.16210322782447459 0 -0.21014900685323101 0.14925134328242939 0 -0.21909321543322929 0.1606009590281276 0 -0.20917883787537819 0.16210322782447459 0 -0.21078083849551829 0.1734645188772713 0 -0.20917883787537819 0.16210322782447459 0 -0.21078083849551829 0.1734645188772713 0 -0.19690649474481761 0.16930016240990661 0 -0.22702536085527411 0.17459068782493389 0 -0.21078083849551829 0.1734645188772713 0 -0.21668486691279551 0.1896349297876268 0 -0.21078083849551829 0.1734645188772713 0 -0.21668486691279551 0.1896349297876268 0 -0.19675568901559279 0.189567439062066 0 -0.21078083849551829 0.1734645188772713 0 -0.19690649474481761 0.16930016240990661 0 -0.19675568901559279 0.189567439062066 0 -0.19690649474481761 0.16930016240990661 0 -0.19675568901559279 0.189567439062066 0 -0.1806498087268969 0.1809583004820513 0 -0.20917883787537819 0.16210322782447459 0 -0.20149615309500679 0.15718250099910261 0 -0.19690649474481761 0.16930016240990661 0 -0.20149615309500679 0.15718250099910261 0 -0.19690649474481761 0.16930016240990661 0 -0.1900737238031488 0.15648625425656729 0 -0.19690649474481761 0.16930016240990661 0 -0.1900737238031488 0.15648625425656729 0 -0.18329050548046091 0.16641049957591181 0 -0.1900737238031488 0.15648625425656729 0 -0.1892816596668532 0.14729824464464031 0 -0.18348409084234379 0.15060627553684849 0 -0.1900737238031488 0.15648625425656729 0 -0.19814782504055481 0.14911065488519101 0 -0.1892816596668532 0.14729824464464031 0 -0.20149615309500679 0.15718250099910261 0 -0.1900737238031488 0.15648625425656729 0 -0.19814782504055481 0.14911065488519101 0 -0.19814782504055481 0.14911065488519101 0 -0.2022681758196824 0.14167303138421811 0 -0.1943649823155553 0.141902467696427 0 -0.19814782504055481 0.14911065488519101 0 -0.1943649823155553 0.141902467696427 0 -0.1892816596668532 0.14729824464464031 0 -0.1943649823155553 0.141902467696427 0 -0.1892816596668532 0.14729824464464031 0 -0.18843187665971381 0.14117764216521481 0 -0.1943649823155553 0.141902467696427 0 -0.18843187665971381 0.14117764216521481 0 -0.1909929067815555 0.135001194222511 0 -0.18843187665971381 0.14117764216521481 0 -0.1909929067815555 0.135001194222511 0 -0.18421136551585299 0.13733957154214979 0 -0.19892457962824481 0.1205653340059829 0 -0.1909929067815555 0.135001194222511 0 -0.18530606321329801 0.12949084902847491 0 -0.19892457962824481 0.1205653340059829 0 -0.1909929067815555 0.135001194222511 0 -0.20124287374027899 0.13384974139548031 0 -0.2022681758196824 0.14167303138421811 0 -0.1943649823155553 0.141902467696427 0 -0.20124287374027899 0.13384974139548031 0 -0.1943649823155553 0.141902467696427 0 -0.1909929067815555 0.135001194222511 0 -0.20124287374027899 0.13384974139548031 0 -0.2022681758196824 0.14167303138421811 0 -0.20124287374027899 0.13384974139548031 0 -0.20954282679560091 0.1362365616649002 0 -0.20124287374027899 0.13384974139548031 0 -0.20954282679560091 0.1362365616649002 0 -0.21198243415042209 0.1273270768851994 0 -0.19892457962824481 0.1205653340059829 0 -0.20124287374027899 0.13384974139548031 0 -0.21198243415042209 0.1273270768851994 0 -0.22354757195218369 0.13155214617265881 0 -0.21198243415042209 0.1273270768851994 0 -0.2159650745918322 0.13357921232561451 0 -0.20954282679560091 0.1362365616649002 0 -0.21198243415042209 0.1273270768851994 0 -0.2159650745918322 0.13357921232561451 0 -0.21878746546912231 0.1392010645796998 0 -0.20954282679560091 0.1362365616649002 0 -0.2159650745918322 0.13357921232561451 0 -0.21878746546912231 0.1392010645796998 0 -0.2220979066771098 0.14976549412664819 0 -0.21014900685323101 0.14925134328242939 0 -0.21878746546912231 0.1392010645796998 0 -0.20954282679560091 0.1362365616649002 0 -0.21014900685323101 0.14925134328242939 0 -0.2220979066771098 0.14976549412664819 0 -0.21909321543322929 0.1606009590281276 0 -0.21014900685323101 0.14925134328242939 0 -0.20149615309500679 0.15718250099910261 0 -0.19814782504055481 0.14911065488519101 0 -0.21014900685323101 0.14925134328242939 0 -0.20917883787537819 0.16210322782447459 0 -0.20149615309500679 0.15718250099910261 0 -0.21014900685323101 0.14925134328242939 0 -0.19814782504055481 0.14911065488519101 0 -0.2022681758196824 0.14167303138421811 0 -0.21014900685323101 0.14925134328242939 0 -0.2022681758196824 0.14167303138421811 0 -0.20954282679560091 0.1362365616649002 0 -0.21014900685323101 0.14925134328242939 0 -0.2254770662958033 0.23770261769940551 0 -0.2355501434136231 0.2478522206023164 0 -0.23301571208005251 0.22631711136445781 0 -0.2254770662958033 0.23770261769940551 0 -0.21946187770755399 0.2272335662722752 0 -0.2144294763495698 0.23954399660221651 0 -0.22222104444170529 0.2467327462878163 0 -0.2254770662958033 0.23770261769940551 0 -0.2144294763495698 0.23954399660221651 0 -0.22222104444170529 0.2467327462878163 0 -0.2254770662958033 0.23770261769940551 0 -0.2355501434136231 0.2478522206023164 0 -0.25210514226647263 0.23555423440704959 0 -0.2355501434136231 0.2478522206023164 0 -0.2466801300010773 0.2452604621424746 0 -0.2355501434136231 0.2478522206023164 0 -0.248734035528067 0.22266264303674471 0 -0.25210514226647263 0.23555423440704959 0 -0.2355501434136231 0.2478522206023164 0 -0.248734035528067 0.22266264303674471 0 -0.23310158204141429 0.25640081827561029 0 -0.2355501434136231 0.2478522206023164 0 -0.2466801300010773 0.2452604621424746 0 -0.25210514226647263 0.23555423440704959 0 -0.2466801300010773 0.2452604621424746 0 -0.25054816238852479 0.24059870715785611 0 -0.25210514226647263 0.23555423440704959 0 -0.2466801300010773 0.2452604621424746 0 -0.25272816581491458 0.21503132644266379 0 -0.23589780562791721 0.22466705357138941 0 -0.2355501434136231 0.2478522206023164 0 -0.23589780562791721 0.22466705357138941 0 -0.23301571208005251 0.22631711136445781 0 -0.2355501434136231 0.2478522206023164 0 -0.248734035528067 0.22266264303674471 0 -0.23589780562791721 0.22466705357138941 0 -0.25272816581491458 0.21503132644266379 0 -0.248734035528067 0.22266264303674471 0 -0.23589780562791721 0.22466705357138941 0 -0.248734035528067 0.22266264303674471 0 -0.23589780562791721 0.22466705357138941 0 -0.23589780562791721 0.22466705357138941 0 -0.23301571208005251 0.22631711136445781 0 -0.23589780562791721 0.22466705357138941 0 -0.21946187770755399 0.2272335662722752 0 -0.225888155969557 0.21631124094479351 0 -0.23589780562791721 0.22466705357138941 0 -0.23301571208005251 0.22631711136445781 0 -0.21946187770755399 0.2272335662722752 0 -0.23589780562791721 0.22466705357138941 0 -0.21946187770755399 0.2272335662722752 0 -0.2254770662958033 0.23770261769940551 0 -0.23301571208005251 0.22631711136445781 0 -0.21946187770755399 0.2272335662722752 0 -0.21946187770755399 0.2272335662722752 0 -0.225888155969557 0.21631124094479351 0 -0.2147498456923036 0.21679580952784941 0 -0.225888155969557 0.21631124094479351 0 -0.2163983660951504 0.20664118688365379 0 -0.2147498456923036 0.21679580952784941 0 -0.225888155969557 0.21631124094479351 0 -0.22900898315534271 0.20498679461036609 0 -0.2163983660951504 0.20664118688365379 0 -0.225888155969557 0.21631124094479351 0 -0.22900898315534271 0.20498679461036609 0 -0.23632785610705401 0.21457891752941979 0 -0.23589780562791721 0.22466705357138941 0 -0.225888155969557 0.21631124094479351 0 -0.23632785610705401 0.21457891752941979 0 -0.25272816581491458 0.21503132644266379 0 -0.23632785610705401 0.21457891752941979 0 -0.24165148627456459 0.20791054123727601 0 -0.25272816581491458 0.21503132644266379 0 -0.23589780562791721 0.22466705357138941 0 -0.23632785610705401 0.21457891752941979 0 -0.25462413856064708 0.2114088186030785 0 -0.24165148627456459 0.20791054123727601 0 -0.23531355475386351 0.19206411553567329 0 -0.25272816581491458 0.21503132644266379 0 -0.25462413856064708 0.2114088186030785 0 -0.24165148627456459 0.20791054123727601 0 -0.22900898315534271 0.20498679461036609 0 -0.23632785610705401 0.21457891752941979 0 -0.24165148627456459 0.20791054123727601 0 -0.25193880530206408 0.19370481573741441 0 -0.24593749817207319 0.17922101447869401 0 -0.23531355475386351 0.19206411553567329 0 -0.25462413856064708 0.2114088186030785 0 -0.23531355475386351 0.19206411553567329 0 -0.25193880530206408 0.19370481573741441 0 -0.25462413856064708 0.2114088186030785 0 -0.23531355475386351 0.19206411553567329 0 -0.22900898315534271 0.20498679461036609 0 -0.24165148627456459 0.20791054123727601 0 -0.23531355475386351 0.19206411553567329 0 -0.22900898315534271 0.20498679461036609 0 -0.21668486691279551 0.1896349297876268 0 -0.2163983660951504 0.20664118688365379 0 -0.22900898315534271 0.20498679461036609 0 -0.23531355475386351 0.19206411553567329 0 -0.21668486691279551 0.1896349297876268 0 -0.21668486691279551 0.1896349297876268 0 -0.20588600075920099 0.20051631774142969 0 -0.2163983660951504 0.20664118688365379 0 -0.21668486691279551 0.1896349297876268 0 -0.20588600075920099 0.20051631774142969 0 -0.19675568901559279 0.189567439062066 0 -0.20588600075920099 0.20051631774142969 0 -0.19675568901559279 0.189567439062066 0 -0.1872373767624223 0.2114249087681892 0 -0.20588600075920099 0.20051631774142969 0 -0.203925412238775 0.2130566048024192 0 -0.1872373767624223 0.2114249087681892 0 -0.203925412238775 0.2130566048024192 0 -0.20302594978719091 0.22980007897316179 0 -0.1872373767624223 0.2114249087681892 0 -0.20588600075920099 0.20051631774142969 0 -0.203925412238775 0.2130566048024192 0 -0.2163983660951504 0.20664118688365379 0 -0.203925412238775 0.2130566048024192 0 -0.2163983660951504 0.20664118688365379 0 -0.2147498456923036 0.21679580952784941 0 -0.21946187770755399 0.2272335662722752 0 -0.20302594978719091 0.22980007897316179 0 -0.2144294763495698 0.23954399660221651 0 -0.21946187770755399 0.2272335662722752 0 -0.20302594978719091 0.22980007897316179 0 -0.21946187770755399 0.2272335662722752 0 -0.2147498456923036 0.21679580952784941 0 -0.20302594978719091 0.22980007897316179 0 -0.203925412238775 0.2130566048024192 0 -0.2147498456923036 0.21679580952784941 0 -0.20302594978719091 0.22980007897316179 0 -0.20302594978719091 0.22980007897316179 0 -0.1861179612628448 0.23220845709977719 0 -0.1872373767624223 0.2114249087681892 0 -0.18859670902218051 0.25052543551881717 0 -0.20132404028626799 0.2438270423260239 0 -0.1861179612628448 0.23220845709977719 0 -0.20302594978719091 0.22980007897316179 0 -0.20132404028626799 0.2438270423260239 0 -0.1861179612628448 0.23220845709977719 0 -0.21371201764358261 0.25214650866738469 0 -0.20132404028626799 0.2438270423260239 0 -0.2144294763495698 0.23954399660221651 0 -0.20302594978719091 0.22980007897316179 0 -0.20132404028626799 0.2438270423260239 0 -0.2144294763495698 0.23954399660221651 0 -0.21371201764358261 0.25214650866738469 0 -0.22222104444170529 0.2467327462878163 0 -0.2144294763495698 0.23954399660221651 0 -0.1613020889038615 0.23837444865205379 0 -0.1765110772481347 0.2431385849621667 0 -0.17254032084098081 0.22750047358122369 0 -0.1593990608277665 0.26226189644582071 0 -0.1613020889038615 0.23837444865205379 0 -0.1765110772481347 0.2431385849621667 0 -0.18859670902218051 0.25052543551881717 0 -0.1765110772481347 0.2431385849621667 0 -0.1861179612628448 0.23220845709977719 0 -0.17254032084098081 0.22750047358122369 0 -0.1861179612628448 0.23220845709977719 0 -0.1872373767624223 0.2114249087681892 0 -0.1765110772481347 0.2431385849621667 0 -0.17254032084098081 0.22750047358122369 0 -0.1861179612628448 0.23220845709977719 0 -0.1613020889038615 0.23837444865205379 0 -0.17254032084098081 0.22750047358122369 0 -0.16320511697995649 0.2144870008582867 0 -0.1613020889038615 0.23837444865205379 0 -0.16320511697995649 0.2144870008582867 0 -0.1529468832891846 0.22419885760078639 0 -0.1613020889038615 0.23837444865205379 0 -0.16320511697995649 0.2144870008582867 0 -0.16320511697995649 0.2144870008582867 0 -0.1872373767624223 0.2114249087681892 0 -0.17633970375998559 0.20030682361007979 0 -0.17254032084098081 0.22750047358122369 0 -0.16320511697995649 0.2144870008582867 0 -0.1872373767624223 0.2114249087681892 0 -0.19675568901559279 0.189567439062066 0 -0.17633970375998559 0.20030682361007979 0 -0.1806498087268969 0.1809583004820513 0 -0.19675568901559279 0.189567439062066 0 -0.1872373767624223 0.2114249087681892 0 -0.17633970375998559 0.20030682361007979 0 -0.17633970375998559 0.20030682361007979 0 -0.16510814505605159 0.19059955306451951 0 -0.1806498087268969 0.1809583004820513 0 -0.16320511697995649 0.2144870008582867 0 -0.16510814505605159 0.19059955306451951 0 -0.16320511697995649 0.2144870008582867 0 -0.17633970375998559 0.20030682361007979 0 -0.16510814505605159 0.19059955306451951 0 -0.16320511697995649 0.2144870008582867 0 -0.16510814505605159 0.19059955306451951 0 -0.15189646247486119 0.19678216421774269 0 -0.15189646247486119 0.19678216421774269 0 -0.1348313290251755 0.19391948141146001 0 -0.14981517013628179 0.1764661855652461 0 -0.15189646247486119 0.19678216421774269 0 -0.1348313290251755 0.19391948141146001 0 -0.1465225511768404 0.20843860018920141 0 -0.16510814505605159 0.19059955306451951 0 -0.15189646247486119 0.19678216421774269 0 -0.14981517013628179 0.1764661855652461 0 -0.1348313290251755 0.19391948141146001 0 -0.1252468427212147 0.2168953735999099 0 -0.1203089118816133 0.20055052938219861 0 -0.1348313290251755 0.19391948141146001 0 -0.1252468427212147 0.2168953735999099 0 -0.1465225511768404 0.20843860018920141 0 -0.16320511697995649 0.2144870008582867 0 -0.1465225511768404 0.20843860018920141 0 -0.1529468832891846 0.22419885760078639 0 -0.16320511697995649 0.2144870008582867 0 -0.15189646247486119 0.19678216421774269 0 -0.1465225511768404 0.20843860018920141 0 -0.1465225511768404 0.20843860018920141 0 -0.14075777609607981 0.2354953807036036 0 -0.1465225511768404 0.20843860018920141 0 -0.1529468832891846 0.22419885760078639 0 -0.14075777609607981 0.2354953807036036 0 -0.1613020889038615 0.23837444865205379 0 -0.1529468832891846 0.22419885760078639 0 -0.14075777609607981 0.2354953807036036 0 -0.1252468427212147 0.2168953735999099 0 -0.1465225511768404 0.20843860018920141 0 -0.14075777609607981 0.2354953807036036 0 -0.1252468427212147 0.2168953735999099 0 -0.14075777609607981 0.2354953807036036 0 -0.11832329044822951 0.24304604882281969 0 -0.1349930010153193 0.26255216121800568 0 -0.14075777609607981 0.2354953807036036 0 -0.1349930010153193 0.26255216121800568 0 -0.14075777609607981 0.2354953807036036 0 -0.11832329044822951 0.24304604882281969 0 -0.1349930010153193 0.26255216121800568 0 -0.14075777609607981 0.2354953807036036 0 -0.14911298171075679 0.24967097175487091 0 -0.1613020889038615 0.23837444865205379 0 -0.14075777609607981 0.2354953807036036 0 -0.14911298171075679 0.24967097175487091 0 -0.1662144153725649 0.14970975453020571 0 -0.1667765488875127 0.13812225091292091 0 -0.17427879965612819 0.14190030589397651 0 -0.1662144153725649 0.14970975453020571 0 -0.15453424001036289 0.15945434353378279 0 -0.15202557664741981 0.14720865995561999 0 -0.1662144153725649 0.14970975453020571 0 -0.15911751616331751 0.1391979048316449 0 -0.15202557664741981 0.14720865995561999 0 -0.1662144153725649 0.14970975453020571 0 -0.15911751616331751 0.1391979048316449 0 -0.1667765488875127 0.13812225091292091 0 -0.15911751616331751 0.1391979048316449 0 -0.1598554046101329 0.12512104095579701 0 -0.1667765488875127 0.13812225091292091 0 -0.15911751616331751 0.1391979048316449 0 -0.1598554046101329 0.12512104095579701 0 -0.1500033633973421 0.13584755301834109 0 -0.1598554046101329 0.12512104095579701 0 -0.1667765488875127 0.13812225091292091 0 -0.1744166086354216 0.1346822483529781 0 -0.17463205049430791 0.1233979928413103 0 -0.1598554046101329 0.12512104095579701 0 -0.1744166086354216 0.1346822483529781 0 -0.1598554046101329 0.12512104095579701 0 -0.1744166086354216 0.1346822483529781 0 -0.1667765488875127 0.13812225091292091 0 -0.1744166086354216 0.1346822483529781 0 -0.17427879965612819 0.14190030589397651 0 -0.1744166086354216 0.1346822483529781 0 -0.17427879965612819 0.14190030589397651 0 -0.1744166086354216 0.1346822483529781 0 -0.17777111929803571 0.13688489396563699 0 -0.17427879965612819 0.14190030589397651 0 -0.1744166086354216 0.1346822483529781 0 -0.17777111929803571 0.13688489396563699 0 -0.1744166086354216 0.1346822483529781 0 -0.17777111929803571 0.13688489396563699 0 -0.1798721579770142 0.13261044405125519 0 -0.17777111929803571 0.13688489396563699 0 -0.17908323016457489 0.14155253666455231 0 -0.17427879965612819 0.14190030589397651 0 -0.17463205049430791 0.1233979928413103 0 -0.1744166086354216 0.1346822483529781 0 -0.1798721579770142 0.13261044405125519 0 -0.17463205049430791 0.1233979928413103 0 -0.1744166086354216 0.1346822483529781 0 -0.17463205049430791 0.1233979928413103 0 -0.18530606321329801 0.12949084902847491 0 -0.1798721579770142 0.13261044405125519 0 -0.1909929067815555 0.135001194222511 0 -0.18530606321329801 0.12949084902847491 0 -0.18421136551585299 0.13733957154214979 0 -0.18530606321329801 0.12949084902847491 0 -0.1798721579770142 0.13261044405125519 0 -0.18421136551585299 0.13733957154214979 0 -0.17777111929803571 0.13688489396563699 0 -0.18421136551585299 0.13733957154214979 0 -0.17908323016457489 0.14155253666455231 0 -0.17777111929803571 0.13688489396563699 0 -0.1798721579770142 0.13261044405125519 0 -0.18421136551585299 0.13733957154214979 0 -0.1892816596668532 0.14729824464464031 0 -0.18843187665971381 0.14117764216521481 0 -0.183308469018752 0.14434673272034601 0 -0.18843187665971381 0.14117764216521481 0 -0.18421136551585299 0.13733957154214979 0 -0.183308469018752 0.14434673272034601 0 -0.1892816596668532 0.14729824464464031 0 -0.183308469018752 0.14434673272034601 0 -0.18348409084234379 0.15060627553684849 0 -0.183308469018752 0.14434673272034601 0 -0.1769770860414964 0.14813931566199959 0 -0.18348409084234379 0.15060627553684849 0 -0.183308469018752 0.14434673272034601 0 -0.17908323016457489 0.14155253666455231 0 -0.1769770860414964 0.14813931566199959 0 -0.18421136551585299 0.13733957154214979 0 -0.183308469018752 0.14434673272034601 0 -0.17908323016457489 0.14155253666455231 0 -0.1662144153725649 0.14970975453020571 0 -0.1769770860414964 0.14813931566199959 0 -0.17427879965612819 0.14190030589397651 0 -0.17908323016457489 0.14155253666455231 0 -0.1769770860414964 0.14813931566199959 0 -0.17427879965612819 0.14190030589397651 0 -0.1662144153725649 0.14970975453020571 0 -0.1769770860414964 0.14813931566199959 0 -0.17777951568146841 0.15676083040068911 0 -0.1769770860414964 0.14813931566199959 0 -0.18348409084234379 0.15060627553684849 0 -0.17777951568146841 0.15676083040068911 0 -0.1900737238031488 0.15648625425656729 0 -0.18348409084234379 0.15060627553684849 0 -0.17777951568146841 0.15676083040068911 0 -0.18329050548046091 0.16641049957591181 0 -0.1806498087268969 0.1809583004820513 0 -0.16701117313214661 0.16671210527075239 0 -0.18329050548046091 0.16641049957591181 0 -0.17777951568146841 0.15676083040068911 0 -0.16701117313214661 0.16671210527075239 0 -0.1900737238031488 0.15648625425656729 0 -0.18329050548046091 0.16641049957591181 0 -0.17777951568146841 0.15676083040068911 0 -0.19690649474481761 0.16930016240990661 0 -0.18329050548046091 0.16641049957591181 0 -0.1806498087268969 0.1809583004820513 0 -0.16510814505605159 0.19059955306451951 0 -0.16701117313214661 0.16671210527075239 0 -0.16510814505605159 0.19059955306451951 0 -0.1806498087268969 0.1809583004820513 0 -0.16701117313214661 0.16671210527075239 0 -0.16510814505605159 0.19059955306451951 0 -0.16701117313214661 0.16671210527075239 0 -0.14981517013628179 0.1764661855652461 0 -0.1662144153725649 0.14970975453020571 0 -0.16701117313214661 0.16671210527075239 0 -0.15453424001036289 0.15945434353378279 0 -0.1662144153725649 0.14970975453020571 0 -0.17777951568146841 0.15676083040068911 0 -0.16701117313214661 0.16671210527075239 0 -0.16701117313214661 0.16671210527075239 0 -0.15453424001036289 0.15945434353378279 0 -0.14981517013628179 0.1764661855652461 0 -0.14981517013628179 0.1764661855652461 0 -0.13268914273538329 0.1750509562650924 0 -0.1400456084615111 0.15909886324928099 0 -0.15453424001036289 0.15945434353378279 0 -0.14981517013628179 0.1764661855652461 0 -0.1400456084615111 0.15909886324928099 0 -0.1348313290251755 0.19391948141146001 0 -0.13268914273538329 0.1750509562650924 0 -0.1144809389531023 0.1869767666301351 0 -0.1348313290251755 0.19391948141146001 0 -0.14981517013628179 0.1764661855652461 0 -0.13268914273538329 0.1750509562650924 0 -0.1400456084615111 0.15909886324928099 0 -0.12711493411718411 0.1494661060528254 0 -0.1194513481457689 0.1635609988765839 0 -0.13268914273538329 0.1750509562650924 0 -0.1400456084615111 0.15909886324928099 0 -0.1194513481457689 0.1635609988765839 0 -0.1400456084615111 0.15909886324928099 0 -0.12711493411718411 0.1494661060528254 0 -0.1393467656979451 0.14225431360183649 0 -0.12711493411718411 0.1494661060528254 0 -0.1393467656979451 0.14225431360183649 0 -0.12653041952395039 0.1354161737842513 0 -0.1400456084615111 0.15909886324928099 0 -0.1393467656979451 0.14225431360183649 0 -0.15202557664741981 0.14720865995561999 0 -0.1393467656979451 0.14225431360183649 0 -0.15202557664741981 0.14720865995561999 0 -0.1500033633973421 0.13584755301834109 0 -0.15911751616331751 0.1391979048316449 0 -0.15202557664741981 0.14720865995561999 0 -0.1500033633973421 0.13584755301834109 0 -0.15453424001036289 0.15945434353378279 0 -0.1400456084615111 0.15909886324928099 0 -0.15202557664741981 0.14720865995561999 0 -0.1598554046101329 0.12512104095579701 0 -0.1500033633973421 0.13584755301834109 0 -0.13922952195075211 0.12752614618091959 0 -0.1598554046101329 0.12512104095579701 0 -0.13922952195075211 0.12752614618091959 0 -0.1393467656979451 0.14225431360183649 0 -0.1500033633973421 0.13584755301834109 0 -0.13922952195075211 0.12752614618091959 0 -0.13074244959953979 0.11946175785799951 0 -0.13922952195075211 0.12752614618091959 0 -0.12653041952395039 0.1354161737842513 0 -0.1393467656979451 0.14225431360183649 0 -0.13922952195075211 0.12752614618091959 0 -0.12653041952395039 0.1354161737842513 0 -0.12653041952395039 0.1354161737842513 0 -0.11549744085296181 0.12506595749432459 0 -0.1072514049253199 0.14872276151760261 0 -0.13074244959953979 0.11946175785799951 0 -0.12653041952395039 0.1354161737842513 0 -0.11549744085296181 0.12506595749432459 0 -0.11549744085296181 0.12506595749432459 0 -0.1072514049253199 0.14872276151760261 0 -0.11549744085296181 0.12506595749432459 0 -0.097351596905396909 0.1366011738647028 0 -0.095157466154961498 0.1222738246889692 0 -0.11549744085296181 0.12506595749432459 0 -0.097351596905396909 0.1366011738647028 0 -0.1072514049253199 0.14872276151760261 0 -0.097351596905396909 0.1366011738647028 0 -0.1072514049253199 0.14872276151760261 0 -0.095429287301162569 0.1538271060288352 0 -0.12711493411718411 0.1494661060528254 0 -0.12653041952395039 0.1354161737842513 0 -0.1072514049253199 0.14872276151760261 0 -0.12711493411718411 0.1494661060528254 0 -0.1072514049253199 0.14872276151760261 0 -0.1194513481457689 0.1635609988765839 0 -0.1194513481457689 0.1635609988765839 0 -0.1144809389531023 0.1869767666301351 0 -0.099005368997678006 0.1723795655408806 0 -0.13268914273538329 0.1750509562650924 0 -0.1194513481457689 0.1635609988765839 0 -0.1144809389531023 0.1869767666301351 0 -0.1144809389531023 0.1869767666301351 0 -0.099005368997678006 0.1723795655408806 0 -0.0907593330700361 0.19603636956415871 0 -0.099005368997678006 0.1723795655408806 0 -0.0907593330700361 0.19603636956415871 0 -0.1072514049253199 0.14872276151760261 0 -0.1194513481457689 0.1635609988765839 0 -0.099005368997678006 0.1723795655408806 0 -0.1072514049253199 0.14872276151760261 0 -0.095429287301162569 0.1538271060288352 0 -0.099005368997678006 0.1723795655408806 0 -0.1072514049253199 0.14872276151760261 0 -0.099005368997678006 0.1723795655408806 0 -0.095429287301162569 0.1538271060288352 0 -0.099005368997678006 0.1723795655408806 0 -0.089264976304947813 0.16305913715607981 0 -0.089264976304947813 0.16305913715607981 0 -0.078726297129264447 0.1568051313220773 0 -0.070728802668765189 0.16298784849958539 0 -0.099005368997678006 0.1723795655408806 0 -0.089264976304947813 0.16305913715607981 0 -0.083173158014857834 0.1819778711413477 0 -0.089264976304947813 0.16305913715607981 0 -0.083173158014857834 0.1819778711413477 0 -0.06435517074193417 0.179531982830265 0 -0.099005368997678006 0.1723795655408806 0 -0.083173158014857834 0.1819778711413477 0 -0.0907593330700361 0.19603636956415871 0 -0.083173158014857834 0.1819778711413477 0 -0.06435517074193417 0.179531982830265 0 -0.072480940959693013 0.1988823006153542 0 -0.089264976304947813 0.16305913715607981 0 -0.06435517074193417 0.179531982830265 0 -0.070728802668765189 0.16298784849958539 0 -0.089264976304947813 0.16305913715607981 0 -0.06435517074193417 0.179531982830265 0 -0.06435517074193417 0.179531982830265 0 -0.070728802668765189 0.16298784849958539 0 -0.060817304647522517 0.16063211997463811 0 -0.078726297129264447 0.1568051313220773 0 -0.070728802668765189 0.16298784849958539 0 -0.070638320170874583 0.15280064756773359 0 -0.070728802668765189 0.16298784849958539 0 -0.070638320170874583 0.15280064756773359 0 -0.060817304647522517 0.16063211997463811 0 -0.070638320170874583 0.15280064756773359 0 -0.06050925962069742 0.14933122419088271 0 -0.060817304647522517 0.16063211997463811 0 -0.078726297129264447 0.1568051313220773 0 -0.070638320170874583 0.15280064756773359 0 -0.084273089372470245 0.14837289206491031 0 -0.070638320170874583 0.15280064756773359 0 -0.073986689617270868 0.1403986132245284 0 -0.084273089372470245 0.14837289206491031 0 -0.073986689617270868 0.1403986132245284 0 -0.060395274942560528 0.13416549391068189 0 -0.06050925962069742 0.14933122419088271 0 -0.070638320170874583 0.15280064756773359 0 -0.073986689617270868 0.1403986132245284 0 -0.06050925962069742 0.14933122419088271 0 -0.073986689617270868 0.1403986132245284 0 -0.079964733767734122 0.12668506296934109 0 -0.060395274942560528 0.13416549391068189 0 -0.060395274942560528 0.13416549391068189 0 -0.068008023874607193 0.1194813826226566 0 -0.073986689617270868 0.1403986132245284 0 -0.085757333202322553 0.1342092020786384 0 -0.079964733767734122 0.12668506296934109 0 -0.097351596905396909 0.1366011738647028 0 -0.085757333202322553 0.1342092020786384 0 -0.095157466154961498 0.1222738246889692 0 -0.085757333202322553 0.1342092020786384 0 -0.079964733767734122 0.12668506296934109 0 -0.095157466154961498 0.1222738246889692 0 -0.097351596905396909 0.1366011738647028 0 -0.085757333202322553 0.1342092020786384 0 -0.084273089372470245 0.14837289206491031 0 -0.097351596905396909 0.1366011738647028 0 -0.095429287301162569 0.1538271060288352 0 -0.084273089372470245 0.14837289206491031 0 -0.095429287301162569 0.1538271060288352 0 -0.089264976304947813 0.16305913715607981 0 -0.084273089372470245 0.14837289206491031 0 -0.089264976304947813 0.16305913715607981 0 -0.078726297129264447 0.1568051313220773 0 -0.084273089372470245 0.14837289206491031 0 -0.073986689617270868 0.1403986132245284 0 -0.085757333202322553 0.1342092020786384 0 -0.084273089372470245 0.14837289206491031 0 -0.097135213821017974 0.2450179218164267 0 -0.11832329044822951 0.24304604882281969 0 -0.10188732904743091 0.22416775388930879 0 -0.1252468427212147 0.2168953735999099 0 -0.11832329044822951 0.24304604882281969 0 -0.10188732904743091 0.22416775388930879 0 -0.10188732904743091 0.22416775388930879 0 -0.10553645135762139 0.20639637139721009 0 -0.085647611720234704 0.211582202570961 0 -0.10553645135762139 0.20639637139721009 0 -0.0907593330700361 0.19603636956415871 0 -0.085647611720234704 0.211582202570961 0 -0.1252468427212147 0.2168953735999099 0 -0.10553645135762139 0.20639637139721009 0 -0.1203089118816133 0.20055052938219861 0 -0.1252468427212147 0.2168953735999099 0 -0.10188732904743091 0.22416775388930879 0 -0.10553645135762139 0.20639637139721009 0 -0.1144809389531023 0.1869767666301351 0 -0.10553645135762139 0.20639637139721009 0 -0.1203089118816133 0.20055052938219861 0 -0.1348313290251755 0.19391948141146001 0 -0.1144809389531023 0.1869767666301351 0 -0.1203089118816133 0.20055052938219861 0 -0.1144809389531023 0.1869767666301351 0 -0.10553645135762139 0.20639637139721009 0 -0.0907593330700361 0.19603636956415871 0 -0.083173158014857834 0.1819778711413477 0 -0.0907593330700361 0.19603636956415871 0 -0.072480940959693013 0.1988823006153542 0 -0.0907593330700361 0.19603636956415871 0 -0.072480940959693013 0.1988823006153542 0 -0.085647611720234704 0.211582202570961 0 -0.06435517074193417 0.179531982830265 0 -0.072480940959693013 0.1988823006153542 0 -0.057501641022342467 0.1963435114306189 0 -0.065516926835851183 0.21659017637723951 0 -0.085647611720234704 0.211582202570961 0 -0.078837631547527487 0.22646261886489361 0 -0.072480940959693013 0.1988823006153542 0 -0.065516926835851183 0.21659017637723951 0 -0.085647611720234704 0.211582202570961 0 -0.072480940959693013 0.1988823006153542 0 -0.065516926835851183 0.21659017637723951 0 -0.056774781747103042 0.20807563334730969 0 -0.097135213821017974 0.2450179218164267 0 -0.10188732904743091 0.22416775388930879 0 -0.078837631547527487 0.22646261886489361 0 -0.10188732904743091 0.22416775388930879 0 -0.078837631547527487 0.22646261886489361 0 -0.10188732904743091 0.22416775388930879 0 -0.085647611720234704 0.211582202570961 0 -0.078837631547527487 0.22646261886489361 0 -0.078837631547527487 0.22646261886489361 0 -0.055787934047623812 0.22875748384047651 0 -0.078837631547527487 0.22646261886489361 0 -0.074704152181801681 0.24701770632021169 0 -0.055787934047623812 0.22875748384047651 0 -0.065516926835851183 0.21659017637723951 0 -0.078837631547527487 0.22646261886489361 0 -0.055787934047623812 0.22875748384047651 0 -0.074704152181801681 0.24701770632021169 0 -0.055787934047623812 0.22875748384047651 0 -0.074704152181801681 0.24701770632021169 0 -0.057747386715908428 0.24463041023760571 0 -0.055787934047623812 0.22875748384047651 0 -0.097135213821017974 0.2450179218164267 0 -0.078837631547527487 0.22646261886489361 0 -0.074704152181801681 0.24701770632021169 0 -0.03189830216395443 0.24568919817845219 0 -0.04135776092400012 0.23809779795821551 0 -0.030614146685572802 0.23126382662090891 0 -0.04135776092400012 0.23809779795821551 0 -0.046594812073733123 0.24823599275617891 0 -0.049952252460554 0.2397627017524232 0 -0.03189830216395443 0.24568919817845219 0 -0.04135776092400012 0.23809779795821551 0 -0.046594812073733123 0.24823599275617891 0 -0.046594812073733123 0.24823599275617891 0 -0.057747386715908428 0.24463041023760571 0 -0.049952252460554 0.2397627017524232 0 -0.057747386715908428 0.24463041023760571 0 -0.049952252460554 0.2397627017524232 0 -0.055787934047623812 0.22875748384047651 0 -0.04135776092400012 0.23809779795821551 0 -0.049952252460554 0.2397627017524232 0 -0.055787934047623812 0.22875748384047651 0 -0.055787934047623812 0.22875748384047651 0 -0.052323738254648429 0.22541342291643321 0 -0.065516926835851183 0.21659017637723951 0 -0.055787934047623812 0.22875748384047651 0 -0.054616056031908368 0.21893633417385969 0 -0.055787934047623812 0.22875748384047651 0 -0.052323738254648429 0.22541342291643321 0 -0.042225130782071622 0.22351742659662871 0 -0.054616056031908368 0.21893633417385969 0 -0.052323738254648429 0.22541342291643321 0 -0.049046602241481829 0.2206752111693363 0 -0.052323738254648429 0.22541342291643321 0 -0.049046602241481829 0.2206752111693363 0 -0.042225130782071622 0.22351742659662871 0 -0.055787934047623812 0.22875748384047651 0 -0.054616056031908368 0.21893633417385969 0 -0.052323738254648429 0.22541342291643321 0 -0.055787934047623812 0.22875748384047651 0 -0.042225130782071622 0.22351742659662871 0 -0.030614146685572802 0.23126382662090891 0 -0.055787934047623812 0.22875748384047651 0 -0.030614146685572802 0.23126382662090891 0 -0.049046602241481829 0.2206752111693363 0 -0.042225130782071622 0.22351742659662871 0 -0.047021483897298919 0.2148336609904237 0 -0.04135776092400012 0.23809779795821551 0 -0.055787934047623812 0.22875748384047651 0 -0.030614146685572802 0.23126382662090891 0 -0.042225130782071622 0.22351742659662871 0 -0.035706106933987618 0.212040288753787 0 -0.024813853389476559 0.2211714782904188 0 -0.042225130782071622 0.22351742659662871 0 -0.024813853389476559 0.2211714782904188 0 -0.030614146685572802 0.23126382662090891 0 -0.035706106933987618 0.212040288753787 0 -0.047940973094851513 0.204892605264445 0 -0.039445365178920423 0.19600482850445031 0 -0.035706106933987618 0.212040288753787 0 -0.047021483897298919 0.2148336609904237 0 -0.047940973094851513 0.204892605264445 0 -0.042225130782071622 0.22351742659662871 0 -0.035706106933987618 0.212040288753787 0 -0.047021483897298919 0.2148336609904237 0 -0.054616056031908368 0.21893633417385969 0 -0.049046602241481829 0.2206752111693363 0 -0.047021483897298919 0.2148336609904237 0 -0.054616056031908368 0.21893633417385969 0 -0.047021483897298919 0.2148336609904237 0 -0.056774781747103042 0.20807563334730969 0 -0.065516926835851183 0.21659017637723951 0 -0.054616056031908368 0.21893633417385969 0 -0.056774781747103042 0.20807563334730969 0 -0.047021483897298919 0.2148336609904237 0 -0.056774781747103042 0.20807563334730969 0 -0.047940973094851513 0.204892605264445 0 -0.047940973094851513 0.204892605264445 0 -0.057501641022342467 0.1963435114306189 0 -0.039445365178920423 0.19600482850445031 0 -0.06435517074193417 0.179531982830265 0 -0.039445365178920423 0.19600482850445031 0 -0.072480940959693013 0.1988823006153542 0 -0.056774781747103042 0.20807563334730969 0 -0.057501641022342467 0.1963435114306189 0 -0.056774781747103042 0.20807563334730969 0 -0.047940973094851513 0.204892605264445 0 -0.057501641022342467 0.1963435114306189 0 -0.06435517074193417 0.179531982830265 0 -0.057501641022342467 0.1963435114306189 0 -0.039445365178920423 0.19600482850445031 0 -0.039445365178920423 0.19600482850445031 0 -0.027727343604313569 0.197178151178412 0 -0.038616654050395688 0.17617393208916859 0 -0.039445365178920423 0.19600482850445031 0 -0.027727343604313569 0.197178151178412 0 -0.014535559615906669 0.2124776741786355 0 -0.027727343604313569 0.197178151178412 0 -0.010915521324717001 0.1993315760592379 0 -0.014535559615906669 0.2124776741786355 0 -0.027727343604313569 0.197178151178412 0 -0.010915521324717001 0.1993315760592379 0 -0.020104729349334449 0.1840085448946619 0 -0.027727343604313569 0.197178151178412 0 -0.028750072776026619 0.18228756371234331 0 -0.020104729349334449 0.1840085448946619 0 -0.010915521324717001 0.1993315760592379 0 -0.0058150648891281392 0.18464487058732859 0 0.0047479160901643591 0.19966970600779571 0 -0.010915521324717001 0.1993315760592379 0 -0.020104729349334449 0.1840085448946619 0 -0.0058150648891281392 0.18464487058732859 0 -0.010915521324717001 0.1993315760592379 0 -0.001618838316679704 0.21186515805952549 0 -0.014535559615906669 0.2124776741786355 0 -0.010915521324717001 0.1993315760592379 0 -0.001618838316679704 0.21186515805952549 0 0.0047479160901643591 0.19966970600779571 0 -0.001618838316679704 0.21186515805952549 0 -0.010819744977475119 0.2201826338773481 0 0.0022205822065663882 0.22338098429998751 0 -0.001618838316679704 0.21186515805952549 0 -0.014535559615906669 0.2124776741786355 0 -0.010819744977475119 0.2201826338773481 0 -0.039445365178920423 0.19600482850445031 0 -0.014535559615906669 0.2124776741786355 0 -0.035706106933987618 0.212040288753787 0 -0.039445365178920423 0.19600482850445031 0 -0.014535559615906669 0.2124776741786355 0 -0.014535559615906669 0.2124776741786355 0 -0.024813853389476559 0.2211714782904188 0 -0.010819744977475119 0.2201826338773481 0 -0.035706106933987618 0.212040288753787 0 -0.014535559615906669 0.2124776741786355 0 -0.024813853389476559 0.2211714782904188 0 -0.030614146685572802 0.23126382662090891 0 -0.0054403593235216562 0.23377016940133941 0 -0.030614146685572802 0.23126382662090891 0 -0.0054403593235216562 0.23377016940133941 0 -0.01514813330815701 0.23061359466582701 0 -0.024813853389476559 0.2211714782904188 0 -0.030614146685572802 0.23126382662090891 0 -0.01514813330815701 0.23061359466582701 0 -0.024813853389476559 0.2211714782904188 0 -0.010819744977475119 0.2201826338773481 0 -0.01514813330815701 0.23061359466582701 0 -0.010819744977475119 0.2201826338773481 0 -0.01514813330815701 0.23061359466582701 0 0.0022205822065663882 0.22338098429998751 0 -0.01514813330815701 0.23061359466582701 0 0.0022205822065663882 0.22338098429998751 0 -0.0054403593235216562 0.23377016940133941 0 -0.01514813330815701 0.23061359466582701 0 0.0022205822065663882 0.22338098429998751 0 -0.004361582131907446 0.25012675423618741 0 -0.0054403593235216562 0.23377016940133941 0 0.0051881906427589239 0.2429023142665572 0 -0.004361582131907446 0.25012675423618741 0 -0.0054403593235216562 0.23377016940133941 0 -0.018506566158488919 0.2431339505957798 0 -0.020565667716041462 0.25572736355358933 0 -0.004361582131907446 0.25012675423618741 0 -0.018506566158488919 0.2431339505957798 0 -0.030614146685572802 0.23126382662090891 0 -0.0054403593235216562 0.23377016940133941 0 -0.018506566158488919 0.2431339505957798 0 -0.03189830216395443 0.24568919817845219 0 -0.030614146685572802 0.23126382662090891 0 -0.018506566158488919 0.2431339505957798 0 -0.020565667716041462 0.25572736355358933 0 -0.03189830216395443 0.24568919817845219 0 -0.018506566158488919 0.2431339505957798 0 -0.042460363287522958 0.14347988613362259 0 -0.044473419521311869 0.15297756029890641 0 -0.037891307588098999 0.15301779907060481 0 -0.044473419521311869 0.15297756029890641 0 -0.037891307588098999 0.15301779907060481 0 -0.031636506627965313 0.16150224911057051 0 -0.042460363287522958 0.14347988613362259 0 -0.035174347344809967 0.15001976644272921 0 -0.037891307588098999 0.15301779907060481 0 -0.035174347344809967 0.15001976644272921 0 -0.037891307588098999 0.15301779907060481 0 -0.033404653207921721 0.15507918068198209 0 -0.035174347344809967 0.15001976644272921 0 -0.033404653207921721 0.15507918068198209 0 -0.02776282729533102 0.15476173176141739 0 -0.035174347344809967 0.15001976644272921 0 -0.034180114506779158 0.14292432320853909 0 -0.02883591677782232 0.14796437992771719 0 -0.042460363287522958 0.14347988613362259 0 -0.035174347344809967 0.15001976644272921 0 -0.034180114506779158 0.14292432320853909 0 -0.042460363287522958 0.14347988613362259 0 -0.034180114506779158 0.14292432320853909 0 -0.038211226953362397 0.13781437243294631 0 -0.034180114506779158 0.14292432320853909 0 -0.032488323731578138 0.13717556183428281 0 -0.038211226953362397 0.13781437243294631 0 -0.034180114506779158 0.14292432320853909 0 -0.032488323731578138 0.13717556183428281 0 -0.027483842170251089 0.14162756103877569 0 -0.032488323731578138 0.13717556183428281 0 -0.035266368379565052 0.13009707587939279 0 -0.02667969692195489 0.13460984520473249 0 -0.032488323731578138 0.13717556183428281 0 -0.038211226953362397 0.13781437243294631 0 -0.035266368379565052 0.13009707587939279 0 -0.035266368379565052 0.13009707587939279 0 -0.046331318124510253 0.13174141938699169 0 -0.041763705598505362 0.11912362676530031 0 -0.038211226953362397 0.13781437243294631 0 -0.035266368379565052 0.13009707587939279 0 -0.046331318124510253 0.13174141938699169 0 -0.042460363287522958 0.14347988613362259 0 -0.038211226953362397 0.13781437243294631 0 -0.046331318124510253 0.13174141938699169 0 -0.042460363287522958 0.14347988613362259 0 -0.046331318124510253 0.13174141938699169 0 -0.060395274942560528 0.13416549391068189 0 -0.046331318124510253 0.13174141938699169 0 -0.060395274942560528 0.13416549391068189 0 -0.057376161549244957 0.12328487032798489 0 -0.060395274942560528 0.13416549391068189 0 -0.057376161549244957 0.12328487032798489 0 -0.068008023874607193 0.1194813826226566 0 -0.044473419521311869 0.15297756029890641 0 -0.060395274942560528 0.13416549391068189 0 -0.049505964496477838 0.1551697129999251 0 -0.060395274942560528 0.13416549391068189 0 -0.049505964496477838 0.1551697129999251 0 -0.060395274942560528 0.13416549391068189 0 -0.049505964496477838 0.1551697129999251 0 -0.06050925962069742 0.14933122419088271 0 -0.042460363287522958 0.14347988613362259 0 -0.044473419521311869 0.15297756029890641 0 -0.060395274942560528 0.13416549391068189 0 -0.044473419521311869 0.15297756029890641 0 -0.060395274942560528 0.13416549391068189 0 -0.06050925962069742 0.14933122419088271 0 -0.055951783244603238 0.15683636846341581 0 -0.060817304647522517 0.16063211997463811 0 -0.049505964496477838 0.1551697129999251 0 -0.06050925962069742 0.14933122419088271 0 -0.055951783244603238 0.15683636846341581 0 -0.06435517074193417 0.179531982830265 0 -0.060817304647522517 0.16063211997463811 0 -0.054190933413391887 0.1696376128955723 0 -0.055951783244603238 0.15683636846341581 0 -0.060817304647522517 0.16063211997463811 0 -0.051816527970478227 0.163689949284544 0 -0.060817304647522517 0.16063211997463811 0 -0.054190933413391887 0.1696376128955723 0 -0.051816527970478227 0.163689949284544 0 -0.054190933413391887 0.1696376128955723 0 -0.051816527970478227 0.163689949284544 0 -0.038616654050395688 0.17617393208916859 0 -0.049505964496477838 0.1551697129999251 0 -0.055951783244603238 0.15683636846341581 0 -0.051816527970478227 0.163689949284544 0 -0.06435517074193417 0.179531982830265 0 -0.039445365178920423 0.19600482850445031 0 -0.038616654050395688 0.17617393208916859 0 -0.06435517074193417 0.179531982830265 0 -0.054190933413391887 0.1696376128955723 0 -0.038616654050395688 0.17617393208916859 0 -0.027727343604313569 0.197178151178412 0 -0.038616654050395688 0.17617393208916859 0 -0.027727343604313569 0.197178151178412 0 -0.038616654050395688 0.17617393208916859 0 -0.028750072776026619 0.18228756371234331 0 -0.038616654050395688 0.17617393208916859 0 -0.028551564100062751 0.1717896266871306 0 -0.028750072776026619 0.18228756371234331 0 -0.044473419521311869 0.15297756029890641 0 -0.028551564100062751 0.1717896266871306 0 -0.049505964496477838 0.1551697129999251 0 -0.051816527970478227 0.163689949284544 0 -0.038616654050395688 0.17617393208916859 0 -0.044473419521311869 0.15297756029890641 0 -0.031636506627965313 0.16150224911057051 0 -0.028551564100062751 0.1717896266871306 0 -0.049505964496477838 0.1551697129999251 0 -0.038616654050395688 0.17617393208916859 0 -0.044473419521311869 0.15297756029890641 0 -0.049505964496477838 0.1551697129999251 0 -0.038616654050395688 0.17617393208916859 0 -0.044473419521311869 0.15297756029890641 0 -0.038616654050395688 0.17617393208916859 0 -0.028551564100062751 0.1717896266871306 0 -0.037891307588098999 0.15301779907060481 0 -0.033404653207921721 0.15507918068198209 0 -0.031636506627965313 0.16150224911057051 0 -0.031636506627965313 0.16150224911057051 0 -0.02253447650115362 0.1626338424728738 0 -0.02776282729533102 0.15476173176141739 0 -0.033404653207921721 0.15507918068198209 0 -0.031636506627965313 0.16150224911057051 0 -0.02776282729533102 0.15476173176141739 0 -0.031636506627965313 0.16150224911057051 0 -0.028551564100062751 0.1717896266871306 0 -0.02253447650115362 0.1626338424728738 0 -0.028551564100062751 0.1717896266871306 0 -0.02253447650115362 0.1626338424728738 0 -0.01498566762474032 0.1721399223420339 0 -0.02253447650115362 0.1626338424728738 0 -0.01498566762474032 0.1721399223420339 0 -0.012046897657486009 0.15973393686910059 0 -0.02253447650115362 0.1626338424728738 0 -0.012046897657486009 0.15973393686910059 0 -0.01974455104335017 0.1550417818637245 0 -0.02253447650115362 0.1626338424728738 0 -0.01974455104335017 0.1550417818637245 0 -0.02776282729533102 0.15476173176141739 0 -0.028551564100062751 0.1717896266871306 0 -0.028750072776026619 0.18228756371234331 0 -0.020104729349334449 0.1840085448946619 0 -0.028551564100062751 0.1717896266871306 0 -0.020104729349334449 0.1840085448946619 0 -0.01498566762474032 0.1721399223420339 0 -0.020104729349334449 0.1840085448946619 0 -0.01498566762474032 0.1721399223420339 0 -0.0058150648891281392 0.18464487058732859 0 -0.01498566762474032 0.1721399223420339 0 -0.0058150648891281392 0.18464487058732859 0 9.8439874396488518e-06 0.16909653965514321 0 -0.01498566762474032 0.1721399223420339 0 -0.012046897657486009 0.15973393686910059 0 9.8439874396488518e-06 0.16909653965514321 0 -0.012046897657486009 0.15973393686910059 0 -0.001399927819642065 0.15853034608675531 0 -0.0067216127360385028 0.15176017281181059 0 -0.012046897657486009 0.15973393686910059 0 -0.001399927819642065 0.15853034608675531 0 9.8439874396488518e-06 0.16909653965514321 0 -0.0067216127360385028 0.15176017281181059 0 -0.001932496299644968 0.1459540675981712 0 0.002037105597096525 0.15151695060409001 0 -0.001399927819642065 0.15853034608675531 0 -0.0067216127360385028 0.15176017281181059 0 0.002037105597096525 0.15151695060409001 0 -0.001932496299644968 0.1459540675981712 0 -0.0047871023855838284 0.14117591745817429 0 0.000228448927285114 0.14012311706009631 0 -0.0067216127360385028 0.15176017281181059 0 -0.001932496299644968 0.1459540675981712 0 -0.0088873299160877918 0.1454187600715697 0 -0.001932496299644968 0.1459540675981712 0 -0.0047871023855838284 0.14117591745817429 0 -0.0088873299160877918 0.1454187600715697 0 -0.0047871023855838284 0.14117591745817429 0 -0.0088873299160877918 0.1454187600715697 0 -0.010460643721398131 0.13913610184510419 0 -0.0088873299160877918 0.1454187600715697 0 -0.015535574841907601 0.14368344141407929 0 -0.010460643721398131 0.13913610184510419 0 -0.0088873299160877918 0.1454187600715697 0 -0.015535574841907601 0.14368344141407929 0 -0.014413369338275051 0.15020994658701309 0 -0.012046897657486009 0.15973393686910059 0 -0.014413369338275051 0.15020994658701309 0 -0.01974455104335017 0.1550417818637245 0 -0.012046897657486009 0.15973393686910059 0 -0.0067216127360385028 0.15176017281181059 0 -0.014413369338275051 0.15020994658701309 0 -0.0067216127360385028 0.15176017281181059 0 -0.0088873299160877918 0.1454187600715697 0 -0.014413369338275051 0.15020994658701309 0 -0.01974455104335017 0.1550417818637245 0 -0.021965184424505169 0.1478694516282176 0 -0.02776282729533102 0.15476173176141739 0 -0.014413369338275051 0.15020994658701309 0 -0.01974455104335017 0.1550417818637245 0 -0.021965184424505169 0.1478694516282176 0 -0.015535574841907601 0.14368344141407929 0 -0.014413369338275051 0.15020994658701309 0 -0.021965184424505169 0.1478694516282176 0 -0.015535574841907601 0.14368344141407929 0 -0.02085887518683055 0.14051112573817109 0 -0.01572570720539903 0.1386245228663322 0 -0.015535574841907601 0.14368344141407929 0 -0.021965184424505169 0.1478694516282176 0 -0.02085887518683055 0.14051112573817109 0 -0.021965184424505169 0.1478694516282176 0 -0.027483842170251089 0.14162756103877569 0 -0.02085887518683055 0.14051112573817109 0 -0.021965184424505169 0.1478694516282176 0 -0.027483842170251089 0.14162756103877569 0 -0.02883591677782232 0.14796437992771719 0 -0.034180114506779158 0.14292432320853909 0 -0.027483842170251089 0.14162756103877569 0 -0.02883591677782232 0.14796437992771719 0 -0.035174347344809967 0.15001976644272921 0 -0.02883591677782232 0.14796437992771719 0 -0.02776282729533102 0.15476173176141739 0 -0.021965184424505169 0.1478694516282176 0 -0.02883591677782232 0.14796437992771719 0 -0.02776282729533102 0.15476173176141739 0 -0.035266368379565052 0.13009707587939279 0 -0.02498016711913827 0.1241785180753891 0 -0.033110622576494379 0.1214386067867833 0 -0.02667969692195489 0.13460984520473249 0 -0.019000604944366228 0.13406922866238341 0 -0.02498016711913827 0.1241785180753891 0 -0.035266368379565052 0.13009707587939279 0 -0.02667969692195489 0.13460984520473249 0 -0.02498016711913827 0.1241785180753891 0 -0.032488323731578138 0.13717556183428281 0 -0.027483842170251089 0.14162756103877569 0 -0.02667969692195489 0.13460984520473249 0 -0.027483842170251089 0.14162756103877569 0 -0.02667969692195489 0.13460984520473249 0 -0.02085887518683055 0.14051112573817109 0 -0.02667969692195489 0.13460984520473249 0 -0.02085887518683055 0.14051112573817109 0 -0.019000604944366228 0.13406922866238341 0 -0.02085887518683055 0.14051112573817109 0 -0.01572570720539903 0.1386245228663322 0 -0.019000604944366228 0.13406922866238341 0 -0.019000604944366228 0.13406922866238341 0 -0.013108962008021981 0.1259178359004969 0 -0.02498016711913827 0.1241785180753891 0 -0.019000604944366228 0.13406922866238341 0 -0.013108962008021981 0.1259178359004969 0 -0.011245417678365909 0.1339710152718474 0 -0.013108962008021981 0.1259178359004969 0 -0.011245417678365909 0.1339710152718474 0 -0.0043823690024683438 0.12942386948176529 0 -0.015535574841907601 0.14368344141407929 0 -0.01572570720539903 0.1386245228663322 0 -0.010460643721398131 0.13913610184510419 0 -0.01572570720539903 0.1386245228663322 0 -0.011245417678365909 0.1339710152718474 0 -0.010460643721398131 0.13913610184510419 0 -0.01572570720539903 0.1386245228663322 0 -0.019000604944366228 0.13406922866238341 0 -0.011245417678365909 0.1339710152718474 0 -0.011245417678365909 0.1339710152718474 0 -0.010460643721398131 0.13913610184510419 0 -0.0049074646713017818 0.13634897063783119 0 -0.0047871023855838284 0.14117591745817429 0 -0.010460643721398131 0.13913610184510419 0 -0.0049074646713017818 0.13634897063783119 0 -0.011245417678365909 0.1339710152718474 0 -0.0049074646713017818 0.13634897063783119 0 -0.0043823690024683438 0.12942386948176529 0 -0.0049074646713017818 0.13634897063783119 0 -0.0043823690024683438 0.12942386948176529 0 0.0012022958327204049 0.13426380270999949 0 -0.0047871023855838284 0.14117591745817429 0 -0.0049074646713017818 0.13634897063783119 0 0.000228448927285114 0.14012311706009631 0 -0.0049074646713017818 0.13634897063783119 0 0.000228448927285114 0.14012311706009631 0 0.0012022958327204049 0.13426380270999949 0 -0.0043823690024683438 0.12942386948176529 0 -0.0015382865690094869 0.1195819360983075 0 0.0028297340199113529 0.12737786763030409 0 -0.0043823690024683438 0.12942386948176529 0 0.0028297340199113529 0.12737786763030409 0 0.0012022958327204049 0.13426380270999949 0 -0.013108962008021981 0.1259178359004969 0 -0.0015382865690094869 0.1195819360983075 0 -0.018013141318310021 0.1118215823196331 0 -0.0015382865690094869 0.1195819360983075 0 -0.0093267163156350585 0.10220622611456499 0 -0.018013141318310021 0.1118215823196331 0 -0.0015382865690094869 0.1195819360983075 0 -0.0093267163156350585 0.10220622611456499 0 0.0088418889268726004 0.1125261115153213 0 -0.013108962008021981 0.1259178359004969 0 -0.0043823690024683438 0.12942386948176529 0 -0.0015382865690094869 0.1195819360983075 0 -0.0093267163156350585 0.10220622611456499 0 -0.028384651446471159 0.094232735224306696 0 -0.028384651446471159 0.094232735224306696 0 -0.030432249208768851 0.112355206427051 0 -0.018013141318310021 0.1118215823196331 0 -0.0093267163156350585 0.10220622611456499 0 -0.028384651446471159 0.094232735224306696 0 -0.018013141318310021 0.1118215823196331 0 -0.030432249208768851 0.112355206427051 0 -0.02498016711913827 0.1241785180753891 0 -0.018013141318310021 0.1118215823196331 0 -0.030432249208768851 0.112355206427051 0 -0.02498016711913827 0.1241785180753891 0 -0.033110622576494379 0.1214386067867833 0 -0.013108962008021981 0.1259178359004969 0 -0.02498016711913827 0.1241785180753891 0 -0.018013141318310021 0.1118215823196331 0 -0.019815605255134251 0.077564307382831099 0 -0.01123722517146284 0.061714947321965113 0 0.0078113760670387236 0.068869370431613411 0 -0.019815605255134251 0.077564307382831099 0 0.0078113760670387236 0.068869370431613411 0 -0.0022168413230157229 0.085736250976024914 0 -0.019815605255134251 0.077564307382831099 0 0.0078113760670387236 0.068869370431613411 0 -0.0093267163156350585 0.10220622611456499 0 -0.0022168413230157229 0.085736250976024914 0 -0.019815605255134251 0.077564307382831099 0 -0.0093267163156350585 0.10220622611456499 0 -0.028384651446471159 0.094232735224306696 0 -0.019815605255134251 0.077564307382831099 0 -0.019815605255134251 0.077564307382831099 0 -0.02897814582929455 0.062873885781940531 0 -0.01123722517146284 0.061714947321965113 0 -0.019815605255134251 0.077564307382831099 0 -0.02897814582929455 0.062873885781940531 0 -0.037351726516990362 0.072256576054196331 0 -0.037351726516990362 0.072256576054196331 0 -0.04744258657730735 0.086259244334048468 0 -0.048521472395479701 0.069705355416953899 0 -0.042000822527735973 0.064880087355207783 0 -0.037351726516990362 0.072256576054196331 0 -0.048521472395479701 0.069705355416953899 0 -0.042000822527735973 0.064880087355207783 0 -0.048521472395479701 0.069705355416953899 0 -0.048543751051203898 0.057697742817346243 0 -0.02897814582929455 0.062873885781940531 0 -0.042000822527735973 0.064880087355207783 0 -0.037351726516990362 0.072256576054196331 0 -0.028384651446471159 0.094232735224306696 0 -0.048484368781985768 0.092953390863835139 0 -0.04744258657730735 0.086259244334048468 0 -0.019815605255134251 0.077564307382831099 0 -0.037351726516990362 0.072256576054196331 0 -0.04744258657730735 0.086259244334048468 0 -0.019815605255134251 0.077564307382831099 0 -0.04744258657730735 0.086259244334048468 0 -0.028384651446471159 0.094232735224306696 0 -0.04744258657730735 0.086259244334048468 0 -0.028384651446471159 0.094232735224306696 0 -0.019815605255134251 0.077564307382831099 0 -0.04744258657730735 0.086259244334048468 0 -0.04744258657730735 0.086259244334048468 0 -0.056352896539992578 0.082531333895216066 0 -0.048521472395479701 0.069705355416953899 0 -0.04744258657730735 0.086259244334048468 0 -0.055667229109567583 0.088847755450422561 0 -0.048484368781985768 0.092953390863835139 0 -0.04744258657730735 0.086259244334048468 0 -0.055667229109567583 0.088847755450422561 0 -0.055667229109567583 0.088847755450422561 0 -0.056352896539992578 0.082531333895216066 0 -0.055667229109567583 0.088847755450422561 0 -0.056352896539992578 0.082531333895216066 0 -0.068535421204038979 0.084669133357873919 0 -0.04744258657730735 0.086259244334048468 0 -0.055667229109567583 0.088847755450422561 0 -0.056352896539992578 0.082531333895216066 0 -0.04744258657730735 0.086259244334048468 0 -0.056352896539992578 0.082531333895216066 0 -0.056352896539992578 0.082531333895216066 0 -0.048521472395479701 0.069705355416953899 0 -0.059557339835071388 0.053011753697425897 0 -0.056352896539992578 0.082531333895216066 0 -0.065455038900646412 0.063135680861219914 0 -0.059557339835071388 0.053011753697425897 0 -0.056352896539992578 0.082531333895216066 0 -0.059557339835071388 0.053011753697425897 0 -0.041763705598505362 0.11912362676530031 0 -0.040355805924582322 0.10811297036328291 0 -0.053061720868948711 0.1128498994681193 0 -0.030432249208768851 0.112355206427051 0 -0.041763705598505362 0.11912362676530031 0 -0.033110622576494379 0.1214386067867833 0 -0.035266368379565052 0.13009707587939279 0 -0.041763705598505362 0.11912362676530031 0 -0.033110622576494379 0.1214386067867833 0 -0.030432249208768851 0.112355206427051 0 -0.041763705598505362 0.11912362676530031 0 -0.040355805924582322 0.10811297036328291 0 -0.028384651446471159 0.094232735224306696 0 -0.040355805924582322 0.10811297036328291 0 -0.047601570349403252 0.1001146928854318 0 -0.028384651446471159 0.094232735224306696 0 -0.048484368781985768 0.092953390863835139 0 -0.047601570349403252 0.1001146928854318 0 -0.028384651446471159 0.094232735224306696 0 -0.030432249208768851 0.112355206427051 0 -0.040355805924582322 0.10811297036328291 0 -0.055667229109567583 0.088847755450422561 0 -0.047601570349403252 0.1001146928854318 0 -0.053061720868948711 0.1128498994681193 0 -0.055667229109567583 0.088847755450422561 0 -0.053061720868948711 0.1128498994681193 0 -0.040355805924582322 0.10811297036328291 0 -0.047601570349403252 0.1001146928854318 0 -0.053061720868948711 0.1128498994681193 0 -0.055667229109567583 0.088847755450422561 0 -0.061317563763440802 0.10299561175118491 0 -0.053061720868948711 0.1128498994681193 0 -0.048484368781985768 0.092953390863835139 0 -0.055667229109567583 0.088847755450422561 0 -0.047601570349403252 0.1001146928854318 0 -0.055667229109567583 0.088847755450422561 0 -0.061317563763440802 0.10299561175118491 0 -0.06797342141030252 0.10030920148610591 0 -0.061317563763440802 0.10299561175118491 0 -0.053061720868948711 0.1128498994681193 0 -0.066574353573826517 0.1091611438734031 0 -0.046331318124510253 0.13174141938699169 0 -0.041763705598505362 0.11912362676530031 0 -0.057376161549244957 0.12328487032798489 0 -0.041763705598505362 0.11912362676530031 0 -0.053061720868948711 0.1128498994681193 0 -0.057376161549244957 0.12328487032798489 0 -0.053061720868948711 0.1128498994681193 0 -0.057376161549244957 0.12328487032798489 0 -0.068008023874607193 0.1194813826226566 0 -0.060395274942560528 0.13416549391068189 0 -0.068008023874607193 0.1194813826226566 0 -0.077957056184904241 0.1134158145620357 0 -0.060395274942560528 0.13416549391068189 0 -0.077957056184904241 0.1134158145620357 0 -0.079964733767734122 0.12668506296934109 0 -0.060395274942560528 0.13416549391068189 0 -0.077957056184904241 0.1134158145620357 0 -0.053061720868948711 0.1128498994681193 0 -0.068008023874607193 0.1194813826226566 0 -0.066574353573826517 0.1091611438734031 0 -0.068008023874607193 0.1194813826226566 0 -0.075620772806654399 0.1047972713346316 0 -0.066574353573826517 0.1091611438734031 0 -0.068008023874607193 0.1194813826226566 0 -0.077957056184904241 0.1134158145620357 0 -0.075620772806654399 0.1047972713346316 0 -0.068008023874607193 0.1194813826226566 0 -0.075620772806654399 0.1047972713346316 0 -0.079964733767734122 0.12668506296934109 0 -0.077957056184904241 0.1134158145620357 0 -0.086534582504385088 0.1156474293511931 0 -0.077957056184904241 0.1134158145620357 0 -0.086534582504385088 0.1156474293511931 0 -0.083947310206231279 0.1074935535689709 0 -0.086534582504385088 0.1156474293511931 0 -0.095157466154961498 0.1222738246889692 0 -0.093760682860616423 0.1071519620079809 0 -0.086534582504385088 0.1156474293511931 0 -0.083947310206231279 0.1074935535689709 0 -0.093760682860616423 0.1071519620079809 0 -0.079964733767734122 0.12668506296934109 0 -0.086534582504385088 0.1156474293511931 0 -0.095157466154961498 0.1222738246889692 0 -0.084868150004751591 0.098297010781769723 0 -0.085645907343274513 0.087820148674278453 0 -0.093949525724613639 0.096173232947952741 0 -0.084868150004751591 0.098297010781769723 0 -0.093760682860616423 0.1071519620079809 0 -0.093949525724613639 0.096173232947952741 0 -0.083947310206231279 0.1074935535689709 0 -0.084868150004751591 0.098297010781769723 0 -0.093760682860616423 0.1071519620079809 0 -0.083947310206231279 0.1074935535689709 0 -0.084868150004751591 0.098297010781769723 0 -0.075620772806654399 0.1047972713346316 0 -0.077957056184904241 0.1134158145620357 0 -0.083947310206231279 0.1074935535689709 0 -0.075620772806654399 0.1047972713346316 0 -0.084868150004751591 0.098297010781769723 0 -0.07416284546680918 0.094668811910581629 0 -0.075620772806654399 0.1047972713346316 0 -0.07416284546680918 0.094668811910581629 0 -0.075620772806654399 0.1047972713346316 0 -0.06797342141030252 0.10030920148610591 0 -0.055667229109567583 0.088847755450422561 0 -0.07416284546680918 0.094668811910581629 0 -0.06797342141030252 0.10030920148610591 0 -0.075620772806654399 0.1047972713346316 0 -0.066574353573826517 0.1091611438734031 0 -0.06797342141030252 0.10030920148610591 0 -0.061317563763440802 0.10299561175118491 0 -0.066574353573826517 0.1091611438734031 0 -0.06797342141030252 0.10030920148610591 0 -0.055667229109567583 0.088847755450422561 0 -0.07416284546680918 0.094668811910581629 0 -0.055667229109567583 0.088847755450422561 0 -0.07416284546680918 0.094668811910581629 0 -0.068535421204038979 0.084669133357873919 0 -0.056352896539992578 0.082531333895216066 0 -0.068535421204038979 0.084669133357873919 0 -0.079954973421325709 0.072656657351692189 0 -0.068535421204038979 0.084669133357873919 0 -0.077074786858862099 0.084953687823606544 0 -0.079954973421325709 0.072656657351692189 0 -0.07416284546680918 0.094668811910581629 0 -0.068535421204038979 0.084669133357873919 0 -0.077074786858862099 0.084953687823606544 0 -0.056352896539992578 0.082531333895216066 0 -0.079954973421325709 0.072656657351692189 0 -0.056352896539992578 0.082531333895216066 0 -0.065455038900646412 0.063135680861219914 0 -0.079954973421325709 0.072656657351692189 0 -0.065455038900646412 0.063135680861219914 0 -0.079954973421325709 0.072656657351692189 0 -0.065455038900646412 0.063135680861219914 0 -0.079954973421325709 0.072656657351692189 0 -0.076524839145482512 0.060394734624827362 0 -0.079954973421325709 0.072656657351692189 0 -0.093524594780215381 0.066979376389898315 0 -0.098442440583084309 0.07567796336267002 0 -0.079954973421325709 0.072656657351692189 0 -0.087851637875022454 0.059069255740853588 0 -0.076524839145482512 0.060394734624827362 0 -0.079954973421325709 0.072656657351692189 0 -0.093524594780215381 0.066979376389898315 0 -0.079954973421325709 0.072656657351692189 0 -0.093524594780215381 0.066979376389898315 0 -0.087851637875022454 0.059069255740853588 0 -0.079954973421325709 0.072656657351692189 0 -0.085645907343274513 0.087820148674278453 0 -0.1018492251009645 0.087032905411369765 0 -0.079954973421325709 0.072656657351692189 0 -0.1018492251009645 0.087032905411369765 0 -0.079954973421325709 0.072656657351692189 0 -0.1018492251009645 0.087032905411369765 0 -0.098442440583084309 0.07567796336267002 0 -0.084868150004751591 0.098297010781769723 0 -0.07416284546680918 0.094668811910581629 0 -0.085645907343274513 0.087820148674278453 0 -0.07416284546680918 0.094668811910581629 0 -0.077074786858862099 0.084953687823606544 0 -0.085645907343274513 0.087820148674278453 0 -0.077074786858862099 0.084953687823606544 0 -0.079954973421325709 0.072656657351692189 0 -0.085645907343274513 0.087820148674278453 0 -0.085645907343274513 0.087820148674278453 0 -0.1018492251009645 0.087032905411369765 0 -0.093949525724613639 0.096173232947952741 0 -0.1018492251009645 0.087032905411369765 0 -0.098442440583084309 0.07567796336267002 0 -0.1104905068726369 0.082990227197258584 0 -0.093524594780215381 0.066979376389898315 0 -0.106392902740279 0.068730650463131246 0 -0.095695867018895209 0.061386095523021718 0 -0.093524594780215381 0.066979376389898315 0 -0.098442440583084309 0.07567796336267002 0 -0.106392902740279 0.068730650463131246 0 -0.098442440583084309 0.07567796336267002 0 -0.106392902740279 0.068730650463131246 0 -0.1104905068726369 0.082990227197258584 0 -0.106392902740279 0.068730650463131246 0 -0.1143187324205953 0.061132814960732959 0 -0.1040003188276042 0.06051796656090451 0 -0.13471537800020611 0.069932196640817734 0 -0.1158200249735767 0.081810356583590621 0 -0.1143187324205953 0.061132814960732959 0 -0.1158200249735767 0.081810356583590621 0 -0.1143187324205953 0.061132814960732959 0 -0.106392902740279 0.068730650463131246 0 -0.1158200249735767 0.081810356583590621 0 -0.1143187324205953 0.061132814960732959 0 -0.106392902740279 0.068730650463131246 0 -0.1104905068726369 0.082990227197258584 0 -0.1158200249735767 0.081810356583590621 0 -0.106392902740279 0.068730650463131246 0 -0.1158200249735767 0.081810356583590621 0 -0.1104905068726369 0.082990227197258584 0 -0.1158200249735767 0.081810356583590621 0 -0.123743476780604 0.10140915347104661 0 -0.12576525993317081 0.095608920700106598 0 -0.1158200249735767 0.081810356583590621 0 -0.123743476780604 0.10140915347104661 0 -0.1018492251009645 0.087032905411369765 0 -0.1104905068726369 0.082990227197258584 0 -0.123743476780604 0.10140915347104661 0 -0.12576525993317081 0.095608920700106598 0 -0.1158200249735767 0.081810356583590621 0 -0.1018492251009645 0.087032905411369765 0 -0.123743476780604 0.10140915347104661 0 -0.10362366331346121 0.1005641378643648 0 -0.123743476780604 0.10140915347104661 0 -0.1048537663643479 0.1137288284916211 0 -0.10362366331346121 0.1005641378643648 0 -0.1018492251009645 0.087032905411369765 0 -0.123743476780604 0.10140915347104661 0 -0.12576525993317081 0.095608920700106598 0 -0.123743476780604 0.10140915347104661 0 -0.13074244959953979 0.11946175785799951 0 -0.11549744085296181 0.12506595749432459 0 -0.123743476780604 0.10140915347104661 0 -0.11549744085296181 0.12506595749432459 0 -0.123743476780604 0.10140915347104661 0 -0.1048537663643479 0.1137288284916211 0 -0.11549744085296181 0.12506595749432459 0 -0.123743476780604 0.10140915347104661 0 -0.11549744085296181 0.12506595749432459 0 -0.1048537663643479 0.1137288284916211 0 -0.095157466154961498 0.1222738246889692 0 -0.1048537663643479 0.1137288284916211 0 -0.095157466154961498 0.1222738246889692 0 -0.093760682860616423 0.1071519620079809 0 -0.1048537663643479 0.1137288284916211 0 -0.093760682860616423 0.1071519620079809 0 -0.10362366331346121 0.1005641378643648 0 -0.093760682860616423 0.1071519620079809 0 -0.093949525724613639 0.096173232947952741 0 -0.10362366331346121 0.1005641378643648 0 -0.1018492251009645 0.087032905411369765 0 -0.093949525724613639 0.096173232947952741 0 -0.10362366331346121 0.1005641378643648 0 -0.098111174817663571 0.029299933210101211 0 -0.11131614731463491 0.019777731715017489 0 -0.093270919285344131 0.021002023320940321 0 -0.099902477996615974 0.0097047614334804834 0 -0.11131614731463491 0.019777731715017489 0 -0.093270919285344131 0.021002023320940321 0 -0.098111174817663571 0.029299933210101211 0 -0.11131614731463491 0.019777731715017489 0 -0.1037154685123088 0.036850908914803658 0 -0.11131614731463491 0.019777731715017489 0 -0.1037154685123088 0.036850908914803658 0 -0.099902477996615974 0.0097047614334804834 0 -0.1099986790197032 0.001632030897992919 0 -0.11131614731463491 0.019777731715017489 0 -0.097318817554363779 -0.0057286893867275063 0 -0.099902477996615974 0.0097047614334804834 0 -0.087524390624848222 0.006688577221896419 0 -0.097318817554363779 -0.0057286893867275063 0 -0.099902477996615974 0.0097047614334804834 0 -0.1099986790197032 0.001632030897992919 0 -0.1236122261121546 -0.0078425818954372464 0 -0.13137048688310951 -0.003337023478303953 0 -0.11131614731463491 0.019777731715017489 0 -0.1099986790197032 0.001632030897992919 0 -0.11131614731463491 0.019777731715017489 0 -0.1236122261121546 -0.0078425818954372464 0 -0.1099986790197032 0.001632030897992919 0 -0.11131614731463491 0.019777731715017489 0 -0.1236122261121546 -0.0078425818954372464 0 -0.11131614731463491 0.019777731715017489 0 -0.1284208098020175 0.033179877632891097 0 -0.13460564055411489 0.01723703355858653 0 -0.11131614731463491 0.019777731715017489 0 -0.11131614731463491 0.019777731715017489 0 -0.1128174398676144 0.040455273337875242 0 -0.1284208098020175 0.033179877632891097 0 -0.11131614731463491 0.019777731715017489 0 -0.1128174398676144 0.040455273337875242 0 -0.12657932631233151 0.049909814768299969 0 -0.1284208098020175 0.033179877632891097 0 -0.1128174398676144 0.040455273337875242 0 -0.12657932631233151 0.049909814768299969 0 -0.1128174398676144 0.040455273337875242 0 -0.1143187324205953 0.061132814960732959 0 -0.1128174398676144 0.040455273337875242 0 -0.1143187324205953 0.061132814960732959 0 -0.1082223027228006 0.050485275180462093 0 -0.1128174398676144 0.040455273337875242 0 -0.1143187324205953 0.061132814960732959 0 -0.1143187324205953 0.061132814960732959 0 -0.10610639822075781 0.055771586811031351 0 -0.1082223027228006 0.050485275180462093 0 -0.1025152677102278 0.050750948389364392 0 -0.096114789709981496 0.053924086114589299 0 -0.1037154685123088 0.036850908914803658 0 -0.106392902740279 0.068730650463131246 0 -0.1040003188276042 0.06051796656090451 0 -0.096965780506980889 0.055650944342672051 0 -0.106392902740279 0.068730650463131246 0 -0.096965780506980889 0.055650944342672051 0 -0.1143187324205953 0.061132814960732959 0 -0.1040003188276042 0.06051796656090451 0 -0.10610639822075781 0.055771586811031351 0 -0.1040003188276042 0.06051796656090451 0 -0.10610639822075781 0.055771586811031351 0 -0.1014753694225613 0.055970928963692809 0 -0.10610639822075781 0.055771586811031351 0 -0.1025152677102278 0.050750948389364392 0 -0.1014753694225613 0.055970928963692809 0 -0.10610639822075781 0.055771586811031351 0 -0.1082223027228006 0.050485275180462093 0 -0.1025152677102278 0.050750948389364392 0 -0.1082223027228006 0.050485275180462093 0 -0.1025152677102278 0.050750948389364392 0 -0.1067356553623631 0.044178634216678392 0 -0.096408734094846682 0.047028599374544268 0 -0.094016665615900177 0.045027451179461733 0 -0.091788012541196298 0.052311951289322388 0 -0.096114789709981496 0.053924086114589299 0 -0.093744419191978248 0.056500250678553403 0 -0.091788012541196298 0.052311951289322388 0 -0.096408734094846682 0.047028599374544268 0 -0.096114789709981496 0.053924086114589299 0 -0.091788012541196298 0.052311951289322388 0 -0.096114789709981496 0.053924086114589299 0 -0.099124967027144822 0.054450492792824511 0 -0.096965780506980889 0.055650944342672051 0 -0.1025152677102278 0.050750948389364392 0 -0.096114789709981496 0.053924086114589299 0 -0.099124967027144822 0.054450492792824511 0 -0.1025152677102278 0.050750948389364392 0 -0.099124967027144822 0.054450492792824511 0 -0.1014753694225613 0.055970928963692809 0 -0.106392902740279 0.068730650463131246 0 -0.096965780506980889 0.055650944342672051 0 -0.095695867018895209 0.061386095523021718 0 -0.1040003188276042 0.06051796656090451 0 -0.1014753694225613 0.055970928963692809 0 -0.096965780506980889 0.055650944342672051 0 -0.099124967027144822 0.054450492792824511 0 -0.1014753694225613 0.055970928963692809 0 -0.096965780506980889 0.055650944342672051 0 -0.096965780506980889 0.055650944342672051 0 -0.095695867018895209 0.061386095523021718 0 -0.093744419191978248 0.056500250678553403 0 -0.096114789709981496 0.053924086114589299 0 -0.096965780506980889 0.055650944342672051 0 -0.093744419191978248 0.056500250678553403 0 -0.096408734094846682 0.047028599374544268 0 -0.096114789709981496 0.053924086114589299 0 -0.1037154685123088 0.036850908914803658 0 -0.11131614731463491 0.019777731715017489 0 -0.1128174398676144 0.040455273337875242 0 -0.1037154685123088 0.036850908914803658 0 -0.096114789709981496 0.053924086114589299 0 -0.1037154685123088 0.036850908914803658 0 -0.1128174398676144 0.040455273337875242 0 -0.1037154685123088 0.036850908914803658 0 -0.1067356553623631 0.044178634216678392 0 -0.1128174398676144 0.040455273337875242 0 -0.1082223027228006 0.050485275180462093 0 -0.1067356553623631 0.044178634216678392 0 -0.1025152677102278 0.050750948389364392 0 -0.1037154685123088 0.036850908914803658 0 -0.1067356553623631 0.044178634216678392 0 -0.096408734094846682 0.047028599374544268 0 -0.1037154685123088 0.036850908914803658 0 -0.094016665615900177 0.045027451179461733 0 -0.1037154685123088 0.036850908914803658 0 -0.094016665615900177 0.045027451179461733 0 -0.094491571965461013 0.037104767562455593 0 -0.098111174817663571 0.029299933210101211 0 -0.1037154685123088 0.036850908914803658 0 -0.094491571965461013 0.037104767562455593 0 -0.098111174817663571 0.029299933210101211 0 -0.094491571965461013 0.037104767562455593 0 -0.087647185425064736 0.031842659612238623 0 -0.087647185425064736 0.031842659612238623 0 -0.089854685869044451 0.040908764775179712 0 -0.081629424010395357 0.041419166804349421 0 -0.094491571965461013 0.037104767562455593 0 -0.087647185425064736 0.031842659612238623 0 -0.089854685869044451 0.040908764775179712 0 -0.089854685869044451 0.040908764775179712 0 -0.081629424010395357 0.041419166804349421 0 -0.086707275669269182 0.049908642651155542 0 -0.094016665615900177 0.045027451179461733 0 -0.089854685869044451 0.040908764775179712 0 -0.086707275669269182 0.049908642651155542 0 -0.094016665615900177 0.045027451179461733 0 -0.094491571965461013 0.037104767562455593 0 -0.089854685869044451 0.040908764775179712 0 -0.087647185425064736 0.031842659612238623 0 -0.081629424010395357 0.041419166804349421 0 -0.076164181077954182 0.032009494226678391 0 -0.095695867018895209 0.061386095523021718 0 -0.087851637875022454 0.059069255740853588 0 -0.093744419191978248 0.056500250678553403 0 -0.093524594780215381 0.066979376389898315 0 -0.095695867018895209 0.061386095523021718 0 -0.087851637875022454 0.059069255740853588 0 -0.087851637875022454 0.059069255740853588 0 -0.093744419191978248 0.056500250678553403 0 -0.091788012541196298 0.052311951289322388 0 -0.087851637875022454 0.059069255740853588 0 -0.091788012541196298 0.052311951289322388 0 -0.086707275669269182 0.049908642651155542 0 -0.094016665615900177 0.045027451179461733 0 -0.091788012541196298 0.052311951289322388 0 -0.086707275669269182 0.049908642651155542 0 -0.086707275669269182 0.049908642651155542 0 -0.081818850965788142 0.055238295402956307 0 -0.077896340682555187 0.050949615115596543 0 -0.081629424010395357 0.041419166804349421 0 -0.086707275669269182 0.049908642651155542 0 -0.077896340682555187 0.050949615115596543 0 -0.087851637875022454 0.059069255740853588 0 -0.086707275669269182 0.049908642651155542 0 -0.081818850965788142 0.055238295402956307 0 -0.081818850965788142 0.055238295402956307 0 -0.076524839145482512 0.060394734624827362 0 -0.077896340682555187 0.050949615115596543 0 -0.087851637875022454 0.059069255740853588 0 -0.081818850965788142 0.055238295402956307 0 -0.076524839145482512 0.060394734624827362 0 -0.076524839145482512 0.060394734624827362 0 -0.077896340682555187 0.050949615115596543 0 -0.069328576095109715 0.053744354209428961 0 -0.065455038900646412 0.063135680861219914 0 -0.076524839145482512 0.060394734624827362 0 -0.069328576095109715 0.053744354209428961 0 -0.077896340682555187 0.050949615115596543 0 -0.069328576095109715 0.053744354209428961 0 -0.071506875338484571 0.042895824445247768 0 -0.069328576095109715 0.053744354209428961 0 -0.071506875338484571 0.042895824445247768 0 -0.059557339835071388 0.053011753697425897 0 -0.065455038900646412 0.063135680861219914 0 -0.069328576095109715 0.053744354209428961 0 -0.059557339835071388 0.053011753697425897 0 -0.076164181077954182 0.032009494226678391 0 -0.071506875338484571 0.042895824445247768 0 -0.062761783130148519 0.02349217349963555 0 -0.071506875338484571 0.042895824445247768 0 -0.062761783130148519 0.02349217349963555 0 -0.059557339835071388 0.053011753697425897 0 -0.081629424010395357 0.041419166804349421 0 -0.076164181077954182 0.032009494226678391 0 -0.071506875338484571 0.042895824445247768 0 -0.081629424010395357 0.041419166804349421 0 -0.077896340682555187 0.050949615115596543 0 -0.071506875338484571 0.042895824445247768 0 -0.076164181077954182 0.032009494226678391 0 -0.062761783130148519 0.02349217349963555 0 -0.078304733749917463 0.018406078267593839 0 -0.087647185425064736 0.031842659612238623 0 -0.076164181077954182 0.032009494226678391 0 -0.078304733749917463 0.018406078267593839 0 -0.098111174817663571 0.029299933210101211 0 -0.087647185425064736 0.031842659612238623 0 -0.093270919285344131 0.021002023320940321 0 -0.087647185425064736 0.031842659612238623 0 -0.078304733749917463 0.018406078267593839 0 -0.093270919285344131 0.021002023320940321 0 -0.099902477996615974 0.0097047614334804834 0 -0.093270919285344131 0.021002023320940321 0 -0.087524390624848222 0.006688577221896419 0 -0.078304733749917463 0.018406078267593839 0 -0.093270919285344131 0.021002023320940321 0 -0.087524390624848222 0.006688577221896419 0 -0.065966226425225663 -0.0060274066981548767 0 -0.062761783130148519 0.02349217349963555 0 -0.078304733749917463 0.018406078267593839 0 -0.065966226425225663 -0.0060274066981548767 0 -0.078304733749917463 0.018406078267593839 0 -0.087524390624848222 0.006688577221896419 0 -0.065966226425225663 -0.0060274066981548767 0 -0.062761783130148519 0.02349217349963555 0 -0.065966226425225663 -0.0060274066981548767 0 -0.062761783130148519 0.02349217349963555 0 -0.041285176168578859 0.002941795093874656 0 -0.062761783130148519 0.02349217349963555 0 -0.036272784281526353 0.030700192342145501 0 -0.041285176168578859 0.002941795093874656 0 -0.036272784281526353 0.030700192342145501 0 -0.041285176168578859 0.002941795093874656 0 -0.01693898921702304 0.0117618500821222 0 -0.048521472395479701 0.069705355416953899 0 -0.048543751051203898 0.057697742817346243 0 -0.059557339835071388 0.053011753697425897 0 -0.048543751051203898 0.057697742817346243 0 -0.059557339835071388 0.053011753697425897 0 -0.04189961413571635 0.0481337511233643 0 -0.062761783130148519 0.02349217349963555 0 -0.059557339835071388 0.053011753697425897 0 -0.062761783130148519 0.02349217349963555 0 -0.036272784281526353 0.030700192342145501 0 -0.04189961413571635 0.0481337511233643 0 -0.062761783130148519 0.02349217349963555 0 -0.059557339835071388 0.053011753697425897 0 -0.04189961413571635 0.0481337511233643 0 -0.036272784281526353 0.030700192342145501 0 -0.04189961413571635 0.0481337511233643 0 -0.022255981323007819 0.049811798938199467 0 -0.042000822527735973 0.064880087355207783 0 -0.048543751051203898 0.057697742817346243 0 -0.04189961413571635 0.0481337511233643 0 -0.02897814582929455 0.062873885781940531 0 -0.042000822527735973 0.064880087355207783 0 -0.04189961413571635 0.0481337511233643 0 -0.02897814582929455 0.062873885781940531 0 -0.022255981323007819 0.049811798938199467 0 -0.01123722517146284 0.061714947321965113 0 -0.02897814582929455 0.062873885781940531 0 -0.04189961413571635 0.0481337511233643 0 -0.022255981323007819 0.049811798938199467 0 -0.036272784281526353 0.030700192342145501 0 -0.022255981323007819 0.049811798938199467 0 -0.01438021634244922 0.03170234610626791 0 -0.01438021634244922 0.03170234610626791 0 0.0022615025708572051 0.02103125876278546 0 0.0031430691038015031 0.043008717564808917 0 -0.022255981323007819 0.049811798938199467 0 -0.01438021634244922 0.03170234610626791 0 0.0031430691038015031 0.043008717564808917 0 -0.022255981323007819 0.049811798938199467 0 -0.01123722517146284 0.061714947321965113 0 0.0031430691038015031 0.043008717564808917 0 -0.01123722517146284 0.061714947321965113 0 0.0031430691038015031 0.043008717564808917 0 0.0078113760670387236 0.068869370431613411 0 -0.018090432812363919 -0.0051789454257338127 0 -0.041285176168578859 0.002941795093874656 0 -0.01693898921702304 0.0117618500821222 0 -0.036272784281526353 0.030700192342145501 0 -0.01693898921702304 0.0117618500821222 0 -0.036272784281526353 0.030700192342145501 0 -0.01438021634244922 0.03170234610626791 0 -0.01693898921702304 0.0117618500821222 0 -0.01438021634244922 0.03170234610626791 0 -0.01693898921702304 0.0117618500821222 0 0.0022615025708572051 0.02103125876278546 0 -0.01693898921702304 0.0117618500821222 0 0.002394805847480138 -0.0071764921779012506 0 -0.01693898921702304 0.0117618500821222 0 0.0022615025708572051 0.02103125876278546 0 0.002394805847480138 -0.0071764921779012506 0 0.0022615025708572051 0.02103125876278546 0 0.01988593924933146 0.01021281285273932 0 0.002394805847480138 -0.0071764921779012506 0 0.01988593924933146 0.01021281285273932 0 0.018044735406519189 -0.0027914786915071068 0 0.002394805847480138 -0.0071764921779012506 0 0.01988593924933146 0.01021281285273932 0 0.002394805847480138 -0.0071764921779012506 0 0.0022615025708572051 0.02103125876278546 0 0.01988593924933146 0.01021281285273932 0 0.01967507988536589 0.033248318378640847 0 0.01988593924933146 0.01021281285273932 0 0.037377072651182792 0.027602117883379889 0 0.01988593924933146 0.01021281285273932 0 0.01967507988536589 0.033248318378640847 0 0.037377072651182792 0.027602117883379889 0 0.01988593924933146 0.01021281285273932 0 0.035622497167505339 0.0063925700628825917 0 0.018044735406519189 -0.0027914786915071068 0 0.01988593924933146 0.01021281285273932 0 0.035622497167505339 0.0063925700628825917 0 0.037377072651182792 0.027602117883379889 0 0.0031430691038015031 0.043008717564808917 0 0.019783223174817739 0.050872415177661792 0 0.0078113760670387236 0.068869370431613411 0 0.0031430691038015031 0.043008717564808917 0 0.0078113760670387236 0.068869370431613411 0 0.0031430691038015031 0.043008717564808917 0 0.01967507988536589 0.033248318378640847 0 0.019783223174817739 0.050872415177661792 0 0.0022615025708572051 0.02103125876278546 0 0.0031430691038015031 0.043008717564808917 0 0.01967507988536589 0.033248318378640847 0 0.01967507988536589 0.033248318378640847 0 0.019783223174817739 0.050872415177661792 0 0.035662389103733989 0.047481221614176811 0 0.01967507988536589 0.033248318378640847 0 0.035662389103733989 0.047481221614176811 0 0.037377072651182792 0.027602117883379889 0 0.019783223174817739 0.050872415177661792 0 0.035662389103733989 0.047481221614176811 0 0.032141493454138102 0.060275729162332752 0 0.019783223174817739 0.050872415177661792 0 0.021142096610139102 0.064673842397447556 0 0.0078113760670387236 0.068869370431613411 0 0.019783223174817739 0.050872415177661792 0 0.032141493454138102 0.060275729162332752 0 0.021142096610139102 0.064673842397447556 0 0.035662389103733989 0.047481221614176811 0 0.032141493454138102 0.060275729162332752 0 0.049290572992936238 0.066355209737614357 0 0.035662389103733989 0.047481221614176811 0 0.054868206053034503 0.044991422914020113 0 0.049290572992936238 0.066355209737614357 0 0.054868206053034503 0.044991422914020113 0 0.037377072651182792 0.027602117883379889 0 0.035662389103733989 0.047481221614176811 0 0.054868206053034503 0.044991422914020113 0 0.037377072651182792 0.027602117883379889 0 0.054868206053034503 0.044991422914020113 0 0.037377072651182792 0.027602117883379889 0 0.059466454908930037 0.027378932586910581 0 0.054868206053034503 0.044991422914020113 0 0.059466454908930037 0.027378932586910581 0 0.054868206053034503 0.044991422914020113 0 0.049290572992936238 0.066355209737614357 0 0.054868206053034503 0.044991422914020113 0 0.067806688972275458 0.057854581689803772 0 0.049290572992936238 0.066355209737614357 0 0.054868206053034503 0.044991422914020113 0 0.067806688972275458 0.057854581689803772 0 0.035622497167505339 0.0063925700628825917 0 0.048661329883321183 0.016868832195515299 0 0.04884534130661923 0.0054823796607835363 0 0.035622497167505339 0.0063925700628825917 0 0.04884534130661923 0.0054823796607835363 0 0.045210290485040869 -0.0034719151203993228 0 0.035622497167505339 0.0063925700628825917 0 0.037377072651182792 0.027602117883379889 0 0.048661329883321183 0.016868832195515299 0 0.037377072651182792 0.027602117883379889 0 0.048661329883321183 0.016868832195515299 0 0.059466454908930037 0.027378932586910581 0 0.048661329883321183 0.016868832195515299 0 0.059466454908930037 0.027378932586910581 0 0.059551554903704583 0.012329945274186901 0 0.048661329883321183 0.016868832195515299 0 0.059551554903704583 0.012329945274186901 0 0.04884534130661923 0.0054823796607835363 0 0.04884534130661923 0.0054823796607835363 0 0.058196269712748661 -0.0010094984802769141 0 0.045210290485040869 -0.0034719151203993228 0 0.059551554903704583 0.012329945274186901 0 0.04884534130661923 0.0054823796607835363 0 0.058196269712748661 -0.0010094984802769141 0 0.059551554903704583 0.012329945274186901 0 0.070381517258247442 0.0054324954822656396 0 0.058196269712748661 -0.0010094984802769141 0 0.059551554903704583 0.012329945274186901 0 0.070381517258247442 0.0054324954822656396 0 0.071076364355982968 0.019572888861291889 0 0.070381517258247442 0.0054324954822656396 0 0.083131704911828669 0.010948624559543209 0 0.071076364355982968 0.019572888861291889 0 0.083131704911828669 0.010948624559543209 0 0.096167504599054904 0.0042442054759202954 0 0.09879577097810871 0.02017555683513389 0 0.070381517258247442 0.0054324954822656396 0 0.083131704911828669 0.010948624559543209 0 0.081717153665888317 -0.0025063239881197622 0 0.083131704911828669 0.010948624559543209 0 0.096167504599054904 0.0042442054759202954 0 0.081717153665888317 -0.0025063239881197622 0 0.083131704911828669 0.010948624559543209 0 0.084020254894405358 0.02481244236443322 0 0.09879577097810871 0.02017555683513389 0 0.084020254894405358 0.02481244236443322 0 0.089449236229465365 0.03685286092118592 0 0.09879577097810871 0.02017555683513389 0 0.083131704911828669 0.010948624559543209 0 0.084020254894405358 0.02481244236443322 0 0.071076364355982968 0.019572888861291889 0 0.084020254894405358 0.02481244236443322 0 0.071076364355982968 0.019572888861291889 0 0.073196751006103261 0.040000434485980937 0 0.059466454908930037 0.027378932586910581 0 0.071076364355982968 0.019572888861291889 0 0.073196751006103261 0.040000434485980937 0 0.059466454908930037 0.027378932586910581 0 0.059551554903704583 0.012329945274186901 0 0.071076364355982968 0.019572888861291889 0 0.054868206053034503 0.044991422914020113 0 0.059466454908930037 0.027378932586910581 0 0.073196751006103261 0.040000434485980937 0 0.073196751006103261 0.040000434485980937 0 0.067806688972275458 0.057854581689803772 0 0.092977810154944648 0.053070117425326267 0 0.054868206053034503 0.044991422914020113 0 0.073196751006103261 0.040000434485980937 0 0.067806688972275458 0.057854581689803772 0 0.092977810154944648 0.053070117425326267 0 0.080745171891517087 0.070717740465586792 0 0.067806688972275458 0.057854581689803772 0 0.092977810154944648 0.053070117425326267 0 0.080745171891517087 0.070717740465586792 0 0.084020254894405358 0.02481244236443322 0 0.073196751006103261 0.040000434485980937 0 0.089449236229465365 0.03685286092118592 0 0.073196751006103261 0.040000434485980937 0 0.092977810154944648 0.053070117425326267 0 0.089449236229465365 0.03685286092118592 0 0.092977810154944648 0.053070117425326267 0 0.10521044841837041 0.035422494385064417 0 0.092977810154944648 0.053070117425326267 0 0.089449236229465365 0.03685286092118592 0 0.10521044841837041 0.035422494385064417 0 0.092977810154944648 0.053070117425326267 0 0.1133392402374467 0.053204142399891047 0 0.1035655079248483 0.069632380985197889 0 0.092977810154944648 0.053070117425326267 0 0.10521044841837041 0.035422494385064417 0 0.1133392402374467 0.053204142399891047 0 0.1133392402374467 0.053204142399891047 0 0.1220245952479405 0.07004619687739172 0 0.13318341665519781 0.054736537254868822 0 0.1133392402374467 0.053204142399891047 0 0.12506256882025399 0.035699134337412737 0 0.13318341665519781 0.054736537254868822 0 0.10521044841837041 0.035422494385064417 0 0.1133392402374467 0.053204142399891047 0 0.12506256882025399 0.035699134337412737 0 0.10521044841837041 0.035422494385064417 0 0.11744308668179609 0.017774871344802521 0 0.12506256882025399 0.035699134337412737 0 0.10521044841837041 0.035422494385064417 0 0.11744308668179609 0.017774871344802521 0 0.10847276501169199 0.0092252325767439008 0 0.12681727907172599 0.0028609529651058472 0 0.11158832231026521 -0.002538519333972472 0 0.11744308668179609 0.017774871344802521 0 0.10847276501169199 0.0092252325767439008 0 0.12681727907172599 0.0028609529651058472 0 0.10847276501169199 0.0092252325767439008 0 0.096167504599054904 0.0042442054759202954 0 0.09879577097810871 0.02017555683513389 0 0.10847276501169199 0.0092252325767439008 0 0.096167504599054904 0.0042442054759202954 0 0.11158832231026521 -0.002538519333972472 0 0.10521044841837041 0.035422494385064417 0 0.11744308668179609 0.017774871344802521 0 0.09879577097810871 0.02017555683513389 0 0.089449236229465365 0.03685286092118592 0 0.10521044841837041 0.035422494385064417 0 0.09879577097810871 0.02017555683513389 0 0.11744308668179609 0.017774871344802521 0 0.10847276501169199 0.0092252325767439008 0 0.09879577097810871 0.02017555683513389 0 0.10882650996042049 0.098635597023528671 0 0.099321881767187231 0.10979448526446239 0 0.11057203073837581 0.10974959828000851 0 0.10882650996042049 0.098635597023528671 0 0.099321881767187231 0.10979448526446239 0 0.093532106097527157 0.097201512098380446 0 0.099321881767187231 0.10979448526446239 0 0.10718004060487731 0.1186919078288297 0 0.094925170845575335 0.12812185349131111 0 0.099321881767187231 0.10979448526446239 0 0.10718004060487731 0.1186919078288297 0 0.11057203073837581 0.10974959828000851 0 0.10718004060487731 0.1186919078288297 0 0.11057203073837581 0.10974959828000851 0 0.11923934643535521 0.1171320194813406 0 0.11923934643535521 0.1171320194813406 0 0.11184177323789279 0.12866158262702601 0 0.12877089149896251 0.12628235461406201 0 0.11057203073837581 0.10974959828000851 0 0.11923934643535521 0.1171320194813406 0 0.1204523462490521 0.10350528248164099 0 0.10718004060487731 0.1186919078288297 0 0.11923934643535521 0.1171320194813406 0 0.11184177323789279 0.12866158262702601 0 0.11923934643535521 0.1171320194813406 0 0.1204523462490521 0.10350528248164099 0 0.13278919984088661 0.11230677671938701 0 0.10882650996042049 0.098635597023528671 0 0.1204523462490521 0.10350528248164099 0 0.1175203890912727 0.086079419998433368 0 0.1204523462490521 0.10350528248164099 0 0.1175203890912727 0.086079419998433368 0 0.13376660142800201 0.097128283387147629 0 0.10882650996042049 0.098635597023528671 0 0.11057203073837581 0.10974959828000851 0 0.1204523462490521 0.10350528248164099 0 0.1175203890912727 0.086079419998433368 0 0.1220245952479405 0.07004619687739172 0 0.1035655079248483 0.069632380985197889 0 0.1133392402374467 0.053204142399891047 0 0.1220245952479405 0.07004619687739172 0 0.1035655079248483 0.069632380985197889 0 0.1175203890912727 0.086079419998433368 0 0.1035655079248483 0.069632380985197889 0 0.094785840925968687 0.084676668744557898 0 0.10882650996042049 0.098635597023528671 0 0.1175203890912727 0.086079419998433368 0 0.094785840925968687 0.084676668744557898 0 0.10882650996042049 0.098635597023528671 0 0.094785840925968687 0.084676668744557898 0 0.10882650996042049 0.098635597023528671 0 0.094785840925968687 0.084676668744557898 0 0.093532106097527157 0.097201512098380446 0 0.094785840925968687 0.084676668744557898 0 0.083309168386930019 0.090214104788044758 0 0.093532106097527157 0.097201512098380446 0 0.094785840925968687 0.084676668744557898 0 0.083309168386930019 0.090214104788044758 0 0.080745171891517087 0.070717740465586792 0 0.092977810154944648 0.053070117425326267 0 0.1035655079248483 0.069632380985197889 0 0.080745171891517087 0.070717740465586792 0 0.1035655079248483 0.069632380985197889 0 0.094785840925968687 0.084676668744557898 0 0.080745171891517087 0.070717740465586792 0 0.094785840925968687 0.084676668744557898 0 0.080745171891517087 0.070717740465586792 0 0.067806688972275458 0.057854581689803772 0 0.080745171891517087 0.070717740465586792 0 0.06101355018332804 0.07564509050647375 0 0.067806688972275458 0.057854581689803772 0 0.080745171891517087 0.070717740465586792 0 0.080745171891517087 0.070717740465586792 0 0.063512377127071362 0.095578924078155048 0 0.083309168386930019 0.090214104788044758 0 0.080745171891517087 0.070717740465586792 0 0.063512377127071362 0.095578924078155048 0 0.080745171891517087 0.070717740465586792 0 0.063512377127071362 0.095578924078155048 0 0.06101355018332804 0.07564509050647375 0 0.083309168386930019 0.090214104788044758 0 0.063512377127071362 0.095578924078155048 0 0.081417129447129324 0.1026867046713085 0 0.063512377127071362 0.095578924078155048 0 0.081417129447129324 0.1026867046713085 0 0.063512377127071362 0.095578924078155048 0 0.081417129447129324 0.1026867046713085 0 0.067817743154455989 0.1135840018968045 0 0.099321881767187231 0.10979448526446239 0 0.081417129447129324 0.1026867046713085 0 0.093532106097527157 0.097201512098380446 0 0.099321881767187231 0.10979448526446239 0 0.081417129447129324 0.1026867046713085 0 0.083309168386930019 0.090214104788044758 0 0.081417129447129324 0.1026867046713085 0 0.093532106097527157 0.097201512098380446 0 0.099321881767187231 0.10979448526446239 0 0.081417129447129324 0.1026867046713085 0 0.08262403040743542 0.1174427642681065 0 0.099321881767187231 0.10979448526446239 0 0.08262403040743542 0.1174427642681065 0 0.094925170845575335 0.12812185349131111 0 0.067817743154455989 0.1135840018968045 0 0.056785074219297037 0.123962922715022 0 0.069638226822829233 0.13302677601664631 0 0.08262403040743542 0.1174427642681065 0 0.067817743154455989 0.1135840018968045 0 0.069638226822829233 0.13302677601664631 0 0.081417129447129324 0.1026867046713085 0 0.08262403040743542 0.1174427642681065 0 0.067817743154455989 0.1135840018968045 0 0.067817743154455989 0.1135840018968045 0 0.056785074219297037 0.123962922715022 0 0.051472524226887043 0.11294842204475181 0 0.056785074219297037 0.123962922715022 0 0.051472524226887043 0.11294842204475181 0 0.045358146108277778 0.122235841909611 0 0.063512377127071362 0.095578924078155048 0 0.067817743154455989 0.1135840018968045 0 0.051472524226887043 0.11294842204475181 0 0.063512377127071362 0.095578924078155048 0 0.04894346805059932 0.099918275759685315 0 0.043712939932840048 0.087718996561209156 0 0.063512377127071362 0.095578924078155048 0 0.051472524226887043 0.11294842204475181 0 0.04894346805059932 0.099918275759685315 0 0.063512377127071362 0.095578924078155048 0 0.051472524226887043 0.11294842204475181 0 0.038417021745327531 0.1080037420749501 0 0.043712939932840048 0.087718996561209156 0 0.028330160343379221 0.096092512071592709 0 0.051472524226887043 0.11294842204475181 0 0.04894346805059932 0.099918275759685315 0 0.038417021745327531 0.1080037420749501 0 0.04894346805059932 0.099918275759685315 0 0.038417021745327531 0.1080037420749501 0 0.043712939932840048 0.087718996561209156 0 0.038417021745327531 0.1080037420749501 0 0.043712939932840048 0.087718996561209156 0 0.038417021745327531 0.1080037420749501 0 0.028403759718925791 0.1183090902513565 0 0.03312110355781811 0.12828848758869171 0 0.038417021745327531 0.1080037420749501 0 0.03312110355781811 0.12828848758869171 0 0.038417021745327531 0.1080037420749501 0 0.045358146108277778 0.122235841909611 0 0.03312110355781811 0.12828848758869171 0 0.051472524226887043 0.11294842204475181 0 0.038417021745327531 0.1080037420749501 0 0.045358146108277778 0.122235841909611 0 0.06101355018332804 0.07564509050647375 0 0.049290572992936238 0.066355209737614357 0 0.043712939932840048 0.087718996561209156 0 0.067806688972275458 0.057854581689803772 0 0.06101355018332804 0.07564509050647375 0 0.049290572992936238 0.066355209737614357 0 0.063512377127071362 0.095578924078155048 0 0.06101355018332804 0.07564509050647375 0 0.043712939932840048 0.087718996561209156 0 0.063512377127071362 0.095578924078155048 0 0.043712939932840048 0.087718996561209156 0 0.043712939932840048 0.087718996561209156 0 0.034829185389063419 0.071995956884763276 0 0.02079066235970875 0.078619372239532512 0 0.043712939932840048 0.087718996561209156 0 0.02079066235970875 0.078619372239532512 0 0.032141493454138102 0.060275729162332752 0 0.049290572992936238 0.066355209737614357 0 0.034829185389063419 0.071995956884763276 0 0.049290572992936238 0.066355209737614357 0 0.043712939932840048 0.087718996561209156 0 0.049290572992936238 0.066355209737614357 0 0.043712939932840048 0.087718996561209156 0 0.034829185389063419 0.071995956884763276 0 0.032141493454138102 0.060275729162332752 0 0.034829185389063419 0.071995956884763276 0 0.021142096610139102 0.064673842397447556 0 0.034829185389063419 0.071995956884763276 0 0.021142096610139102 0.064673842397447556 0 0.02079066235970875 0.078619372239532512 0 0.021142096610139102 0.064673842397447556 0 0.02079066235970875 0.078619372239532512 0 0.0078113760670387236 0.068869370431613411 0 0.043712939932840048 0.087718996561209156 0 0.02079066235970875 0.078619372239532512 0 0.028330160343379221 0.096092512071592709 0 0.02079066235970875 0.078619372239532512 0 0.028330160343379221 0.096092512071592709 0 0.013121597576430799 0.098285986815611973 0 -0.0022168413230157229 0.085736250976024914 0 0.0078113760670387236 0.068869370431613411 0 0.013121597576430799 0.098285986815611973 0 0.02079066235970875 0.078619372239532512 0 0.0078113760670387236 0.068869370431613411 0 0.013121597576430799 0.098285986815611973 0 0.0078113760670387236 0.068869370431613411 0 0.013121597576430799 0.098285986815611973 0 0.021142096610139102 0.064673842397447556 0 0.0078113760670387236 0.068869370431613411 0 0.013121597576430799 0.098285986815611973 0 0.018955942675363529 0.12769885014017149 0 0.018915766464259819 0.12208814763948179 0 0.025608580102588829 0.10783446266666021 0 0.013121597576430799 0.098285986815611973 0 0.018915766464259819 0.12208814763948179 0 0.013121597576430799 0.098285986815611973 0 0.018955942675363529 0.12769885014017149 0 0.018915766464259819 0.12208814763948179 0 0.018955942675363529 0.12769885014017149 0 0.028403759718925791 0.1183090902513565 0 0.025756287217072099 0.1254558848223972 0 0.03312110355781811 0.12828848758869171 0 0.018915766464259819 0.12208814763948179 0 0.028403759718925791 0.1183090902513565 0 0.025756287217072099 0.1254558848223972 0 0.038417021745327531 0.1080037420749501 0 0.028403759718925791 0.1183090902513565 0 0.025608580102588829 0.10783446266666021 0 0.018915766464259819 0.12208814763948179 0 0.028403759718925791 0.1183090902513565 0 0.025608580102588829 0.10783446266666021 0 0.038417021745327531 0.1080037420749501 0 0.025608580102588829 0.10783446266666021 0 0.028330160343379221 0.096092512071592709 0 0.025608580102588829 0.10783446266666021 0 0.028330160343379221 0.096092512071592709 0 0.013121597576430799 0.098285986815611973 0 -0.0093267163156350585 0.10220622611456499 0 -0.0022168413230157229 0.085736250976024914 0 0.013121597576430799 0.098285986815611973 0 -0.0093267163156350585 0.10220622611456499 0 0.013121597576430799 0.098285986815611973 0 0.0088418889268726004 0.1125261115153213 0 -0.0015382865690094869 0.1195819360983075 0 0.0088418889268726004 0.1125261115153213 0 0.0068357907514690393 0.1194307534492897 0 0.013121597576430799 0.098285986815611973 0 0.0088418889268726004 0.1125261115153213 0 0.018955942675363529 0.12769885014017149 0 0.01159030187937234 0.123800118292041 0 0.0068357907514690393 0.1194307534492897 0 0.0093864348306887096 0.12963523465885829 0 0.0088418889268726004 0.1125261115153213 0 0.01159030187937234 0.123800118292041 0 0.0068357907514690393 0.1194307534492897 0 0.0088418889268726004 0.1125261115153213 0 0.01159030187937234 0.123800118292041 0 0.018955942675363529 0.12769885014017149 0 -0.0015382865690094869 0.1195819360983075 0 0.0068357907514690393 0.1194307534492897 0 0.0028297340199113529 0.12737786763030409 0 0.0068357907514690393 0.1194307534492897 0 0.0028297340199113529 0.12737786763030409 0 0.0093864348306887096 0.12963523465885829 0 0.0028297340199113529 0.12737786763030409 0 0.0012022958327204049 0.13426380270999949 0 0.0063902301850321547 0.13414384741273511 0 0.0028297340199113529 0.12737786763030409 0 0.0063902301850321547 0.13414384741273511 0 0.0093864348306887096 0.12963523465885829 0 0.000228448927285114 0.14012311706009631 0 0.0012022958327204049 0.13426380270999949 0 0.0046739851119457828 0.13844047711548191 0 0.0012022958327204049 0.13426380270999949 0 0.0063902301850321547 0.13414384741273511 0 0.0046739851119457828 0.13844047711548191 0 0.0063902301850321547 0.13414384741273511 0 0.0046739851119457828 0.13844047711548191 0 0.0087417741184536643 0.13987837293796551 0 0.0063902301850321547 0.13414384741273511 0 0.0087417741184536643 0.13987837293796551 0 0.01188448664637911 0.13630481734698929 0 0.0087417741184536643 0.13987837293796551 0 0.01188448664637911 0.13630481734698929 0 0.01238480926519909 0.14086949425419931 0 0.0063902301850321547 0.13414384741273511 0 0.01188448664637911 0.13630481734698929 0 0.0093864348306887096 0.12963523465885829 0 0.01538181754864224 0.13462442671806851 0 0.01188448664637911 0.13630481734698929 0 0.01363814740762942 0.13063558522106289 0 0.01538181754864224 0.13462442671806851 0 0.01188448664637911 0.13630481734698929 0 0.014424460637306021 0.13832412831929569 0 0.01188448664637911 0.13630481734698929 0 0.014424460637306021 0.13832412831929569 0 0.01238480926519909 0.14086949425419931 0 0.014424460637306021 0.13832412831929569 0 0.01238480926519909 0.14086949425419931 0 0.015363480448823189 0.14129096320990631 0 0.01159030187937234 0.123800118292041 0 0.0093864348306887096 0.12963523465885829 0 0.01363814740762942 0.13063558522106289 0 0.01188448664637911 0.13630481734698929 0 0.0093864348306887096 0.12963523465885829 0 0.01363814740762942 0.13063558522106289 0 0.01159030187937234 0.123800118292041 0 0.01363814740762942 0.13063558522106289 0 0.018955942675363529 0.12769885014017149 0 0.018915766464259819 0.12208814763948179 0 0.018955942675363529 0.12769885014017149 0 0.022387711081268351 0.13069146168119281 0 0.025814451866404291 0.1323851931955756 0 0.019064338777337181 0.1428366210673169 0 0.044351282800083193 0.13793169854198151 0 0.018915766464259819 0.12208814763948179 0 0.022387711081268351 0.13069146168119281 0 0.025756287217072099 0.1254558848223972 0 0.01538181754864224 0.13462442671806851 0 0.01363814740762942 0.13063558522106289 0 0.018955942675363529 0.12769885014017149 0 0.022387711081268351 0.13069146168119281 0 0.025814451866404291 0.1323851931955756 0 0.019064338777337181 0.1428366210673169 0 0.01538181754864224 0.13462442671806851 0 0.018955942675363529 0.12769885014017149 0 0.01710770927748647 0.13853094006731531 0 0.018955942675363529 0.12769885014017149 0 0.01710770927748647 0.13853094006731531 0 0.019064338777337181 0.1428366210673169 0 0.018955942675363529 0.12769885014017149 0 0.019064338777337181 0.1428366210673169 0 0.018955942675363529 0.12769885014017149 0 0.022387711081268351 0.13069146168119281 0 0.019064338777337181 0.1428366210673169 0 0.01538181754864224 0.13462442671806851 0 0.014424460637306021 0.13832412831929569 0 0.01710770927748647 0.13853094006731531 0 0.014424460637306021 0.13832412831929569 0 0.01710770927748647 0.13853094006731531 0 0.015363480448823189 0.14129096320990631 0 0.01710770927748647 0.13853094006731531 0 0.017202595513394939 0.14154074390788901 0 0.015363480448823189 0.14129096320990631 0 0.025756287217072099 0.1254558848223972 0 0.025814451866404291 0.1323851931955756 0 0.03312110355781811 0.12828848758869171 0 0.022387711081268351 0.13069146168119281 0 0.025756287217072099 0.1254558848223972 0 0.025814451866404291 0.1323851931955756 0 0.019064338777337181 0.1428366210673169 0 0.01923932509198778 0.16727387202292701 0 0.034840635627581551 0.15270641195697809 0 0.019064338777337181 0.1428366210673169 0 0.01923932509198778 0.16727387202292701 0 0.01710770927748647 0.13853094006731531 0 0.019064338777337181 0.1428366210673169 0 0.017202595513394939 0.14154074390788901 0 0.019064338777337181 0.1428366210673169 0 0.017214352546369539 0.14319546392027949 0 0.017202595513394939 0.14154074390788901 0 0.019064338777337181 0.1428366210673169 0 0.017214352546369539 0.14319546392027949 0 0.017214352546369539 0.14319546392027949 0 0.017202595513394939 0.14154074390788901 0 0.015363480448823189 0.14129096320990631 0 0.019064338777337181 0.1428366210673169 0 0.010573304973877311 0.14810099588445341 0 0.0097219217107780143 0.1605441304936322 0 0.019064338777337181 0.1428366210673169 0 0.017214352546369539 0.14319546392027949 0 0.010573304973877311 0.14810099588445341 0 0.017214352546369539 0.14319546392027949 0 0.015363480448823189 0.14129096320990631 0 0.01311844662929992 0.14341517628664141 0 0.01238480926519909 0.14086949425419931 0 0.015363480448823189 0.14129096320990631 0 0.01311844662929992 0.14341517628664141 0 0.01238480926519909 0.14086949425419931 0 0.01311844662929992 0.14341517628664141 0 0.010056285912230499 0.14361896416436881 0 0.017214352546369539 0.14319546392027949 0 0.01311844662929992 0.14341517628664141 0 0.010573304973877311 0.14810099588445341 0 0.010573304973877311 0.14810099588445341 0 0.010056285912230499 0.14361896416436881 0 0.0052711451322874966 0.14430649706712931 0 0.01311844662929992 0.14341517628664141 0 0.010573304973877311 0.14810099588445341 0 0.010056285912230499 0.14361896416436881 0 0.0087417741184536643 0.13987837293796551 0 0.010056285912230499 0.14361896416436881 0 0.0052711451322874966 0.14430649706712931 0 0.0087417741184536643 0.13987837293796551 0 0.01238480926519909 0.14086949425419931 0 0.010056285912230499 0.14361896416436881 0 0.010573304973877311 0.14810099588445341 0 0.0052711451322874966 0.14430649706712931 0 0.002037105597096525 0.15151695060409001 0 0.0046739851119457828 0.13844047711548191 0 0.0087417741184536643 0.13987837293796551 0 0.0052711451322874966 0.14430649706712931 0 -0.001932496299644968 0.1459540675981712 0 0.0052711451322874966 0.14430649706712931 0 0.002037105597096525 0.15151695060409001 0 -0.001932496299644968 0.1459540675981712 0 0.000228448927285114 0.14012311706009631 0 0.0052711451322874966 0.14430649706712931 0 0.000228448927285114 0.14012311706009631 0 0.0046739851119457828 0.13844047711548191 0 0.0052711451322874966 0.14430649706712931 0 0.010573304973877311 0.14810099588445341 0 0.002037105597096525 0.15151695060409001 0 0.0097219217107780143 0.1605441304936322 0 -0.001399927819642065 0.15853034608675531 0 9.8439874396488518e-06 0.16909653965514321 0 0.0097219217107780143 0.1605441304936322 0 9.8439874396488518e-06 0.16909653965514321 0 0.0097219217107780143 0.1605441304936322 0 0.01923932509198778 0.16727387202292701 0 -0.001399927819642065 0.15853034608675531 0 0.002037105597096525 0.15151695060409001 0 0.0097219217107780143 0.1605441304936322 0 0.0075192663374202447 0.1824792222503463 0 0.01923932509198778 0.16727387202292701 0 0.019414311406637581 0.19171112297853721 0 9.8439874396488518e-06 0.16909653965514321 0 0.0075192663374202447 0.1824792222503463 0 0.01923932509198778 0.16727387202292701 0 -0.0058150648891281392 0.18464487058732859 0 9.8439874396488518e-06 0.16909653965514321 0 0.0075192663374202447 0.1824792222503463 0 0.01923932509198778 0.16727387202292701 0 0.019414311406637581 0.19171112297853721 0 0.01923932509198778 0.16727387202292701 0 0.041253151311174942 0.18351428487242299 0 0.019414311406637581 0.19171112297853721 0 0.019064338777337181 0.1428366210673169 0 0.0097219217107780143 0.1605441304936322 0 0.01923932509198778 0.16727387202292701 0 0.01923932509198778 0.16727387202292701 0 0.045192968381937218 0.16506141320240761 0 0.034840635627581551 0.15270641195697809 0 0.01923932509198778 0.16727387202292701 0 0.045192968381937218 0.16506141320240761 0 0.041253151311174942 0.18351428487242299 0 0.041253151311174942 0.18351428487242299 0 0.056495320393279057 0.1758938039325593 0 0.06399941055398814 0.19765529411200519 0 0.045192968381937218 0.16506141320240761 0 0.041253151311174942 0.18351428487242299 0 0.056495320393279057 0.1758938039325593 0 0.045192968381937218 0.16506141320240761 0 0.058418108920392182 0.16045602069262471 0 0.053913444208845418 0.15009958673064799 0 0.045192968381937218 0.16506141320240761 0 0.056495320393279057 0.1758938039325593 0 0.058418108920392182 0.16045602069262471 0 0.058418108920392182 0.16045602069262471 0 0.053913444208845418 0.15009958673064799 0 0.071039442700249214 0.1514151999732502 0 0.053913444208845418 0.15009958673064799 0 0.044351282800083193 0.13793169854198151 0 0.069638226822829233 0.13302677601664631 0 0.044351282800083193 0.13793169854198151 0 0.069638226822829233 0.13302677601664631 0 0.056785074219297037 0.123962922715022 0 0.045358146108277778 0.122235841909611 0 0.044351282800083193 0.13793169854198151 0 0.056785074219297037 0.123962922715022 0 0.044351282800083193 0.13793169854198151 0 0.069638226822829233 0.13302677601664631 0 0.025814451866404291 0.1323851931955756 0 0.044351282800083193 0.13793169854198151 0 0.03312110355781811 0.12828848758869171 0 0.045358146108277778 0.122235841909611 0 0.044351282800083193 0.13793169854198151 0 0.03312110355781811 0.12828848758869171 0 0.019064338777337181 0.1428366210673169 0 0.044351282800083193 0.13793169854198151 0 0.053913444208845418 0.15009958673064799 0 0.044351282800083193 0.13793169854198151 0 0.034840635627581551 0.15270641195697809 0 0.045192968381937218 0.16506141320240761 0 0.053913444208845418 0.15009958673064799 0 0.034840635627581551 0.15270641195697809 0 0.019064338777337181 0.1428366210673169 0 0.044351282800083193 0.13793169854198151 0 0.034840635627581551 0.15270641195697809 0 0.019733428038529611 0.23627651218177001 0 0.032395297456559217 0.24990448186487541 0 0.01992807415890703 0.26345930130890138 0 0.019733428038529611 0.23627651218177001 0 0.01992807415890703 0.26345930130890138 0 0.019733428038529611 0.23627651218177001 0 0.032900500049065431 0.23758744706011731 0 0.032395297456559217 0.24990448186487541 0 0.019733428038529611 0.23627651218177001 0 0.032900500049065431 0.23758744706011731 0 -0.0054403593235216562 0.23377016940133941 0 0.019733428038529611 0.23627651218177001 0 -0.0054403593235216562 0.23377016940133941 0 0.019733428038529611 0.23627651218177001 0 0.0051881906427589239 0.2429023142665572 0 0.019733428038529611 0.23627651218177001 0 0.0051881906427589239 0.2429023142665572 0 0.0108212759879371 0.25143582124693198 0 -0.004361582131907446 0.25012675423618741 0 0.0051881906427589239 0.2429023142665572 0 0.0108212759879371 0.25143582124693198 0 -0.0054403593235216562 0.23377016940133941 0 0.019733428038529611 0.23627651218177001 0 0.0022205822065663882 0.22338098429998751 0 0.0022205822065663882 0.22338098429998751 0 0.019589297721289551 0.2161483739341474 0 0.019733428038529611 0.23627651218177001 0 0.0022205822065663882 0.22338098429998751 0 0.019589297721289551 0.2161483739341474 0 0.019733428038529611 0.23627651218177001 0 0.019589297721289551 0.2161483739341474 0 0.034101449494264802 0.22244897456428839 0 0.019733428038529611 0.23627651218177001 0 0.019589297721289551 0.2161483739341474 0 0.019733428038529611 0.23627651218177001 0 0.034101449494264802 0.22244897456428839 0 0.032900500049065431 0.23758744706011731 0 0.019589297721289551 0.2161483739341474 0 0.019414311406637581 0.19171112297853721 0 0.041794354137638927 0.20690183402307669 0 0.019589297721289551 0.2161483739341474 0 0.041794354137638927 0.20690183402307669 0 0.019589297721289551 0.2161483739341474 0 0.019414311406637581 0.19171112297853721 0 -0.001618838316679704 0.21186515805952549 0 0.0022205822065663882 0.22338098429998751 0 0.019589297721289551 0.2161483739341474 0 -0.001618838316679704 0.21186515805952549 0 0.019589297721289551 0.2161483739341474 0 0.0047479160901643591 0.19966970600779571 0 0.0075192663374202447 0.1824792222503463 0 0.0047479160901643591 0.19966970600779571 0 0.019414311406637581 0.19171112297853721 0 0.019589297721289551 0.2161483739341474 0 0.0047479160901643591 0.19966970600779571 0 0.019414311406637581 0.19171112297853721 0 -0.0058150648891281392 0.18464487058732859 0 0.0075192663374202447 0.1824792222503463 0 0.0047479160901643591 0.19966970600779571 0 0.041253151311174942 0.18351428487242299 0 0.019414311406637581 0.19171112297853721 0 0.041794354137638927 0.20690183402307669 0 0.041253151311174942 0.18351428487242299 0 0.041794354137638927 0.20690183402307669 0 0.06399941055398814 0.19765529411200519 0 0.041794354137638927 0.20690183402307669 0 0.06399941055398814 0.19765529411200519 0 0.061093413050727782 0.21440081318481749 0 0.041794354137638927 0.20690183402307669 0 0.06399941055398814 0.19765529411200519 0 0.061093413050727782 0.21440081318481749 0 0.041794354137638927 0.20690183402307669 0 0.049967951794046297 0.22590254710105601 0 0.019589297721289551 0.2161483739341474 0 0.041794354137638927 0.20690183402307669 0 0.034101449494264802 0.22244897456428839 0 0.041794354137638927 0.20690183402307669 0 0.034101449494264802 0.22244897456428839 0 0.049967951794046297 0.22590254710105601 0 0.034101449494264802 0.22244897456428839 0 0.049967951794046297 0.22590254710105601 0 0.032900500049065431 0.23758744706011731 0 0.049967951794046297 0.22590254710105601 0 0.049298807743375681 0.24401567068345059 0 0.070152213389441304 0.23042254488525729 0 0.061093413050727782 0.21440081318481749 0 0.049967951794046297 0.22590254710105601 0 0.070152213389441304 0.23042254488525729 0 0.049298807743375681 0.24401567068345059 0 0.032900500049065431 0.23758744706011731 0 0.032395297456559217 0.24990448186487541 0 0.049967951794046297 0.22590254710105601 0 0.049298807743375681 0.24401567068345059 0 0.032900500049065431 0.23758744706011731 0 0.081494970558903312 0.2413152449973858 0 0.068539877812152941 0.25484826761588569 0 0.094153496178737847 0.25278652485753728 0 0.081494970558903312 0.2413152449973858 0 0.092408256837057293 0.22639029288367121 0 0.094153496178737847 0.25278652485753728 0 0.081494970558903312 0.2413152449973858 0 0.070152213389441304 0.23042254488525729 0 0.068539877812152941 0.25484826761588569 0 0.049298807743375681 0.24401567068345059 0 0.070152213389441304 0.23042254488525729 0 0.068539877812152941 0.25484826761588569 0 0.070152213389441304 0.23042254488525729 0 0.079553135378524209 0.21112184580269211 0 0.081494970558903312 0.2413152449973858 0 0.070152213389441304 0.23042254488525729 0 0.092408256837057293 0.22639029288367121 0 0.070152213389441304 0.23042254488525729 0 0.092408256837057293 0.22639029288367121 0 0.079553135378524209 0.21112184580269211 0 0.092408256837057293 0.22639029288367121 0 0.090685729118578778 0.2092827598877062 0 0.079553135378524209 0.21112184580269211 0 0.090685729118578778 0.2092827598877062 0 0.079553135378524209 0.21112184580269211 0 0.088954057367607559 0.19182114672012679 0 0.061093413050727782 0.21440081318481749 0 0.070152213389441304 0.23042254488525729 0 0.079553135378524209 0.21112184580269211 0 0.061093413050727782 0.21440081318481749 0 0.079553135378524209 0.21112184580269211 0 0.06399941055398814 0.19765529411200519 0 0.079553135378524209 0.21112184580269211 0 0.06399941055398814 0.19765529411200519 0 0.086204466970337151 0.18840875420093359 0 0.06399941055398814 0.19765529411200519 0 0.086204466970337151 0.18840875420093359 0 0.079553135378524209 0.21112184580269211 0 0.088954057367607559 0.19182114672012679 0 0.079553135378524209 0.21112184580269211 0 0.086204466970337151 0.18840875420093359 0 0.088954057367607559 0.19182114672012679 0 0.088954057367607559 0.19182114672012679 0 0.091738629482519291 0.1861042405989983 0 0.086204466970337151 0.18840875420093359 0 0.088954057367607559 0.19182114672012679 0 0.091738629482519291 0.1861042405989983 0 0.086204466970337151 0.18840875420093359 0 0.088954057367607559 0.19182114672012679 0 0.10188013338443321 0.1945805347119858 0 0.1223034951297057 0.2015047654836217 0 0.1018274668911264 0.2077977541443348 0 0.090685729118578778 0.2092827598877062 0 0.088954057367607559 0.19182114672012679 0 0.1018274668911264 0.2077977541443348 0 0.088954057367607559 0.19182114672012679 0 0.10188013338443321 0.1945805347119858 0 0.1018274668911264 0.2077977541443348 0 0.088954057367607559 0.19182114672012679 0 0.1018274668911264 0.2077977541443348 0 0.088954057367607559 0.19182114672012679 0 0.10188013338443321 0.1945805347119858 0 0.091738629482519291 0.1861042405989983 0 0.10188013338443321 0.1945805347119858 0 0.1223034951297057 0.2015047654836217 0 0.1143056367611561 0.17670697857169981 0 0.1223034951297057 0.2015047654836217 0 0.1018274668911264 0.2077977541443348 0 0.11470087641464451 0.22377436156854341 0 0.1223034951297057 0.2015047654836217 0 0.11470087641464451 0.22377436156854341 0 0.12985428442346111 0.22473904082679019 0 0.092408256837057293 0.22639029288367121 0 0.090685729118578778 0.2092827598877062 0 0.1018274668911264 0.2077977541443348 0 0.1018274668911264 0.2077977541443348 0 0.11470087641464451 0.22377436156854341 0 0.092408256837057293 0.22639029288367121 0 0.11470087641464451 0.22377436156854341 0 0.1077236677954151 0.23904346403323151 0 0.092408256837057293 0.22639029288367121 0 0.1018274668911264 0.2077977541443348 0 0.11470087641464451 0.22377436156854341 0 0.11470087641464451 0.22377436156854341 0 0.12757428593816261 0.239750968992752 0 0.11470087641464451 0.22377436156854341 0 0.1077236677954151 0.23904346403323151 0 0.12757428593816261 0.239750968992752 0 0.11470087641464451 0.22377436156854341 0 0.12757428593816261 0.239750968992752 0 0.12985428442346111 0.22473904082679019 0 0.1077236677954151 0.23904346403323151 0 0.12757428593816261 0.239750968992752 0 0.1197671145453226 0.2507247820991888 0 0.1077236677954151 0.23904346403323151 0 0.1197671145453226 0.2507247820991888 0 0.094153496178737847 0.25278652485753728 0 0.092408256837057293 0.22639029288367121 0 0.1077236677954151 0.23904346403323151 0 0.094153496178737847 0.25278652485753728 0 0.089241880289002096 0.14489141207420311 0 0.071039442700249214 0.1514151999732502 0 0.087740544640930687 0.16123122417456451 0 0.08262403040743542 0.1174427642681065 0 0.069638226822829233 0.13302677601664631 0 0.094925170845575335 0.12812185349131111 0 0.069638226822829233 0.13302677601664631 0 0.094925170845575335 0.12812185349131111 0 0.089241880289002096 0.14489141207420311 0 0.069638226822829233 0.13302677601664631 0 0.094925170845575335 0.12812185349131111 0 0.053913444208845418 0.15009958673064799 0 0.069638226822829233 0.13302677601664631 0 0.071039442700249214 0.1514151999732502 0 0.089241880289002096 0.14489141207420311 0 0.069638226822829233 0.13302677601664631 0 0.071039442700249214 0.1514151999732502 0 0.058418108920392182 0.16045602069262471 0 0.071039442700249214 0.1514151999732502 0 0.073612962798902823 0.17278200678333611 0 0.071039442700249214 0.1514151999732502 0 0.073612962798902823 0.17278200678333611 0 0.087740544640930687 0.16123122417456451 0 0.056495320393279057 0.1758938039325593 0 0.058418108920392182 0.16045602069262471 0 0.073612962798902823 0.17278200678333611 0 0.06399941055398814 0.19765529411200519 0 0.086204466970337151 0.18840875420093359 0 0.073612962798902823 0.17278200678333611 0 0.056495320393279057 0.1758938039325593 0 0.06399941055398814 0.19765529411200519 0 0.073612962798902823 0.17278200678333611 0 0.086204466970337151 0.18840875420093359 0 0.073612962798902823 0.17278200678333611 0 0.086204466970337151 0.18840875420093359 0 0.073612962798902823 0.17278200678333611 0 0.087615468279621078 0.1760345128920231 0 0.087615468279621078 0.1760345128920231 0 0.091738629482519291 0.1861042405989983 0 0.098780737505415703 0.17164633870228399 0 0.086204466970337151 0.18840875420093359 0 0.087615468279621078 0.1760345128920231 0 0.091738629482519291 0.1861042405989983 0 0.086204466970337151 0.18840875420093359 0 0.091738629482519291 0.1861042405989983 0 0.073612962798902823 0.17278200678333611 0 0.087615468279621078 0.1760345128920231 0 0.087740544640930687 0.16123122417456451 0 0.087615468279621078 0.1760345128920231 0 0.087740544640930687 0.16123122417456451 0 0.098780737505415703 0.17164633870228399 0 0.087740544640930687 0.16123122417456451 0 0.098780737505415703 0.17164633870228399 0 0.10582284552831139 0.15718843680556929 0 0.098780737505415703 0.17164633870228399 0 0.1143056367611561 0.17670697857169981 0 0.11439408025226031 0.1643128731168863 0 0.098780737505415703 0.17164633870228399 0 0.10582284552831139 0.15718843680556929 0 0.11439408025226031 0.1643128731168863 0 0.098780737505415703 0.17164633870228399 0 0.10582284552831139 0.15718843680556929 0 0.091738629482519291 0.1861042405989983 0 0.1143056367611561 0.17670697857169981 0 0.10188013338443321 0.1945805347119858 0 0.091738629482519291 0.1861042405989983 0 0.1143056367611561 0.17670697857169981 0 0.091738629482519291 0.1861042405989983 0 0.098780737505415703 0.17164633870228399 0 0.1143056367611561 0.17670697857169981 0 0.091738629482519291 0.1861042405989983 0 0.098780737505415703 0.17164633870228399 0 0.1223034951297057 0.2015047654836217 0 0.1143056367611561 0.17670697857169981 0 0.12984245568560021 0.18336402612102581 0 0.10582284552831139 0.15718843680556929 0 0.11439408025226031 0.1643128731168863 0 0.118827144549028 0.15045938834785799 0 0.1143056367611561 0.17670697857169981 0 0.11439408025226031 0.1643128731168863 0 0.1269873440417035 0.1621457976822499 0 0.11439408025226031 0.1643128731168863 0 0.118827144549028 0.15045938834785799 0 0.1269873440417035 0.1621457976822499 0 0.10582284552831139 0.15718843680556929 0 0.118827144549028 0.15045938834785799 0 0.1060715668831175 0.14085190817348309 0 0.118827144549028 0.15045938834785799 0 0.1060715668831175 0.14085190817348309 0 0.12165438094055341 0.1382202250837688 0 0.089241880289002096 0.14489141207420311 0 0.10582284552831139 0.15718843680556929 0 0.1060715668831175 0.14085190817348309 0 0.089241880289002096 0.14489141207420311 0 0.087740544640930687 0.16123122417456451 0 0.10582284552831139 0.15718843680556929 0 0.1060715668831175 0.14085190817348309 0 0.094925170845575335 0.12812185349131111 0 0.11184177323789279 0.12866158262702601 0 0.10718004060487731 0.1186919078288297 0 0.094925170845575335 0.12812185349131111 0 0.11184177323789279 0.12866158262702601 0 0.089241880289002096 0.14489141207420311 0 0.1060715668831175 0.14085190817348309 0 0.094925170845575335 0.12812185349131111 0 0.11184177323789279 0.12866158262702601 0 0.12165438094055341 0.1382202250837688 0 0.12877089149896251 0.12628235461406201 0 0.1060715668831175 0.14085190817348309 0 0.11184177323789279 0.12866158262702601 0 0.12165438094055341 0.1382202250837688 0 0.12877089149896251 0.12628235461406201 0 0.13720160688724839 0.13964518263404729 0 0.14559099576285081 0.1211645137464301 0 0.12165438094055341 0.1382202250837688 0 0.13720160688724839 0.13964518263404729 0 0.12165438094055341 0.1382202250837688 0 0.12877089149896251 0.12628235461406201 0 0.13720160688724839 0.13964518263404729 0 0.13720160688724839 0.13964518263404729 0 0.15632661280319129 0.13068902382275449 0 0.14559099576285081 0.1211645137464301 0 0.13720160688724839 0.13964518263404729 0 0.14559099576285081 0.1211645137464301 0 0.13720160688724839 0.13964518263404729 0 0.15632661280319129 0.13068902382275449 0 0.16429194695006341 0.14212810690262639 0 0.13720160688724839 0.13964518263404729 0 0.16429194695006341 0.14212810690262639 0 0.13720160688724839 0.13964518263404729 0 0.14941591407077959 0.14904867938194569 0 0.13673045112737631 0.1565089734740045 0 0.13720160688724839 0.13964518263404729 0 0.14941591407077959 0.14904867938194569 0 0.16429194695006341 0.14212810690262639 0 0.14941591407077959 0.14904867938194569 0 0.13673045112737631 0.1565089734740045 0 0.15943965131843141 0.15791245451710681 0 0.118827144549028 0.15045938834785799 0 0.13720160688724839 0.13964518263404729 0 0.1269873440417035 0.1621457976822499 0 0.13720160688724839 0.13964518263404729 0 0.1269873440417035 0.1621457976822499 0 0.13720160688724839 0.13964518263404729 0 0.1269873440417035 0.1621457976822499 0 0.13673045112737631 0.1565089734740045 0 0.118827144549028 0.15045938834785799 0 0.12165438094055341 0.1382202250837688 0 0.13720160688724839 0.13964518263404729 0 0.1143056367611561 0.17670697857169981 0 0.1269873440417035 0.1621457976822499 0 0.1368726440397933 0.1673097165444021 0 0.1269873440417035 0.1621457976822499 0 0.1368726440397933 0.1673097165444021 0 0.13673045112737631 0.1565089734740045 0 0.1143056367611561 0.17670697857169981 0 0.1368726440397933 0.1673097165444021 0 0.12984245568560021 0.18336402612102581 0 0.1143056367611561 0.17670697857169981 0 0.1368726440397933 0.1673097165444021 0 0.1368726440397933 0.1673097165444021 0 0.12984245568560021 0.18336402612102581 0 0.14395995749662011 0.19046676877908139 0 0.1368726440397933 0.1673097165444021 0 0.1557014301669345 0.17418450516490519 0 0.14395995749662011 0.19046676877908139 0 0.13673045112737631 0.1565089734740045 0 0.15943965131843141 0.15791245451710681 0 0.1368726440397933 0.1673097165444021 0 0.15943965131843141 0.15791245451710681 0 0.1368726440397933 0.1673097165444021 0 0.1557014301669345 0.17418450516490519 0 0.15943965131843141 0.15791245451710681 0 0.1368726440397933 0.1673097165444021 0 0.13673045112737631 0.1565089734740045 0 0.15943965131843141 0.15791245451710681 0 0.1557014301669345 0.17418450516490519 0 0.15943965131843141 0.15791245451710681 0 0.16838221510295989 0.1692040805085635 0 0.15943965131843141 0.15791245451710681 0 0.16838221510295989 0.1692040805085635 0 0.17970147406593759 0.15916468197935521 0 0.15943965131843141 0.15791245451710681 0 0.17970147406593759 0.15916468197935521 0 0.1557014301669345 0.17418450516490519 0 0.16985268287686869 0.18602950547537461 0 0.14395995749662011 0.19046676877908139 0 0.1557014301669345 0.17418450516490519 0 0.16838221510295989 0.1692040805085635 0 0.16985268287686869 0.18602950547537461 0 0.16985268287686869 0.18602950547537461 0 0.17776577537378679 0.1717491724038096 0 0.19009851561998109 0.17546705170333859 0 0.16985268287686869 0.18602950547537461 0 0.1921007491770006 0.19413511782623061 0 0.19009851561998109 0.17546705170333859 0 0.16838221510295989 0.1692040805085635 0 0.16985268287686869 0.18602950547537461 0 0.17776577537378679 0.1717491724038096 0 0.17776577537378679 0.1717491724038096 0 0.17970147406593759 0.15916468197935521 0 0.19009851561998109 0.17546705170333859 0 0.16838221510295989 0.1692040805085635 0 0.17776577537378679 0.1717491724038096 0 0.17970147406593759 0.15916468197935521 0 0.17970147406593759 0.15916468197935521 0 0.17541096916565421 0.151261742844153 0 0.19138228701287849 0.14461103117120311 0 0.17541096916565421 0.151261742844153 0 0.19138228701287849 0.14461103117120311 0 0.17541096916565421 0.151261742844153 0 0.16429194695006341 0.14212810690262639 0 0.19138228701287849 0.14461103117120311 0 0.16429194695006341 0.14212810690262639 0 0.19138228701287849 0.14461103117120311 0 0.1826996939178501 0.134395064982826 0 0.17014020092281509 0.1303647164313487 0 0.16429194695006341 0.14212810690262639 0 0.1826996939178501 0.134395064982826 0 0.16429194695006341 0.14212810690262639 0 0.19138228701287849 0.14461103117120311 0 0.1826996939178501 0.134395064982826 0 0.19400001601888209 0.1301444430180784 0 0.18282874988353909 0.12176719670840121 0 0.1826996939178501 0.134395064982826 0 0.17014020092281509 0.1303647164313487 0 0.18282874988353909 0.12176719670840121 0 0.17014020092281509 0.1303647164313487 0 0.15632661280319129 0.13068902382275449 0 0.1644083134929788 0.12014259939932 0 0.17014020092281509 0.1303647164313487 0 0.15632661280319129 0.13068902382275449 0 0.16429194695006341 0.14212810690262639 0 0.14941591407077959 0.14904867938194569 0 0.15943965131843141 0.15791245451710681 0 0.16429194695006341 0.14212810690262639 0 0.15943965131843141 0.15791245451710681 0 0.17970147406593759 0.15916468197935521 0 0.17541096916565421 0.151261742844153 0 0.15943965131843141 0.15791245451710681 0 0.17541096916565421 0.151261742844153 0 0.15943965131843141 0.15791245451710681 0 0.17541096916565421 0.151261742844153 0 0.16429194695006341 0.14212810690262639 0 0.15269041899089261 0.24018887904249059 0 0.1453807329119074 0.24866303934084041 0 0.15466915334416509 0.25190660019890743 0 0.15269041899089261 0.24018887904249059 0 0.1453807329119074 0.24866303934084041 0 0.14060451702156199 0.2357308345711725 0 0.1453807329119074 0.24866303934084041 0 0.12757428593816261 0.239750968992752 0 0.14060451702156199 0.2357308345711725 0 0.1453807329119074 0.24866303934084041 0 0.1197671145453226 0.2507247820991888 0 0.1453807329119074 0.24866303934084041 0 0.12757428593816261 0.239750968992752 0 0.1197671145453226 0.2507247820991888 0 0.14060451702156199 0.2357308345711725 0 0.12985428442346111 0.22473904082679019 0 0.14752286284338639 0.22531224465298941 0 0.12985428442346111 0.22473904082679019 0 0.14752286284338639 0.22531224465298941 0 0.1398831682024731 0.2101323370399282 0 0.12757428593816261 0.239750968992752 0 0.14060451702156199 0.2357308345711725 0 0.12985428442346111 0.22473904082679019 0 0.15269041899089261 0.24018887904249059 0 0.14752286284338639 0.22531224465298941 0 0.16513181717874489 0.22933158445530699 0 0.14752286284338639 0.22531224465298941 0 0.155775241119192 0.20863886545715829 0 0.16513181717874489 0.22933158445530699 0 0.15269041899089261 0.24018887904249059 0 0.14060451702156199 0.2357308345711725 0 0.14752286284338639 0.22531224465298941 0 0.14752286284338639 0.22531224465298941 0 0.155775241119192 0.20863886545715829 0 0.1398831682024731 0.2101323370399282 0 0.1223034951297057 0.2015047654836217 0 0.12985428442346111 0.22473904082679019 0 0.1398831682024731 0.2101323370399282 0 0.1223034951297057 0.2015047654836217 0 0.12984245568560021 0.18336402612102581 0 0.14395995749662011 0.19046676877908139 0 0.1223034951297057 0.2015047654836217 0 0.1398831682024731 0.2101323370399282 0 0.14395995749662011 0.19046676877908139 0 0.155775241119192 0.20863886545715829 0 0.1398831682024731 0.2101323370399282 0 0.14395995749662011 0.19046676877908139 0 0.16985268287686869 0.18602950547537461 0 0.155775241119192 0.20863886545715829 0 0.17615578699577941 0.211297655888005 0 0.16985268287686869 0.18602950547537461 0 0.155775241119192 0.20863886545715829 0 0.14395995749662011 0.19046676877908139 0 0.16985268287686869 0.18602950547537461 0 0.17615578699577941 0.211297655888005 0 0.1921007491770006 0.19413511782623061 0 0.155775241119192 0.20863886545715829 0 0.17615578699577941 0.211297655888005 0 0.16513181717874489 0.22933158445530699 0 0.17615578699577941 0.211297655888005 0 0.1832321526603185 0.22988712241990911 0 0.19922996910836269 0.2206298732412626 0 0.17615578699577941 0.211297655888005 0 0.16513181717874489 0.22933158445530699 0 0.1832321526603185 0.22988712241990911 0 0.1832321526603185 0.22988712241990911 0 0.17921266192405369 0.24485401564359771 0 0.19643052809465181 0.2433224828713732 0 0.16513181717874489 0.22933158445530699 0 0.1832321526603185 0.22988712241990911 0 0.17921266192405369 0.24485401564359771 0 0.17921266192405369 0.24485401564359771 0 0.19643052809465181 0.2433224828713732 0 0.18608903078984079 0.25995697105729071 0 0.17921266192405369 0.24485401564359771 0 0.1648484701696567 0.24744362212440471 0 0.17332134199895571 0.25758983019522791 0 0.15269041899089261 0.24018887904249059 0 0.16513181717874489 0.22933158445530699 0 0.1648484701696567 0.24744362212440471 0 0.16513181717874489 0.22933158445530699 0 0.17921266192405369 0.24485401564359771 0 0.1648484701696567 0.24744362212440471 0 0.15269041899089261 0.24018887904249059 0 0.1648484701696567 0.24744362212440471 0 0.15466915334416509 0.25190660019890743 0 0.21227379049082179 0.2367256787841478 0 0.19643052809465181 0.2433224828713732 0 0.21668623523937189 0.25273648673926968 0 0.21227379049082179 0.2367256787841478 0 0.19643052809465181 0.2433224828713732 0 0.19922996910836269 0.2206298732412626 0 0.1832321526603185 0.22988712241990911 0 0.19643052809465181 0.2433224828713732 0 0.19922996910836269 0.2206298732412626 0 0.21227379049082179 0.2367256787841478 0 0.19922996910836269 0.2206298732412626 0 0.219709047837161 0.22243828454522341 0 0.19922996910836269 0.2206298732412626 0 0.21843520523288221 0.2053181895842969 0 0.1921007491770006 0.19413511782623061 0 0.19922996910836269 0.2206298732412626 0 0.21843520523288221 0.2053181895842969 0 0.219709047837161 0.22243828454522341 0 0.17615578699577941 0.211297655888005 0 0.19922996910836269 0.2206298732412626 0 0.1921007491770006 0.19413511782623061 0 0.21843520523288221 0.2053181895842969 0 0.1921007491770006 0.19413511782623061 0 0.21508853132578909 0.18630480878971589 0 0.21843520523288221 0.2053181895842969 0 0.1921007491770006 0.19413511782623061 0 0.21843520523288221 0.2053181895842969 0 0.23255597692269961 0.1986700960591046 0 0.21508853132578909 0.18630480878971589 0 0.23255597692269961 0.1986700960591046 0 0.21508853132578909 0.18630480878971589 0 0.23658713197922801 0.1849604865578777 0 0.23255597692269961 0.1986700960591046 0 0.24443808169503289 0.19165573435540739 0 0.23658713197922801 0.1849604865578777 0 0.24443808169503289 0.19165573435540739 0 0.2445919001722652 0.2027793092260104 0 0.25672659357731442 0.18931439154619459 0 0.23255597692269961 0.1986700960591046 0 0.24443808169503289 0.19165573435540739 0 0.2445919001722652 0.2027793092260104 0 0.2445919001722652 0.2027793092260104 0 0.2447696612887639 0.21650126134236319 0 0.26045320274891359 0.2075872277184421 0 0.23255597692269961 0.1986700960591046 0 0.2445919001722652 0.2027793092260104 0 0.2447696612887639 0.21650126134236319 0 0.21843520523288221 0.2053181895842969 0 0.2447696612887639 0.21650126134236319 0 0.21843520523288221 0.2053181895842969 0 0.2447696612887639 0.21650126134236319 0 0.2325803478497725 0.22060216126394189 0 0.21843520523288221 0.2053181895842969 0 0.219709047837161 0.22243828454522341 0 0.2325803478497725 0.22060216126394189 0 0.21843520523288221 0.2053181895842969 0 0.23255597692269961 0.1986700960591046 0 0.2447696612887639 0.21650126134236319 0 0.219709047837161 0.22243828454522341 0 0.2325803478497725 0.22060216126394189 0 0.2358022310961575 0.23066856374322481 0 0.21227379049082179 0.2367256787841478 0 0.219709047837161 0.22243828454522341 0 0.2358022310961575 0.23066856374322481 0 0.2325803478497725 0.22060216126394189 0 0.24210869832250451 0.2249280049623063 0 0.2358022310961575 0.23066856374322481 0 0.2447696612887639 0.21650126134236319 0 0.2325803478497725 0.22060216126394189 0 0.24210869832250451 0.2249280049623063 0 0.2447696612887639 0.21650126134236319 0 0.24210869832250451 0.2249280049623063 0 0.24965972363503919 0.22122943443424911 0 0.24210869832250451 0.2249280049623063 0 0.24965972363503919 0.22122943443424911 0 0.2477315277427897 0.2356386040277525 0 0.24210869832250451 0.2249280049623063 0 0.2358022310961575 0.23066856374322481 0 0.2477315277427897 0.2356386040277525 0 0.2477315277427897 0.2356386040277525 0 0.24791323415382371 0.2458877298954085 0 0.23190300684591059 0.2469757189771403 0 0.2358022310961575 0.23066856374322481 0 0.2477315277427897 0.2356386040277525 0 0.23190300684591059 0.2469757189771403 0 0.21227379049082179 0.2367256787841478 0 0.23190300684591059 0.2469757189771403 0 0.21227379049082179 0.2367256787841478 0 0.23190300684591059 0.2469757189771403 0 0.21668623523937189 0.25273648673926968 0 0.21227379049082179 0.2367256787841478 0 0.2358022310961575 0.23066856374322481 0 0.23190300684591059 0.2469757189771403 0 0.20748271977021249 0.138902265540051 0 0.1939758213121906 0.1435310420930529 0 0.2197013820994709 0.14720657512863261 0 0.19138228701287849 0.14461103117120311 0 0.19996329681344399 0.160416909441601 0 0.2197013820994709 0.14720657512863261 0 0.19138228701287849 0.14461103117120311 0 0.2197013820994709 0.14720657512863261 0 0.2166933327952508 0.13146831334115849 0 0.20748271977021249 0.138902265540051 0 0.2197013820994709 0.14720657512863261 0 0.2166933327952508 0.13146831334115849 0 0.20603233854846789 0.12643210165642249 0 0.20748271977021249 0.138902265540051 0 0.20603233854846789 0.12643210165642249 0 0.20748271977021249 0.138902265540051 0 0.1992161984030385 0.13597632749908109 0 0.20748271977021249 0.138902265540051 0 0.1992161984030385 0.13597632749908109 0 0.1939758213121906 0.1435310420930529 0 0.20603233854846789 0.12643210165642249 0 0.1992161984030385 0.13597632749908109 0 0.19400001601888209 0.1301444430180784 0 0.20603233854846789 0.12643210165642249 0 0.19400001601888209 0.1301444430180784 0 0.19603586944622961 0.11914225126713909 0 0.1826996939178501 0.134395064982826 0 0.19400001601888209 0.1301444430180784 0 0.19225480333296779 0.137731581752848 0 0.1826996939178501 0.134395064982826 0 0.19225480333296779 0.137731581752848 0 0.19138228701287849 0.14461103117120311 0 0.1992161984030385 0.13597632749908109 0 0.19225480333296779 0.137731581752848 0 0.1939758213121906 0.1435310420930529 0 0.1992161984030385 0.13597632749908109 0 0.19400001601888209 0.1301444430180784 0 0.19225480333296779 0.137731581752848 0 0.17970147406593759 0.15916468197935521 0 0.19138228701287849 0.14461103117120311 0 0.19996329681344399 0.160416909441601 0 0.19138228701287849 0.14461103117120311 0 0.1939758213121906 0.1435310420930529 0 0.2197013820994709 0.14720657512863261 0 0.19225480333296779 0.137731581752848 0 0.19138228701287849 0.14461103117120311 0 0.1939758213121906 0.1435310420930529 0 0.19138228701287849 0.14461103117120311 0 0.1939758213121906 0.1435310420930529 0 0.17970147406593759 0.15916468197935521 0 0.19996329681344399 0.160416909441601 0 0.19009851561998109 0.17546705170333859 0 0.19996329681344399 0.160416909441601 0 0.19009851561998109 0.17546705170333859 0 0.20950303158443601 0.17060862998040069 0 0.17970147406593759 0.15916468197935521 0 0.19996329681344399 0.160416909441601 0 0.1921007491770006 0.19413511782623061 0 0.19009851561998109 0.17546705170333859 0 0.21508853132578909 0.18630480878971589 0 0.19009851561998109 0.17546705170333859 0 0.21508853132578909 0.18630480878971589 0 0.20950303158443601 0.17060862998040069 0 0.21508853132578909 0.18630480878971589 0 0.20950303158443601 0.17060862998040069 0 0.2262564526410854 0.1725101510884221 0 0.19996329681344399 0.160416909441601 0 0.22022511956095039 0.16166913690384679 0 0.2197013820994709 0.14720657512863261 0 0.19996329681344399 0.160416909441601 0 0.22022511956095039 0.16166913690384679 0 0.20950303158443601 0.17060862998040069 0 0.22022511956095039 0.16166913690384679 0 0.2262564526410854 0.1725101510884221 0 0.19996329681344399 0.160416909441601 0 0.20950303158443601 0.17060862998040069 0 0.22022511956095039 0.16166913690384679 0 0.22022511956095039 0.16166913690384679 0 0.23219216216083469 0.16070882341124321 0 0.2197013820994709 0.14720657512863261 0 0.23219216216083469 0.16070882341124321 0 0.2262564526410854 0.1725101510884221 0 0.24394273923527451 0.1708090208874482 0 0.22022511956095039 0.16166913690384679 0 0.23219216216083469 0.16070882341124321 0 0.2262564526410854 0.1725101510884221 0 0.21508853132578909 0.18630480878971589 0 0.2262564526410854 0.1725101510884221 0 0.23658713197922801 0.1849604865578777 0 0.2262564526410854 0.1725101510884221 0 0.23658713197922801 0.1849604865578777 0 0.24394273923527451 0.1708090208874482 0 0.23658713197922801 0.1849604865578777 0 0.24394273923527451 0.1708090208874482 0 0.25069145747160237 0.17986975870422739 0 0.24443808169503289 0.19165573435540739 0 0.23658713197922801 0.1849604865578777 0 0.25069145747160237 0.17986975870422739 0 0.23219216216083469 0.16070882341124321 0 0.24394273923527451 0.1708090208874482 0 0.24802047718606329 0.14980211908606039 0 0.24802047718606329 0.14980211908606039 0 0.2197013820994709 0.14720657512863261 0 0.23748423865396681 0.1372069433891186 0 0.24802047718606329 0.14980211908606039 0 0.23748423865396681 0.1372069433891186 0 0.23219216216083469 0.16070882341124321 0 0.24802047718606329 0.14980211908606039 0 0.2197013820994709 0.14720657512863261 0 0.24802047718606329 0.14980211908606039 0 0.2197013820994709 0.14720657512863261 0 0.2166933327952508 0.13146831334115849 0 0.23748423865396681 0.1372069433891186 0 0.2269480001218708 0.1246117676921763 0 0.2166933327952508 0.13146831334115849 0 0.2197013820994709 0.14720657512863261 0 0.23748423865396681 0.1372069433891186 0 0.23748423865396681 0.1372069433891186 0 0.2269480001218708 0.1246117676921763 0 0.23748423865396681 0.1372069433891186 0 0.23787758618680691 0.12376630322824581 0 0.2269480001218708 0.1246117676921763 0 0.24802047718606329 0.14980211908606039 0 0.23748423865396681 0.1372069433891186 0 0.25370366287882878 0.1241816415692342 0 0.23748423865396681 0.1372069433891186 0 0.23787758618680691 0.12376630322824581 0 0.25370366287882878 0.1241816415692342 0 0.24537668551697431 0.097277083683747018 0 0.23337444309256139 0.1090648602624541 0 0.25370366287882878 0.1241816415692342 0 0.24537668551697431 0.097277083683747018 0 0.25370366287882878 0.1241816415692342 0 0.23787758618680691 0.12376630322824581 0 0.23337444309256139 0.1090648602624541 0 0.25370366287882878 0.1241816415692342 0 0.24537668551697431 0.097277083683747018 0 0.23337444309256139 0.1090648602624541 0 0.22484289426170589 0.086614640480542404 0 0.23337444309256139 0.1090648602624541 0 0.21826071202707401 0.1016769895838342 0 0.22484289426170589 0.086614640480542404 0 0.23337444309256139 0.1090648602624541 0 0.21899261390952071 0.1157063141952675 0 0.21826071202707401 0.1016769895838342 0 0.2166933327952508 0.13146831334115849 0 0.2269480001218708 0.1246117676921763 0 0.21899261390952071 0.1157063141952675 0 0.23787758618680691 0.12376630322824581 0 0.23337444309256139 0.1090648602624541 0 0.2269480001218708 0.1246117676921763 0 0.23337444309256139 0.1090648602624541 0 0.2269480001218708 0.1246117676921763 0 0.21899261390952071 0.1157063141952675 0 0.20603233854846789 0.12643210165642249 0 0.21899261390952071 0.1157063141952675 0 0.20619401079708341 0.1103047766005421 0 0.2166933327952508 0.13146831334115849 0 0.20603233854846789 0.12643210165642249 0 0.21899261390952071 0.1157063141952675 0 0.20619401079708341 0.1103047766005421 0 0.20469956129863859 0.094216075576966402 0 0.21826071202707401 0.1016769895838342 0 0.21899261390952071 0.1157063141952675 0 0.20619401079708341 0.1103047766005421 0 0.21826071202707401 0.1016769895838342 0 0.20469956129863859 0.094216075576966402 0 0.21826071202707401 0.1016769895838342 0 0.22484289426170589 0.086614640480542404 0 0.20469956129863859 0.094216075576966402 0 0.1920226837756919 0.1062731432897658 0 0.18562998291260069 0.083724599791867624 0 0.20619401079708341 0.1103047766005421 0 0.20469956129863859 0.094216075576966402 0 0.1920226837756919 0.1062731432897658 0 0.1920226837756919 0.1062731432897658 0 0.19603586944622961 0.11914225126713909 0 0.18282874988353909 0.12176719670840121 0 0.20603233854846789 0.12643210165642249 0 0.20619401079708341 0.1103047766005421 0 0.19603586944622961 0.11914225126713909 0 0.19400001601888209 0.1301444430180784 0 0.19603586944622961 0.11914225126713909 0 0.18282874988353909 0.12176719670840121 0 0.20619401079708341 0.1103047766005421 0 0.1920226837756919 0.1062731432897658 0 0.19603586944622961 0.11914225126713909 0 0.19477888427106471 0.068028226971776184 0 0.20783404156105389 0.078077887697304768 0 0.18562998291260069 0.083724599791867624 0 0.20469956129863859 0.094216075576966402 0 0.20783404156105389 0.078077887697304768 0 0.18562998291260069 0.083724599791867624 0 0.20469956129863859 0.094216075576966402 0 0.20783404156105389 0.078077887697304768 0 0.22484289426170589 0.086614640480542404 0 0.20783404156105389 0.078077887697304768 0 0.2213202312424721 0.066581526905057059 0 0.20805697342917059 0.059178341543759817 0 0.20783404156105389 0.078077887697304768 0 0.2213202312424721 0.066581526905057059 0 0.22484289426170589 0.086614640480542404 0 0.19477888427106471 0.068028226971776184 0 0.20783404156105389 0.078077887697304768 0 0.20805697342917059 0.059178341543759817 0 0.2213202312424721 0.066581526905057059 0 0.23704970815511969 0.070372525798259866 0 0.2300545306497668 0.055557326715756347 0 0.2213202312424721 0.066581526905057059 0 0.22484289426170589 0.086614640480542404 0 0.23704970815511969 0.070372525798259866 0 0.24537668551697431 0.097277083683747018 0 0.22484289426170589 0.086614640480542404 0 0.23704970815511969 0.070372525798259866 0 0.24537668551697431 0.097277083683747018 0 0.23704970815511969 0.070372525798259866 0 0.25923100858263742 0.079351551944828513 0 0.24537668551697431 0.097277083683747018 0 0.23704970815511969 0.070372525798259866 0 0.23704970815511969 0.070372525798259866 0 0.24612717135886061 0.053158967820149818 0 0.25923100858263742 0.079351551944828513 0 0.23704970815511969 0.070372525798259866 0 0.24612717135886061 0.053158967820149818 0 0.2300545306497668 0.055557326715756347 0 0.24612717135886061 0.053158967820149818 0 0.22874243829254329 0.043439904086905012 0 0.2300545306497668 0.055557326715756347 0 0.24612717135886061 0.053158967820149818 0 0.24915942417082321 0.043562136642382059 0 0.25194780840825542 0.047502886957762752 0 0.24612717135886061 0.053158967820149818 0 0.2330233341350838 0.026966383695471149 0 0.24915942417082321 0.043562136642382059 0 0.24442705739527931 0.034620488068712277 0 0.25585841565974538 0.042233258010133973 0 0.24442705739527931 0.034620488068712277 0 0.2489069739425 0.021637400389674748 0 0.25585841565974538 0.042233258010133973 0 0.24612717135886061 0.053158967820149818 0 0.24442705739527931 0.034620488068712277 0 0.2330233341350838 0.026966383695471149 0 0.24612717135886061 0.053158967820149818 0 0.24915942417082321 0.043562136642382059 0 0.24442705739527931 0.034620488068712277 0 0.24612717135886061 0.053158967820149818 0 0.22874243829254329 0.043439904086905012 0 0.2330233341350838 0.026966383695471149 0 0.22874243829254329 0.043439904086905012 0 0.2330233341350838 0.026966383695471149 0 0.21578861999574539 0.032179983081358873 0 0.22874243829254329 0.043439904086905012 0 0.21871853532325961 0.049336859121788867 0 0.21578861999574539 0.032179983081358873 0 0.22874243829254329 0.043439904086905012 0 0.2300545306497668 0.055557326715756347 0 0.21871853532325961 0.049336859121788867 0 0.2213202312424721 0.066581526905057059 0 0.2300545306497668 0.055557326715756347 0 0.21871853532325961 0.049336859121788867 0 0.2489069739425 0.021637400389674748 0 0.2403210271001277 -0.0038011986657945939 0 0.2489069739425 0.021637400389674748 0 0.25900523844679291 0.0090906536209348996 0 0.2403210271001277 -0.0038011986657945939 0 0.23441323542690259 0.011205599980234709 0 0.2489069739425 0.021637400389674748 0 0.2403210271001277 -0.0038011986657945939 0 0.23441323542690259 0.011205599980234709 0 0.24019265022494121 0.023607468033523541 0 0.2330233341350838 0.026966383695471149 0 0.23441323542690259 0.011205599980234709 0 0.2489069739425 0.021637400389674748 0 0.23441323542690259 0.011205599980234709 0 0.2489069739425 0.021637400389674748 0 0.24019265022494121 0.023607468033523541 0 0.24442705739527931 0.034620488068712277 0 0.2489069739425 0.021637400389674748 0 0.24019265022494121 0.023607468033523541 0 0.24442705739527931 0.034620488068712277 0 0.24019265022494121 0.023607468033523541 0 0.2330233341350838 0.026966383695471149 0 0.2330233341350838 0.026966383695471149 0 0.2171386306806895 0.017395263111216398 0 0.21578861999574539 0.032179983081358873 0 0.23441323542690259 0.011205599980234709 0 0.2330233341350838 0.026966383695471149 0 0.21991949691130641 0.00077379957079282309 0 0.2330233341350838 0.026966383695471149 0 0.21991949691130641 0.00077379957079282309 0 0.2171386306806895 0.017395263111216398 0 0.2330233341350838 0.026966383695471149 0 0.21991949691130641 0.00077379957079282309 0 0.23441323542690259 0.011205599980234709 0 0.21991949691130641 0.00077379957079282309 0 0.2403210271001277 -0.0038011986657945939 0 0.23441323542690259 0.011205599980234709 0 0.21991949691130641 0.00077379957079282309 0 0.21991949691130641 0.00077379957079282309 0 0.21233724185039379 0.0083260795074358591 0 0.2171386306806895 0.017395263111216398 0 0.1913914811785945 0.0015479160267864781 0 0.21709144706251299 -0.0012616760615819459 0 0.21233724185039379 0.0083260795074358591 0 0.1913914811785945 0.0015479160267864781 0 0.21709144706251299 -0.0012616760615819459 0 0.21991949691130641 0.00077379957079282309 0 0.21233724185039379 0.0083260795074358591 0 0.21709144706251299 -0.0012616760615819459 0 0.21233724185039379 0.0083260795074358591 0 0.20462446051091829 0.018730069701022731 0 0.2171386306806895 0.017395263111216398 0 0.20462446051091829 0.018730069701022731 0 0.21578861999574539 0.032179983081358873 0 0.19600975553610309 0.033109727657073172 0 0.20462446051091829 0.018730069701022731 0 0.2171386306806895 0.017395263111216398 0 0.21578861999574539 0.032179983081358873 0 0.20462446051091829 0.018730069701022731 0 0.18949896143577891 0.016667400663256809 0 0.19600975553610309 0.033109727657073172 0 0.18949896143577891 0.016667400663256809 0 0.19600975553610309 0.033109727657073172 0 0.17707217964719771 0.025267716345226881 0 0.20462446051091829 0.018730069701022731 0 0.18949896143577891 0.016667400663256809 0 0.1913914811785945 0.0015479160267864781 0 0.21233724185039379 0.0083260795074358591 0 0.20462446051091829 0.018730069701022731 0 0.1913914811785945 0.0015479160267864781 0 0.2213202312424721 0.066581526905057059 0 0.20805697342917059 0.059178341543759817 0 0.21871853532325961 0.049336859121788867 0 0.20805697342917059 0.059178341543759817 0 0.2071731341036451 0.043988411023532258 0 0.1951942265281848 0.052365244609145413 0 0.20805697342917059 0.059178341543759817 0 0.21871853532325961 0.049336859121788867 0 0.2071731341036451 0.043988411023532258 0 0.21578861999574539 0.032179983081358873 0 0.2071731341036451 0.043988411023532258 0 0.19600975553610309 0.033109727657073172 0 0.21871853532325961 0.049336859121788867 0 0.21578861999574539 0.032179983081358873 0 0.2071731341036451 0.043988411023532258 0 0.19600975553610309 0.033109727657073172 0 0.1951942265281848 0.052365244609145413 0 0.18205947828297289 0.04260924739081328 0 0.2071731341036451 0.043988411023532258 0 0.19600975553610309 0.033109727657073172 0 0.1951942265281848 0.052365244609145413 0 0.19477888427106471 0.068028226971776184 0 0.20805697342917059 0.059178341543759817 0 0.1951942265281848 0.052365244609145413 0 0.19477888427106471 0.068028226971776184 0 0.1951942265281848 0.052365244609145413 0 0.1764837945120816 0.061910742511003793 0 0.1951942265281848 0.052365244609145413 0 0.1764837945120816 0.061910742511003793 0 0.18205947828297289 0.04260924739081328 0 0.1764837945120816 0.061910742511003793 0 0.18205947828297289 0.04260924739081328 0 0.16553743519129729 0.040392805831617133 0 0.18205947828297289 0.04260924739081328 0 0.16553743519129729 0.040392805831617133 0 0.17707217964719771 0.025267716345226881 0 0.19600975553610309 0.033109727657073172 0 0.18205947828297289 0.04260924739081328 0 0.17707217964719771 0.025267716345226881 0 0.16553743519129729 0.040392805831617133 0 0.1613139894326964 0.024121653580078981 0 0.1482006011997502 0.031747138067586222 0 0.1764837945120816 0.061910742511003793 0 0.16553743519129729 0.040392805831617133 0 0.15002216982279071 0.058334232048501217 0 0.177795833794237 0.0058736288592868176 0 0.17707217964719771 0.025267716345226881 0 0.16471785852727919 0.01090484445761932 0 0.18949896143577891 0.016667400663256809 0 0.1913914811785945 0.0015479160267864781 0 0.177795833794237 0.0058736288592868176 0 0.18949896143577891 0.016667400663256809 0 0.177795833794237 0.0058736288592868176 0 0.17707217964719771 0.025267716345226881 0 0.16553743519129729 0.040392805831617133 0 0.17707217964719771 0.025267716345226881 0 0.1613139894326964 0.024121653580078981 0 0.17707217964719771 0.025267716345226881 0 0.1613139894326964 0.024121653580078981 0 0.16471785852727919 0.01090484445761932 0 0.1613139894326964 0.024121653580078981 0 0.16471785852727919 0.01090484445761932 0 0.1510418725979574 0.012295763198345371 0 0.16471785852727919 0.01090484445761932 0 0.15628357420278671 0.003810722324721363 0 0.1510418725979574 0.012295763198345371 0 0.16471785852727919 0.01090484445761932 0 0.15628357420278671 0.003810722324721363 0 0.16638725000284621 -0.0041024332455818144 0 0.177795833794237 0.0058736288592868176 0 0.16471785852727919 0.01090484445761932 0 0.16638725000284621 -0.0041024332455818144 0 0.15628357420278671 0.003810722324721363 0 0.1463790325767105 0.0051600440866713393 0 0.1510418725979574 0.012295763198345371 0 0.15628357420278671 0.003810722324721363 0 0.1463790325767105 0.0051600440866713393 0 0.15462421245165581 -0.0058893527151400796 0 0.1463790325767105 0.0051600440866713393 0 0.1510418725979574 0.012295763198345371 0 0.1613139894326964 0.024121653580078981 0 0.1510418725979574 0.012295763198345371 0 0.1482006011997502 0.031747138067586222 0 0.1463790325767105 0.0051600440866713393 0 0.1482006011997502 0.031747138067586222 0 0.1463790325767105 0.0051600440866713393 0 0.1510418725979574 0.012295763198345371 0 0.1482006011997502 0.031747138067586222 0 0.1463790325767105 0.0051600440866713393 0 0.13437116548480091 0.018926778797625429 0 0.1482006011997502 0.031747138067586222 0 0.11744308668179609 0.017774871344802521 0 0.13437116548480091 0.018926778797625429 0 0.12506256882025399 0.035699134337412737 0 0.13437116548480091 0.018926778797625429 0 0.1482006011997502 0.031747138067586222 0 0.12506256882025399 0.035699134337412737 0 0.11744308668179609 0.017774871344802521 0 0.13437116548480091 0.018926778797625429 0 0.12681727907172599 0.0028609529651058472 0 0.1463790325767105 0.0051600440866713393 0 0.13437116548480091 0.018926778797625429 0 0.12681727907172599 0.0028609529651058472 0 0.15002216982279071 0.058334232048501217 0 0.1482006011997502 0.031747138067586222 0 0.13318341665519781 0.054736537254868822 0 0.16553743519129729 0.040392805831617133 0 0.15002216982279071 0.058334232048501217 0 0.1482006011997502 0.031747138067586222 0 0.15002216982279071 0.058334232048501217 0 0.1482006011997502 0.031747138067586222 0 0.1482006011997502 0.031747138067586222 0 0.12506256882025399 0.035699134337412737 0 0.13318341665519781 0.054736537254868822 0 0.1220245952479405 0.07004619687739172 0 0.13318341665519781 0.054736537254868822 0 0.140451324603005 0.079388379798429956 0 0.15002216982279071 0.058334232048501217 0 0.13318341665519781 0.054736537254868822 0 0.140451324603005 0.079388379798429956 0 0.15002216982279071 0.058334232048501217 0 0.140451324603005 0.079388379798429956 0 0.16236977351405571 0.08420317597119574 0 0.140451324603005 0.079388379798429956 0 0.13376660142800201 0.097128283387147629 0 0.1539803846384532 0.10268384485881291 0 0.140451324603005 0.079388379798429956 0 0.1539803846384532 0.10268384485881291 0 0.16236977351405571 0.08420317597119574 0 0.1175203890912727 0.086079419998433368 0 0.140451324603005 0.079388379798429956 0 0.13376660142800201 0.097128283387147629 0 0.1175203890912727 0.086079419998433368 0 0.1220245952479405 0.07004619687739172 0 0.140451324603005 0.079388379798429956 0 0.13376660142800201 0.097128283387147629 0 0.13278919984088661 0.11230677671938701 0 0.1539803846384532 0.10268384485881291 0 0.1204523462490521 0.10350528248164099 0 0.13376660142800201 0.097128283387147629 0 0.13278919984088661 0.11230677671938701 0 0.12877089149896251 0.12628235461406201 0 0.13278919984088661 0.11230677671938701 0 0.14559099576285081 0.1211645137464301 0 0.11923934643535521 0.1171320194813406 0 0.12877089149896251 0.12628235461406201 0 0.13278919984088661 0.11230677671938701 0 0.14559099576285081 0.1211645137464301 0 0.1539803846384532 0.10268384485881291 0 0.15632661280319129 0.13068902382275449 0 0.14559099576285081 0.1211645137464301 0 0.1644083134929788 0.12014259939932 0 0.13278919984088661 0.11230677671938701 0 0.14559099576285081 0.1211645137464301 0 0.1539803846384532 0.10268384485881291 0 0.14559099576285081 0.1211645137464301 0 0.1539803846384532 0.10268384485881291 0 0.1644083134929788 0.12014259939932 0 0.1539803846384532 0.10268384485881291 0 0.1644083134929788 0.12014259939932 0 0.1735399813695532 0.1031324266698939 0 0.1539803846384532 0.10268384485881291 0 0.1735399813695532 0.1031324266698939 0 0.16236977351405571 0.08420317597119574 0 0.1644083134929788 0.12014259939932 0 0.18282874988353909 0.12176719670840121 0 0.1735399813695532 0.1031324266698939 0 0.17014020092281509 0.1303647164313487 0 0.1644083134929788 0.12014259939932 0 0.18282874988353909 0.12176719670840121 0 0.1920226837756919 0.1062731432897658 0 0.18282874988353909 0.12176719670840121 0 0.1735399813695532 0.1031324266698939 0 0.1920226837756919 0.1062731432897658 0 0.1735399813695532 0.1031324266698939 0 0.18562998291260069 0.083724599791867624 0 0.1735399813695532 0.1031324266698939 0 0.18562998291260069 0.083724599791867624 0 0.16236977351405571 0.08420317597119574 0 0.1764837945120816 0.061910742511003793 0 0.18562998291260069 0.083724599791867624 0 0.16236977351405571 0.08420317597119574 0 0.19477888427106471 0.068028226971776184 0 0.1764837945120816 0.061910742511003793 0 0.18562998291260069 0.083724599791867624 0 0.1764837945120816 0.061910742511003793 0 0.15002216982279071 0.058334232048501217 0 0.16236977351405571 0.08420317597119574 0 0.1539803846384532 0.10268384485881291 0 0.16236977351405571 0.08420317597119574 0 0.1048222847563673 0.4786668097115272 0 0.091479988498646442 0.48354315307299939 0 0.09327677099031946 0.46903920507515112 0 0.1048222847563673 0.4786668097115272 0 0.10316008329641591 0.49260778903299252 0 0.092978519966910561 0.49654355170423659 0 0.1048222847563673 0.4786668097115272 0 0.092978519966910561 0.49654355170423659 0 0.1048222847563673 0.4786668097115272 0 0.091479988498646442 0.48354315307299939 0 0.092978519966910561 0.49654355170423659 0 0.10316008329641591 0.49260778903299252 0 0.10312521592474901 0.5 0 0.092978519966910561 0.49654355170423659 0 0.10316008329641591 0.49260778903299252 0 0.10312521592474901 0.5 0 0.1137569863567818 0.48891352741171218 0 0.1048222847563673 0.4786668097115272 0 0.10316008329641591 0.49260778903299252 0 0.1137569863567818 0.48891352741171218 0 0.1048222847563673 0.4786668097115272 0 0.10316008329641591 0.49260778903299252 0 0.1137569863567818 0.48891352741171218 0 0.12567845600013469 0.47929569400969452 0 0.1306299125622308 0.5 0 0.10312521592474901 0.5 0 0.1137569863567818 0.48891352741171218 0 0.1306299125622308 0.5 0 0.1048222847563673 0.4786668097115272 0 0.11648320602364499 0.46106604807885698 0 0.12567845600013469 0.47929569400969452 0 0.1048222847563673 0.4786668097115272 0 0.1137569863567818 0.48891352741171218 0 0.12567845600013469 0.47929569400969452 0 0.1048222847563673 0.4786668097115272 0 0.11648320602364499 0.46106604807885698 0 0.1048222847563673 0.4786668097115272 0 0.11648320602364499 0.46106604807885698 0 0.1073203574995146 0.45771532982499841 0 0.1119099515656637 0.4541769576285038 0 0.11648320602364499 0.46106604807885698 0 0.1073203574995146 0.45771532982499841 0 0.1119099515656637 0.4541769576285038 0 0.11648320602364499 0.46106604807885698 0 0.128144127290927 0.44346528644618949 0 0.1119099515656637 0.4541769576285038 0 0.1098184302426566 0.43676384993846878 0 0.128144127290927 0.44346528644618949 0 0.1119099515656637 0.4541769576285038 0 0.1073203574995146 0.45771532982499841 0 0.1098184302426566 0.43676384993846878 0 0.11648320602364499 0.46106604807885698 0 0.128144127290927 0.44346528644618949 0 0.1119099515656637 0.4541769576285038 0 0.1098184302426566 0.43676384993846878 0 0.1007171253458153 0.44820701469258212 0 0.1073203574995146 0.45771532982499841 0 0.1098184302426566 0.43676384993846878 0 0.1073203574995146 0.45771532982499841 0 0.1098184302426566 0.43676384993846878 0 0.1007171253458153 0.44820701469258212 0 0.097642268156116166 0.44157878137516282 0 0.1098184302426566 0.43676384993846878 0 0.097642268156116166 0.44157878137516282 0 0.1020591419526216 0.43422428691783338 0 0.1098184302426566 0.43676384993846878 0 0.097642268156116166 0.44157878137516282 0 0.1098184302426566 0.43676384993846878 0 0.09475968248970798 0.44694335582238792 0 0.1007171253458153 0.44820701469258212 0 0.092889002414179245 0.45276651635374332 0 0.1007171253458153 0.44820701469258212 0 0.096868601935243229 0.45789063626048049 0 0.092889002414179245 0.45276651635374332 0 0.09475968248970798 0.44694335582238792 0 0.1007171253458153 0.44820701469258212 0 0.097642268156116166 0.44157878137516282 0 0.09475968248970798 0.44694335582238792 0 0.097642268156116166 0.44157878137516282 0 0.088987703810336438 0.44500113512203671 0 0.1007171253458153 0.44820701469258212 0 0.097642268156116166 0.44157878137516282 0 0.1048222847563673 0.4786668097115272 0 0.1073203574995146 0.45771532982499841 0 0.09327677099031946 0.46903920507515112 0 0.1048222847563673 0.4786668097115272 0 0.1073203574995146 0.45771532982499841 0 0.1007171253458153 0.44820701469258212 0 0.1073203574995146 0.45771532982499841 0 0.096868601935243229 0.45789063626048049 0 0.1073203574995146 0.45771532982499841 0 0.096868601935243229 0.45789063626048049 0 0.09327677099031946 0.46903920507515112 0 0.090139753426387581 0.46172511535592747 0 0.079256630923375745 0.46616111205340521 0 0.09327677099031946 0.46903920507515112 0 0.096868601935243229 0.45789063626048049 0 0.090139753426387581 0.46172511535592747 0 0.09327677099031946 0.46903920507515112 0 0.090139753426387581 0.46172511535592747 0 0.092889002414179245 0.45276651635374332 0 0.081384578054001289 0.45283886102268139 0 0.096868601935243229 0.45789063626048049 0 0.090139753426387581 0.46172511535592747 0 0.092889002414179245 0.45276651635374332 0 0.090139753426387581 0.46172511535592747 0 0.079256630923375745 0.46616111205340521 0 0.081384578054001289 0.45283886102268139 0 0.088987703810336438 0.44500113512203671 0 0.082419728037930629 0.44071508101891732 0 0.08961571608665983 0.43565438773200948 0 0.097642268156116166 0.44157878137516282 0 0.088987703810336438 0.44500113512203671 0 0.097642268156116166 0.44157878137516282 0 0.088987703810336438 0.44500113512203671 0 0.08961571608665983 0.43565438773200948 0 0.088987703810336438 0.44500113512203671 0 0.092889002414179245 0.45276651635374332 0 0.081384578054001289 0.45283886102268139 0 0.09475968248970798 0.44694335582238792 0 0.088987703810336438 0.44500113512203671 0 0.092889002414179245 0.45276651635374332 0 0.088987703810336438 0.44500113512203671 0 0.081384578054001289 0.45283886102268139 0 0.082419728037930629 0.44071508101891732 0 0.067599685253138281 0.45287595272104653 0 0.081892131328371143 0.4314429342789402 0 0.067599685253138281 0.45287595272104653 0 0.066001473138610989 0.43632828312433408 0 0.081892131328371143 0.4314429342789402 0 0.082419728037930629 0.44071508101891732 0 0.067599685253138281 0.45287595272104653 0 0.081892131328371143 0.4314429342789402 0 0.081384578054001289 0.45283886102268139 0 0.082419728037930629 0.44071508101891732 0 0.067599685253138281 0.45287595272104653 0 0.079256630923375745 0.46616111205340521 0 0.067599685253138281 0.45287595272104653 0 0.069001794002684108 0.47224329730437981 0 0.067599685253138281 0.45287595272104653 0 0.069001794002684108 0.47224329730437981 0 0.053307239177905349 0.47430897116315313 0 0.079256630923375745 0.46616111205340521 0 0.081384578054001289 0.45283886102268139 0 0.067599685253138281 0.45287595272104653 0 0.069001794002684108 0.47224329730437981 0 0.079794243665170225 0.47979706117662119 0 0.065051170993830898 0.48807338940767292 0 0.079256630923375745 0.46616111205340521 0 0.069001794002684108 0.47224329730437981 0 0.079794243665170225 0.47979706117662119 0 0.079256630923375745 0.46616111205340521 0 0.079794243665170225 0.47979706117662119 0 0.09327677099031946 0.46903920507515112 0 0.079794243665170225 0.47979706117662119 0 0.091479988498646442 0.48354315307299939 0 0.09327677099031946 0.46903920507515112 0 0.092978519966910561 0.49654355170423659 0 0.084553660660575528 0.49009386622585083 0 0.075620519287267318 0.5 0 0.10312521592474901 0.5 0 0.092978519966910561 0.49654355170423659 0 0.075620519287267318 0.5 0 0.091479988498646442 0.48354315307299939 0 0.092978519966910561 0.49654355170423659 0 0.084553660660575528 0.49009386622585083 0 0.079794243665170225 0.47979706117662119 0 0.091479988498646442 0.48354315307299939 0 0.084553660660575528 0.49009386622585083 0 0.079794243665170225 0.47979706117662119 0 0.084553660660575528 0.49009386622585083 0 0.065051170993830898 0.48807338940767292 0 0.065051170993830898 0.48807338940767292 0 0.075620519287267318 0.5 0 0.048115822649785527 0.5 0 0.084553660660575528 0.49009386622585083 0 0.065051170993830898 0.48807338940767292 0 0.075620519287267318 0.5 0 0.065051170993830898 0.48807338940767292 0 0.048115822649785527 0.5 0 0.053307239177905349 0.47430897116315313 0 0.069001794002684108 0.47224329730437981 0 0.065051170993830898 0.48807338940767292 0 0.053307239177905349 0.47430897116315313 0 0.053307239177905349 0.47430897116315313 0 0.036467756559221701 0.47774208688151631 0 0.038707058205945111 0.46145460703462421 0 0.036467756559221701 0.47774208688151631 0 0.024551868698660679 0.47115282030446087 0 0.038707058205945111 0.46145460703462421 0 0.053307239177905349 0.47430897116315313 0 0.036467756559221701 0.47774208688151631 0 0.039014793102672522 0.49574198960525939 0 0.053307239177905349 0.47430897116315313 0 0.039014793102672522 0.49574198960525939 0 0.048115822649785527 0.5 0 0.053307239177905349 0.47430897116315313 0 0.039014793102672522 0.49574198960525939 0 0.048115822649785527 0.5 0 0.039014793102672522 0.49574198960525939 0 0.020611126012303801 0.5 0 0.036467756559221701 0.47774208688151631 0 0.039014793102672522 0.49574198960525939 0 0.026757823610924832 0.48605204630008392 0 0.039014793102672522 0.49574198960525939 0 0.020611126012303801 0.5 0 0.026757823610924832 0.48605204630008392 0 0.020611126012303801 0.5 0 0.026757823610924832 0.48605204630008392 0 0.01184792134048173 0.48364435332619582 0 0.036467756559221701 0.47774208688151631 0 0.026757823610924832 0.48605204630008392 0 0.024551868698660679 0.47115282030446087 0 0.024551868698660679 0.47115282030446087 0 0.01184792134048173 0.48364435332619582 0 0.0113986727330041 0.46548394976725249 0 0.026757823610924832 0.48605204630008392 0 0.024551868698660679 0.47115282030446087 0 0.01184792134048173 0.48364435332619582 0 -0.003089566724048357 0.47326761514296101 0 0.01184792134048173 0.48364435332619582 0 0.0113986727330041 0.46548394976725249 0 -0.0068935706251778139 0.5 0 -0.003089566724048357 0.47326761514296101 0 0.01184792134048173 0.48364435332619582 0 -0.0068935706251778139 0.5 0 0.020611126012303801 0.5 0 0.01184792134048173 0.48364435332619582 0 -0.0072392309157056894 0.43649428994281841 0 0.0026031304198410629 0.45131346537392758 0 0.017959463550051329 0.43401198815683267 0 0.0026031304198410629 0.45131346537392758 0 0.021372524407465811 0.45253342051953771 0 0.017959463550051329 0.43401198815683267 0 0.0026031304198410629 0.45131346537392758 0 0.0113986727330041 0.46548394976725249 0 0.021372524407465811 0.45253342051953771 0 -0.003089566724048357 0.47326761514296101 0 0.0026031304198410629 0.45131346537392758 0 0.0113986727330041 0.46548394976725249 0 0.024551868698660679 0.47115282030446087 0 0.0113986727330041 0.46548394976725249 0 0.021372524407465811 0.45253342051953771 0 0.024551868698660679 0.47115282030446087 0 0.021372524407465811 0.45253342051953771 0 0.038707058205945111 0.46145460703462421 0 0.021372524407465811 0.45253342051953771 0 0.037958531274121507 0.44366308696102769 0 0.017959463550051329 0.43401198815683267 0 0.037958531274121507 0.44366308696102769 0 0.05227214254911447 0.45021359508833869 0 0.050058868244965561 0.43265066952584708 0 0.021372524407465811 0.45253342051953771 0 0.037958531274121507 0.44366308696102769 0 0.038707058205945111 0.46145460703462421 0 0.037958531274121507 0.44366308696102769 0 0.038707058205945111 0.46145460703462421 0 0.05227214254911447 0.45021359508833869 0 0.067599685253138281 0.45287595272104653 0 0.053307239177905349 0.47430897116315313 0 0.053307239177905349 0.47430897116315313 0 0.038707058205945111 0.46145460703462421 0 0.05227214254911447 0.45021359508833869 0 0.067599685253138281 0.45287595272104653 0 0.053307239177905349 0.47430897116315313 0 0.05227214254911447 0.45021359508833869 0 0.05227214254911447 0.45021359508833869 0 0.050058868244965561 0.43265066952584708 0 0.066001473138610989 0.43632828312433408 0 0.067599685253138281 0.45287595272104653 0 0.05227214254911447 0.45021359508833869 0 0.066001473138610989 0.43632828312433408 0 0.050058868244965561 0.43265066952584708 0 0.068804754243522781 0.41994166461739918 0 0.066001473138610989 0.43632828312433408 0 0.050058868244965561 0.43265066952584708 0 0.048852687291388877 0.41459777654824598 0 0.068804754243522781 0.41994166461739918 0 0.048852687291388877 0.41459777654824598 0 0.061313779414970418 0.39987885693449271 0 0.068804754243522781 0.41994166461739918 0 0.048852687291388877 0.41459777654824598 0 0.068804754243522781 0.41994166461739918 0 0.048852687291388877 0.41459777654824598 0 0.036746034139956453 0.42683548193420928 0 0.028900620339254991 0.40925388847909272 0 0.048852687291388877 0.41459777654824598 0 0.028900620339254991 0.40925388847909272 0 0.048852687291388877 0.41459777654824598 0 0.028900620339254991 0.40925388847909272 0 0.042007131815748507 0.39655655075565333 0 0.050058868244965561 0.43265066952584708 0 0.048852687291388877 0.41459777654824598 0 0.036746034139956453 0.42683548193420928 0 0.037958531274121507 0.44366308696102769 0 0.050058868244965561 0.43265066952584708 0 0.036746034139956453 0.42683548193420928 0 0.037958531274121507 0.44366308696102769 0 0.036746034139956453 0.42683548193420928 0 0.017959463550051329 0.43401198815683267 0 0.036746034139956453 0.42683548193420928 0 0.017959463550051329 0.43401198815683267 0 0.028900620339254991 0.40925388847909272 0 0.017959463550051329 0.43401198815683267 0 0.028900620339254991 0.40925388847909272 0 0.0059488009041311612 0.41735624870114602 0 0.028900620339254991 0.40925388847909272 0 0.0059488009041311612 0.41735624870114602 0 0.0058412231562265226 0.39891749499975832 0 -0.0081246324890641812 0.40805065625530412 0 0.0059488009041311612 0.41735624870114602 0 0.0058412231562265226 0.39891749499975832 0 -0.0072392309157056894 0.43649428994281841 0 0.017959463550051329 0.43401198815683267 0 0.0059488009041311612 0.41735624870114602 0 -0.0036227877329230301 0.37947700469323042 0 0.0058412231562265226 0.39891749499975832 0 0.017841208666312069 0.37762534579018298 0 0.028900620339254991 0.40925388847909272 0 0.0058412231562265226 0.39891749499975832 0 0.024450360446550148 0.39274026509825583 0 0.024450360446550148 0.39274026509825583 0 0.017841208666312069 0.37762534579018298 0 0.035089121590226528 0.38253825820529852 0 0.0058412231562265226 0.39891749499975832 0 0.024450360446550148 0.39274026509825583 0 0.017841208666312069 0.37762534579018298 0 0.035089121590226528 0.38253825820529852 0 0.042007131815748507 0.39655655075565333 0 0.051605655867250001 0.38149668432143541 0 0.035089121590226528 0.38253825820529852 0 0.051605655867250001 0.38149668432143541 0 0.039541251155271878 0.36427244506096468 0 0.024450360446550148 0.39274026509825583 0 0.035089121590226528 0.38253825820529852 0 0.042007131815748507 0.39655655075565333 0 0.028900620339254991 0.40925388847909272 0 0.024450360446550148 0.39274026509825583 0 0.042007131815748507 0.39655655075565333 0 0.048852687291388877 0.41459777654824598 0 0.042007131815748507 0.39655655075565333 0 0.061313779414970418 0.39987885693449271 0 0.042007131815748507 0.39655655075565333 0 0.061313779414970418 0.39987885693449271 0 0.051605655867250001 0.38149668432143541 0 0.051605655867250001 0.38149668432143541 0 0.071205150989249344 0.38459031979425368 0 0.062117748859898458 0.36500130546073062 0 0.061313779414970418 0.39987885693449271 0 0.051605655867250001 0.38149668432143541 0 0.071205150989249344 0.38459031979425368 0 0.071205150989249344 0.38459031979425368 0 0.082619379705498486 0.3760424233717975 0 0.075022727430642186 0.36942391052545742 0 0.082619379705498486 0.3760424233717975 0 0.089989672908486834 0.38531380646189939 0 0.096111415589441723 0.36906918257109511 0 0.071205150989249344 0.38459031979425368 0 0.082619379705498486 0.3760424233717975 0 0.089989672908486834 0.38531380646189939 0 0.071205150989249344 0.38459031979425368 0 0.089989672908486834 0.38531380646189939 0 0.080292553118600216 0.40417933412777668 0 0.089989672908486834 0.38531380646189939 0 0.080292553118600216 0.40417933412777668 0 0.098794269534858231 0.4008464147916751 0 0.071205150989249344 0.38459031979425368 0 0.080292553118600216 0.40417933412777668 0 0.061313779414970418 0.39987885693449271 0 0.071205150989249344 0.38459031979425368 0 0.080292553118600216 0.40417933412777668 0 0.061313779414970418 0.39987885693449271 0 0.080292553118600216 0.40417933412777668 0 0.068804754243522781 0.41994166461739918 0 0.068804754243522781 0.41994166461739918 0 0.066001473138610989 0.43632828312433408 0 0.081892131328371143 0.4314429342789402 0 0.068804754243522781 0.41994166461739918 0 0.088756821195656727 0.42528555268655249 0 0.089379955247950782 0.42376834846129979 0 0.068804754243522781 0.41994166461739918 0 0.081892131328371143 0.4314429342789402 0 0.088756821195656727 0.42528555268655249 0 0.068804754243522781 0.41994166461739918 0 0.088756821195656727 0.42528555268655249 0 0.097642268156116166 0.44157878137516282 0 0.090272059233259302 0.42569138845737808 0 0.08961571608665983 0.43565438773200948 0 0.082419728037930629 0.44071508101891732 0 0.088756821195656727 0.42528555268655249 0 0.082419728037930629 0.44071508101891732 0 0.081892131328371143 0.4314429342789402 0 0.088756821195656727 0.42528555268655249 0 0.088756821195656727 0.42528555268655249 0 0.090272059233259302 0.42569138845737808 0 0.08961571608665983 0.43565438773200948 0 0.089379955247950782 0.42376834846129979 0 0.090272059233259302 0.42569138845737808 0 0.100849049247472 0.42323949502706593 0 0.088756821195656727 0.42528555268655249 0 0.089379955247950782 0.42376834846129979 0 0.090272059233259302 0.42569138845737808 0 0.088756821195656727 0.42528555268655249 0 0.090272059233259302 0.42569138845737808 0 0.089379955247950782 0.42376834846129979 0 0.090272059233259302 0.42569138845737808 0 0.088756821195656727 0.42528555268655249 0 0.089379955247950782 0.42376834846129979 0 0.082419728037930629 0.44071508101891732 0 0.088756821195656727 0.42528555268655249 0 0.08961571608665983 0.43565438773200948 0 0.080292553118600216 0.40417933412777668 0 0.089379955247950782 0.42376834846129979 0 0.080292553118600216 0.40417933412777668 0 0.068804754243522781 0.41994166461739918 0 0.089379955247950782 0.42376834846129979 0 0.080292553118600216 0.40417933412777668 0 0.089379955247950782 0.42376834846129979 0 0.098794269534858231 0.4008464147916751 0 0.089379955247950782 0.42376834846129979 0 0.10179294521624289 0.41380452076605601 0 0.098794269534858231 0.4008464147916751 0 0.089379955247950782 0.42376834846129979 0 0.098794269534858231 0.4008464147916751 0 0.10179294521624289 0.41380452076605601 0 0.1107041231999616 0.42933549212480232 0 0.10945635351086461 0.40362998662342647 0 0.089379955247950782 0.42376834846129979 0 0.10179294521624289 0.41380452076605601 0 0.100849049247472 0.42323949502706593 0 0.097642268156116166 0.44157878137516282 0 0.090272059233259302 0.42569138845737808 0 0.1020591419526216 0.43422428691783338 0 0.090272059233259302 0.42569138845737808 0 0.1020591419526216 0.43422428691783338 0 0.1093682320879097 0.430806037006286 0 0.090272059233259302 0.42569138845737808 0 0.1093682320879097 0.430806037006286 0 0.090272059233259302 0.42569138845737808 0 0.100849049247472 0.42323949502706593 0 0.1093682320879097 0.430806037006286 0 0.097642268156116166 0.44157878137516282 0 0.090272059233259302 0.42569138845737808 0 0.100849049247472 0.42323949502706593 0 0.1093682320879097 0.430806037006286 0 0.1107041231999616 0.42933549212480232 0 0.10179294521624289 0.41380452076605601 0 0.100849049247472 0.42323949502706593 0 0.1107041231999616 0.42933549212480232 0 0.1020591419526216 0.43422428691783338 0 0.1093682320879097 0.430806037006286 0 0.1103398931765668 0.43239031029619718 0 0.1020591419526216 0.43422428691783338 0 0.1098184302426566 0.43676384993846878 0 0.1103398931765668 0.43239031029619718 0 0.1020591419526216 0.43422428691783338 0 0.1103398931765668 0.43239031029619718 0 0.1103398931765668 0.43239031029619718 0 0.1206950902667107 0.42206632785564402 0 0.13429496844172059 0.42708486797366702 0 0.1098184302426566 0.43676384993846878 0 0.1103398931765668 0.43239031029619718 0 0.13429496844172059 0.42708486797366702 0 0.1098184302426566 0.43676384993846878 0 0.13429496844172059 0.42708486797366702 0 0.128144127290927 0.44346528644618949 0 0.1103398931765668 0.43239031029619718 0 0.13429496844172059 0.42708486797366702 0 0.1098184302426566 0.43676384993846878 0 0.13429496844172059 0.42708486797366702 0 0.1098184302426566 0.43676384993846878 0 0.1103398931765668 0.43239031029619718 0 0.1093682320879097 0.430806037006286 0 0.1103398931765668 0.43239031029619718 0 0.1107041231999616 0.42933549212480232 0 0.1103398931765668 0.43239031029619718 0 0.1107041231999616 0.42933549212480232 0 0.1103398931765668 0.43239031029619718 0 0.1107041231999616 0.42933549212480232 0 0.1206950902667107 0.42206632785564402 0 0.1107041231999616 0.42933549212480232 0 0.10945635351086461 0.40362998662342647 0 0.1107041231999616 0.42933549212480232 0 0.1127079119913361 0.41252960019287183 0 0.10945635351086461 0.40362998662342647 0 0.1107041231999616 0.42933549212480232 0 0.1206950902667107 0.42206632785564402 0 0.1127079119913361 0.41252960019287183 0 0.1107041231999616 0.42933549212480232 0 0.1127079119913361 0.41252960019287183 0 0.1127079119913361 0.41252960019287183 0 0.11966152561727041 0.40521647558469348 0 0.10945635351086461 0.40362998662342647 0 0.1206950902667107 0.42206632785564402 0 0.1127079119913361 0.41252960019287183 0 0.1238244133614653 0.41259348140785829 0 0.1127079119913361 0.41252960019287183 0 0.1238244133614653 0.41259348140785829 0 0.11966152561727041 0.40521647558469348 0 0.10945635351086461 0.40362998662342647 0 0.12302526621810631 0.39483339242702431 0 0.1082085838217669 0.37792448112205068 0 0.11966152561727041 0.40521647558469348 0 0.12302526621810631 0.39483339242702431 0 0.1317921164680903 0.40545952647836342 0 0.11966152561727041 0.40521647558469348 0 0.10945635351086461 0.40362998662342647 0 0.12302526621810631 0.39483339242702431 0 0.12302526621810631 0.39483339242702431 0 0.1082085838217669 0.37792448112205068 0 0.12936302614305781 0.3806702380723882 0 0.1082085838217669 0.37792448112205068 0 0.1269429757455281 0.3700741961410311 0 0.12936302614305781 0.3806702380723882 0 0.089989672908486834 0.38531380646189939 0 0.1082085838217669 0.37792448112205068 0 0.098794269534858231 0.4008464147916751 0 0.089989672908486834 0.38531380646189939 0 0.1082085838217669 0.37792448112205068 0 0.096111415589441723 0.36906918257109511 0 0.1082085838217669 0.37792448112205068 0 0.098794269534858231 0.4008464147916751 0 0.10945635351086461 0.40362998662342647 0 0.1082085838217669 0.37792448112205068 0 0.098794269534858231 0.4008464147916751 0 0.10945635351086461 0.40362998662342647 0 0.1082085838217669 0.37792448112205068 0 0.10179294521624289 0.41380452076605601 0 0.10945635351086461 0.40362998662342647 0 0.098794269534858231 0.4008464147916751 0 0.1071786794515654 0.3567072543489932 0 0.10614877508136331 0.33549002757593549 0 0.1071786794515654 0.3567072543489932 0 0.113306419652784 0.34577619835524942 0 0.10614877508136331 0.33549002757593549 0 0.1071786794515654 0.3567072543489932 0 0.095546341163152998 0.34721348103654748 0 0.10614877508136331 0.33549002757593549 0 0.1071786794515654 0.3567072543489932 0 0.095546341163152998 0.34721348103654748 0 0.095306363846323322 0.35760506086541671 0 0.1082085838217669 0.37792448112205068 0 0.1071786794515654 0.3567072543489932 0 0.096111415589441723 0.36906918257109511 0 0.1082085838217669 0.37792448112205068 0 0.1071786794515654 0.3567072543489932 0 0.1071786794515654 0.3567072543489932 0 0.095306363846323322 0.35760506086541671 0 0.096111415589441723 0.36906918257109511 0 0.1082085838217669 0.37792448112205068 0 0.1071786794515654 0.3567072543489932 0 0.1164276567709608 0.35791271614101089 0 0.1082085838217669 0.37792448112205068 0 0.1207019799918789 0.36117572882690419 0 0.1269429757455281 0.3700741961410311 0 0.1082085838217669 0.37792448112205068 0 0.1207019799918789 0.36117572882690419 0 0.1164276567709608 0.35791271614101089 0 0.1082085838217669 0.37792448112205068 0 0.1164276567709608 0.35791271614101089 0 0.1207019799918789 0.36117572882690419 0 0.12020614592151201 0.35183052892485178 0 0.1164276567709608 0.35791271614101089 0 0.1207019799918789 0.36117572882690419 0 0.12020614592151201 0.35183052892485178 0 0.1327104347709552 0.34833671648866182 0 0.1071786794515654 0.3567072543489932 0 0.1164276567709608 0.35791271614101089 0 0.1142797254492055 0.35305667444252631 0 0.1071786794515654 0.3567072543489932 0 0.1142797254492055 0.35305667444252631 0 0.113306419652784 0.34577619835524942 0 0.12020614592151201 0.35183052892485178 0 0.1164276567709608 0.35791271614101089 0 0.1142797254492055 0.35305667444252631 0 0.12020614592151201 0.35183052892485178 0 0.1142797254492055 0.35305667444252631 0 0.113306419652784 0.34577619835524942 0 0.12020614592151201 0.35183052892485178 0 0.113306419652784 0.34577619835524942 0 0.12565642337597641 0.34531162420386119 0 0.113306419652784 0.34577619835524942 0 0.10614877508136331 0.33549002757593549 0 0.12728204636342119 0.33264440370185788 0 0.113306419652784 0.34577619835524942 0 0.12728204636342119 0.33264440370185788 0 0.12565642337597641 0.34531162420386119 0 0.1046413786221535 0.32421374287331212 0 0.10614877508136331 0.33549002757593549 0 0.12728204636342119 0.33264440370185788 0 0.1046413786221535 0.32421374287331212 0 0.12728204636342119 0.33264440370185788 0 0.1167242617350734 0.31677866348064548 0 0.1046413786221535 0.32421374287331212 0 0.12728204636342119 0.33264440370185788 0 0.1167242617350734 0.31677866348064548 0 0.1046413786221535 0.32421374287331212 0 0.1046413786221535 0.32421374287331212 0 0.077692308094581719 0.31417877058986282 0 0.103629968386694 0.31192557858664272 0 0.1167242617350734 0.31677866348064548 0 0.1046413786221535 0.32421374287331212 0 0.103629968386694 0.31192557858664272 0 0.1046413786221535 0.32421374287331212 0 0.08294133613319174 0.33756664360252769 0 0.1046413786221535 0.32421374287331212 0 0.10614877508136331 0.33549002757593549 0 0.08294133613319174 0.33756664360252769 0 0.095546341163152998 0.34721348103654748 0 0.10614877508136331 0.33549002757593549 0 0.08294133613319174 0.33756664360252769 0 0.1046413786221535 0.32421374287331212 0 0.077692308094581719 0.31417877058986282 0 0.1046413786221535 0.32421374287331212 0 0.08294133613319174 0.33756664360252769 0 0.077692308094581719 0.31417877058986282 0 0.077692308094581719 0.31417877058986282 0 0.067976715374811009 0.32361441744144559 0 0.058789612577710128 0.31476722793512929 0 0.08294133613319174 0.33756664360252769 0 0.077692308094581719 0.31417877058986282 0 0.067976715374811009 0.32361441744144559 0 0.08294133613319174 0.33756664360252769 0 0.067976715374811009 0.32361441744144559 0 0.060135280265193262 0.33376627043538171 0 0.08294133613319174 0.33756664360252769 0 0.061241293644231747 0.35091954433174621 0 0.060135280265193262 0.33376627043538171 0 0.08294133613319174 0.33756664360252769 0 0.061241293644231747 0.35091954433174621 0 0.08294133613319174 0.33756664360252769 0 0.074215767858206258 0.35718016320722129 0 0.061241293644231747 0.35091954433174621 0 0.074215767858206258 0.35718016320722129 0 0.062117748859898458 0.36500130546073062 0 0.061241293644231747 0.35091954433174621 0 0.08294133613319174 0.33756664360252769 0 0.074215767858206258 0.35718016320722129 0 0.086887140600208246 0.35260595290123381 0 0.074215767858206258 0.35718016320722129 0 0.086887140600208246 0.35260595290123381 0 0.085272644414092907 0.36373677956425621 0 0.095546341163152998 0.34721348103654748 0 0.095306363846323322 0.35760506086541671 0 0.086887140600208246 0.35260595290123381 0 0.095306363846323322 0.35760506086541671 0 0.086887140600208246 0.35260595290123381 0 0.085272644414092907 0.36373677956425621 0 0.095546341163152998 0.34721348103654748 0 0.08294133613319174 0.33756664360252769 0 0.086887140600208246 0.35260595290123381 0 0.082619379705498486 0.3760424233717975 0 0.096111415589441723 0.36906918257109511 0 0.085272644414092907 0.36373677956425621 0 0.095306363846323322 0.35760506086541671 0 0.096111415589441723 0.36906918257109511 0 0.085272644414092907 0.36373677956425621 0 0.074215767858206258 0.35718016320722129 0 0.085272644414092907 0.36373677956425621 0 0.075022727430642186 0.36942391052545742 0 0.082619379705498486 0.3760424233717975 0 0.085272644414092907 0.36373677956425621 0 0.075022727430642186 0.36942391052545742 0 0.071205150989249344 0.38459031979425368 0 0.075022727430642186 0.36942391052545742 0 0.062117748859898458 0.36500130546073062 0 0.071205150989249344 0.38459031979425368 0 0.062117748859898458 0.36500130546073062 0 0.074215767858206258 0.35718016320722129 0 0.075022727430642186 0.36942391052545742 0 0.062117748859898458 0.36500130546073062 0 0.062117748859898458 0.36500130546073062 0 0.061241293644231747 0.35091954433174621 0 0.039541251155271878 0.36427244506096468 0 0.051605655867250001 0.38149668432143541 0 0.062117748859898458 0.36500130546073062 0 0.039541251155271878 0.36427244506096468 0 0.061241293644231747 0.35091954433174621 0 0.039541251155271878 0.36427244506096468 0 0.061241293644231747 0.35091954433174621 0 0.044784474582475392 0.34869393697364293 0 0.052607857505341568 0.34198871306916279 0 0.061241293644231747 0.35091954433174621 0 0.044784474582475392 0.34869393697364293 0 0.039541251155271878 0.36427244506096468 0 0.044784474582475392 0.34869393697364293 0 0.039541251155271878 0.36427244506096468 0 0.023969970644136189 0.34780247639640383 0 0.017841208666312069 0.37762534579018298 0 0.039541251155271878 0.36427244506096468 0 0.022364176625033282 0.36301365865426333 0 0.017841208666312069 0.37762534579018298 0 0.035089121590226528 0.38253825820529852 0 0.039541251155271878 0.36427244506096468 0 0.017841208666312069 0.37762534579018298 0 0.039541251155271878 0.36427244506096468 0 0.017841208666312069 0.37762534579018298 0 0.022364176625033282 0.36301365865426333 0 0.0070688581490178301 0.36290469613376197 0 0.022364176625033282 0.36301365865426333 0 0.023969970644136189 0.34780247639640383 0 0.0070688581490178301 0.36290469613376197 0 0.039541251155271878 0.36427244506096468 0 0.022364176625033282 0.36301365865426333 0 0.023969970644136189 0.34780247639640383 0 0.023969970644136189 0.34780247639640383 0 0.0070688581490178301 0.36290469613376197 0 0.010160838263171251 0.33572436441868259 0 -0.0072621374188671052 0.34147004492185079 0 0.0070688581490178301 0.36290469613376197 0 0.010160838263171251 0.33572436441868259 0 -0.0036227877329230301 0.37947700469323042 0 0.017841208666312069 0.37762534579018298 0 0.0070688581490178301 0.36290469613376197 0 -0.00017254440855824261 0.32560037032276101 0 0.010160838263171251 0.33572436441868259 0 0.020336227673690289 0.32045890090113183 0 -0.0025045175740335168 0.31031314766219981 0 -0.00017254440855824261 0.32560037032276101 0 0.020336227673690289 0.32045890090113183 0 -0.0072621374188671052 0.34147004492185079 0 -0.00017254440855824261 0.32560037032276101 0 0.010160838263171251 0.33572436441868259 0 0.023969970644136189 0.34780247639640383 0 0.010160838263171251 0.33572436441868259 0 0.020336227673690289 0.32045890090113183 0 0.023969970644136189 0.34780247639640383 0 0.020336227673690289 0.32045890090113183 0 0.041998086792626607 0.33406523967628299 0 0.04333949094528719 0.3160267531553359 0 0.041998086792626607 0.33406523967628299 0 0.052729264779742331 0.32427979797466039 0 0.020336227673690289 0.32045890090113183 0 0.04333949094528719 0.3160267531553359 0 0.041998086792626607 0.33406523967628299 0 0.044784474582475392 0.34869393697364293 0 0.023969970644136189 0.34780247639640383 0 0.041998086792626607 0.33406523967628299 0 0.044784474582475392 0.34869393697364293 0 0.041998086792626607 0.33406523967628299 0 0.052607857505341568 0.34198871306916279 0 0.061241293644231747 0.35091954433174621 0 0.052607857505341568 0.34198871306916279 0 0.060135280265193262 0.33376627043538171 0 0.041998086792626607 0.33406523967628299 0 0.060135280265193262 0.33376627043538171 0 0.052729264779742331 0.32427979797466039 0 0.041998086792626607 0.33406523967628299 0 0.052607857505341568 0.34198871306916279 0 0.060135280265193262 0.33376627043538171 0 0.04333949094528719 0.3160267531553359 0 0.052729264779742331 0.32427979797466039 0 0.058789612577710128 0.31476722793512929 0 0.067976715374811009 0.32361441744144559 0 0.052729264779742331 0.32427979797466039 0 0.058789612577710128 0.31476722793512929 0 0.067976715374811009 0.32361441744144559 0 0.060135280265193262 0.33376627043538171 0 0.052729264779742331 0.32427979797466039 0 0.058789612577710128 0.31476722793512929 0 0.050743237567011198 0.30414379830640997 0 0.077692308094581719 0.31417877058986282 0 0.058789612577710128 0.31476722793512929 0 0.050743237567011198 0.30414379830640997 0 0.04333949094528719 0.3160267531553359 0 0.058789612577710128 0.31476722793512929 0 0.050743237567011198 0.30414379830640997 0 0.050743237567011198 0.30414379830640997 0 0.057014991513141711 0.27962034081982778 0 0.068251428351683213 0.29416468787043332 0 0.050743237567011198 0.30414379830640997 0 0.035335655862959579 0.28380154980765537 0 0.057014991513141711 0.27962034081982778 0 0.050743237567011198 0.30414379830640997 0 0.035335655862959579 0.28380154980765537 0 0.050743237567011198 0.30414379830640997 0 0.035335655862959579 0.28380154980765537 0 0.035440516280943121 0.29844555413839979 0 0.020336227673690289 0.32045890090113183 0 0.04333949094528719 0.3160267531553359 0 0.035440516280943121 0.29844555413839979 0 0.04333949094528719 0.3160267531553359 0 0.050743237567011198 0.30414379830640997 0 0.035440516280943121 0.29844555413839979 0 0.050743237567011198 0.30414379830640997 0 0.035440516280943121 0.29844555413839979 0 0.020336227673690289 0.32045890090113183 0 0.035440516280943121 0.29844555413839979 0 0.020137794994874249 0.2927473099703915 0 0.020336227673690289 0.32045890090113183 0 0.020137794994874249 0.2927473099703915 0 0.020336227673690289 0.32045890090113183 0 0.020137794994874249 0.2927473099703915 0 0.010209922096268529 0.3014659822355169 0 0.035335655862959579 0.28380154980765537 0 0.035440516280943121 0.29844555413839979 0 0.020137794994874249 0.2927473099703915 0 0.035440516280943121 0.29844555413839979 0 0.020137794994874249 0.2927473099703915 0 0.020137794994874249 0.2927473099703915 0 0.014388475155295941 0.29060644707198668 0 0.01992807415890703 0.26345930130890138 0 0.020137794994874249 0.2927473099703915 0 0.014388475155295941 0.29060644707198668 0 0.020137794994874249 0.2927473099703915 0 0.014388475155295941 0.29060644707198668 0 0.010209922096268529 0.3014659822355169 0 -0.001308369768482999 0.29320410557187471 0 0.014388475155295941 0.29060644707198668 0 0.010209922096268529 0.3014659822355169 0 -0.001308369768482999 0.29320410557187471 0 0.014388475155295941 0.29060644707198668 0 0.0042686616650212863 0.27440264234540929 0 -0.0025045175740335168 0.31031314766219981 0 0.020336227673690289 0.32045890090113183 0 0.010209922096268529 0.3014659822355169 0 -0.0025045175740335168 0.31031314766219981 0 -0.001308369768482999 0.29320410557187471 0 0.010209922096268529 0.3014659822355169 0 0.0108212759879371 0.25143582124693198 0 0.0045166499774289158 0.26107549289106269 0 0.01992807415890703 0.26345930130890138 0 0.0108212759879371 0.25143582124693198 0 0.01992807415890703 0.26345930130890138 0 -0.004361582131907446 0.25012675423618741 0 0.0108212759879371 0.25143582124693198 0 0.0045166499774289158 0.26107549289106269 0 -0.0080731797928139601 0.26595294531788349 0 0.0045166499774289158 0.26107549289106269 0 0.0042686616650212863 0.27440264234540929 0 0.014388475155295941 0.29060644707198668 0 0.0042686616650212863 0.27440264234540929 0 0.01992807415890703 0.26345930130890138 0 0.0045166499774289158 0.26107549289106269 0 0.0042686616650212863 0.27440264234540929 0 0.01992807415890703 0.26345930130890138 0 0.020137794994874249 0.2927473099703915 0 0.01992807415890703 0.26345930130890138 0 0.035335655862959579 0.28380154980765537 0 0.020137794994874249 0.2927473099703915 0 0.01992807415890703 0.26345930130890138 0 0.035335655862959579 0.28380154980765537 0 0.01992807415890703 0.26345930130890138 0 0.019733428038529611 0.23627651218177001 0 0.0108212759879371 0.25143582124693198 0 0.01992807415890703 0.26345930130890138 0 0.032395297456559217 0.24990448186487541 0 0.01992807415890703 0.26345930130890138 0 0.043558334625058162 0.26267399305688549 0 0.049298807743375681 0.24401567068345059 0 0.032395297456559217 0.24990448186487541 0 0.043558334625058162 0.26267399305688549 0 0.035335655862959579 0.28380154980765537 0 0.01992807415890703 0.26345930130890138 0 0.043558334625058162 0.26267399305688549 0 0.035335655862959579 0.28380154980765537 0 0.043558334625058162 0.26267399305688549 0 0.057014991513141711 0.27962034081982778 0 0.043558334625058162 0.26267399305688549 0 0.057014991513141711 0.27962034081982778 0 0.068539877812152941 0.25484826761588569 0 0.049298807743375681 0.24401567068345059 0 0.043558334625058162 0.26267399305688549 0 0.068539877812152941 0.25484826761588569 0 0.068539877812152941 0.25484826761588569 0 0.094153496178737847 0.25278652485753728 0 0.068539877812152941 0.25484826761588569 0 0.094153496178737847 0.25278652485753728 0 0.094570315268327418 0.27155612350054997 0 0.076756394676448791 0.2775889904003081 0 0.087579642181032397 0.29054902922906578 0 0.094570315268327418 0.27155612350054997 0 0.068539877812152941 0.25484826761588569 0 0.076756394676448791 0.2775889904003081 0 0.094570315268327418 0.27155612350054997 0 0.057014991513141711 0.27962034081982778 0 0.068539877812152941 0.25484826761588569 0 0.076756394676448791 0.2775889904003081 0 0.076756394676448791 0.2775889904003081 0 0.068251428351683213 0.29416468787043332 0 0.087579642181032397 0.29054902922906578 0 0.057014991513141711 0.27962034081982778 0 0.076756394676448791 0.2775889904003081 0 0.068251428351683213 0.29416468787043332 0 0.077692308094581719 0.31417877058986282 0 0.050743237567011198 0.30414379830640997 0 0.068251428351683213 0.29416468787043332 0 0.077692308094581719 0.31417877058986282 0 0.050743237567011198 0.30414379830640997 0 0.077692308094581719 0.31417877058986282 0 0.068251428351683213 0.29416468787043332 0 0.087579642181032397 0.29054902922906578 0 0.077692308094581719 0.31417877058986282 0 0.087579642181032397 0.29054902922906578 0 0.1000908984509512 0.30112340397666981 0 0.087579642181032397 0.29054902922906578 0 0.1081165082442021 0.28468219903657133 0 0.1000908984509512 0.30112340397666981 0 0.1081165082442021 0.28468219903657133 0 0.1000908984509512 0.30112340397666981 0 0.1144297267004354 0.30168664743999352 0 0.087579642181032397 0.29054902922906578 0 0.1081165082442021 0.28468219903657133 0 0.094570315268327418 0.27155612350054997 0 0.077692308094581719 0.31417877058986282 0 0.1000908984509512 0.30112340397666981 0 0.103629968386694 0.31192557858664272 0 0.1000908984509512 0.30112340397666981 0 0.103629968386694 0.31192557858664272 0 0.1144297267004354 0.30168664743999352 0 0.1167242617350734 0.31677866348064548 0 0.1144297267004354 0.30168664743999352 0 0.13022117462186741 0.30154725623692402 0 0.1167242617350734 0.31677866348064548 0 0.103629968386694 0.31192557858664272 0 0.1144297267004354 0.30168664743999352 0 0.1081165082442021 0.28468219903657133 0 0.1144297267004354 0.30168664743999352 0 0.12390947864198219 0.28542069115612873 0 0.1144297267004354 0.30168664743999352 0 0.12390947864198219 0.28542069115612873 0 0.13022117462186741 0.30154725623692402 0 0.112671388523889 0.26641905049976811 0 0.123100174820058 0.26168293397560438 0 0.12910128816626559 0.2715879755468264 0 0.1081165082442021 0.28468219903657133 0 0.12390947864198219 0.28542069115612873 0 0.112671388523889 0.26641905049976811 0 0.12390947864198219 0.28542069115612873 0 0.112671388523889 0.26641905049976811 0 0.12910128816626559 0.2715879755468264 0 0.112671388523889 0.26641905049976811 0 0.123100174820058 0.26168293397560438 0 0.1197671145453226 0.2507247820991888 0 0.112671388523889 0.26641905049976811 0 0.1197671145453226 0.2507247820991888 0 0.094153496178737847 0.25278652485753728 0 0.112671388523889 0.26641905049976811 0 0.094153496178737847 0.25278652485753728 0 0.094570315268327418 0.27155612350054997 0 0.1197671145453226 0.2507247820991888 0 0.094153496178737847 0.25278652485753728 0 0.1081165082442021 0.28468219903657133 0 0.112671388523889 0.26641905049976811 0 0.094570315268327418 0.27155612350054997 0 0.1484138213405074 0.25936399499983281 0 0.14891678559523411 0.28660101817668943 0 0.16201232330786131 0.26387346548696822 0 0.1484138213405074 0.25936399499983281 0 0.1401857002278207 0.2693725498640136 0 0.14891678559523411 0.28660101817668943 0 0.1484138213405074 0.25936399499983281 0 0.14891678559523411 0.28660101817668943 0 0.15466915334416509 0.25190660019890743 0 0.1484138213405074 0.25936399499983281 0 0.16201232330786131 0.26387346548696822 0 0.1453807329119074 0.24866303934084041 0 0.15466915334416509 0.25190660019890743 0 0.1484138213405074 0.25936399499983281 0 0.1453807329119074 0.24866303934084041 0 0.1484138213405074 0.25936399499983281 0 0.13431090580927579 0.25993721073270593 0 0.1484138213405074 0.25936399499983281 0 0.13431090580927579 0.25993721073270593 0 0.1401857002278207 0.2693725498640136 0 0.1453807329119074 0.24866303934084041 0 0.1197671145453226 0.2507247820991888 0 0.13431090580927579 0.25993721073270593 0 0.123100174820058 0.26168293397560438 0 0.1197671145453226 0.2507247820991888 0 0.13431090580927579 0.25993721073270593 0 0.123100174820058 0.26168293397560438 0 0.13431090580927579 0.25993721073270593 0 0.12910128816626559 0.2715879755468264 0 0.12910128816626559 0.2715879755468264 0 0.1401857002278207 0.2693725498640136 0 0.14891678559523411 0.28660101817668943 0 0.12390947864198219 0.28542069115612873 0 0.12910128816626559 0.2715879755468264 0 0.14891678559523411 0.28660101817668943 0 0.13431090580927579 0.25993721073270593 0 0.12910128816626559 0.2715879755468264 0 0.1401857002278207 0.2693725498640136 0 0.12390947864198219 0.28542069115612873 0 0.13022117462186741 0.30154725623692402 0 0.14891678559523411 0.28660101817668943 0 0.13022117462186741 0.30154725623692402 0 0.1494197498499607 0.31383804135354598 0 0.13362732087883861 0.31825791726589631 0 0.1167242617350734 0.31677866348064548 0 0.13022117462186741 0.30154725623692402 0 0.13362732087883861 0.31825791726589631 0 0.14891678559523411 0.28660101817668943 0 0.16502192730860321 0.29833672799327199 0 0.1494197498499607 0.31383804135354598 0 0.14891678559523411 0.28660101817668943 0 0.1494197498499607 0.31383804135354598 0 0.13022117462186741 0.30154725623692402 0 0.14891678559523411 0.28660101817668943 0 0.1494197498499607 0.31383804135354598 0 0.14891678559523411 0.28660101817668943 0 0.16502192730860321 0.29833672799327199 0 0.17258825255407231 0.27567175281796641 0 0.16502192730860321 0.29833672799327199 0 0.17750724151807151 0.31691505049664243 0 0.1494197498499607 0.31383804135354598 0 0.16502192730860321 0.29833672799327199 0 0.18306544781706219 0.29535972807124689 0 0.17750724151807151 0.31691505049664243 0 0.18306544781706219 0.29535972807124689 0 0.19825331032735899 0.30649929221888439 0 0.17750724151807151 0.31691505049664243 0 0.16502192730860321 0.29833672799327199 0 0.18306544781706219 0.29535972807124689 0 0.17258825255407231 0.27567175281796641 0 0.18306544781706219 0.29535972807124689 0 0.17258825255407231 0.27567175281796641 0 0.19225514168233229 0.27637801024750158 0 0.17258825255407231 0.27567175281796641 0 0.18608903078984079 0.25995697105729071 0 0.19225514168233229 0.27637801024750158 0 0.17258825255407231 0.27567175281796641 0 0.16201232330786131 0.26387346548696822 0 0.17332134199895571 0.25758983019522791 0 0.14891678559523411 0.28660101817668943 0 0.17258825255407231 0.27567175281796641 0 0.16201232330786131 0.26387346548696822 0 0.1648484701696567 0.24744362212440471 0 0.15466915334416509 0.25190660019890743 0 0.16201232330786131 0.26387346548696822 0 0.1648484701696567 0.24744362212440471 0 0.16201232330786131 0.26387346548696822 0 0.17332134199895571 0.25758983019522791 0 0.17921266192405369 0.24485401564359771 0 0.17332134199895571 0.25758983019522791 0 0.18608903078984079 0.25995697105729071 0 0.17258825255407231 0.27567175281796641 0 0.17332134199895571 0.25758983019522791 0 0.18608903078984079 0.25995697105729071 0 0.19643052809465181 0.2433224828713732 0 0.18608903078984079 0.25995697105729071 0 0.20272625848497891 0.26192573456807738 0 0.18608903078984079 0.25995697105729071 0 0.20272625848497891 0.26192573456807738 0 0.19225514168233229 0.27637801024750158 0 0.19225514168233229 0.27637801024750158 0 0.20931999553351249 0.2747097540570328 0 0.20479240245397259 0.28930189362021808 0 0.20272625848497891 0.26192573456807738 0 0.19225514168233229 0.27637801024750158 0 0.20931999553351249 0.2747097540570328 0 0.20272625848497891 0.26192573456807738 0 0.20931999553351249 0.2747097540570328 0 0.22276706595432569 0.26722786124429282 0 0.19643052809465181 0.2433224828713732 0 0.20272625848497891 0.26192573456807738 0 0.21668623523937189 0.25273648673926968 0 0.20272625848497891 0.26192573456807738 0 0.21668623523937189 0.25273648673926968 0 0.22276706595432569 0.26722786124429282 0 0.23190300684591059 0.2469757189771403 0 0.21668623523937189 0.25273648673926968 0 0.2340167615655426 0.26024144399058702 0 0.21668623523937189 0.25273648673926968 0 0.2340167615655426 0.26024144399058702 0 0.22276706595432569 0.26722786124429282 0 0.20931999553351249 0.2747097540570328 0 0.22276706595432569 0.26722786124429282 0 0.23407023324957901 0.28358253799766081 0 0.22276706595432569 0.26722786124429282 0 0.2428012282252888 0.27040414858390061 0 0.23407023324957901 0.28358253799766081 0 0.2340167615655426 0.26024144399058702 0 0.22276706595432569 0.26722786124429282 0 0.2428012282252888 0.27040414858390061 0 0.2428012282252888 0.27040414858390061 0 0.23407023324957901 0.28358253799766081 0 0.25491758893057909 0.27951005592881761 0 0.2428012282252888 0.27040414858390061 0 0.23407023324957901 0.28358253799766081 0 0.2428012282252888 0.27040414858390061 0 0.25153222320099622 0.25722575917013901 0 0.25536006440587672 0.26878811273571068 0 0.2428012282252888 0.27040414858390061 0 0.25153222320099622 0.25722575917013901 0 0.2340167615655426 0.26024144399058702 0 0.2428012282252888 0.27040414858390061 0 0.25153222320099622 0.25722575917013901 0 0.24791323415382371 0.2458877298954085 0 0.23190300684591059 0.2469757189771403 0 0.25153222320099622 0.25722575917013901 0 0.23190300684591059 0.2469757189771403 0 0.2340167615655426 0.26024144399058702 0 0.25153222320099622 0.25722575917013901 0 0.23190300684591059 0.2469757189771403 0 0.25153222320099622 0.25722575917013901 0 0.24543399627141721 0.29887735901603257 0 0.2199905643657564 0.30483410896799212 0 0.2412863906095909 0.31706614216088019 0 0.24543399627141721 0.29887735901603257 0 0.2412863906095909 0.31706614216088019 0 0.26071219069447599 0.31197788889560879 0 0.24543399627141721 0.29887735901603257 0 0.23407023324957901 0.28358253799766081 0 0.25491758893057909 0.27951005592881761 0 0.23407023324957901 0.28358253799766081 0 0.25491758893057909 0.27951005592881761 0 0.23407023324957901 0.28358253799766081 0 0.2199905643657564 0.30483410896799212 0 0.20479240245397259 0.28930189362021808 0 0.24543399627141721 0.29887735901603257 0 0.23407023324957901 0.28358253799766081 0 0.2199905643657564 0.30483410896799212 0 0.23407023324957901 0.28358253799766081 0 0.20479240245397259 0.28930189362021808 0 0.23407023324957901 0.28358253799766081 0 0.2199905643657564 0.30483410896799212 0 0.2199905643657564 0.30483410896799212 0 0.19825331032735899 0.30649929221888439 0 0.20591089548193209 0.32608567993832238 0 0.2199905643657564 0.30483410896799212 0 0.20479240245397259 0.28930189362021808 0 0.19825331032735899 0.30649929221888439 0 0.20931999553351249 0.2747097540570328 0 0.23407023324957901 0.28358253799766081 0 0.20479240245397259 0.28930189362021808 0 0.18306544781706219 0.29535972807124689 0 0.19225514168233229 0.27637801024750158 0 0.20479240245397259 0.28930189362021808 0 0.18306544781706219 0.29535972807124689 0 0.20479240245397259 0.28930189362021808 0 0.19825331032735899 0.30649929221888439 0 0.19825331032735899 0.30649929221888439 0 0.20591089548193209 0.32608567993832238 0 0.17750724151807151 0.31691505049664243 0 0.20591089548193209 0.32608567993832238 0 0.1834453935528689 0.33477958080273051 0 0.17750724151807151 0.31691505049664243 0 0.20591089548193209 0.32608567993832238 0 0.1918312265981009 0.34733725090864831 0 0.1834453935528689 0.33477958080273051 0 0.20591089548193209 0.32608567993832238 0 0.1918312265981009 0.34733725090864831 0 0.2120062173118393 0.34341212619813682 0 0.20591089548193209 0.32608567993832238 0 0.2241124479696345 0.32285479690430968 0 0.2120062173118393 0.34341212619813682 0 0.20591089548193209 0.32608567993832238 0 0.1918312265981009 0.34733725090864831 0 0.2199905643657564 0.30483410896799212 0 0.20591089548193209 0.32608567993832238 0 0.2199905643657564 0.30483410896799212 0 0.20591089548193209 0.32608567993832238 0 0.2241124479696345 0.32285479690430968 0 0.2199905643657564 0.30483410896799212 0 0.2241124479696345 0.32285479690430968 0 0.2412863906095909 0.31706614216088019 0 0.2241124479696345 0.32285479690430968 0 0.23218120802557979 0.3394870014876365 0 0.2412863906095909 0.31706614216088019 0 0.2120062173118393 0.34341212619813682 0 0.2241124479696345 0.32285479690430968 0 0.23218120802557979 0.3394870014876365 0 0.2120062173118393 0.34341212619813682 0 0.23218120802557979 0.3394870014876365 0 0.23218120802557979 0.3394870014876365 0 0.2412863906095909 0.31706614216088019 0 0.25235619873932041 0.33556187677713623 0 0.23218120802557979 0.3394870014876365 0 0.25235619873932041 0.33556187677713623 0 0.23218120802557979 0.3394870014876365 0 0.2438273554430464 0.34812574592335249 0 0.25235619873932041 0.33556187677713623 0 0.2412863906095909 0.31706614216088019 0 0.25496362040665271 0.32267745764425643 0 0.25235619873932041 0.33556187677713623 0 0.2444030594993066 0.36261468031945582 0 0.22630598985240971 0.37543582988375418 0 0.247713784970646 0.38075050805242922 0 0.2444030594993066 0.36261468031945582 0 0.22630598985240971 0.37543582988375418 0 0.2444030594993066 0.36261468031945582 0 0.247713784970646 0.38075050805242922 0 0.25490457918629872 0.37507349251653871 0 0.2444030594993066 0.36261468031945582 0 0.2438273554430464 0.34812574592335249 0 0.25711451900508148 0.35258648987221092 0 0.23218120802557979 0.3394870014876365 0 0.2438273554430464 0.34812574592335249 0 0.2288636426087374 0.35578594420060722 0 0.2444030594993066 0.36261468031945582 0 0.2438273554430464 0.34812574592335249 0 0.2288636426087374 0.35578594420060722 0 0.2120062173118393 0.34341212619813682 0 0.23218120802557979 0.3394870014876365 0 0.2288636426087374 0.35578594420060722 0 0.2444030594993066 0.36261468031945582 0 0.2288636426087374 0.35578594420060722 0 0.22630598985240971 0.37543582988375418 0 0.2288636426087374 0.35578594420060722 0 0.21324276167256731 0.36206450472990792 0 0.22630598985240971 0.37543582988375418 0 0.21324276167256731 0.36206450472990792 0 0.19654986060048771 0.37047802484019998 0 0.20820892020551271 0.38825697944805271 0 0.2120062173118393 0.34341212619813682 0 0.2288636426087374 0.35578594420060722 0 0.21324276167256731 0.36206450472990792 0 0.2120062173118393 0.34341212619813682 0 0.21324276167256731 0.36206450472990792 0 0.1918312265981009 0.34733725090864831 0 0.2120062173118393 0.34341212619813682 0 0.1918312265981009 0.34733725090864831 0 0.1918312265981009 0.34733725090864831 0 0.19654986060048771 0.37047802484019998 0 0.1753588575145448 0.37220031576602253 0 0.21324276167256731 0.36206450472990792 0 0.1918312265981009 0.34733725090864831 0 0.19654986060048771 0.37047802484019998 0 0.1918312265981009 0.34733725090864831 0 0.1753588575145448 0.37220031576602253 0 0.1731188016947007 0.36781558424519839 0 0.1753588575145448 0.37220031576602253 0 0.1802318714797885 0.35236122573149797 0 0.1731188016947007 0.36781558424519839 0 0.167364966647951 0.35975083588178058 0 0.1802318714797885 0.35236122573149797 0 0.1731188016947007 0.36781558424519839 0 0.1753588575145448 0.37220031576602253 0 0.1731188016947007 0.36781558424519839 0 0.1753588575145448 0.37220031576602253 0 0.16523354001105911 0.37409983959611109 0 0.1731188016947007 0.36781558424519839 0 0.16523354001105911 0.37409983959611109 0 0.1662459251842697 0.36710584608423269 0 0.167364966647951 0.35975083588178058 0 0.15926639238336801 0.36675712461384091 0 0.15018796347142391 0.35543911342959528 0 0.167364966647951 0.35975083588178058 0 0.1662459251842697 0.36710584608423269 0 0.15926639238336801 0.36675712461384091 0 0.1731188016947007 0.36781558424519839 0 0.167364966647951 0.35975083588178058 0 0.1662459251842697 0.36710584608423269 0 0.16523354001105911 0.37409983959611109 0 0.15926639238336801 0.36675712461384091 0 0.15062115634747231 0.37889780715207888 0 0.16523354001105911 0.37409983959611109 0 0.1662459251842697 0.36710584608423269 0 0.15926639238336801 0.36675712461384091 0 0.1753506460241005 0.35054361342806389 0 0.14992271410468949 0.34107506453040248 0 0.167364966647951 0.35975083588178058 0 0.1753506460241005 0.35054361342806389 0 0.15018796347142391 0.35543911342959528 0 0.1753506460241005 0.35054361342806389 0 0.14992271410468949 0.34107506453040248 0 0.15018796347142391 0.35543911342959528 0 0.1753506460241005 0.35054361342806389 0 0.15018796347142391 0.35543911342959528 0 0.1918312265981009 0.34733725090864831 0 0.1753506460241005 0.35054361342806389 0 0.1918312265981009 0.34733725090864831 0 0.1753506460241005 0.35054361342806389 0 0.1834453935528689 0.33477958080273051 0 0.1918312265981009 0.34733725090864831 0 0.1753506460241005 0.35054361342806389 0 0.1802318714797885 0.35236122573149797 0 0.1918312265981009 0.34733725090864831 0 0.1753588575145448 0.37220031576602253 0 0.1802318714797885 0.35236122573149797 0 0.1753506460241005 0.35054361342806389 0 0.1802318714797885 0.35236122573149797 0 0.167364966647951 0.35975083588178058 0 0.1753506460241005 0.35054361342806389 0 0.1802318714797885 0.35236122573149797 0 0.1753506460241005 0.35054361342806389 0 0.1834453935528689 0.33477958080273051 0 0.1666269581421321 0.33301630924197367 0 0.1834453935528689 0.33477958080273051 0 0.17750724151807151 0.31691505049664243 0 0.1666269581421321 0.33301630924197367 0 0.17750724151807151 0.31691505049664243 0 0.1666269581421321 0.33301630924197367 0 0.1494197498499607 0.31383804135354598 0 0.1753506460241005 0.35054361342806389 0 0.1666269581421321 0.33301630924197367 0 0.14992271410468949 0.34107506453040248 0 0.1666269581421321 0.33301630924197367 0 0.14992271410468949 0.34107506453040248 0 0.1494197498499607 0.31383804135354598 0 0.14992271410468949 0.34107506453040248 0 0.1494197498499607 0.31383804135354598 0 0.14992271410468949 0.34107506453040248 0 0.1494197498499607 0.31383804135354598 0 0.13362732087883861 0.31825791726589631 0 0.1167242617350734 0.31677866348064548 0 0.13362732087883861 0.31825791726589631 0 0.12728204636342119 0.33264440370185788 0 0.14992271410468949 0.34107506453040248 0 0.13362732087883861 0.31825791726589631 0 0.12728204636342119 0.33264440370185788 0 0.14992271410468949 0.34107506453040248 0 0.12728204636342119 0.33264440370185788 0 0.1327104347709552 0.34833671648866182 0 0.14992271410468949 0.34107506453040248 0 0.12728204636342119 0.33264440370185788 0 0.12728204636342119 0.33264440370185788 0 0.12565642337597641 0.34531162420386119 0 0.1327104347709552 0.34833671648866182 0 0.1207019799918789 0.36117572882690419 0 0.1327104347709552 0.34833671648866182 0 0.15018796347142391 0.35543911342959528 0 0.12020614592151201 0.35183052892485178 0 0.12565642337597641 0.34531162420386119 0 0.1327104347709552 0.34833671648866182 0 0.1207019799918789 0.36117572882690419 0 0.15018796347142391 0.35543911342959528 0 0.1207019799918789 0.36117572882690419 0 0.13593835547877689 0.36822566204290602 0 0.15018796347142391 0.35543911342959528 0 0.1207019799918789 0.36117572882690419 0 0.1269429757455281 0.3700741961410311 0 0.13593835547877689 0.36822566204290602 0 0.1269429757455281 0.3700741961410311 0 0.13593835547877689 0.36822566204290602 0 0.12936302614305781 0.3806702380723882 0 0.13593835547877689 0.36822566204290602 0 0.15018796347142391 0.35543911342959528 0 0.15062115634747231 0.37889780715207888 0 0.15018796347142391 0.35543911342959528 0 0.15062115634747231 0.37889780715207888 0 0.15926639238336801 0.36675712461384091 0 0.15018796347142391 0.35543911342959528 0 0.15062115634747231 0.37889780715207888 0 0.14992271410468949 0.34107506453040248 0 0.1327104347709552 0.34833671648866182 0 0.15018796347142391 0.35543911342959528 0 0.14992271410468949 0.34107506453040248 0 0.15018796347142391 0.35543911342959528 0 0.14138495384440489 0.39322107909200571 0 0.1317921164680903 0.40545952647836342 0 0.15222999220591241 0.40711056306127658 0 0.14138495384440489 0.39322107909200571 0 0.15222999220591241 0.40711056306127658 0 0.16379442486022849 0.38965543941364961 0 0.14138495384440489 0.39322107909200571 0 0.15062115634747231 0.37889780715207888 0 0.16379442486022849 0.38965543941364961 0 0.13593835547877689 0.36822566204290602 0 0.15062115634747231 0.37889780715207888 0 0.12936302614305781 0.3806702380723882 0 0.14138495384440489 0.39322107909200571 0 0.15062115634747231 0.37889780715207888 0 0.12936302614305781 0.3806702380723882 0 0.12302526621810631 0.39483339242702431 0 0.14138495384440489 0.39322107909200571 0 0.12936302614305781 0.3806702380723882 0 0.12302526621810631 0.39483339242702431 0 0.14138495384440489 0.39322107909200571 0 0.1317921164680903 0.40545952647836342 0 0.1238244133614653 0.41259348140785829 0 0.11966152561727041 0.40521647558469348 0 0.1317921164680903 0.40545952647836342 0 0.1238244133614653 0.41259348140785829 0 0.1317921164680903 0.40545952647836342 0 0.13391702338258271 0.41648007558095218 0 0.1317921164680903 0.40545952647836342 0 0.13391702338258271 0.41648007558095218 0 0.15222999220591241 0.40711056306127658 0 0.1206950902667107 0.42206632785564402 0 0.1238244133614653 0.41259348140785829 0 0.13391702338258271 0.41648007558095218 0 0.14066555955159241 0.42456568670890099 0 0.128144127290927 0.44346528644618949 0 0.13429496844172059 0.42708486797366702 0 0.14066555955159241 0.42456568670890099 0 0.128144127290927 0.44346528644618949 0 0.14066555955159241 0.42456568670890099 0 0.1468621194973313 0.4432032004000479 0 0.128144127290927 0.44346528644618949 0 0.1206950902667107 0.42206632785564402 0 0.13391702338258271 0.41648007558095218 0 0.13429496844172059 0.42708486797366702 0 0.13391702338258271 0.41648007558095218 0 0.13429496844172059 0.42708486797366702 0 0.14066555955159241 0.42456568670890099 0 0.13429496844172059 0.42708486797366702 0 0.14066555955159241 0.42456568670890099 0 0.14066555955159241 0.42456568670890099 0 0.16808955766080291 0.41960022257260449 0 0.15915405200730839 0.43380743940711708 0 0.14066555955159241 0.42456568670890099 0 0.16808955766080291 0.41960022257260449 0 0.14066555955159241 0.42456568670890099 0 0.15915405200730839 0.43380743940711708 0 0.1468621194973313 0.4432032004000479 0 0.14066555955159241 0.42456568670890099 0 0.15222999220591241 0.40711056306127658 0 0.14066555955159241 0.42456568670890099 0 0.15222999220591241 0.40711056306127658 0 0.16201542307939579 0.41612311438285787 0 0.14066555955159241 0.42456568670890099 0 0.16201542307939579 0.41612311438285787 0 0.13391702338258271 0.41648007558095218 0 0.14066555955159241 0.42456568670890099 0 0.15222999220591241 0.40711056306127658 0 0.16201542307939579 0.41612311438285787 0 0.16941052998224071 0.40948279892878392 0 0.18336528660720119 0.40768054205682042 0 0.16808955766080291 0.41960022257260449 0 0.16201542307939579 0.41612311438285787 0 0.18336528660720119 0.40768054205682042 0 0.14066555955159241 0.42456568670890099 0 0.16808955766080291 0.41960022257260449 0 0.16201542307939579 0.41612311438285787 0 0.15222999220591241 0.40711056306127658 0 0.16201542307939579 0.41612311438285787 0 0.1623232745498161 0.40583988766108697 0 0.16201542307939579 0.41612311438285787 0 0.16941052998224071 0.40948279892878392 0 0.1623232745498161 0.40583988766108697 0 0.16808955766080291 0.41960022257260449 0 0.15915405200730839 0.43380743940711708 0 0.1766721112776041 0.43405941705504181 0 0.18398920852212189 0.42222731617319992 0 0.1766721112776041 0.43405941705504181 0 0.19310721835761019 0.42992761007563862 0 0.16808955766080291 0.41960022257260449 0 0.18398920852212189 0.42222731617319992 0 0.1766721112776041 0.43405941705504181 0 0.1766721112776041 0.43405941705504181 0 0.19310721835761019 0.42992761007563862 0 0.189468296445607 0.44161966517716561 0 0.16808955766080291 0.41960022257260449 0 0.18398920852212189 0.42222731617319992 0 0.19637406676339619 0.41333592033168631 0 0.16201542307939579 0.41612311438285787 0 0.18336528660720119 0.40768054205682042 0 0.16808955766080291 0.41960022257260449 0 0.19637406676339619 0.41333592033168631 0 0.16808955766080291 0.41960022257260449 0 0.18336528660720119 0.40768054205682042 0 0.19637406676339619 0.41333592033168631 0 0.16941052998224071 0.40948279892878392 0 0.18336528660720119 0.40768054205682042 0 0.18177969473327391 0.40698117398671069 0 0.16941052998224071 0.40948279892878392 0 0.18177969473327391 0.40698117398671069 0 0.17544170441619431 0.40324048585703531 0 0.17550339911694879 0.39641485139935639 0 0.16379442486022849 0.38965543941364961 0 0.18273535403657959 0.38663922238918558 0 0.18177969473327391 0.40698117398671069 0 0.18171278421578699 0.39924093208501849 0 0.19011185055861429 0.40107812901234902 0 0.18336528660720119 0.40768054205682042 0 0.18177969473327391 0.40698117398671069 0 0.19011185055861429 0.40107812901234902 0 0.18177969473327391 0.40698117398671069 0 0.19011185055861429 0.40107812901234902 0 0.18171278421578699 0.39924093208501849 0 0.17550339911694879 0.39641485139935639 0 0.18273535403657959 0.38663922238918558 0 0.18171278421578699 0.39924093208501849 0 0.18273535403657959 0.38663922238918558 0 0.19011185055861429 0.40107812901234902 0 0.18273535403657959 0.38663922238918558 0 0.19011185055861429 0.40107812901234902 0 0.18177969473327391 0.40698117398671069 0 0.18171278421578699 0.39924093208501849 0 0.17544170441619431 0.40324048585703531 0 0.18171278421578699 0.39924093208501849 0 0.17550339911694879 0.39641485139935639 0 0.17544170441619431 0.40324048585703531 0 0.17550339911694879 0.39641485139935639 0 0.17544170441619431 0.40324048585703531 0 0.1689722959232661 0.40169126431279728 0 0.16941052998224071 0.40948279892878392 0 0.17544170441619431 0.40324048585703531 0 0.1689722959232661 0.40169126431279728 0 0.1689722959232661 0.40169126431279728 0 0.1623232745498161 0.40583988766108697 0 0.16379442486022849 0.38965543941364961 0 0.15222999220591241 0.40711056306127658 0 0.1623232745498161 0.40583988766108697 0 0.16379442486022849 0.38965543941364961 0 0.15222999220591241 0.40711056306127658 0 0.16379442486022849 0.38965543941364961 0 0.16941052998224071 0.40948279892878392 0 0.1689722959232661 0.40169126431279728 0 0.1623232745498161 0.40583988766108697 0 0.17550339911694879 0.39641485139935639 0 0.1689722959232661 0.40169126431279728 0 0.16379442486022849 0.38965543941364961 0 0.1753588575145448 0.37220031576602253 0 0.16523354001105911 0.37409983959611109 0 0.16379442486022849 0.38965543941364961 0 0.1753588575145448 0.37220031576602253 0 0.16379442486022849 0.38965543941364961 0 0.16523354001105911 0.37409983959611109 0 0.15062115634747231 0.37889780715207888 0 0.16379442486022849 0.38965543941364961 0 0.1753588575145448 0.37220031576602253 0 0.18273535403657959 0.38663922238918558 0 0.1753588575145448 0.37220031576602253 0 0.16379442486022849 0.38965543941364961 0 0.18273535403657959 0.38663922238918558 0 0.19654986060048771 0.37047802484019998 0 0.1753588575145448 0.37220031576602253 0 0.18273535403657959 0.38663922238918558 0 0.19654986060048771 0.37047802484019998 0 0.18273535403657959 0.38663922238918558 0 0.20820892020551271 0.38825697944805271 0 0.19011185055861429 0.40107812901234902 0 0.20820892020551271 0.38825697944805271 0 0.19011185055861429 0.40107812901234902 0 0.20429538739721931 0.40183734425620671 0 0.20820892020551271 0.38825697944805271 0 0.18273535403657959 0.38663922238918558 0 0.19011185055861429 0.40107812901234902 0 0.20820892020551271 0.38825697944805271 0 0.19011185055861429 0.40107812901234902 0 0.20429538739721931 0.40183734425620671 0 0.19637406676339619 0.41333592033168631 0 0.20429538739721931 0.40183734425620671 0 0.20820892020551271 0.38825697944805271 0 0.2202735525657262 0.39552406566479109 0 0.20429538739721931 0.40183734425620671 0 0.2202735525657262 0.39552406566479109 0 0.2145024493426794 0.40932094283274068 0 0.21324276167256731 0.36206450472990792 0 0.20820892020551271 0.38825697944805271 0 0.22630598985240971 0.37543582988375418 0 0.20820892020551271 0.38825697944805271 0 0.22630598985240971 0.37543582988375418 0 0.20820892020551271 0.38825697944805271 0 0.22630598985240971 0.37543582988375418 0 0.2202735525657262 0.39552406566479109 0 0.22630598985240971 0.37543582988375418 0 0.2319341774640927 0.38940141535347877 0 0.2202735525657262 0.39552406566479109 0 0.2202735525657262 0.39552406566479109 0 0.23263083192196299 0.40530596533379709 0 0.2145024493426794 0.40932094283274068 0 0.2319341774640927 0.38940141535347877 0 0.2202735525657262 0.39552406566479109 0 0.23263083192196299 0.40530596533379709 0 0.2386671862694576 0.40396906576347452 0 0.24985329529781791 0.39990667252734718 0 0.247713784970646 0.38075050805242922 0 0.2319341774640927 0.38940141535347877 0 0.23263083192196299 0.40530596533379709 0 0.247713784970646 0.38075050805242922 0 0.23263083192196299 0.40530596533379709 0 0.247713784970646 0.38075050805242922 0 0.23263083192196299 0.40530596533379709 0 0.2386671862694576 0.40396906576347452 0 0.247713784970646 0.38075050805242922 0 0.23263083192196299 0.40530596533379709 0 0.2386671862694576 0.40396906576347452 0 0.23263083192196299 0.40530596533379709 0 0.2386671862694576 0.40396906576347452 0 0.23835521004243199 0.40923349084829558 0 0.2386671862694576 0.40396906576347452 0 0.24985329529781791 0.39990667252734718 0 0.23835521004243199 0.40923349084829558 0 0.22630598985240971 0.37543582988375418 0 0.2319341774640927 0.38940141535347877 0 0.247713784970646 0.38075050805242922 0 0.2385665307870003 0.42747740564887549 0 0.25702987725108101 0.42925349536772212 0 0.2385665307870003 0.42747740564887549 0 0.2488221034234695 0.4223051763495565 0 0.25702987725108101 0.42925349536772212 0 0.2385665307870003 0.42747740564887549 0 0.2448364132796593 0.44231000148378752 0 0.25702987725108101 0.42925349536772212 0 0.2385665307870003 0.42747740564887549 0 0.2406669044851476 0.42214558790778223 0 0.2368791315523423 0.42061341875551328 0 0.2385665307870003 0.42747740564887549 0 0.2406669044851476 0.42214558790778223 0 0.2488221034234695 0.4223051763495565 0 0.24985329529781791 0.39990667252734718 0 0.2383998521777784 0.41818635087718381 0 0.24985329529781791 0.39990667252734718 0 0.23835521004243199 0.40923349084829558 0 0.2383998521777784 0.41818635087718381 0 0.24985329529781791 0.39990667252734718 0 0.2383998521777784 0.41818635087718381 0 0.25380059083303341 0.40846212201461762 0 0.2406669044851476 0.42214558790778223 0 0.2488221034234695 0.4223051763495565 0 0.2383998521777784 0.41818635087718381 0 0.23835521004243199 0.40923349084829558 0 0.2350244704201927 0.41211241555610317 0 0.2383998521777784 0.41818635087718381 0 0.23263083192196299 0.40530596533379709 0 0.23835521004243199 0.40923349084829558 0 0.2350244704201927 0.41211241555610317 0 0.2406669044851476 0.42214558790778223 0 0.2383998521777784 0.41818635087718381 0 0.2368791315523423 0.42061341875551328 0 0.2350244704201927 0.41211241555610317 0 0.2383998521777784 0.41818635087718381 0 0.23071198753859651 0.41572385516513549 0 0.2383998521777784 0.41818635087718381 0 0.2368791315523423 0.42061341875551328 0 0.2383998521777784 0.41818635087718381 0 0.2368791315523423 0.42061341875551328 0 0.22312475613875049 0.42078211493492951 0 0.23263083192196299 0.40530596533379709 0 0.2145024493426794 0.40932094283274068 0 0.23263083192196299 0.40530596533379709 0 0.22312475613875049 0.42078211493492951 0 0.2145024493426794 0.40932094283274068 0 0.2383998521777784 0.41818635087718381 0 0.22312475613875049 0.42078211493492951 0 0.2383998521777784 0.41818635087718381 0 0.23071198753859651 0.41572385516513549 0 0.22312475613875049 0.42078211493492951 0 0.23263083192196299 0.40530596533379709 0 0.2350244704201927 0.41211241555610317 0 0.23071198753859651 0.41572385516513549 0 0.23263083192196299 0.40530596533379709 0 0.23071198753859651 0.41572385516513549 0 0.22312475613875049 0.42078211493492951 0 0.23263083192196299 0.40530596533379709 0 0.22312475613875049 0.42078211493492951 0 0.2385665307870003 0.42747740564887549 0 0.2201031843229195 0.42570131593002969 0 0.2201031843229195 0.42570131593002969 0 0.21059740683120351 0.44117697990449289 0 0.23005064234993169 0.44460645584696262 0 0.2385665307870003 0.42747740564887549 0 0.22312475613875049 0.42078211493492951 0 0.2201031843229195 0.42570131593002969 0 0.22312475613875049 0.42078211493492951 0 0.2201031843229195 0.42570131593002969 0 0.2385665307870003 0.42747740564887549 0 0.2201031843229195 0.42570131593002969 0 0.23005064234993169 0.44460645584696262 0 0.2385665307870003 0.42747740564887549 0 0.2368791315523423 0.42061341875551328 0 0.22312475613875049 0.42078211493492951 0 0.22312475613875049 0.42078211493492951 0 0.2201031843229195 0.42570131593002969 0 0.20354836167302259 0.42410881749736329 0 0.20096476004407141 0.4356284052502909 0 0.202011140198494 0.4243700442839049 0 0.21059740683120351 0.44117697990449289 0 0.20354836167302259 0.42410881749736329 0 0.202011140198494 0.4243700442839049 0 0.21059740683120351 0.44117697990449289 0 0.2201031843229195 0.42570131593002969 0 0.21059740683120351 0.44117697990449289 0 0.2201031843229195 0.42570131593002969 0 0.20354836167302259 0.42410881749736329 0 0.21059740683120351 0.44117697990449289 0 0.2201031843229195 0.42570131593002969 0 0.20354836167302259 0.42410881749736329 0 0.202011140198494 0.4243700442839049 0 0.21059740683120351 0.44117697990449289 0 0.22312475613875049 0.42078211493492951 0 0.20354836167302259 0.42410881749736329 0 0.2145024493426794 0.40932094283274068 0 0.19637406676339619 0.41333592033168631 0 0.22312475613875049 0.42078211493492951 0 0.20354836167302259 0.42410881749736329 0 0.2145024493426794 0.40932094283274068 0 0.20429538739721931 0.40183734425620671 0 0.2145024493426794 0.40932094283274068 0 0.19637406676339619 0.41333592033168631 0 0.20354836167302259 0.42410881749736329 0 0.2145024493426794 0.40932094283274068 0 0.19637406676339619 0.41333592033168631 0 0.18398920852212189 0.42222731617319992 0 0.19637406676339619 0.41333592033168631 0 0.202011140198494 0.4243700442839049 0 0.20354836167302259 0.42410881749736329 0 0.19637406676339619 0.41333592033168631 0 0.202011140198494 0.4243700442839049 0 0.19637406676339619 0.41333592033168631 0 0.202011140198494 0.4243700442839049 0 0.19011185055861429 0.40107812901234902 0 0.19637406676339619 0.41333592033168631 0 0.18336528660720119 0.40768054205682042 0 0.19011185055861429 0.40107812901234902 0 0.19637406676339619 0.41333592033168631 0 0.18398920852212189 0.42222731617319992 0 0.202011140198494 0.4243700442839049 0 0.19310721835761019 0.42992761007563862 0 0.18398920852212189 0.42222731617319992 0 0.202011140198494 0.4243700442839049 0 0.20096476004407141 0.4356284052502909 0 0.19931207414017729 0.42860996549168562 0 0.19310721835761019 0.42992761007563862 0 0.19931207414017729 0.42860996549168562 0 0.202011140198494 0.4243700442839049 0 0.19310721835761019 0.42992761007563862 0 0.20096476004407141 0.4356284052502909 0 0.19931207414017729 0.42860996549168562 0 0.202011140198494 0.4243700442839049 0 0.20354836167302259 0.42410881749736329 0 0.202011140198494 0.4243700442839049 0 0.20096476004407141 0.4356284052502909 0 0.19310721835761019 0.42992761007563862 0 0.189468296445607 0.44161966517716561 0 0.189468296445607 0.44161966517716561 0 0.19808345402660399 0.44429013419941671 0 0.18816718916202771 0.45764189265325561 0 0.19808345402660399 0.44429013419941671 0 0.18816718916202771 0.45764189265325561 0 0.20509446468425149 0.45013591920339668 0 0.20096476004407141 0.4356284052502909 0 0.189468296445607 0.44161966517716561 0 0.19808345402660399 0.44429013419941671 0 0.18816718916202771 0.45764189265325561 0 0.2005182123172754 0.46504183791057307 0 0.20509446468425149 0.45013591920339668 0 0.18816718916202771 0.45764189265325561 0 0.2005182123172754 0.46504183791057307 0 0.18719455148605621 0.47613314112345201 0 0.2103116034304838 0.4602104470792151 0 0.21059740683120351 0.44117697990449289 0 0.22229140550900001 0.46406705440744211 0 0.2103116034304838 0.4602104470792151 0 0.22229140550900001 0.46406705440744211 0 0.21058997783642669 0.48154513501692131 0 0.2005182123172754 0.46504183791057307 0 0.2103116034304838 0.4602104470792151 0 0.20509446468425149 0.45013591920339668 0 0.21059740683120351 0.44117697990449289 0 0.22229140550900001 0.46406705440744211 0 0.2103116034304838 0.4602104470792151 0 0.21059740683120351 0.44117697990449289 0 0.20509446468425149 0.45013591920339668 0 0.20096476004407141 0.4356284052502909 0 0.19808345402660399 0.44429013419941671 0 0.21059740683120351 0.44117697990449289 0 0.19808345402660399 0.44429013419941671 0 0.21059740683120351 0.44117697990449289 0 0.20509446468425149 0.45013591920339668 0 0.21059740683120351 0.44117697990449289 0 0.20509446468425149 0.45013591920339668 0 0.21059740683120351 0.44117697990449289 0 0.23005064234993169 0.44460645584696262 0 0.22229140550900001 0.46406705440744211 0 0.23005064234993169 0.44460645584696262 0 0.22229140550900001 0.46406705440744211 0 0.24184120684035099 0.4581976946154846 0 0.22229140550900001 0.46406705440744211 0 0.24184120684035099 0.4581976946154846 0 0.24193409961780649 0.47367643658526698 0 0.24184120684035099 0.4581976946154846 0 0.2448364132796593 0.44231000148378752 0 0.25709847220363119 0.45283566357848187 0 0.23005064234993169 0.44460645584696262 0 0.24184120684035099 0.4581976946154846 0 0.2448364132796593 0.44231000148378752 0 0.2385665307870003 0.42747740564887549 0 0.23005064234993169 0.44460645584696262 0 0.2448364132796593 0.44231000148378752 0 0.24064869911215761 0.50000000000000244 0 0.24324303354975521 0.48909866857844392 0 0.2572356621087325 0.50000000000000155 0 0.24324303354975521 0.48909866857844392 0 0.2339854041867972 0.48695712891039089 0 0.24064869911215761 0.50000000000000244 0 0.24324303354975521 0.48909866857844392 0 0.2339854041867972 0.48695712891039089 0 0.24064869911215761 0.50000000000000244 0 0.2339854041867972 0.48695712891039089 0 0.24184120684035099 0.4581976946154846 0 0.24193409961780649 0.47367643658526698 0 0.25716706715618193 0.47641783178924169 0 0.24324303354975521 0.48909866857844392 0 0.24193409961780649 0.47367643658526698 0 0.25716706715618193 0.47641783178924169 0 0.24324303354975521 0.48909866857844392 0 0.24193409961780649 0.47367643658526698 0 0.2339854041867972 0.48695712891039089 0 0.22229140550900001 0.46406705440744211 0 0.24193409961780649 0.47367643658526698 0 0.2339854041867972 0.48695712891039089 0 0.22229140550900001 0.46406705440744211 0 0.2339854041867972 0.48695712891039089 0 0.22229140550900001 0.46406705440744211 0 0.2339854041867972 0.48695712891039089 0 0.21058997783642669 0.48154513501692131 0 0.2339854041867972 0.48695712891039089 0 0.21058997783642669 0.48154513501692131 0 0.2339854041867972 0.48695712891039089 0 0.21314400247467591 0.5 0 0.21058997783642669 0.48154513501692131 0 0.24064869911215761 0.50000000000000244 0 0.2339854041867972 0.48695712891039089 0 0.21314400247467591 0.5 0 0.21314400247467591 0.5 0 0.21058997783642669 0.48154513501692131 0 0.19841687033665559 0.48922266484742172 0 0.2005182123172754 0.46504183791057307 0 0.2103116034304838 0.4602104470792151 0 0.21058997783642669 0.48154513501692131 0 0.21058997783642669 0.48154513501692131 0 0.18719455148605621 0.47613314112345201 0 0.21058997783642669 0.48154513501692131 0 0.19841687033665559 0.48922266484742172 0 0.18719455148605621 0.47613314112345201 0 0.2005182123172754 0.46504183791057307 0 0.21058997783642669 0.48154513501692131 0 0.18719455148605621 0.47613314112345201 0 0.21314400247467591 0.5 0 0.19841687033665559 0.48922266484742172 0 0.18563930583719421 0.5 0 0.19841687033665559 0.48922266484742172 0 0.18563930583719421 0.5 0 0.18719455148605621 0.47613314112345201 0 0.18563930583719421 0.5 0 0.17133697046385701 0.48683307990629038 0 0.18719455148605621 0.47613314112345201 0 0.17133697046385701 0.48683307990629038 0 0.15813460919971251 0.5 0 0.1479106042039405 0.48283460682922269 0 0.18563930583719421 0.5 0 0.17133697046385701 0.48683307990629038 0 0.15813460919971251 0.5 0 0.17133697046385701 0.48683307990629038 0 0.16379912513568581 0.47072114722998237 0 0.1479106042039405 0.48283460682922269 0 0.17133697046385701 0.48683307990629038 0 0.16379912513568581 0.47072114722998237 0 0.18719455148605621 0.47613314112345201 0 0.16379912513568581 0.47072114722998237 0 0.18719455148605621 0.47613314112345201 0 0.18816718916202771 0.45764189265325561 0 0.16379912513568581 0.47072114722998237 0 0.18719455148605621 0.47613314112345201 0 0.18816718916202771 0.45764189265325561 0 0.16379912513568581 0.47072114722998237 0 0.1764896290127039 0.45007039086196288 0 0.1766721112776041 0.43405941705504181 0 0.1764896290127039 0.45007039086196288 0 0.16434142304259489 0.44630983219436898 0 0.189468296445607 0.44161966517716561 0 0.18816718916202771 0.45764189265325561 0 0.1764896290127039 0.45007039086196288 0 0.1766721112776041 0.43405941705504181 0 0.189468296445607 0.44161966517716561 0 0.1764896290127039 0.45007039086196288 0 0.15915405200730839 0.43380743940711708 0 0.1766721112776041 0.43405941705504181 0 0.16434142304259489 0.44630983219436898 0 0.15915405200730839 0.43380743940711708 0 0.16434142304259489 0.44630983219436898 0 0.1468621194973313 0.4432032004000479 0 0.16379912513568581 0.47072114722998237 0 0.1764896290127039 0.45007039086196288 0 0.16434142304259489 0.44630983219436898 0 0.16379912513568581 0.47072114722998237 0 0.16434142304259489 0.44630983219436898 0 0.15386760244336481 0.45613183796281243 0 0.16379912513568581 0.47072114722998237 0 0.15386760244336481 0.45613183796281243 0 0.14046774209784721 0.46429317202685039 0 0.15386760244336481 0.45613183796281243 0 0.1468621194973313 0.4432032004000479 0 0.14046774209784721 0.46429317202685039 0 0.16434142304259489 0.44630983219436898 0 0.15386760244336481 0.45613183796281243 0 0.1468621194973313 0.4432032004000479 0 0.1468621194973313 0.4432032004000479 0 0.128144127290927 0.44346528644618949 0 0.14046774209784721 0.46429317202685039 0 0.11648320602364499 0.46106604807885698 0 0.128144127290927 0.44346528644618949 0 0.14046774209784721 0.46429317202685039 0 0.11648320602364499 0.46106604807885698 0 0.14046774209784721 0.46429317202685039 0 0.12567845600013469 0.47929569400969452 0 0.14046774209784721 0.46429317202685039 0 0.12567845600013469 0.47929569400969452 0 0.1479106042039405 0.48283460682922269 0 0.12567845600013469 0.47929569400969452 0 0.1306299125622308 0.5 0 0.1479106042039405 0.48283460682922269 0 0.15813460919971251 0.5 0 0.1306299125622308 0.5 0 0.1479106042039405 0.48283460682922269 0 0.16379912513568581 0.47072114722998237 0 0.14046774209784721 0.46429317202685039 0 0.1479106042039405 0.48283460682922269 0 0.34528538451660062 0.47773379418631268 0 0.36004097027348331 0.48461391470660581 0 0.33995603526071178 0.48633656933393699 0 0.3490806650621458 0.46922782941321262 0 0.36004097027348331 0.48461391470660581 0 0.36717500093372668 0.46757054210475929 0 0.3490806650621458 0.46922782941321262 0 0.36004097027348331 0.48461391470660581 0 0.3490806650621458 0.46922782941321262 0 0.34528538451660062 0.47773379418631268 0 0.36004097027348331 0.48461391470660581 0 0.34701069105550569 0.5 0 0.36004097027348331 0.48461391470660581 0 0.33995603526071178 0.48633656933393699 0 0.34701069105550569 0.5 0 0.36004097027348331 0.48461391470660581 0 0.37100127548482031 0.49999999999999922 0 0.36004097027348331 0.48461391470660581 0 0.37100127548482031 0.49999999999999922 0 0.37501723488010369 0.48021086780116401 0 0.36004097027348331 0.48461391470660581 0 0.37100127548482031 0.49999999999999922 0 0.36004097027348331 0.48461391470660581 0 0.36717500093372668 0.46757054210475929 0 0.37501723488010369 0.48021086780116401 0 0.37143629651032872 0.45720686114999193 0 0.36367632925015653 0.45252291112370391 0 0.35567836915472589 0.45678778088016703 0 0.36415499449082389 0.46121224231392488 0 0.37143629651032872 0.45720686114999193 0 0.38198070339643708 0.45705904394289942 0 0.36415499449082389 0.46121224231392488 0 0.37143629651032872 0.45720686114999193 0 0.35567836915472589 0.45678778088016703 0 0.36415499449082389 0.46121224231392488 0 0.36717500093372668 0.46757054210475929 0 0.38198070339643708 0.45705904394289942 0 0.36415499449082389 0.46121224231392488 0 0.38198070339643708 0.45705904394289942 0 0.3490806650621458 0.46922782941321262 0 0.36415499449082389 0.46121224231392488 0 0.36717500093372668 0.46757054210475929 0 0.37143629651032872 0.45720686114999193 0 0.35567836915472589 0.45678778088016703 0 0.37143629651032872 0.45720686114999193 0 0.36657482697318761 0.446748226791508 0 0.38198070339643708 0.45705904394289942 0 0.36657482697318761 0.446748226791508 0 0.37193014631584848 0.42999924720615068 0 0.38198070339643708 0.45705904394289942 0 0.37143629651032872 0.45720686114999193 0 0.36367632925015653 0.45252291112370391 0 0.36657482697318761 0.446748226791508 0 0.36367632925015653 0.45252291112370391 0 0.36657482697318761 0.446748226791508 0 0.3562845012834378 0.4482926986491193 0 0.34808057550305938 0.44600590612250468 0 0.35567836915472589 0.45678778088016703 0 0.33992044179912329 0.45636870061034079 0 0.36657482697318761 0.446748226791508 0 0.3562845012834378 0.4482926986491193 0 0.35414098508291708 0.43540859867718368 0 0.3562845012834378 0.4482926986491193 0 0.34808057550305938 0.44600590612250468 0 0.35414098508291708 0.43540859867718368 0 0.36367632925015653 0.45252291112370391 0 0.3562845012834378 0.4482926986491193 0 0.35567836915472589 0.45678778088016703 0 0.3562845012834378 0.4482926986491193 0 0.34808057550305938 0.44600590612250468 0 0.35567836915472589 0.45678778088016703 0 0.34808057550305938 0.44600590612250468 0 0.33961570140635172 0.4362099185178574 0 0.35414098508291708 0.43540859867718368 0 0.35567836915472589 0.45678778088016703 0 0.34632928558521042 0.46536544068494828 0 0.33992044179912329 0.45636870061034079 0 0.35567836915472589 0.45678778088016703 0 0.33992044179912329 0.45636870061034079 0 0.3490806650621458 0.46922782941321262 0 0.36415499449082389 0.46121224231392488 0 0.34632928558521042 0.46536544068494828 0 0.3490806650621458 0.46922782941321262 0 0.36717500093372668 0.46757054210475929 0 0.36415499449082389 0.46121224231392488 0 0.35567836915472589 0.45678778088016703 0 0.34632928558521042 0.46536544068494828 0 0.36415499449082389 0.46121224231392488 0 0.34632928558521042 0.46536544068494828 0 0.3490806650621458 0.46922782941321262 0 0.34632928558521042 0.46536544068494828 0 0.3490806650621458 0.46922782941321262 0 0.34632928558521042 0.46536544068494828 0 0.32696081697792789 0.47125381941113659 0 0.34632928558521042 0.46536544068494828 0 0.32521862645877231 0.47028399711148339 0 0.34632928558521042 0.46536544068494828 0 0.33992044179912329 0.45636870061034079 0 0.32521862645877231 0.47028399711148339 0 0.34632928558521042 0.46536544068494828 0 0.33992044179912329 0.45636870061034079 0 0.34808057550305938 0.44600590612250468 0 0.3323541236552271 0.44574709709892307 0 0.33961570140635172 0.4362099185178574 0 0.33992044179912329 0.45636870061034079 0 0.3323541236552271 0.44574709709892307 0 0.32253421818534123 0.44684829148095362 0 0.34808057550305938 0.44600590612250468 0 0.33992044179912329 0.45636870061034079 0 0.3323541236552271 0.44574709709892307 0 0.33992044179912329 0.45636870061034079 0 0.3323541236552271 0.44574709709892307 0 0.3323541236552271 0.44574709709892307 0 0.32610359684421192 0.43678193879044119 0 0.33961570140635172 0.4362099185178574 0 0.33992044179912329 0.45636870061034079 0 0.32253421818534123 0.44684829148095362 0 0.3152464127007425 0.45571249763777588 0 0.32253421818534123 0.44684829148095362 0 0.3152464127007425 0.45571249763777588 0 0.31209623941360759 0.43776564917250638 0 0.3152464127007425 0.45571249763777588 0 0.31209623941360759 0.43776564917250638 0 0.3323541236552271 0.44574709709892307 0 0.32253421818534123 0.44684829148095362 0 0.32610359684421192 0.43678193879044119 0 0.32253421818534123 0.44684829148095362 0 0.31209623941360759 0.43776564917250638 0 0.32610359684421192 0.43678193879044119 0 0.33992044179912329 0.45636870061034079 0 0.3152464127007425 0.45571249763777588 0 0.32521862645877231 0.47028399711148339 0 0.3152464127007425 0.45571249763777588 0 0.31913325966346701 0.47785624881888772 0 0.32521862645877231 0.47028399711148339 0 0.33992044179912329 0.45636870061034079 0 0.3152464127007425 0.45571249763777588 0 0.3152464127007425 0.45571249763777588 0 0.31913325966346701 0.47785624881888772 0 0.30420975952634299 0.46947331586472302 0 0.3152464127007425 0.45571249763777588 0 0.31913325966346701 0.47785624881888772 0 0.31913325966346701 0.47785624881888772 0 0.32591742888426312 0.47548348654552591 0 0.329001796240801 0.48161473987402198 0 0.32591742888426312 0.47548348654552591 0 0.32927264508034731 0.47640862751209928 0 0.329001796240801 0.48161473987402198 0 0.31913325966346701 0.47785624881888772 0 0.32591742888426312 0.47548348654552591 0 0.32521862645877231 0.47028399711148339 0 0.32591742888426312 0.47548348654552591 0 0.32696081697792789 0.47125381941113659 0 0.32927264508034731 0.47640862751209928 0 0.32591742888426312 0.47548348654552591 0 0.32521862645877231 0.47028399711148339 0 0.32696081697792789 0.47125381941113659 0 0.3490806650621458 0.46922782941321262 0 0.32696081697792789 0.47125381941113659 0 0.33647616413196407 0.47630837646213342 0 0.34632928558521042 0.46536544068494828 0 0.32521862645877231 0.47028399711148339 0 0.32696081697792789 0.47125381941113659 0 0.32696081697792789 0.47125381941113659 0 0.32927264508034731 0.47640862751209928 0 0.33647616413196407 0.47630837646213342 0 0.3490806650621458 0.46922782941321262 0 0.32696081697792789 0.47125381941113659 0 0.32927264508034731 0.47640862751209928 0 0.329001796240801 0.48161473987402198 0 0.33647616413196407 0.47630837646213342 0 0.329001796240801 0.48161473987402198 0 0.33647616413196407 0.47630837646213342 0 0.33995603526071178 0.48633656933393699 0 0.34528538451660062 0.47773379418631268 0 0.33647616413196407 0.47630837646213342 0 0.33995603526071178 0.48633656933393699 0 0.3490806650621458 0.46922782941321262 0 0.34528538451660062 0.47773379418631268 0 0.33647616413196407 0.47630837646213342 0 0.329001796240801 0.48161473987402198 0 0.33995603526071178 0.48633656933393699 0 0.32302010662619118 0.49999999999999961 0 0.34701069105550569 0.5 0 0.33995603526071178 0.48633656933393699 0 0.32302010662619118 0.49999999999999961 0 0.31913325966346701 0.47785624881888772 0 0.32302010662619118 0.49999999999999961 0 0.30499869470741492 0.48476163660817662 0 0.31913325966346701 0.47785624881888772 0 0.329001796240801 0.48161473987402198 0 0.32302010662619118 0.49999999999999961 0 0.31913325966346701 0.47785624881888772 0 0.32302010662619118 0.49999999999999961 0 0.30109195845370501 0.5 0 0.30499869470741492 0.48476163660817662 0 0.28958375731165181 0.48005255167767952 0 0.32302010662619118 0.49999999999999961 0 0.30109195845370501 0.5 0 0.30499869470741492 0.48476163660817662 0 0.31913325966346701 0.47785624881888772 0 0.30499869470741492 0.48476163660817662 0 0.30420975952634299 0.46947331586472302 0 0.30499869470741492 0.48476163660817662 0 0.30420975952634299 0.46947331586472302 0 0.28958375731165181 0.48005255167767952 0 0.30109195845370501 0.5 0 0.28958375731165181 0.48005255167767952 0 0.27916381028121873 0.5 0 0.27916381028121873 0.5 0 0.27240166341444522 0.48425749185169831 0 0.2572356621087325 0.50000000000000155 0 0.28958375731165181 0.48005255167767952 0 0.27916381028121873 0.5 0 0.27240166341444522 0.48425749185169831 0 0.27240166341444522 0.48425749185169831 0 0.25716706715618193 0.47641783178924169 0 0.27345808637904001 0.4661952126215072 0 0.28958375731165181 0.48005255167767952 0 0.27240166341444522 0.48425749185169831 0 0.27345808637904001 0.4661952126215072 0 0.25716706715618193 0.47641783178924169 0 0.2572356621087325 0.50000000000000155 0 0.24324303354975521 0.48909866857844392 0 0.25716706715618193 0.47641783178924169 0 0.2572356621087325 0.50000000000000155 0 0.27240166341444522 0.48425749185169831 0 0.25716706715618193 0.47641783178924169 0 0.2572356621087325 0.50000000000000155 0 0.25709847220363119 0.45283566357848187 0 0.25702987725108101 0.42925349536772212 0 0.25709847220363119 0.45283566357848187 0 0.25702987725108101 0.42925349536772212 0 0.25836746492245471 0.43174768403659147 0 0.25709847220363119 0.45283566357848187 0 0.2660695066302855 0.43871015010979147 0 0.25836746492245471 0.43174768403659147 0 0.2448364132796593 0.44231000148378752 0 0.25709847220363119 0.45283566357848187 0 0.25702987725108101 0.42925349536772212 0 0.25716706715618193 0.47641783178924169 0 0.25709847220363119 0.45283566357848187 0 0.25716706715618193 0.47641783178924169 0 0.25709847220363119 0.45283566357848187 0 0.27345808637904001 0.4661952126215072 0 0.24184120684035099 0.4581976946154846 0 0.25716706715618193 0.47641783178924169 0 0.25709847220363119 0.45283566357848187 0 0.27345808637904001 0.4661952126215072 0 0.27379346358837398 0.44854793932786308 0 0.29070409459995628 0.45505979750407899 0 0.25709847220363119 0.45283566357848187 0 0.27345808637904001 0.4661952126215072 0 0.27379346358837398 0.44854793932786308 0 0.25709847220363119 0.45283566357848187 0 0.27379346358837398 0.44854793932786308 0 0.2660695066302855 0.43871015010979147 0 0.27379346358837398 0.44854793932786308 0 0.2660695066302855 0.43871015010979147 0 0.27312045032292342 0.43870088492299869 0 0.27379346358837398 0.44854793932786308 0 0.27312045032292342 0.43870088492299869 0 0.28291697042830632 0.43588410089467061 0 0.27379346358837398 0.44854793932786308 0 0.29070409459995628 0.45505979750407899 0 0.28291697042830632 0.43588410089467061 0 0.29070409459995628 0.45505979750407899 0 0.29777872383227422 0.43475991775429229 0 0.28291697042830632 0.43588410089467061 0 0.28958375731165181 0.48005255167767952 0 0.27345808637904001 0.4661952126215072 0 0.29070409459995628 0.45505979750407899 0 0.30420975952634299 0.46947331586472302 0 0.28958375731165181 0.48005255167767952 0 0.29070409459995628 0.45505979750407899 0 0.3152464127007425 0.45571249763777588 0 0.30420975952634299 0.46947331586472302 0 0.29070409459995628 0.45505979750407899 0 0.3152464127007425 0.45571249763777588 0 0.29070409459995628 0.45505979750407899 0 0.3152464127007425 0.45571249763777588 0 0.29070409459995628 0.45505979750407899 0 0.31209623941360759 0.43776564917250638 0 0.29070409459995628 0.45505979750407899 0 0.31209623941360759 0.43776564917250638 0 0.29777872383227422 0.43475991775429229 0 0.29777872383227422 0.43475991775429229 0 0.28982240375417168 0.42299913491174501 0 0.31495791781995791 0.41600820478279921 0 0.31209623941360759 0.43776564917250638 0 0.29777872383227422 0.43475991775429229 0 0.31495791781995791 0.41600820478279921 0 0.28982240375417168 0.42299913491174501 0 0.31495791781995791 0.41600820478279921 0 0.28950248352475311 0.4095022566254774 0 0.28982240375417168 0.42299913491174501 0 0.31495791781995791 0.41600820478279921 0 0.28950248352475311 0.4095022566254774 0 0.29925209770985872 0.40107025153885512 0 0.31495791781995791 0.41600820478279921 0 0.28950248352475311 0.4095022566254774 0 0.28982240375417168 0.42299913491174501 0 0.27496603255160451 0.42014298348928741 0 0.29777872383227422 0.43475991775429229 0 0.28982240375417168 0.42299913491174501 0 0.28291697042830632 0.43588410089467061 0 0.28982240375417168 0.42299913491174501 0 0.26935029905594432 0.43043866375212297 0 0.26468688968838561 0.42999006504069143 0 0.27312045032292342 0.43870088492299869 0 0.28291697042830632 0.43588410089467061 0 0.26935029905594432 0.43043866375212297 0 0.28982240375417168 0.42299913491174501 0 0.26468688968838561 0.42999006504069143 0 0.28982240375417168 0.42299913491174501 0 0.28291697042830632 0.43588410089467061 0 0.26935029905594432 0.43043866375212297 0 0.28982240375417168 0.42299913491174501 0 0.27496603255160451 0.42014298348928741 0 0.26468688968838561 0.42999006504069143 0 0.2660695066302855 0.43871015010979147 0 0.26935029905594432 0.43043866375212297 0 0.26468688968838561 0.42999006504069143 0 0.2660695066302855 0.43871015010979147 0 0.27312045032292342 0.43870088492299869 0 0.26935029905594432 0.43043866375212297 0 0.26935029905594432 0.43043866375212297 0 0.26468688968838561 0.42999006504069143 0 0.27496603255160451 0.42014298348928741 0 0.26468688968838561 0.42999006504069143 0 0.2651281327625446 0.42188031555685962 0 0.28950248352475311 0.4095022566254774 0 0.26395116785126571 0.41384430375133069 0 0.28950248352475311 0.4095022566254774 0 0.27496603255160451 0.42014298348928741 0 0.26395116785126571 0.41384430375133069 0 0.28950248352475311 0.4095022566254774 0 0.26395116785126571 0.41384430375133069 0 0.27343145984221179 0.40601604463393609 0 0.26395116785126571 0.41384430375133069 0 0.26299804800527138 0.40191116090260848 0 0.27343145984221179 0.40601604463393609 0 0.27496603255160451 0.42014298348928741 0 0.26395116785126571 0.41384430375133069 0 0.2651281327625446 0.42188031555685962 0 0.26395116785126571 0.41384430375133069 0 0.25700903327720531 0.4220875730974884 0 0.2651281327625446 0.42188031555685962 0 0.2383998521777784 0.41818635087718381 0 0.26395116785126571 0.41384430375133069 0 0.25380059083303341 0.40846212201461762 0 0.2488221034234695 0.4223051763495565 0 0.2383998521777784 0.41818635087718381 0 0.26395116785126571 0.41384430375133069 0 0.2383998521777784 0.41818635087718381 0 0.26395116785126571 0.41384430375133069 0 0.26395116785126571 0.41384430375133069 0 0.25380059083303341 0.40846212201461762 0 0.26299804800527138 0.40191116090260848 0 0.2488221034234695 0.4223051763495565 0 0.26395116785126571 0.41384430375133069 0 0.25700903327720531 0.4220875730974884 0 0.2488221034234695 0.4223051763495565 0 0.25700903327720531 0.4220875730974884 0 0.25702987725108101 0.42925349536772212 0 0.25700903327720531 0.4220875730974884 0 0.25702987725108101 0.42925349536772212 0 0.25836746492245471 0.43174768403659147 0 0.26468688968838561 0.42999006504069143 0 0.25702987725108101 0.42925349536772212 0 0.25836746492245471 0.43174768403659147 0 0.26468688968838561 0.42999006504069143 0 0.2660695066302855 0.43871015010979147 0 0.25836746492245471 0.43174768403659147 0 0.26468688968838561 0.42999006504069143 0 0.25702987725108101 0.42925349536772212 0 0.26468688968838561 0.42999006504069143 0 0.2651281327625446 0.42188031555685962 0 0.25700903327720531 0.4220875730974884 0 0.25702987725108101 0.42925349536772212 0 0.2651281327625446 0.42188031555685962 0 0.25702987725108101 0.42925349536772212 0 0.26468688968838561 0.42999006504069143 0 0.24985329529781791 0.39990667252734718 0 0.247713784970646 0.38075050805242922 0 0.26130673841785779 0.38162699417751078 0 0.26130673841785779 0.38162699417751078 0 0.25751014003425049 0.39127202551525408 0 0.26130673841785779 0.38162699417751078 0 0.25751014003425049 0.39127202551525408 0 0.26555566989124457 0.39385691981445009 0 0.247713784970646 0.38075050805242922 0 0.26130673841785779 0.38162699417751078 0 0.25490457918629872 0.37507349251653871 0 0.24985329529781791 0.39990667252734718 0 0.26130673841785779 0.38162699417751078 0 0.24985329529781791 0.39990667252734718 0 0.26130673841785779 0.38162699417751078 0 0.25751014003425049 0.39127202551525408 0 0.24985329529781791 0.39990667252734718 0 0.25751014003425049 0.39127202551525408 0 0.26299804800527138 0.40191116090260848 0 0.24985329529781791 0.39990667252734718 0 0.25380059083303341 0.40846212201461762 0 0.26299804800527138 0.40191116090260848 0 0.25751014003425049 0.39127202551525408 0 0.26299804800527138 0.40191116090260848 0 0.26555566989124457 0.39385691981445009 0 0.26555566989124457 0.39385691981445009 0 0.27430006382294309 0.39784586166294189 0 0.27120134665021761 0.38756895009831732 0 0.26299804800527138 0.40191116090260848 0 0.26555566989124457 0.39385691981445009 0 0.27430006382294309 0.39784586166294189 0 0.26299804800527138 0.40191116090260848 0 0.27343145984221179 0.40601604463393609 0 0.27430006382294309 0.39784586166294189 0 0.27343145984221179 0.40601604463393609 0 0.28106797903805247 0.40257602375425933 0 0.27430006382294309 0.39784586166294189 0 0.28106797903805247 0.40257602375425933 0 0.27430006382294309 0.39784586166294189 0 0.28703790896230208 0.39693993209468148 0 0.27430006382294309 0.39784586166294189 0 0.27993136792368678 0.39059144184020128 0 0.27120134665021761 0.38756895009831732 0 0.27430006382294309 0.39784586166294189 0 0.27993136792368678 0.39059144184020128 0 0.28703790896230208 0.39693993209468148 0 0.27993136792368678 0.39059144184020128 0 0.27120134665021761 0.38756895009831732 0 0.27779903165459169 0.3822920493098666 0 0.26130673841785779 0.38162699417751078 0 0.26555566989124457 0.39385691981445009 0 0.27120134665021761 0.38756895009831732 0 0.27120134665021761 0.38756895009831732 0 0.27107463499663109 0.37851234507980008 0 0.27779903165459169 0.3822920493098666 0 0.26130673841785779 0.38162699417751078 0 0.27120134665021761 0.38756895009831732 0 0.27107463499663109 0.37851234507980008 0 0.27107463499663109 0.37851234507980008 0 0.27779903165459169 0.3822920493098666 0 0.2766490591355068 0.37433388147839908 0 0.27779903165459169 0.3822920493098666 0 0.28390095120816711 0.37562544504190132 0 0.2766490591355068 0.37433388147839908 0 0.28390095120816711 0.37562544504190132 0 0.28652318226166418 0.38492160690775928 0 0.29373006398809498 0.37700175091789651 0 0.27779903165459169 0.3822920493098666 0 0.28390095120816711 0.37562544504190132 0 0.28652318226166418 0.38492160690775928 0 0.27993136792368678 0.39059144184020128 0 0.27779903165459169 0.3822920493098666 0 0.28652318226166418 0.38492160690775928 0 0.28652318226166418 0.38492160690775928 0 0.29667622102462171 0.38885955313607279 0 0.28703790896230208 0.39693993209468148 0 0.28652318226166418 0.38492160690775928 0 0.29667622102462171 0.38885955313607279 0 0.29373006398809498 0.37700175091789651 0 0.28950248352475311 0.4095022566254774 0 0.27343145984221179 0.40601604463393609 0 0.28106797903805247 0.40257602375425933 0 0.28950248352475311 0.4095022566254774 0 0.28106797903805247 0.40257602375425933 0 0.28703790896230208 0.39693993209468148 0 0.27993136792368678 0.39059144184020128 0 0.28652318226166418 0.38492160690775928 0 0.28703790896230208 0.39693993209468148 0 0.29667622102462171 0.38885955313607279 0 0.28703790896230208 0.39693993209468148 0 0.29925209770985872 0.40107025153885512 0 0.28950248352475311 0.4095022566254774 0 0.28703790896230208 0.39693993209468148 0 0.29925209770985872 0.40107025153885512 0 0.29925209770985872 0.40107025153885512 0 0.30808595721765852 0.39404131105524431 0 0.31495791781995791 0.41600820478279921 0 0.29667622102462171 0.38885955313607279 0 0.29925209770985872 0.40107025153885512 0 0.30808595721765852 0.39404131105524431 0 0.29667622102462171 0.38885955313607279 0 0.29373006398809498 0.37700175091789651 0 0.30704607127102962 0.37874789135054893 0 0.29667622102462171 0.38885955313607279 0 0.30808595721765852 0.39404131105524431 0 0.30704607127102962 0.37874789135054893 0 0.30808595721765852 0.39404131105524431 0 0.30704607127102962 0.37874789135054893 0 0.32845424032326143 0.38484820442882378 0 0.32845424032326143 0.38484820442882378 0 0.35182903215467742 0.3758796537326512 0 0.34790646022865218 0.39538457505576469 0 0.32845424032326143 0.38484820442882378 0 0.35182903215467742 0.3758796537326512 0 0.33494999436834533 0.36683291921078343 0 0.32845424032326143 0.38484820442882378 0 0.34009343188574281 0.40901727465384918 0 0.34790646022865218 0.39538457505576469 0 0.32845424032326143 0.38484820442882378 0 0.34009343188574281 0.40901727465384918 0 0.32845424032326143 0.38484820442882378 0 0.31495791781995791 0.41600820478279921 0 0.34009343188574281 0.40901727465384918 0 0.30808595721765852 0.39404131105524431 0 0.32845424032326143 0.38484820442882378 0 0.31495791781995791 0.41600820478279921 0 0.31495791781995791 0.41600820478279921 0 0.32365546110746413 0.42694996431045568 0 0.33527312640506091 0.41934143736272778 0 0.31495791781995791 0.41600820478279921 0 0.34009343188574281 0.40901727465384918 0 0.31209623941360759 0.43776564917250638 0 0.31495791781995791 0.41600820478279921 0 0.32365546110746413 0.42694996431045568 0 0.32365546110746413 0.42694996431045568 0 0.32610359684421192 0.43678193879044119 0 0.33309445048640007 0.42842800460629599 0 0.31209623941360759 0.43776564917250638 0 0.32365546110746413 0.42694996431045568 0 0.32610359684421192 0.43678193879044119 0 0.32610359684421192 0.43678193879044119 0 0.33309445048640007 0.42842800460629599 0 0.33961570140635172 0.4362099185178574 0 0.32365546110746413 0.42694996431045568 0 0.33309445048640007 0.42842800460629599 0 0.33527312640506091 0.41934143736272778 0 0.33309445048640007 0.42842800460629599 0 0.33527312640506091 0.41934143736272778 0 0.34392047686629479 0.42488796581179539 0 0.33309445048640007 0.42842800460629599 0 0.33961570140635172 0.4362099185178574 0 0.34392047686629479 0.42488796581179539 0 0.31495791781995791 0.41600820478279921 0 0.33527312640506091 0.41934143736272778 0 0.34009343188574281 0.40901727465384918 0 0.33527312640506091 0.41934143736272778 0 0.34212939465805281 0.41814630590263291 0 0.34392047686629479 0.42488796581179539 0 0.33527312640506091 0.41934143736272778 0 0.34212939465805281 0.41814630590263291 0 0.34186442441667098 0.41269478460960501 0 0.34212939465805281 0.41814630590263291 0 0.34186442441667098 0.41269478460960501 0 0.34552380666320143 0.41323543455967687 0 0.34186442441667098 0.41269478460960501 0 0.34009343188574281 0.40901727465384918 0 0.34552380666320143 0.41323543455967687 0 0.33527312640506091 0.41934143736272778 0 0.34186442441667098 0.41269478460960501 0 0.34009343188574281 0.40901727465384918 0 0.34186442441667098 0.41269478460960501 0 0.34009343188574281 0.40901727465384918 0 0.34009343188574281 0.40901727465384918 0 0.35091829865975332 0.41092335925812529 0 0.35727600754431599 0.40423829199409889 0 0.34009343188574281 0.40901727465384918 0 0.35727600754431599 0.40423829199409889 0 0.34009343188574281 0.40901727465384918 0 0.35091829865975332 0.41092335925812529 0 0.34552380666320143 0.41323543455967687 0 0.35091829865975332 0.41092335925812529 0 0.34552380666320143 0.41323543455967687 0 0.34772672207850669 0.4169791994607831 0 0.34212939465805281 0.41814630590263291 0 0.34772672207850669 0.4169791994607831 0 0.34392047686629479 0.42488796581179539 0 0.34212939465805281 0.41814630590263291 0 0.34552380666320143 0.41323543455967687 0 0.34772672207850669 0.4169791994607831 0 0.34772672207850669 0.4169791994607831 0 0.35532758082363769 0.41783269502340331 0 0.34392047686629479 0.42488796581179539 0 0.35091829865975332 0.41092335925812529 0 0.34772672207850669 0.4169791994607831 0 0.35532758082363769 0.41783269502340331 0 0.35091829865975332 0.41092335925812529 0 0.35532758082363769 0.41783269502340331 0 0.35727600754431599 0.40423829199409889 0 0.35532758082363769 0.41783269502340331 0 0.36187958923526292 0.40293945046940088 0 0.35727600754431599 0.40423829199409889 0 0.35532758082363769 0.41783269502340331 0 0.34392047686629479 0.42488796581179539 0 0.35414098508291708 0.43540859867718368 0 0.33961570140635172 0.4362099185178574 0 0.34392047686629479 0.42488796581179539 0 0.35414098508291708 0.43540859867718368 0 0.35532758082363769 0.41783269502340331 0 0.35414098508291708 0.43540859867718368 0 0.37193014631584848 0.42999924720615068 0 0.36657482697318761 0.446748226791508 0 0.35414098508291708 0.43540859867718368 0 0.37193014631584848 0.42999924720615068 0 0.35532758082363769 0.41783269502340331 0 0.37193014631584848 0.42999924720615068 0 0.36187958923526292 0.40293945046940088 0 0.37193014631584848 0.42999924720615068 0 0.36187958923526292 0.40293945046940088 0 0.37193014631584848 0.42999924720615068 0 0.36187958923526292 0.40293945046940088 0 0.39091832328282361 0.41087193027100549 0 0.36187958923526292 0.40293945046940088 0 0.35182903215467742 0.3758796537326512 0 0.37807898130569972 0.38198010331448301 0 0.36187958923526292 0.40293945046940088 0 0.35182903215467742 0.3758796537326512 0 0.36187958923526292 0.40293945046940088 0 0.35182903215467742 0.3758796537326512 0 0.34790646022865218 0.39538457505576469 0 0.34009343188574281 0.40901727465384918 0 0.34790646022865218 0.39538457505576469 0 0.35727600754431599 0.40423829199409889 0 0.36187958923526292 0.40293945046940088 0 0.34790646022865218 0.39538457505576469 0 0.35727600754431599 0.40423829199409889 0 0.35182903215467742 0.3758796537326512 0 0.3722477765496085 0.35016695762591221 0 0.37807898130569972 0.38198010331448301 0 0.35182903215467742 0.3758796537326512 0 0.3722477765496085 0.35016695762591221 0 0.34177847507409181 0.34881985699590151 0 0.35182903215467742 0.3758796537326512 0 0.34177847507409181 0.34881985699590151 0 0.3722477765496085 0.35016695762591221 0 0.37069175466933912 0.32875176142968793 0 0.35660426620688718 0.33158813156598749 0 0.3722477765496085 0.35016695762591221 0 0.37069175466933912 0.32875176142968793 0 0.38018026091455548 0.33583017463534492 0 0.36908544359869788 0.31711993858565868 0 0.37552929986171052 0.31147094895867028 0 0.37512131353827649 0.31993777409944391 0 0.37069175466933912 0.32875176142968793 0 0.36908544359869788 0.31711993858565868 0 0.37512131353827649 0.31993777409944391 0 0.37069175466933912 0.32875176142968793 0 0.36908544359869788 0.31711993858565868 0 0.36227265828944472 0.32102596309161863 0 0.37069175466933912 0.32875176142968793 0 0.36227265828944472 0.32102596309161863 0 0.35660426620688718 0.33158813156598749 0 0.36908544359869788 0.31711993858565868 0 0.36216199407232552 0.31421251507807352 0 0.36873564116109159 0.30732066885645792 0 0.36908544359869788 0.31711993858565868 0 0.36227265828944472 0.32102596309161863 0 0.36216199407232552 0.31421251507807352 0 0.36227265828944472 0.32102596309161863 0 0.36216199407232552 0.31421251507807352 0 0.35548040964913802 0.3182867922552447 0 0.33172791799350532 0.32176006025915199 0 0.34669185149407039 0.31235854363774268 0 0.35483192959872478 0.30892549123100937 0 0.34679263072992478 0.32222161781041447 0 0.33172791799350532 0.32176006025915199 0 0.35483192959872478 0.30892549123100937 0 0.35548040964913802 0.3182867922552447 0 0.34679263072992478 0.32222161781041447 0 0.35483192959872478 0.30892549123100937 0 0.36216199407232552 0.31421251507807352 0 0.35548040964913802 0.3182867922552447 0 0.35483192959872478 0.30892549123100937 0 0.35548040964913802 0.3182867922552447 0 0.34679263072992478 0.32222161781041447 0 0.35660426620688718 0.33158813156598749 0 0.36227265828944472 0.32102596309161863 0 0.35548040964913802 0.3182867922552447 0 0.35660426620688718 0.33158813156598749 0 0.34679263072992478 0.32222161781041447 0 0.35660426620688718 0.33158813156598749 0 0.34177847507409181 0.34881985699590151 0 0.3722477765496085 0.35016695762591221 0 0.35660426620688718 0.33158813156598749 0 0.34177847507409181 0.34881985699590151 0 0.33172791799350532 0.32176006025915199 0 0.32481653016515311 0.34395618279456119 0 0.34177847507409181 0.34881985699590151 0 0.34679263072992478 0.32222161781041447 0 0.33172791799350532 0.32176006025915199 0 0.34177847507409181 0.34881985699590151 0 0.33172791799350532 0.32176006025915199 0 0.34177847507409181 0.34881985699590151 0 0.33172791799350532 0.32176006025915199 0 0.35483192959872478 0.30892549123100937 0 0.33172791799350532 0.32176006025915199 0 0.33433715661558527 0.30915126849091529 0 0.34669185149407039 0.31235854363774268 0 0.33172791799350532 0.32176006025915199 0 0.32649517228490349 0.30767158395733452 0 0.33433715661558527 0.30915126849091529 0 0.33172791799350532 0.32176006025915199 0 0.32649517228490349 0.30767158395733452 0 0.33172791799350532 0.32176006025915199 0 0.31845188759589887 0.32913506211895882 0 0.3124215414252603 0.31463851826348332 0 0.33172791799350532 0.32176006025915199 0 0.3124215414252603 0.31463851826348332 0 0.32649517228490349 0.30767158395733452 0 0.33172791799350532 0.32176006025915199 0 0.31845188759589887 0.32913506211895882 0 0.33172791799350532 0.32176006025915199 0 0.31845188759589887 0.32913506211895882 0 0.32481653016515311 0.34395618279456119 0 0.31845188759589887 0.32913506211895882 0 0.32481653016515311 0.34395618279456119 0 0.3051758571982971 0.3365100639787737 0 0.32481653016515311 0.34395618279456119 0 0.31681504876077932 0.36067913420379871 0 0.3051758571982971 0.3365100639787737 0 0.32481653016515311 0.34395618279456119 0 0.33494999436834533 0.36683291921078343 0 0.31681504876077932 0.36067913420379871 0 0.32481653016515311 0.34395618279456119 0 0.34177847507409181 0.34881985699590151 0 0.33494999436834533 0.36683291921078343 0 0.35182903215467742 0.3758796537326512 0 0.34177847507409181 0.34881985699590151 0 0.33494999436834533 0.36683291921078343 0 0.30704607127102962 0.37874789135054893 0 0.32845424032326143 0.38484820442882378 0 0.31681504876077932 0.36067913420379871 0 0.32845424032326143 0.38484820442882378 0 0.31681504876077932 0.36067913420379871 0 0.32845424032326143 0.38484820442882378 0 0.33494999436834533 0.36683291921078343 0 0.31681504876077932 0.36067913420379871 0 0.30704607127102962 0.37874789135054893 0 0.31681504876077932 0.36067913420379871 0 0.30062517624183088 0.36676896646786628 0 0.31681504876077932 0.36067913420379871 0 0.30062517624183088 0.36676896646786628 0 0.29985560249366611 0.35416009340586768 0 0.29373006398809498 0.37700175091789651 0 0.30704607127102962 0.37874789135054893 0 0.30062517624183088 0.36676896646786628 0 0.31681504876077932 0.36067913420379871 0 0.3051758571982971 0.3365100639787737 0 0.31681504876077932 0.36067913420379871 0 0.29985560249366611 0.35416009340586768 0 0.3051758571982971 0.3365100639787737 0 0.29985560249366611 0.35416009340586768 0 0.29642893485056382 0.34373170356788069 0 0.3051758571982971 0.3365100639787737 0 0.29156997961887149 0.34921014654590388 0 0.28547266882539629 0.3430582048410174 0 0.29642893485056382 0.34373170356788069 0 0.29985560249366611 0.35416009340586768 0 0.29156997961887149 0.34921014654590388 0 0.29642893485056382 0.34373170356788069 0 0.29985560249366611 0.35416009340586768 0 0.2845227123058599 0.35589058436884952 0 0.28847801066549428 0.36644572303251932 0 0.29985560249366611 0.35416009340586768 0 0.29156997961887149 0.34921014654590388 0 0.2845227123058599 0.35589058436884952 0 0.29156997961887149 0.34921014654590388 0 0.2845227123058599 0.35589058436884952 0 0.28547266882539629 0.3430582048410174 0 0.29373006398809498 0.37700175091789651 0 0.30062517624183088 0.36676896646786628 0 0.28847801066549428 0.36644572303251932 0 0.30062517624183088 0.36676896646786628 0 0.29985560249366611 0.35416009340586768 0 0.28847801066549428 0.36644572303251932 0 0.2845227123058599 0.35589058436884952 0 0.28170395393251652 0.36324765217496502 0 0.28847801066549428 0.36644572303251932 0 0.28170395393251652 0.36324765217496502 0 0.28847801066549428 0.36644572303251932 0 0.28042538913708492 0.36831170178922717 0 0.28390095120816711 0.37562544504190132 0 0.29373006398809498 0.37700175091789651 0 0.28847801066549428 0.36644572303251932 0 0.28390095120816711 0.37562544504190132 0 0.28847801066549428 0.36644572303251932 0 0.28042538913708492 0.36831170178922717 0 0.28042538913708492 0.36831170178922717 0 0.2766490591355068 0.37433388147839908 0 0.27338970362162712 0.36234259950926417 0 0.26130673841785779 0.38162699417751078 0 0.27338970362162712 0.36234259950926417 0 0.26130673841785779 0.38162699417751078 0 0.27338970362162712 0.36234259950926417 0 0.27075156819252399 0.35763296848608189 0 0.26130673841785779 0.38162699417751078 0 0.27107463499663109 0.37851234507980008 0 0.27338970362162712 0.36234259950926417 0 0.26130673841785779 0.38162699417751078 0 0.27075156819252399 0.35763296848608189 0 0.27107463499663109 0.37851234507980008 0 0.2766490591355068 0.37433388147839908 0 0.27338970362162712 0.36234259950926417 0 0.28390095120816711 0.37562544504190132 0 0.28042538913708492 0.36831170178922717 0 0.2766490591355068 0.37433388147839908 0 0.28170395393251652 0.36324765217496502 0 0.28042538913708492 0.36831170178922717 0 0.27338970362162712 0.36234259950926417 0 0.2845227123058599 0.35589058436884952 0 0.28170395393251652 0.36324765217496502 0 0.27338970362162712 0.36234259950926417 0 0.27075156819252399 0.35763296848608189 0 0.26558463596339632 0.34150625501184179 0 0.28019639796719031 0.33363894279465311 0 0.27075156819252399 0.35763296848608189 0 0.28019639796719031 0.33363894279465311 0 0.28547266882539629 0.3430582048410174 0 0.2845227123058599 0.35589058436884952 0 0.27338970362162712 0.36234259950926417 0 0.28547266882539629 0.3430582048410174 0 0.27075156819252399 0.35763296848608189 0 0.28019639796719031 0.33363894279465311 0 0.27338970362162712 0.36234259950926417 0 0.28547266882539629 0.3430582048410174 0 0.27338970362162712 0.36234259950926417 0 0.27075156819252399 0.35763296848608189 0 0.28547266882539629 0.3430582048410174 0 0.27075156819252399 0.35763296848608189 0 0.25711451900508148 0.35258648987221092 0 0.26558463596339632 0.34150625501184179 0 0.2438273554430464 0.34812574592335249 0 0.25711451900508148 0.35258648987221092 0 0.25235619873932041 0.33556187677713623 0 0.27075156819252399 0.35763296848608189 0 0.25711451900508148 0.35258648987221092 0 0.25830082874688443 0.36636652218621663 0 0.26130673841785779 0.38162699417751078 0 0.27075156819252399 0.35763296848608189 0 0.25830082874688443 0.36636652218621663 0 0.2444030594993066 0.36261468031945582 0 0.25711451900508148 0.35258648987221092 0 0.25830082874688443 0.36636652218621663 0 0.2444030594993066 0.36261468031945582 0 0.25490457918629872 0.37507349251653871 0 0.25830082874688443 0.36636652218621663 0 0.26130673841785779 0.38162699417751078 0 0.25490457918629872 0.37507349251653871 0 0.25830082874688443 0.36636652218621663 0 0.2412863906095909 0.31706614216088019 0 0.25496362040665271 0.32267745764425643 0 0.26071219069447599 0.31197788889560879 0 0.25496362040665271 0.32267745764425643 0 0.26589958482641279 0.32752631364072038 0 0.26071219069447599 0.31197788889560879 0 0.25496362040665271 0.32267745764425643 0 0.25235619873932041 0.33556187677713623 0 0.26589958482641279 0.32752631364072038 0 0.25711451900508148 0.35258648987221092 0 0.25235619873932041 0.33556187677713623 0 0.26558463596339632 0.34150625501184179 0 0.25235619873932041 0.33556187677713623 0 0.26558463596339632 0.34150625501184179 0 0.26589958482641279 0.32752631364072038 0 0.26558463596339632 0.34150625501184179 0 0.28019639796719031 0.33363894279465311 0 0.26589958482641279 0.32752631364072038 0 0.28019639796719031 0.33363894279465311 0 0.26589958482641279 0.32752631364072038 0 0.27489680020354851 0.31780650302536112 0 0.26589958482641279 0.32752631364072038 0 0.27489680020354851 0.31780650302536112 0 0.26071219069447599 0.31197788889560879 0 0.28019639796719031 0.33363894279465311 0 0.28964122774185652 0.30964491710322428 0 0.28019639796719031 0.33363894279465311 0 0.27489680020354851 0.31780650302536112 0 0.28964122774185652 0.30964491710322428 0 0.28019639796719031 0.33363894279465311 0 0.29537221966939131 0.31615256727250862 0 0.28964122774185652 0.30964491710322428 0 0.28019639796719031 0.33363894279465311 0 0.29537221966939131 0.31615256727250862 0 0.29755563402916552 0.32377381017277068 0 0.28019639796719031 0.33363894279465311 0 0.28547266882539629 0.3430582048410174 0 0.29755563402916552 0.32377381017277068 0 0.28547266882539629 0.3430582048410174 0 0.29755563402916552 0.32377381017277068 0 0.28547266882539629 0.3430582048410174 0 0.29642893485056382 0.34373170356788069 0 0.29755563402916552 0.32377381017277068 0 0.29642893485056382 0.34373170356788069 0 0.3051758571982971 0.3365100639787737 0 0.29755563402916552 0.32377381017277068 0 0.31845188759589887 0.32913506211895882 0 0.3051758571982971 0.3365100639787737 0 0.29537221966939131 0.31615256727250862 0 0.3051758571982971 0.3365100639787737 0 0.29755563402916552 0.32377381017277068 0 0.31845188759589887 0.32913506211895882 0 0.3051758571982971 0.3365100639787737 0 0.3124215414252603 0.31463851826348332 0 0.29537221966939131 0.31615256727250862 0 0.3051758571982971 0.3365100639787737 0 0.29537221966939131 0.31615256727250862 0 0.3051758571982971 0.3365100639787737 0 0.3124215414252603 0.31463851826348332 0 0.29537221966939131 0.31615256727250862 0 0.3064038210334884 0.30067388223127611 0 0.29780590900410991 0.29124285186599119 0 0.29537221966939131 0.31615256727250862 0 0.3124215414252603 0.31463851826348332 0 0.3064038210334884 0.30067388223127611 0 0.3124215414252603 0.31463851826348332 0 0.3064038210334884 0.30067388223127611 0 0.31797064105596812 0.29669460242380358 0 0.3064038210334884 0.30067388223127611 0 0.30706453001149392 0.28545611992336922 0 0.31797064105596812 0.29669460242380358 0 0.3064038210334884 0.30067388223127611 0 0.30706453001149392 0.28545611992336922 0 0.29780590900410991 0.29124285186599119 0 0.30706453001149392 0.28545611992336922 0 0.29780590900410991 0.29124285186599119 0 0.29516751126046797 0.28001135836836077 0 0.28556858214048553 0.29579507056624349 0 0.28351082165216779 0.2739244349354083 0 0.29516751126046797 0.28001135836836077 0 0.29780590900410991 0.29124285186599119 0 0.28556858214048553 0.29579507056624349 0 0.29516751126046797 0.28001135836836077 0 0.28556858214048553 0.29579507056624349 0 0.27576494461157991 0.27543757385997852 0 0.28351082165216779 0.2739244349354083 0 0.29537221966939131 0.31615256727250862 0 0.29780590900410991 0.29124285186599119 0 0.28556858214048553 0.29579507056624349 0 0.29537221966939131 0.31615256727250862 0 0.28556858214048553 0.29579507056624349 0 0.28964122774185652 0.30964491710322428 0 0.29537221966939131 0.31615256727250862 0 0.28556858214048553 0.29579507056624349 0 0.28556858214048553 0.29579507056624349 0 0.28964122774185652 0.30964491710322428 0 0.27438759942090191 0.30337842557507938 0 0.27489680020354851 0.31780650302536112 0 0.28964122774185652 0.30964491710322428 0 0.27438759942090191 0.30337842557507938 0 0.27489680020354851 0.31780650302536112 0 0.27438759942090191 0.30337842557507938 0 0.26071219069447599 0.31197788889560879 0 0.27248032494705132 0.28939396479480628 0 0.25491758893057909 0.27951005592881761 0 0.27576494461157991 0.27543757385997852 0 0.28556858214048553 0.29579507056624349 0 0.27576494461157991 0.27543757385997852 0 0.28556858214048553 0.29579507056624349 0 0.27248032494705132 0.28939396479480628 0 0.27576494461157991 0.27543757385997852 0 0.28556858214048553 0.29579507056624349 0 0.27438759942090191 0.30337842557507938 0 0.27248032494705132 0.28939396479480628 0 0.27438759942090191 0.30337842557507938 0 0.27248032494705132 0.28939396479480628 0 0.26162700977852021 0.29629342014523508 0 0.27248032494705132 0.28939396479480628 0 0.26162700977852021 0.29629342014523508 0 0.25491758893057909 0.27951005592881761 0 0.24543399627141721 0.29887735901603257 0 0.26162700977852021 0.29629342014523508 0 0.25491758893057909 0.27951005592881761 0 0.27438759942090191 0.30337842557507938 0 0.26162700977852021 0.29629342014523508 0 0.26071219069447599 0.31197788889560879 0 0.24543399627141721 0.29887735901603257 0 0.26162700977852021 0.29629342014523508 0 0.26071219069447599 0.31197788889560879 0 0.25153222320099622 0.25722575917013901 0 0.27218921726664158 0.26801248725998528 0 0.26048617882559622 0.24371083740660091 0 0.25153222320099622 0.25722575917013901 0 0.25536006440587672 0.26878811273571068 0 0.27218921726664158 0.26801248725998528 0 0.25153222320099622 0.25722575917013901 0 0.27218921726664158 0.26801248725998528 0 0.25153222320099622 0.25722575917013901 0 0.26048617882559622 0.24371083740660091 0 0.25491758893057909 0.27951005592881761 0 0.27576494461157991 0.27543757385997852 0 0.25536006440587672 0.26878811273571068 0 0.25491758893057909 0.27951005592881761 0 0.27218921726664158 0.26801248725998528 0 0.2428012282252888 0.27040414858390061 0 0.25536006440587672 0.26878811273571068 0 0.25491758893057909 0.27951005592881761 0 0.25491758893057909 0.27951005592881761 0 0.27218921726664158 0.26801248725998528 0 0.27576494461157991 0.27543757385997852 0 0.27576494461157991 0.27543757385997852 0 0.28351082165216779 0.2739244349354083 0 0.27218921726664158 0.26801248725998528 0 0.28351082165216779 0.2739244349354083 0 0.28241209558822961 0.26632916093747078 0 0.27218921726664158 0.26801248725998528 0 0.27576494461157991 0.27543757385997852 0 0.28351082165216779 0.2739244349354083 0 0.27218921726664158 0.26801248725998528 0 0.28351082165216779 0.2739244349354083 0 0.27218921726664158 0.26801248725998528 0 0.27576494461157991 0.27543757385997852 0 0.27218921726664158 0.26801248725998528 0 0.27691591880596222 0.25729022711116639 0 0.28241209558822961 0.26632916093747078 0 0.27218921726664158 0.26801248725998528 0 0.26048617882559622 0.24371083740660091 0 0.27218921726664158 0.26801248725998528 0 0.27691591880596222 0.25729022711116639 0 0.26048617882559622 0.24371083740660091 0 0.27691591880596222 0.25729022711116639 0 0.28359094229813148 0.25448793817281579 0 0.27685630599777589 0.2478154210616699 0 0.27691591880596222 0.25729022711116639 0 0.28359094229813148 0.25448793817281579 0 0.2851673007449898 0.26023557940088332 0 0.3039173510814423 0.25972757105281219 0 0.28965918427723281 0.24218391352450211 0 0.28359094229813148 0.25448793817281579 0 0.27685630599777589 0.2478154210616699 0 0.28494106210013392 0.2498489505319901 0 0.29345893722613059 0.25129825022350127 0 0.3039173510814423 0.25972757105281219 0 0.28965918427723281 0.24218391352450211 0 0.28868459035541499 0.25311981898255947 0 0.28494106210013392 0.2498489505319901 0 0.28892582916583598 0.2492018439528669 0 0.28868459035541499 0.25311981898255947 0 0.28359094229813148 0.25448793817281579 0 0.28494106210013392 0.2498489505319901 0 0.28868459035541499 0.25311981898255947 0 0.28687158554486092 0.25569243113247692 0 0.28359094229813148 0.25448793817281579 0 0.28687158554486092 0.25569243113247692 0 0.28359094229813148 0.25448793817281579 0 0.2851673007449898 0.26023557940088332 0 0.28687158554486092 0.25569243113247692 0 0.28807077596690611 0.2581880435182905 0 0.28931157611965458 0.25623197766376038 0 0.28868459035541499 0.25311981898255947 0 0.28687158554486092 0.25569243113247692 0 0.28931157611965458 0.25623197766376038 0 0.27691591880596222 0.25729022711116639 0 0.2851673007449898 0.26023557940088332 0 0.28241209558822961 0.26632916093747078 0 0.28612348479105743 0.26557280400170857 0 0.2851673007449898 0.26023557940088332 0 0.28241209558822961 0.26632916093747078 0 0.28612348479105743 0.26557280400170857 0 0.28820153575970392 0.26340271637493412 0 0.2851673007449898 0.26023557940088332 0 0.28612348479105743 0.26557280400170857 0 0.28820153575970392 0.26340271637493412 0 0.28928435291432292 0.26627202701476832 0 0.28820153575970392 0.26340271637493412 0 0.2851673007449898 0.26023557940088332 0 0.28910030818167282 0.2606462295185657 0 0.28687158554486092 0.25569243113247692 0 0.2851673007449898 0.26023557940088332 0 0.28807077596690611 0.2581880435182905 0 0.2851673007449898 0.26023557940088332 0 0.28807077596690611 0.2581880435182905 0 0.28910030818167282 0.2606462295185657 0 0.28807077596690611 0.2581880435182905 0 0.29012458656076978 0.25822105451885852 0 0.28910030818167282 0.2606462295185657 0 0.29012458656076978 0.25822105451885852 0 0.28910030818167282 0.2606462295185657 0 0.29181146649833112 0.25980397671080041 0 0.28910030818167282 0.2606462295185657 0 0.29181146649833112 0.25980397671080041 0 0.29208830856188789 0.26336840763512592 0 0.29012458656076978 0.25822105451885852 0 0.29181146649833112 0.25980397671080041 0 0.29232880603728451 0.25623504518287532 0 0.28820153575970392 0.26340271637493412 0 0.29208830856188789 0.26336840763512592 0 0.28928435291432292 0.26627202701476832 0 0.28820153575970392 0.26340271637493412 0 0.28910030818167282 0.2606462295185657 0 0.29208830856188789 0.26336840763512592 0 0.29208830856188789 0.26336840763512592 0 0.295861748010873 0.25998823260247511 0 0.29765944308527592 0.26593032899830249 0 0.29208830856188789 0.26336840763512592 0 0.29297695870925222 0.26738919668419731 0 0.29765944308527592 0.26593032899830249 0 0.29181146649833112 0.25980397671080041 0 0.29208830856188789 0.26336840763512592 0 0.295861748010873 0.25998823260247511 0 0.29181146649833112 0.25980397671080041 0 0.295861748010873 0.25998823260247511 0 0.29232880603728451 0.25623504518287532 0 0.295861748010873 0.25998823260247511 0 0.29345893722613059 0.25129825022350127 0 0.29232880603728451 0.25623504518287532 0 0.28868459035541499 0.25311981898255947 0 0.29345893722613059 0.25129825022350127 0 0.29232880603728451 0.25623504518287532 0 0.28868459035541499 0.25311981898255947 0 0.29345893722613059 0.25129825022350127 0 0.28892582916583598 0.2492018439528669 0 0.28868459035541499 0.25311981898255947 0 0.28931157611965458 0.25623197766376038 0 0.29232880603728451 0.25623504518287532 0 0.29012458656076978 0.25822105451885852 0 0.28931157611965458 0.25623197766376038 0 0.29232880603728451 0.25623504518287532 0 0.28807077596690611 0.2581880435182905 0 0.29012458656076978 0.25822105451885852 0 0.28931157611965458 0.25623197766376038 0 0.28351082165216779 0.2739244349354083 0 0.28733438825076368 0.27108796110478978 0 0.2907816862342732 0.27306575569366948 0 0.28733438825076368 0.27108796110478978 0 0.28661589797855402 0.26840505384568097 0 0.29024227766669058 0.26954619460490381 0 0.28733438825076368 0.27108796110478978 0 0.2848684593192698 0.27078404615639318 0 0.28661589797855402 0.26840505384568097 0 0.28351082165216779 0.2739244349354083 0 0.28733438825076368 0.27108796110478978 0 0.2848684593192698 0.27078404615639318 0 0.28351082165216779 0.2739244349354083 0 0.2848684593192698 0.27078404615639318 0 0.28241209558822961 0.26632916093747078 0 0.28612348479105743 0.26557280400170857 0 0.28241209558822961 0.26632916093747078 0 0.28661589797855402 0.26840505384568097 0 0.2848684593192698 0.27078404615639318 0 0.28241209558822961 0.26632916093747078 0 0.28661589797855402 0.26840505384568097 0 0.28661589797855402 0.26840505384568097 0 0.28928435291432292 0.26627202701476832 0 0.29024227766669058 0.26954619460490381 0 0.28612348479105743 0.26557280400170857 0 0.28661589797855402 0.26840505384568097 0 0.28928435291432292 0.26627202701476832 0 0.29208830856188789 0.26336840763512592 0 0.28928435291432292 0.26627202701476832 0 0.29297695870925222 0.26738919668419731 0 0.28928435291432292 0.26627202701476832 0 0.29297695870925222 0.26738919668419731 0 0.29024227766669058 0.26954619460490381 0 0.29297695870925222 0.26738919668419731 0 0.29576201226787813 0.27118247982537402 0 0.29024227766669058 0.26954619460490381 0 0.29297695870925222 0.26738919668419731 0 0.29576201226787813 0.27118247982537402 0 0.29765944308527592 0.26593032899830249 0 0.29576201226787813 0.27118247982537402 0 0.29024227766669058 0.26954619460490381 0 0.2907816862342732 0.27306575569366948 0 0.28733438825076368 0.27108796110478978 0 0.29024227766669058 0.26954619460490381 0 0.2907816862342732 0.27306575569366948 0 0.28351082165216779 0.2739244349354083 0 0.2907816862342732 0.27306575569366948 0 0.29516751126046797 0.28001135836836077 0 0.29576201226787813 0.27118247982537402 0 0.2907816862342732 0.27306575569366948 0 0.29516751126046797 0.28001135836836077 0 0.28351082165216779 0.2739244349354083 0 0.29516751126046797 0.28001135836836077 0 0.30323688172566321 0.27316773846810899 0 0.3039173510814423 0.25972757105281219 0 0.31817551788565168 0.27727122858112241 0 0.3039173510814423 0.25972757105281219 0 0.31817551788565168 0.27727122858112241 0 0.29576201226787813 0.27118247982537402 0 0.29516751126046797 0.28001135836836077 0 0.30323688172566321 0.27316773846810899 0 0.30706453001149392 0.28545611992336922 0 0.29516751126046797 0.28001135836836077 0 0.30323688172566321 0.27316773846810899 0 0.30323688172566321 0.27316773846810899 0 0.29765944308527592 0.26593032899830249 0 0.3039173510814423 0.25972757105281219 0 0.29576201226787813 0.27118247982537402 0 0.30323688172566321 0.27316773846810899 0 0.29765944308527592 0.26593032899830249 0 0.30706453001149392 0.28545611992336922 0 0.30323688172566321 0.27316773846810899 0 0.31817551788565168 0.27727122858112241 0 0.3039173510814423 0.25972757105281219 0 0.31246354634074469 0.25301562706991498 0 0.31817551788565168 0.27727122858112241 0 0.3039173510814423 0.25972757105281219 0 0.31246354634074469 0.25301562706991498 0 0.28965918427723281 0.24218391352450211 0 0.295861748010873 0.25998823260247511 0 0.29345893722613059 0.25129825022350127 0 0.3039173510814423 0.25972757105281219 0 0.295861748010873 0.25998823260247511 0 0.29765944308527592 0.26593032899830249 0 0.3039173510814423 0.25972757105281219 0 0.31246354634074469 0.25301562706991498 0 0.33526790840425669 0.26384734061532772 0 0.31246354634074469 0.25301562706991498 0 0.33526790840425669 0.26384734061532772 0 0.32643540241908581 0.2493154440826276 0 0.31246354634074469 0.25301562706991498 0 0.33526790840425669 0.26384734061532772 0 0.31817551788565168 0.27727122858112241 0 0.33526790840425669 0.26384734061532772 0 0.3379127634661398 0.24049180221066491 0 0.32643540241908581 0.2493154440826276 0 0.33526790840425669 0.26384734061532772 0 0.35634129443021012 0.25447852924978431 0 0.3379127634661398 0.24049180221066491 0 0.33526790840425669 0.26384734061532772 0 0.31817551788565168 0.27727122858112241 0 0.34172042880505471 0.28277804546335827 0 0.31817551788565168 0.27727122858112241 0 0.31797064105596812 0.29669460242380358 0 0.33243368468986112 0.29481488610943257 0 0.31817551788565168 0.27727122858112241 0 0.33243368468986112 0.29481488610943257 0 0.30706453001149392 0.28545611992336922 0 0.31817551788565168 0.27727122858112241 0 0.31797064105596812 0.29669460242380358 0 0.3124215414252603 0.31463851826348332 0 0.31797064105596812 0.29669460242380358 0 0.32649517228490349 0.30767158395733452 0 0.31797064105596812 0.29669460242380358 0 0.32649517228490349 0.30767158395733452 0 0.33243368468986112 0.29481488610943257 0 0.33433715661558527 0.30915126849091529 0 0.33243368468986112 0.29481488610943257 0 0.34669185149407039 0.31235854363774268 0 0.33243368468986112 0.29481488610943257 0 0.34669185149407039 0.31235854363774268 0 0.34568712778571031 0.29860929543060832 0 0.33243368468986112 0.29481488610943257 0 0.34669185149407039 0.31235854363774268 0 0.32649517228490349 0.30767158395733452 0 0.33433715661558527 0.30915126849091529 0 0.33243368468986112 0.29481488610943257 0 0.31817551788565168 0.27727122858112241 0 0.34172042880505471 0.28277804546335827 0 0.33243368468986112 0.29481488610943257 0 0.34172042880505471 0.28277804546335827 0 0.33243368468986112 0.29481488610943257 0 0.34568712778571031 0.29860929543060832 0 0.35199353865369548 0.28986078273705529 0 0.36153231744840347 0.2937746187606235 0 0.35807227046776868 0.27467905416074029 0 0.34172042880505471 0.28277804546335827 0 0.35199353865369548 0.28986078273705529 0 0.35807227046776868 0.27467905416074029 0 0.34172042880505471 0.28277804546335827 0 0.35199353865369548 0.28986078273705529 0 0.34568712778571031 0.29860929543060832 0 0.35199353865369548 0.28986078273705529 0 0.34568712778571031 0.29860929543060832 0 0.35295554876154028 0.29946289986994618 0 0.35199353865369548 0.28986078273705529 0 0.35295554876154028 0.29946289986994618 0 0.36153231744840347 0.2937746187606235 0 0.34669185149407039 0.31235854363774268 0 0.350707664864299 0.30502754758011252 0 0.35483192959872478 0.30892549123100937 0 0.34669185149407039 0.31235854363774268 0 0.350707664864299 0.30502754758011252 0 0.34568712778571031 0.29860929543060832 0 0.350707664864299 0.30502754758011252 0 0.34568712778571031 0.29860929543060832 0 0.35295554876154028 0.29946289986994618 0 0.35295554876154028 0.29946289986994618 0 0.35483192959872478 0.30892549123100937 0 0.36153231744840347 0.2937746187606235 0 0.350707664864299 0.30502754758011252 0 0.35295554876154028 0.29946289986994618 0 0.35483192959872478 0.30892549123100937 0 0.35483192959872478 0.30892549123100937 0 0.36873564116109159 0.30732066885645792 0 0.37793594120394791 0.29609092220287331 0 0.35483192959872478 0.30892549123100937 0 0.36153231744840347 0.2937746187606235 0 0.37793594120394791 0.29609092220287331 0 0.35483192959872478 0.30892549123100937 0 0.37793594120394791 0.29609092220287331 0 0.36216199407232552 0.31421251507807352 0 0.35483192959872478 0.30892549123100937 0 0.36873564116109159 0.30732066885645792 0 0.36873564116109159 0.30732066885645792 0 0.37793594120394791 0.29609092220287331 0 0.37618493526913999 0.30531787431980001 0 0.36908544359869788 0.31711993858565868 0 0.36873564116109159 0.30732066885645792 0 0.37552929986171052 0.31147094895867028 0 0.36873564116109159 0.30732066885645792 0 0.37552929986171052 0.31147094895867028 0 0.37618493526913999 0.30531787431980001 0 0.36153231744840347 0.2937746187606235 0 0.3696042904128502 0.28751384070759761 0 0.37793594120394791 0.29609092220287331 0 0.3696042904128502 0.28751384070759761 0 0.35807227046776868 0.27467905416074029 0 0.38087663253128068 0.28551076770615302 0 0.36153231744840347 0.2937746187606235 0 0.3696042904128502 0.28751384070759761 0 0.35807227046776868 0.27467905416074029 0 0.35807227046776868 0.27467905416074029 0 0.38087663253128068 0.28551076770615302 0 0.35807227046776868 0.27467905416074029 0 0.37543677279847171 0.26770278157766031 0 0.38087663253128068 0.28551076770615302 0 0.35634129443021012 0.25447852924978431 0 0.35807227046776868 0.27467905416074029 0 0.37543677279847171 0.26770278157766031 0 0.35634129443021012 0.25447852924978431 0 0.37543677279847171 0.26770278157766031 0 0.37588607332036628 0.2490878796733729 0 0.33526790840425669 0.26384734061532772 0 0.35634129443021012 0.25447852924978431 0 0.35807227046776868 0.27467905416074029 0 0.33526790840425669 0.26384734061532772 0 0.34172042880505471 0.28277804546335827 0 0.35807227046776868 0.27467905416074029 0 0.33526790840425669 0.26384734061532772 0 0.35807227046776868 0.27467905416074029 0 0.39392409312874033 0.26548119861246328 0 0.41196211293711438 0.28187451755155379 0 0.39392409312874033 0.26548119861246328 0 0.38745056937483863 0.27594374287878148 0 0.39653744276239639 0.28470199660397738 0 0.39392409312874033 0.26548119861246328 0 0.39653744276239639 0.28470199660397738 0 0.41196211293711438 0.28187451755155379 0 0.39392409312874033 0.26548119861246328 0 0.41530077718395331 0.26533492563787903 0 0.40933178642478668 0.24530746794650141 0 0.39392409312874033 0.26548119861246328 0 0.37543677279847171 0.26770278157766031 0 0.37588607332036628 0.2490878796733729 0 0.39392409312874033 0.26548119861246328 0 0.37588607332036628 0.2490878796733729 0 0.39392409312874033 0.26548119861246328 0 0.39103074677198191 0.2378645478919707 0 0.37588607332036628 0.2490878796733729 0 0.39392409312874033 0.26548119861246328 0 0.38745056937483863 0.27594374287878148 0 0.37543677279847171 0.26770278157766031 0 0.38745056937483863 0.27594374287878148 0 0.37543677279847171 0.26770278157766031 0 0.38087663253128068 0.28551076770615302 0 0.38087663253128068 0.28551076770615302 0 0.39129466819619951 0.29801807429951538 0 0.39653744276239639 0.28470199660397738 0 0.38745056937483863 0.27594374287878148 0 0.38087663253128068 0.28551076770615302 0 0.39653744276239639 0.28470199660397738 0 0.3696042904128502 0.28751384070759761 0 0.38087663253128068 0.28551076770615302 0 0.37793594120394791 0.29609092220287331 0 0.38087663253128068 0.28551076770615302 0 0.37793594120394791 0.29609092220287331 0 0.39129466819619951 0.29801807429951538 0 0.37552929986171052 0.31147094895867028 0 0.38253885884981009 0.30638895726119819 0 0.38253365066345929 0.31657150904984471 0 0.37552929986171052 0.31147094895867028 0 0.37618493526913999 0.30531787431980001 0 0.38253885884981009 0.30638895726119819 0 0.37793594120394791 0.29609092220287331 0 0.37618493526913999 0.30531787431980001 0 0.38253885884981009 0.30638895726119819 0 0.37793594120394791 0.29609092220287331 0 0.38253885884981009 0.30638895726119819 0 0.39129466819619951 0.29801807429951538 0 0.38253885884981009 0.30638895726119819 0 0.39212940840629362 0.31318847352025442 0 0.38253365066345929 0.31657150904984471 0 0.38253885884981009 0.30638895726119819 0 0.39129466819619951 0.29801807429951538 0 0.39212940840629362 0.31318847352025442 0 0.39129466819619951 0.29801807429951538 0 0.40057903262284272 0.30682002081122939 0 0.39212940840629362 0.31318847352025442 0 0.39129466819619951 0.29801807429951538 0 0.40479167519220871 0.29803551582379922 0 0.40057903262284272 0.30682002081122939 0 0.40057903262284272 0.30682002081122939 0 0.40276015360382211 0.3144041531339446 0 0.39212940840629362 0.31318847352025442 0 0.40479167519220871 0.29803551582379922 0 0.40057903262284272 0.30682002081122939 0 0.40860853726765339 0.309318938863758 0 0.40057903262284272 0.30682002081122939 0 0.40860853726765339 0.309318938863758 0 0.40276015360382211 0.3144041531339446 0 0.40479167519220871 0.29803551582379922 0 0.39653744276239639 0.28470199660397738 0 0.41196211293711438 0.28187451755155379 0 0.39129466819619951 0.29801807429951538 0 0.40479167519220871 0.29803551582379922 0 0.39653744276239639 0.28470199660397738 0 0.40479167519220871 0.29803551582379922 0 0.41196211293711438 0.28187451755155379 0 0.42604734048813458 0.28838989128274578 0 0.40479167519220871 0.29803551582379922 0 0.42604734048813458 0.28838989128274578 0 0.41196211293711438 0.28187451755155379 0 0.42604734048813458 0.28838989128274578 0 0.42096165520647338 0.27640965763746961 0 0.41751736358108449 0.30523346237375532 0 0.43213625579819431 0.30543734923285137 0 0.41316086399048302 0.31918962555795088 0 0.40479167519220871 0.29803551582379922 0 0.41751736358108449 0.30523346237375532 0 0.42604734048813458 0.28838989128274578 0 0.40860853726765339 0.309318938863758 0 0.41751736358108449 0.30523346237375532 0 0.41316086399048302 0.31918962555795088 0 0.40479167519220871 0.29803551582379922 0 0.40860853726765339 0.309318938863758 0 0.41751736358108449 0.30523346237375532 0 0.41751736358108449 0.30523346237375532 0 0.43213625579819431 0.30543734923285137 0 0.42604734048813458 0.28838989128274578 0 0.43213625579819431 0.30543734923285137 0 0.41316086399048302 0.31918962555795088 0 0.43213625579819431 0.30543734923285137 0 0.44422558879226298 0.30694386780845051 0 0.43154308657343537 0.31483265104709918 0 0.42604734048813458 0.28838989128274578 0 0.44730300578406051 0.27874426674169239 0 0.43914956241907371 0.29106414504126032 0 0.43213625579819431 0.30543734923285137 0 0.42604734048813458 0.28838989128274578 0 0.43914956241907371 0.29106414504126032 0 0.42604734048813458 0.28838989128274578 0 0.44730300578406051 0.27874426674169239 0 0.42604734048813458 0.28838989128274578 0 0.43053639021669149 0.27003929607769961 0 0.44730300578406051 0.27874426674169239 0 0.42604734048813458 0.28838989128274578 0 0.43053639021669149 0.27003929607769961 0 0.42096165520647338 0.27640965763746961 0 0.43053639021669149 0.27003929607769961 0 0.42096165520647338 0.27640965763746961 0 0.41530077718395331 0.26533492563787903 0 0.39392409312874033 0.26548119861246328 0 0.41196211293711438 0.28187451755155379 0 0.41530077718395331 0.26533492563787903 0 0.41196211293711438 0.28187451755155379 0 0.42096165520647338 0.27640965763746961 0 0.41530077718395331 0.26533492563787903 0 0.41530077718395331 0.26533492563787903 0 0.42507863072368701 0.2531856777568211 0 0.40933178642478668 0.24530746794650141 0 0.43053639021669149 0.27003929607769961 0 0.42507863072368701 0.2531856777568211 0 0.43671171400039921 0.25931077911745237 0 0.43053639021669149 0.27003929607769961 0 0.41530077718395331 0.26533492563787903 0 0.42507863072368701 0.2531856777568211 0 0.43053639021669149 0.27003929607769961 0 0.43671171400039921 0.25931077911745237 0 0.4433298154441227 0.26629613073356512 0 0.42507863072368701 0.2531856777568211 0 0.43671171400039921 0.25931077911745237 0 0.43876594592942619 0.2491002947533556 0 0.48930401013157893 0.26400543771054868 0 0.5 0.30014541135995981 0 0.50000000000000078 0.23475110787519651 0 0.43671171400039921 0.25931077911745237 0 0.44893917376128722 0.25670587451621701 0 0.43876594592942619 0.2491002947533556 0 0.43671171400039921 0.25931077911745237 0 0.44893917376128722 0.25670587451621701 0 0.4433298154441227 0.26629613073356512 0 0.44893917376128722 0.25670587451621701 0 0.4433298154441227 0.26629613073356512 0 0.45470448649478412 0.26606712633996182 0 0.43053639021669149 0.27003929607769961 0 0.4433298154441227 0.26629613073356512 0 0.44730300578406051 0.27874426674169239 0 0.4433298154441227 0.26629613073356512 0 0.44730300578406051 0.27874426674169239 0 0.45470448649478412 0.26606712633996182 0 0.44730300578406051 0.27874426674169239 0 0.45470448649478412 0.26606712633996182 0 0.46855867107998628 0.26909864220063873 0 0.44730300578406051 0.27874426674169239 0 0.46855867107998628 0.26909864220063873 0 0.47008703941361663 0.27793279658265219 0 0.44730300578406051 0.27874426674169239 0 0.46855867107998628 0.26909864220063873 0 0.44893917376128722 0.25670587451621701 0 0.4657425708042397 0.25282124097232528 0 0.45444189403291402 0.2411770147019261 0 0.46855867107998628 0.26909864220063873 0 0.4657425708042397 0.25282124097232528 0 0.45470448649478412 0.26606712633996182 0 0.46855867107998628 0.26909864220063873 0 0.4657425708042397 0.25282124097232528 0 0.44893917376128722 0.25670587451621701 0 0.45470448649478412 0.26606712633996182 0 0.4657425708042397 0.25282124097232528 0 0.4657425708042397 0.25282124097232528 0 0.48060284673389919 0.263633106558882 0 0.48319944748130261 0.24680576274814439 0 0.48060284673389919 0.263633106558882 0 0.48930401013157893 0.26400543771054868 0 0.48319944748130261 0.24680576274814439 0 0.46855867107998628 0.26909864220063873 0 0.4657425708042397 0.25282124097232528 0 0.48060284673389919 0.263633106558882 0 0.47008703941361663 0.27793279658265219 0 0.48930401013157893 0.26400543771054868 0 0.46855867107998628 0.26909864220063873 0 0.48060284673389919 0.263633106558882 0 0.48060284673389919 0.263633106558882 0 0.47008703941361663 0.27793279658265219 0 0.48930401013157893 0.26400543771054868 0 0.47008703941361663 0.27793279658265219 0 0.48006412771999057 0.27905949761247589 0 0.48930401013157893 0.26400543771054868 0 0.46855867107998628 0.26909864220063873 0 0.48060284673389919 0.263633106558882 0 0.47008703941361663 0.27793279658265219 0 0.46855867107998628 0.26909864220063873 0 0.47008703941361663 0.27793279658265219 0 0.48006412771999057 0.27905949761247589 0 0.48930401013157893 0.26400543771054868 0 0.48625483393177482 0.28246926535835643 0 0.48930401013157893 0.26400543771054868 0 0.5 0.30014541135995981 0 0.48625483393177482 0.28246926535835643 0 0.5 0.30014541135995981 0 0.48970041229178968 0.29406901354624332 0 0.4885492687023667 0.31475660787172299 0 0.5 0.30014541135995981 0 0.48625483393177482 0.28246926535835643 0 0.48970041229178968 0.29406901354624332 0 0.48625483393177482 0.28246926535835643 0 0.48970041229178968 0.29406901354624332 0 0.47848665946962488 0.28859017348115529 0 0.48970041229178968 0.29406901354624332 0 0.47848665946962488 0.28859017348115529 0 0.47416262890117539 0.30149019824985379 0 0.47008703941361663 0.27793279658265219 0 0.47416262890117539 0.30149019824985379 0 0.47008703941361663 0.27793279658265219 0 0.47848665946962488 0.28859017348115529 0 0.47416262890117539 0.30149019824985379 0 0.47008703941361663 0.27793279658265219 0 0.47416262890117539 0.30149019824985379 0 0.46463260069651119 0.29140132306620031 0 0.48006412771999057 0.27905949761247589 0 0.48625483393177482 0.28246926535835643 0 0.47848665946962488 0.28859017348115529 0 0.47008703941361663 0.27793279658265219 0 0.48006412771999057 0.27905949761247589 0 0.47848665946962488 0.28859017348115529 0 0.48970041229178968 0.29406901354624332 0 0.47416262890117539 0.30149019824985379 0 0.4885492687023667 0.31475660787172299 0 0.48970041229178968 0.29406901354624332 0 0.47416262890117539 0.30149019824985379 0 0.47416262890117539 0.30149019824985379 0 0.45853060084376801 0.29977374142415342 0 0.45560674310843452 0.3103528945782269 0 0.47416262890117539 0.30149019824985379 0 0.45560674310843452 0.3103528945782269 0 0.47416262890117539 0.30149019824985379 0 0.45853060084376801 0.29977374142415342 0 0.46463260069651119 0.29140132306620031 0 0.47008703941361663 0.27793279658265219 0 0.46463260069651119 0.29140132306620031 0 0.45111164760590539 0.29168507290775181 0 0.47008703941361663 0.27793279658265219 0 0.45111164760590539 0.29168507290775181 0 0.44730300578406051 0.27874426674169239 0 0.47008703941361663 0.27793279658265219 0 0.45111164760590539 0.29168507290775181 0 0.45853060084376801 0.29977374142415342 0 0.46463260069651119 0.29140132306620031 0 0.45111164760590539 0.29168507290775181 0 0.43213625579819431 0.30543734923285137 0 0.45111164760590539 0.29168507290775181 0 0.43914956241907371 0.29106414504126032 0 0.44730300578406051 0.27874426674169239 0 0.45111164760590539 0.29168507290775181 0 0.43914956241907371 0.29106414504126032 0 0.43213625579819431 0.30543734923285137 0 0.45111164760590539 0.29168507290775181 0 0.43213625579819431 0.30543734923285137 0 0.45111164760590539 0.29168507290775181 0 0.44422558879226298 0.30694386780845051 0 0.45560674310843452 0.3103528945782269 0 0.44422558879226298 0.30694386780845051 0 0.43842966418539248 0.31774810934188358 0 0.45853060084376801 0.29977374142415342 0 0.45560674310843452 0.3103528945782269 0 0.44422558879226298 0.30694386780845051 0 0.45853060084376801 0.29977374142415342 0 0.45111164760590539 0.29168507290775181 0 0.44422558879226298 0.30694386780845051 0 0.45560674310843452 0.3103528945782269 0 0.43705085731569332 0.31921559090659912 0 0.45560674310843452 0.3103528945782269 0 0.445574462909617 0.32293984437028 0 0.43705085731569332 0.31921559090659912 0 0.45560674310843452 0.3103528945782269 0 0.445574462909617 0.32293984437028 0 0.45356547482711718 0.33018117931006491 0 0.45560674310843452 0.3103528945782269 0 0.43842966418539248 0.31774810934188358 0 0.43705085731569332 0.31921559090659912 0 0.44422558879226298 0.30694386780845051 0 0.43842966418539248 0.31774810934188358 0 0.43154308657343537 0.31483265104709918 0 0.43842966418539248 0.31774810934188358 0 0.43705085731569332 0.31921559090659912 0 0.43892997145578388 0.32563168502311662 0 0.445574462909617 0.32293984437028 0 0.44083529419097978 0.33094373067874189 0 0.43892997145578388 0.32563168502311662 0 0.445574462909617 0.32293984437028 0 0.43705085731569332 0.31921559090659912 0 0.445574462909617 0.32293984437028 0 0.44083529419097978 0.33094373067874189 0 0.45356547482711718 0.33018117931006491 0 0.44165801472227312 0.34323984209273423 0 0.45356547482711718 0.33018117931006491 0 0.45850926574073331 0.34651392194864622 0 0.44165801472227312 0.34323984209273423 0 0.44083529419097978 0.33094373067874189 0 0.43166902790598161 0.33929201054700048 0 0.43892997145578388 0.32563168502311662 0 0.44083529419097978 0.33094373067874189 0 0.43317574323615998 0.33104402243960368 0 0.44165801472227312 0.34323984209273423 0 0.44083529419097978 0.33094373067874189 0 0.45356547482711718 0.33018117931006491 0 0.45356547482711718 0.33018117931006491 0 0.47888330231886822 0.32877626329145132 0 0.45850926574073331 0.34651392194864622 0 0.45560674310843452 0.3103528945782269 0 0.45356547482711718 0.33018117931006491 0 0.47888330231886822 0.32877626329145132 0 0.5 0.30014541135995981 0 0.4885492687023667 0.31475660787172299 0 0.5 0.34930215291110689 0 0.47888330231886822 0.32877626329145132 0 0.4885492687023667 0.31475660787172299 0 0.5 0.34930215291110689 0 0.47416262890117539 0.30149019824985379 0 0.45560674310843452 0.3103528945782269 0 0.47888330231886822 0.32877626329145132 0 0.47416262890117539 0.30149019824985379 0 0.47888330231886822 0.32877626329145132 0 0.4885492687023667 0.31475660787172299 0 0.47416262890117539 0.30149019824985379 0 0.47888330231886822 0.32877626329145132 0 0.47888330231886822 0.32877626329145132 0 0.47565767627723321 0.35367653303588131 0 0.45850926574073331 0.34651392194864622 0 0.5 0.34930215291110689 0 0.47565767627723321 0.35367653303588131 0 0.47781149018510388 0.37869427749857482 0 0.47888330231886822 0.32877626329145132 0 0.5 0.34930215291110689 0 0.47565767627723321 0.35367653303588131 0 0.47565767627723321 0.35367653303588131 0 0.45733288770108432 0.36201985544527537 0 0.47781149018510388 0.37869427749857482 0 0.47565767627723321 0.35367653303588131 0 0.45733288770108432 0.36201985544527537 0 0.45850926574073331 0.34651392194864622 0 0.44165801472227312 0.34323984209273423 0 0.45850926574073331 0.34651392194864622 0 0.4413887647347946 0.35929889092681982 0 0.45733288770108432 0.36201985544527537 0 0.45850926574073331 0.34651392194864622 0 0.4413887647347946 0.35929889092681982 0 0.45733288770108432 0.36201985544527537 0 0.4413887647347946 0.35929889092681982 0 0.44153901264778062 0.37343480580038879 0 0.45733288770108432 0.36201985544527537 0 0.44153901264778062 0.37343480580038879 0 0.45482676763662039 0.38809293299633429 0 0.42640845802995259 0.36892404556868708 0 0.41557269665981 0.35954071959013117 0 0.42852438312620561 0.35190461944610102 0 0.4413887647347946 0.35929889092681982 0 0.42640845802995259 0.36892404556868708 0 0.42852438312620561 0.35190461944610102 0 0.4413887647347946 0.35929889092681982 0 0.44153901264778062 0.37343480580038879 0 0.42640845802995259 0.36892404556868708 0 0.41557269665981 0.35954071959013117 0 0.39773627330903077 0.36105859917852151 0 0.40780080352149928 0.37567923871478631 0 0.42640845802995259 0.36892404556868708 0 0.41557269665981 0.35954071959013117 0 0.40780080352149928 0.37567923871478631 0 0.41557269665981 0.35954071959013117 0 0.42852438312620561 0.35190461944610102 0 0.41739356531236188 0.34013709504256018 0 0.41557269665981 0.35954071959013117 0 0.41739356531236188 0.34013709504256018 0 0.39773627330903077 0.36105859917852151 0 0.41739356531236188 0.34013709504256018 0 0.39773627330903077 0.36105859917852151 0 0.42852438312620561 0.35190461944610102 0 0.43166902790598161 0.33929201054700048 0 0.41739356531236188 0.34013709504256018 0 0.44165801472227312 0.34323984209273423 0 0.4413887647347946 0.35929889092681982 0 0.42852438312620561 0.35190461944610102 0 0.44165801472227312 0.34323984209273423 0 0.42852438312620561 0.35190461944610102 0 0.43166902790598161 0.33929201054700048 0 0.43705085731569332 0.31921559090659912 0 0.41739356531236188 0.34013709504256018 0 0.41544983039366512 0.32953271314637039 0 0.43705085731569332 0.31921559090659912 0 0.41739356531236188 0.34013709504256018 0 0.43317574323615998 0.33104402243960368 0 0.43705085731569332 0.31921559090659912 0 0.41739356531236188 0.34013709504256018 0 0.43166902790598161 0.33929201054700048 0 0.43317574323615998 0.33104402243960368 0 0.41739356531236188 0.34013709504256018 0 0.44083529419097978 0.33094373067874189 0 0.43166902790598161 0.33929201054700048 0 0.43317574323615998 0.33104402243960368 0 0.43213625579819431 0.30543734923285137 0 0.43154308657343537 0.31483265104709918 0 0.41316086399048302 0.31918962555795088 0 0.43705085731569332 0.31921559090659912 0 0.41544983039366512 0.32953271314637039 0 0.43705085731569332 0.31921559090659912 0 0.42444684759267981 0.32028615430654062 0 0.41544983039366512 0.32953271314637039 0 0.43154308657343537 0.31483265104709918 0 0.42444684759267981 0.32028615430654062 0 0.41316086399048302 0.31918962555795088 0 0.43154308657343537 0.31483265104709918 0 0.43705085731569332 0.31921559090659912 0 0.42444684759267981 0.32028615430654062 0 0.43842966418539248 0.31774810934188358 0 0.43154308657343537 0.31483265104709918 0 0.43705085731569332 0.31921559090659912 0 0.43892997145578388 0.32563168502311662 0 0.43317574323615998 0.33104402243960368 0 0.43705085731569332 0.31921559090659912 0 0.41316086399048302 0.31918962555795088 0 0.41544983039366512 0.32953271314637039 0 0.39418547218277172 0.33294190188305062 0 0.42444684759267981 0.32028615430654062 0 0.41316086399048302 0.31918962555795088 0 0.41544983039366512 0.32953271314637039 0 0.40860853726765339 0.309318938863758 0 0.41316086399048302 0.31918962555795088 0 0.40276015360382211 0.3144041531339446 0 0.41739356531236188 0.34013709504256018 0 0.41544983039366512 0.32953271314637039 0 0.39384880347163692 0.33984983538614127 0 0.41544983039366512 0.32953271314637039 0 0.39418547218277172 0.33294190188305062 0 0.39384880347163692 0.33984983538614127 0 0.41544983039366512 0.32953271314637039 0 0.39384880347163692 0.33984983538614127 0 0.39418547218277172 0.33294190188305062 0 0.39384880347163692 0.33984983538614127 0 0.38763626903965592 0.33142256612758492 0 0.39418547218277172 0.33294190188305062 0 0.39181849880786379 0.32717555703993689 0 0.38763626903965592 0.33142256612758492 0 0.41316086399048302 0.31918962555795088 0 0.39418547218277172 0.33294190188305062 0 0.39708961803314868 0.32200780813679419 0 0.41316086399048302 0.31918962555795088 0 0.40276015360382211 0.3144041531339446 0 0.39708961803314868 0.32200780813679419 0 0.41316086399048302 0.31918962555795088 0 0.39418547218277172 0.33294190188305062 0 0.39418547218277172 0.33294190188305062 0 0.39708961803314868 0.32200780813679419 0 0.39181849880786379 0.32717555703993689 0 0.39708961803314868 0.32200780813679419 0 0.39181849880786379 0.32717555703993689 0 0.38758066886242332 0.32336225559927501 0 0.39708961803314868 0.32200780813679419 0 0.39212940840629362 0.31318847352025442 0 0.38758066886242332 0.32336225559927501 0 0.40276015360382211 0.3144041531339446 0 0.39708961803314868 0.32200780813679419 0 0.39212940840629362 0.31318847352025442 0 0.39212940840629362 0.31318847352025442 0 0.38758066886242332 0.32336225559927501 0 0.38253365066345929 0.31657150904984471 0 0.38758066886242332 0.32336225559927501 0 0.37951212113643251 0.32682582922079478 0 0.38253365066345929 0.31657150904984471 0 0.39181849880786379 0.32717555703993689 0 0.38758066886242332 0.32336225559927501 0 0.38763626903965592 0.33142256612758492 0 0.38758066886242332 0.32336225559927501 0 0.37951212113643251 0.32682582922079478 0 0.38763626903965592 0.33142256612758492 0 0.37069175466933912 0.32875176142968793 0 0.37951212113643251 0.32682582922079478 0 0.37512131353827649 0.31993777409944391 0 0.37951212113643251 0.32682582922079478 0 0.38253365066345929 0.31657150904984471 0 0.37512131353827649 0.31993777409944391 0 0.37552929986171052 0.31147094895867028 0 0.38253365066345929 0.31657150904984471 0 0.37512131353827649 0.31993777409944391 0 0.3722477765496085 0.35016695762591221 0 0.39384880347163692 0.33984983538614127 0 0.38018026091455548 0.33583017463534492 0 0.39384880347163692 0.33984983538614127 0 0.38763626903965592 0.33142256612758492 0 0.38018026091455548 0.33583017463534492 0 0.37069175466933912 0.32875176142968793 0 0.37951212113643251 0.32682582922079478 0 0.38018026091455548 0.33583017463534492 0 0.37951212113643251 0.32682582922079478 0 0.38763626903965592 0.33142256612758492 0 0.38018026091455548 0.33583017463534492 0 0.3722477765496085 0.35016695762591221 0 0.39384880347163692 0.33984983538614127 0 0.3722477765496085 0.35016695762591221 0 0.39384880347163692 0.33984983538614127 0 0.38596182216836522 0.35527606173029752 0 0.3722477765496085 0.35016695762591221 0 0.38596182216836522 0.35527606173029752 0 0.37807898130569972 0.38198010331448301 0 0.38596182216836522 0.35527606173029752 0 0.39773627330903077 0.36105859917852151 0 0.37807898130569972 0.38198010331448301 0 0.39773627330903077 0.36105859917852151 0 0.37807898130569972 0.38198010331448301 0 0.39773627330903077 0.36105859917852151 0 0.37807898130569972 0.38198010331448301 0 0.40780080352149928 0.37567923871478631 0 0.41739356531236188 0.34013709504256018 0 0.39384880347163692 0.33984983538614127 0 0.39773627330903077 0.36105859917852151 0 0.39384880347163692 0.33984983538614127 0 0.38596182216836522 0.35527606173029752 0 0.39773627330903077 0.36105859917852151 0 0.40390821143883249 0.39309141821086863 0 0.37807898130569972 0.38198010331448301 0 0.39091832328282361 0.41087193027100549 0 0.40390821143883249 0.39309141821086863 0 0.39091832328282361 0.41087193027100549 0 0.41386422373874859 0.406371997932643 0 0.40390821143883249 0.39309141821086863 0 0.37807898130569972 0.38198010331448301 0 0.40780080352149928 0.37567923871478631 0 0.36187958923526292 0.40293945046940088 0 0.37807898130569972 0.38198010331448301 0 0.39091832328282361 0.41087193027100549 0 0.37193014631584848 0.42999924720615068 0 0.39355396721594382 0.43664913910555569 0 0.39091832328282361 0.41087193027100549 0 0.39355396721594382 0.43664913910555569 0 0.4086430402520686 0.43726383809014391 0 0.41286414250946218 0.42378426033622751 0 0.39355396721594382 0.43664913910555569 0 0.39091832328282361 0.41087193027100549 0 0.41286414250946218 0.42378426033622751 0 0.39091832328282361 0.41087193027100549 0 0.41386422373874859 0.406371997932643 0 0.41286414250946218 0.42378426033622751 0 0.41386422373874859 0.406371997932643 0 0.41286414250946218 0.42378426033622751 0 0.43221705047033082 0.4090921792360791 0 0.41286414250946218 0.42378426033622751 0 0.43133933500857929 0.43201167421733949 0 0.41892553910608071 0.43791135523627978 0 0.4086430402520686 0.43726383809014391 0 0.41286414250946218 0.42378426033622751 0 0.41892553910608071 0.43791135523627978 0 0.41286414250946218 0.42378426033622751 0 0.43133933500857929 0.43201167421733949 0 0.41286414250946218 0.42378426033622751 0 0.43133933500857929 0.43201167421733949 0 0.43221705047033082 0.4090921792360791 0 0.41386422373874859 0.406371997932643 0 0.43221705047033082 0.4090921792360791 0 0.42773818513645112 0.38883830406482728 0 0.40390821143883249 0.39309141821086863 0 0.41386422373874859 0.406371997932643 0 0.42773818513645112 0.38883830406482728 0 0.40390821143883249 0.39309141821086863 0 0.40780080352149928 0.37567923871478631 0 0.42773818513645112 0.38883830406482728 0 0.42640845802995259 0.36892404556868708 0 0.40780080352149928 0.37567923871478631 0 0.42773818513645112 0.38883830406482728 0 0.44153901264778062 0.37343480580038879 0 0.42640845802995259 0.36892404556868708 0 0.42773818513645112 0.38883830406482728 0 0.44153901264778062 0.37343480580038879 0 0.42773818513645112 0.38883830406482728 0 0.45482676763662039 0.38809293299633429 0 0.5 0.34930215291110689 0 0.47781149018510388 0.37869427749857482 0 0.5 0.41423412078117261 0 0.43221705047033082 0.4090921792360791 0 0.42773818513645112 0.38883830406482728 0 0.45482676763662039 0.38809293299633429 0 0.43221705047033082 0.4090921792360791 0 0.45482676763662039 0.38809293299633429 0 0.45232064757215651 0.41416601054739322 0 0.45482676763662039 0.38809293299633429 0 0.47121798163558132 0.40484318606820219 0 0.45232064757215651 0.41416601054739322 0 0.45482676763662039 0.38809293299633429 0 0.45232064757215651 0.41416601054739322 0 0.45733288770108432 0.36201985544527537 0 0.45482676763662039 0.38809293299633429 0 0.47781149018510388 0.37869427749857482 0 0.45482676763662039 0.38809293299633429 0 0.47781149018510388 0.37869427749857482 0 0.47121798163558132 0.40484318606820219 0 0.45733288770108432 0.36201985544527537 0 0.45482676763662039 0.38809293299633429 0 0.47781149018510388 0.37869427749857482 0 0.47121798163558132 0.40484318606820219 0 0.5 0.41423412078117261 0 0.5 0.41423412078117261 0 0.47113100278402542 0.42902858851753611 0 0.48237845739663598 0.45474052989964669 0 0.47121798163558132 0.40484318606820219 0 0.5 0.41423412078117261 0 0.47113100278402542 0.42902858851753611 0 0.47113100278402542 0.42902858851753611 0 0.45232064757215651 0.41416601054739322 0 0.44981452750769602 0.44023908809845258 0 0.47121798163558132 0.40484318606820219 0 0.47113100278402542 0.42902858851753611 0 0.45232064757215651 0.41416601054739322 0 0.43133933500857929 0.43201167421733949 0 0.43221705047033082 0.4090921792360791 0 0.45232064757215651 0.41416601054739322 0 0.43133933500857929 0.43201167421733949 0 0.44981452750769602 0.44023908809845258 0 0.45232064757215651 0.41416601054739322 0 0.44981452750769602 0.44023908809845258 0 0.43133933500857929 0.43201167421733949 0 0.45232064757215651 0.41416601054739322 0 0.44981452750769602 0.44023908809845258 0 0.43133933500857929 0.43201167421733949 0 0.44981452750769602 0.44023908809845258 0 0.43647632095713862 0.44436215142212632 0 0.44981452750769602 0.44023908809845258 0 0.44828887142136431 0.4561116514361514 0 0.43647632095713862 0.44436215142212632 0 0.5 0.41423412078117261 0 0.48237845739663598 0.45474052989964669 0 0.5 0.5 0 0.44981452750769602 0.44023908809845258 0 0.44828887142136431 0.4561116514361514 0 0.44828887142136431 0.4561116514361514 0 0.46262912319994498 0.4617517767316669 0 0.44676321533503599 0.47198421477385039 0 0.44828887142136431 0.4561116514361514 0 0.44676321533503599 0.47198421477385039 0 0.44828887142136431 0.4561116514361514 0 0.44676321533503599 0.47198421477385039 0 0.43105685511778941 0.46008286853249242 0 0.44828887142136431 0.4561116514361514 0 0.43105685511778941 0.46008286853249242 0 0.43647632095713862 0.44436215142212632 0 0.44828887142136431 0.4561116514361514 0 0.46262912319994498 0.4617517767316669 0 0.46609649245216622 0.44748980899904922 0 0.44981452750769602 0.44023908809845258 0 0.46609649245216622 0.44748980899904922 0 0.47113100278402542 0.42902858851753611 0 0.44981452750769602 0.44023908809845258 0 0.46609649245216622 0.44748980899904922 0 0.44981452750769602 0.44023908809845258 0 0.44828887142136431 0.4561116514361514 0 0.46609649245216622 0.44748980899904922 0 0.46609649245216622 0.44748980899904922 0 0.48237845739663598 0.45474052989964669 0 0.47113100278402542 0.42902858851753611 0 0.46609649245216622 0.44748980899904922 0 0.48237845739663598 0.45474052989964669 0 0.46262912319994498 0.4617517767316669 0 0.46609649245216622 0.44748980899904922 0 0.48237845739663598 0.45474052989964669 0 0.46262912319994498 0.4617517767316669 0 0.48237845739663598 0.45474052989964669 0 0.46961857939452217 0.47843267854963678 0 0.5 0.5 0 0.46961857939452217 0.47843267854963678 0 0.45695651283274419 0.5 0 0.48237845739663598 0.45474052989964669 0 0.5 0.5 0 0.46961857939452217 0.47843267854963678 0 0.46262912319994498 0.4617517767316669 0 0.46961857939452217 0.47843267854963678 0 0.44676321533503599 0.47198421477385039 0 0.46961857939452217 0.47843267854963678 0 0.45695651283274419 0.5 0 0.44676321533503599 0.47198421477385039 0 0.45695651283274419 0.5 0 0.44676321533503599 0.47198421477385039 0 0.42715067833807191 0.48563837301334373 0 0.45695651283274419 0.5 0 0.42715067833807191 0.48563837301334373 0 0.39792984500105372 0.49999999999999267 0 0.42715067833807191 0.48563837301334373 0 0.40953154044098622 0.4794767255128099 0 0.39792984500105372 0.49999999999999267 0 0.40953154044098622 0.4794767255128099 0 0.41525465208730261 0.46316685488367448 0 0.40032430733366781 0.47438196319643627 0 0.42715067833807191 0.48563837301334373 0 0.40953154044098622 0.4794767255128099 0 0.42565961132635199 0.47168315798381388 0 0.40953154044098622 0.4794767255128099 0 0.42565961132635199 0.47168315798381388 0 0.41525465208730261 0.46316685488367448 0 0.44676321533503599 0.47198421477385039 0 0.42715067833807191 0.48563837301334373 0 0.42565961132635199 0.47168315798381388 0 0.42565961132635199 0.47168315798381388 0 0.43105685511778941 0.46008286853249242 0 0.41525465208730261 0.46316685488367448 0 0.44676321533503599 0.47198421477385039 0 0.42565961132635199 0.47168315798381388 0 0.43105685511778941 0.46008286853249242 0 0.43647632095713862 0.44436215142212632 0 0.4092285121767878 0.4507105976825127 0 0.43133933500857929 0.43201167421733949 0 0.43647632095713862 0.44436215142212632 0 0.41892553910608071 0.43791135523627978 0 0.43105685511778941 0.46008286853249242 0 0.43647632095713862 0.44436215142212632 0 0.4092285121767878 0.4507105976825127 0 0.43647632095713862 0.44436215142212632 0 0.41892553910608071 0.43791135523627978 0 0.4092285121767878 0.4507105976825127 0 0.4086430402520686 0.43726383809014391 0 0.41892553910608071 0.43791135523627978 0 0.4092285121767878 0.4507105976825127 0 0.43105685511778941 0.46008286853249242 0 0.4092285121767878 0.4507105976825127 0 0.41525465208730261 0.46316685488367448 0 0.41525465208730261 0.46316685488367448 0 0.38526933680530762 0.46591325479630669 0 0.40032430733366781 0.47438196319643627 0 0.4092285121767878 0.4507105976825127 0 0.41525465208730261 0.46316685488367448 0 0.38526933680530762 0.46591325479630669 0 0.4092285121767878 0.4507105976825127 0 0.38526933680530762 0.46591325479630669 0 0.38198070339643708 0.45705904394289942 0 0.4092285121767878 0.4507105976825127 0 0.38198070339643708 0.45705904394289942 0 0.41525465208730261 0.46316685488367448 0 0.38526933680530762 0.46591325479630669 0 0.39355396721594382 0.43664913910555569 0 0.4086430402520686 0.43726383809014391 0 0.4092285121767878 0.4507105976825127 0 0.39355396721594382 0.43664913910555569 0 0.4092285121767878 0.4507105976825127 0 0.38198070339643708 0.45705904394289942 0 0.37193014631584848 0.42999924720615068 0 0.39355396721594382 0.43664913910555569 0 0.38198070339643708 0.45705904394289942 0 0.37193014631584848 0.42999924720615068 0 0.38198070339643708 0.45705904394289942 0 0.36717500093372668 0.46757054210475929 0 0.38526933680530762 0.46591325479630669 0 0.36717500093372668 0.46757054210475929 0 0.38526933680530762 0.46591325479630669 0 0.38198070339643708 0.45705904394289942 0 0.38526933680530762 0.46591325479630669 0 0.38198070339643708 0.45705904394289942 0 0.36717500093372668 0.46757054210475929 0 0.38526933680530762 0.46591325479630669 0 0.37501723488010369 0.48021086780116401 0 0.38526933680530762 0.46591325479630669 0 0.39159959090318019 0.48295662739814987 0 0.38526933680530762 0.46591325479630669 0 0.37501723488010369 0.48021086780116401 0 0.39159959090318019 0.48295662739814987 0 0.37100127548482031 0.49999999999999922 0 0.39792984500105372 0.49999999999999267 0 0.39159959090318019 0.48295662739814987 0 0.37100127548482031 0.49999999999999922 0 0.37501723488010369 0.48021086780116401 0 0.39159959090318019 0.48295662739814987 0 0.40953154044098622 0.4794767255128099 0 0.39792984500105372 0.49999999999999267 0 0.39159959090318019 0.48295662739814987 0 0.39792984500105372 0.49999999999999267 0 0.39159959090318019 0.48295662739814987 0 0.38526933680530762 0.46591325479630669 0 0.39159959090318019 0.48295662739814987 0 0.40032430733366781 0.47438196319643627 0 0.40953154044098622 0.4794767255128099 0 0.39159959090318019 0.48295662739814987 0 0.40032430733366781 0.47438196319643627 0 0.33044620589452839 0.087817198709655944 0 0.34171554996877818 0.096966806733087524 0 0.34881532063442522 0.082201530692034883 0 0.33044620589452839 0.087817198709655944 0 0.32566991147381341 0.070879840112157963 0 0.34881532063442522 0.082201530692034883 0 0.32566991147381341 0.070879840112157963 0 0.34881532063442522 0.082201530692034883 0 0.34230685448842202 0.061943355546023537 0 0.32566991147381341 0.070879840112157963 0 0.31072716300308328 0.059331554637136651 0 0.31153776068034922 0.089135316111794982 0 0.33044620589452839 0.087817198709655944 0 0.32806927392538099 0.098855845298032555 0 0.31153776068034922 0.089135316111794982 0 0.33044620589452839 0.087817198709655944 0 0.32566991147381341 0.070879840112157963 0 0.31153776068034922 0.089135316111794982 0 0.32260309590447922 0.1123122165003074 0 0.31153776068034922 0.089135316111794982 0 0.31234835835761571 0.11893907758645331 0 0.32806927392538099 0.098855845298032555 0 0.32260309590447922 0.1123122165003074 0 0.31153776068034922 0.089135316111794982 0 0.32260309590447922 0.1123122165003074 0 0.33019904407723683 0.1184739086744384 0 0.31234835835761571 0.11893907758645331 0 0.33019904407723683 0.1184739086744384 0 0.31234835835761571 0.11893907758645331 0 0.33442235067943221 0.13211305649348251 0 0.32260309590447922 0.1123122165003074 0 0.33019904407723683 0.1184739086744384 0 0.33404375717876961 0.1080476884353169 0 0.33404375717876961 0.1080476884353169 0 0.343988490580944 0.1176741160108202 0 0.33019904407723683 0.1184739086744384 0 0.33404375717876961 0.1080476884353169 0 0.343988490580944 0.1176741160108202 0 0.343988490580944 0.1176741160108202 0 0.33442235067943221 0.13211305649348251 0 0.33019904407723683 0.1184739086744384 0 0.343988490580944 0.1176741160108202 0 0.33442235067943221 0.13211305649348251 0 0.33404375717876961 0.1080476884353169 0 0.34171554996877818 0.096966806733087524 0 0.35392152912869879 0.10268138604034791 0 0.33044620589452839 0.087817198709655944 0 0.32806927392538099 0.098855845298032555 0 0.34171554996877818 0.096966806733087524 0 0.32806927392538099 0.098855845298032555 0 0.33404375717876961 0.1080476884353169 0 0.34171554996877818 0.096966806733087524 0 0.32806927392538099 0.098855845298032555 0 0.32260309590447922 0.1123122165003074 0 0.33404375717876961 0.1080476884353169 0 0.35392152912869879 0.10268138604034791 0 0.35491381869304151 0.1011836439930483 0 0.34881532063442522 0.082201530692034883 0 0.34171554996877818 0.096966806733087524 0 0.35392152912869879 0.10268138604034791 0 0.34881532063442522 0.082201530692034883 0 0.35392152912869879 0.10268138604034791 0 0.35546062987876292 0.1088543734464716 0 0.35491381869304151 0.1011836439930483 0 0.35392152912869879 0.10268138604034791 0 0.35491381869304151 0.1011836439930483 0 0.35392152912869879 0.10268138604034791 0 0.35546062987876292 0.1088543734464716 0 0.33404375717876961 0.1080476884353169 0 0.35392152912869879 0.10268138604034791 0 0.343988490580944 0.1176741160108202 0 0.35546062987876292 0.1088543734464716 0 0.35491381869304151 0.1011836439930483 0 0.36234477620530581 0.12431315491142481 0 0.35491381869304151 0.1011836439930483 0 0.36234477620530581 0.12431315491142481 0 0.343988490580944 0.1176741160108202 0 0.3557614600719885 0.1290702624504714 0 0.35392152912869879 0.10268138604034791 0 0.343988490580944 0.1176741160108202 0 0.35392152912869879 0.10268138604034791 0 0.35546062987876292 0.1088543734464716 0 0.343988490580944 0.1176741160108202 0 0.35546062987876292 0.1088543734464716 0 0.343988490580944 0.1176741160108202 0 0.35889290538618501 0.1204186727105461 0 0.343988490580944 0.1176741160108202 0 0.35889290538618501 0.1204186727105461 0 0.3557614600719885 0.1290702624504714 0 0.35546062987876292 0.1088543734464716 0 0.35889290538618501 0.1204186727105461 0 0.36234477620530581 0.12431315491142481 0 0.35889290538618501 0.1204186727105461 0 0.36234477620530581 0.12431315491142481 0 0.3557614600719885 0.1290702624504714 0 0.35491381869304151 0.1011836439930483 0 0.36234477620530581 0.12431315491142481 0 0.37533236417423199 0.11575217945856781 0 0.35889290538618501 0.1204186727105461 0 0.36234477620530581 0.12431315491142481 0 0.35491381869304151 0.1011836439930483 0 0.36864505415383159 0.080457991471440893 0 0.37989514383216261 0.1008811074142211 0 0.35491381869304151 0.1011836439930483 0 0.37989514383216261 0.1008811074142211 0 0.37533236417423199 0.11575217945856781 0 0.35491381869304151 0.1011836439930483 0 0.36864505415383159 0.080457991471440893 0 0.36864505415383159 0.080457991471440893 0 0.37194242117794668 0.076772614526931793 0 0.37989514383216261 0.1008811074142211 0 0.35491381869304151 0.1011836439930483 0 0.36864505415383159 0.080457991471440893 0 0.34881532063442522 0.082201530692034883 0 0.35491381869304151 0.1011836439930483 0 0.34881532063442522 0.082201530692034883 0 0.35392152912869879 0.10268138604034791 0 0.34881532063442522 0.082201530692034883 0 0.34881532063442522 0.082201530692034883 0 0.34230685448842202 0.061943355546023537 0 0.34881532063442522 0.082201530692034883 0 0.34385440331789768 0.06230440562327498 0 0.34881532063442522 0.082201530692034883 0 0.36113142589940772 0.067155945135465897 0 0.34385440331789768 0.06230440562327498 0 0.34881532063442522 0.082201530692034883 0 0.34385440331789768 0.06230440562327498 0 0.34230685448842202 0.061943355546023537 0 0.36864505415383159 0.080457991471440893 0 0.36113142589940772 0.067155945135465897 0 0.38237628961462611 0.059732338949836518 0 0.36864505415383159 0.080457991471440893 0 0.34881532063442522 0.082201530692034883 0 0.36113142589940772 0.067155945135465897 0 0.36864505415383159 0.080457991471440893 0 0.37194242117794668 0.076772614526931793 0 0.38237628961462611 0.059732338949836518 0 0.36113142589940772 0.067155945135465897 0 0.36196606177625779 0.051083458940742198 0 0.38237628961462611 0.059732338949836518 0 0.36196606177625779 0.051083458940742198 0 0.37923500638336632 0.043068186250585699 0 0.38237628961462611 0.059732338949836518 0 0.36196606177625779 0.051083458940742198 0 0.36321924137845568 0.02934286747329215 0 0.37923500638336632 0.043068186250585699 0 0.36196606177625779 0.051083458940742198 0 0.36321924137845568 0.02934286747329215 0 0.33889348600137009 0.042407280554515127 0 0.36321924137845568 0.02934286747329215 0 0.33393256868484111 0.02251015548575569 0 0.33889348600137009 0.042407280554515127 0 0.36113142589940772 0.067155945135465897 0 0.36196606177625779 0.051083458940742198 0 0.34385440331789768 0.06230440562327498 0 0.36196606177625779 0.051083458940742198 0 0.34385440331789768 0.06230440562327498 0 0.33889348600137009 0.042407280554515127 0 0.37357914744350779 0.002440479778912224 0 0.37424442014871812 0.021820824704299101 0 0.35598292622536432 0.0074660699477739154 0 0.37424442014871812 0.021820824704299101 0 0.35598292622536432 0.0074660699477739154 0 0.36321924137845568 0.02934286747329215 0 0.37424442014871812 0.021820824704299101 0 0.35598292622536432 0.0074660699477739154 0 0.36321924137845568 0.02934286747329215 0 0.34509322139385162 0.01518667904233665 0 0.33393256868484111 0.02251015548575569 0 0.36321924137845568 0.02934286747329215 0 0.33393256868484111 0.02251015548575569 0 0.36321924137845568 0.02934286747329215 0 0.35598292622536432 0.0074660699477739154 0 0.34509322139385162 0.01518667904233665 0 0.35598292622536432 0.0074660699477739154 0 0.33772143230201052 -0.0068886848087512803 0 0.35598292622536432 0.0074660699477739154 0 0.33877017139388149 0.0064718171092321003 0 0.33772143230201052 -0.0068886848087512803 0 0.35598292622536432 0.0074660699477739154 0 0.34509322139385162 0.01518667904233665 0 0.33877017139388149 0.0064718171092321003 0 0.33877017139388149 0.0064718171092321003 0 0.32325249182581611 0.0026349705202008129 0 0.33772143230201052 -0.0068886848087512803 0 0.33877017139388149 0.0064718171092321003 0 0.33180078522236511 0.01396005084460041 0 0.32325249182581611 0.0026349705202008129 0 0.34509322139385162 0.01518667904233665 0 0.33877017139388149 0.0064718171092321003 0 0.33180078522236511 0.01396005084460041 0 0.3292899221964134 0.021427005254001569 0 0.33393256868484111 0.02251015548575569 0 0.33579838834241882 0.04168518040001222 0 0.33180078522236511 0.01396005084460041 0 0.3292899221964134 0.021427005254001569 0 0.33393256868484111 0.02251015548575569 0 0.33180078522236511 0.01396005084460041 0 0.33393256868484111 0.02251015548575569 0 0.3292899221964134 0.021427005254001569 0 0.33393256868484111 0.02251015548575569 0 0.34509322139385162 0.01518667904233665 0 0.33180078522236511 0.01396005084460041 0 0.33393256868484111 0.02251015548575569 0 0.3292899221964134 0.021427005254001569 0 0.31293781791285569 0.017611986042758699 0 0.31923969929816981 0.035830495662194838 0 0.3292899221964134 0.021427005254001569 0 0.31293781791285569 0.017611986042758699 0 0.33180078522236511 0.01396005084460041 0 0.3292899221964134 0.021427005254001569 0 0.32325249182581611 0.0026349705202008129 0 0.3292899221964134 0.021427005254001569 0 0.31293781791285569 0.017611986042758699 0 0.32325249182581611 0.0026349705202008129 0 0.3292899221964134 0.021427005254001569 0 0.32325249182581611 0.0026349705202008129 0 0.31293781791285569 0.017611986042758699 0 0.32325249182581611 0.0026349705202008129 0 0.30690038754225768 -0.0011800486910433781 0 0.34230685448842202 0.061943355546023537 0 0.33579838834241882 0.04168518040001222 0 0.33889348600137009 0.042407280554515127 0 0.34385440331789768 0.06230440562327498 0 0.34230685448842202 0.061943355546023537 0 0.33889348600137009 0.042407280554515127 0 0.32566991147381341 0.070879840112157963 0 0.34230685448842202 0.061943355546023537 0 0.33579838834241882 0.04168518040001222 0 0.34230685448842202 0.061943355546023537 0 0.33579838834241882 0.04168518040001222 0 0.34385440331789768 0.06230440562327498 0 0.33889348600137009 0.042407280554515127 0 0.3292899221964134 0.021427005254001569 0 0.33579838834241882 0.04168518040001222 0 0.33393256868484111 0.02251015548575569 0 0.33889348600137009 0.042407280554515127 0 0.33393256868484111 0.02251015548575569 0 0.33579838834241882 0.04168518040001222 0 0.33889348600137009 0.042407280554515127 0 0.33579838834241882 0.04168518040001222 0 0.31923969929816981 0.035830495662194838 0 0.31072716300308328 0.059331554637136651 0 0.3292899221964134 0.021427005254001569 0 0.33579838834241882 0.04168518040001222 0 0.31923969929816981 0.035830495662194838 0 0.32566991147381341 0.070879840112157963 0 0.33579838834241882 0.04168518040001222 0 0.31072716300308328 0.059331554637136651 0 0.31072716300308328 0.059331554637136651 0 0.30691000426459791 0.042169890293137127 0 0.29424159478151202 0.042911142587019738 0 0.31923969929816981 0.035830495662194838 0 0.30691000426459791 0.042169890293137127 0 0.30060566889494089 0.02714657897289334 0 0.30691000426459791 0.042169890293137127 0 0.29424159478151202 0.042911142587019738 0 0.30060566889494089 0.02714657897289334 0 0.31923969929816981 0.035830495662194838 0 0.31072716300308328 0.059331554637136651 0 0.30691000426459791 0.042169890293137127 0 0.29424159478151202 0.042911142587019738 0 0.30060566889494089 0.02714657897289334 0 0.28762295502011598 0.027200489278051441 0 0.29424159478151202 0.042911142587019738 0 0.28762295502011598 0.027200489278051441 0 0.27805620151387522 0.042617420402232667 0 0.31072716300308328 0.059331554637136651 0 0.29424159478151202 0.042911142587019738 0 0.28127895804124392 0.05869653450612005 0 0.29424159478151202 0.042911142587019738 0 0.28127895804124392 0.05869653450612005 0 0.27805620151387522 0.042617420402232667 0 0.31293781791285569 0.017611986042758699 0 0.29658571362929892 0.01379696683151194 0 0.30690038754225768 -0.0011800486910433781 0 0.29658571362929892 0.01379696683151194 0 0.30050921735997521 -0.004605356182754896 0 0.30690038754225768 -0.0011800486910433781 0 0.29658571362929892 0.01379696683151194 0 0.30690038754225768 -0.0011800486910433781 0 0.31293781791285569 0.017611986042758699 0 0.30060566889494089 0.02714657897289334 0 0.29658571362929892 0.01379696683151194 0 0.31293781791285569 0.017611986042758699 0 0.31923969929816981 0.035830495662194838 0 0.30060566889494089 0.02714657897289334 0 0.31293781791285569 0.017611986042758699 0 0.29658571362929892 0.01379696683151194 0 0.30060566889494089 0.02714657897289334 0 0.29500274332330728 0.016095456443948788 0 0.29658571362929892 0.01379696683151194 0 0.30060566889494089 0.02714657897289334 0 0.28762295502011598 0.027200489278051441 0 0.29289454178864649 0.022456661223579269 0 0.28762295502011598 0.027200489278051441 0 0.28116395689077539 0.015207467567734259 0 0.27775173961206168 0.02941095978416057 0 0.28762295502011598 0.027200489278051441 0 0.28836526088227099 0.018465508051837269 0 0.28116395689077539 0.015207467567734259 0 0.28762295502011598 0.027200489278051441 0 0.28116395689077539 0.015207467567734259 0 0.30060566889494089 0.02714657897289334 0 0.29289454178864649 0.022456661223579269 0 0.29500274332330728 0.016095456443948788 0 0.28836526088227099 0.018465508051837269 0 0.29289454178864649 0.022456661223579269 0 0.29500274332330728 0.016095456443948788 0 0.28762295502011598 0.027200489278051441 0 0.28836526088227099 0.018465508051837269 0 0.29289454178864649 0.022456661223579269 0 0.28514691493175248 0.01112824383243886 0 0.30050921735997521 -0.004605356182754896 0 0.29658571362929892 0.01379696683151194 0 0.28514691493175248 0.01112824383243886 0 0.30050921735997521 -0.004605356182754896 0 0.28514691493175248 0.01112824383243886 0 0.27791710391185381 -0.0010379811687957271 0 0.28512431700806451 -0.0086992195202469716 0 0.29658571362929892 0.01379696683151194 0 0.28514691493175248 0.01112824383243886 0 0.28836526088227099 0.018465508051837269 0 0.29500274332330728 0.016095456443948788 0 0.28514691493175248 0.01112824383243886 0 0.29500274332330728 0.016095456443948788 0 0.29658571362929892 0.01379696683151194 0 0.28514691493175248 0.01112824383243886 0 0.29500274332330728 0.016095456443948788 0 0.29658571362929892 0.01379696683151194 0 0.28836526088227099 0.018465508051837269 0 0.28514691493175248 0.01112824383243886 0 0.28116395689077539 0.015207467567734259 0 0.28514691493175248 0.01112824383243886 0 0.27807895442698177 0.0094792569716416024 0 0.28116395689077539 0.015207467567734259 0 0.28514691493175248 0.01112824383243886 0 0.28116395689077539 0.015207467567734259 0 0.28514691493175248 0.01112824383243886 0 0.27807895442698177 0.0094792569716416024 0 0.27127393371108272 0.0054169343353159512 0 0.27807895442698177 0.0094792569716416024 0 0.2692248172919926 -0.0069610417805164738 0 0.27807895442698177 0.0094792569716416024 0 0.2692248172919926 -0.0069610417805164738 0 0.27807895442698177 0.0094792569716416024 0 0.2692248172919926 -0.0069610417805164738 0 0.27791710391185381 -0.0010379811687957271 0 0.26701986470523431 0.0028523954276382379 0 0.27127393371108272 0.0054169343353159512 0 0.2692248172919926 -0.0069610417805164738 0 0.26701986470523431 0.0028523954276382379 0 0.27127393371108272 0.0054169343353159512 0 0.26928034954363472 0.01099432455637152 0 0.28514691493175248 0.01112824383243886 0 0.27807895442698177 0.0094792569716416024 0 0.27791710391185381 -0.0010379811687957271 0 0.27807895442698177 0.0094792569716416024 0 0.27458783582826463 0.012565755321843329 0 0.27310560452179761 0.0095674853239665035 0 0.27127393371108272 0.0054169343353159512 0 0.27807895442698177 0.0094792569716416024 0 0.27310560452179761 0.0095674853239665035 0 0.27807895442698177 0.0094792569716416024 0 0.28116395689077539 0.015207467567734259 0 0.27807895442698177 0.0094792569716416024 0 0.28116395689077539 0.015207467567734259 0 0.27458783582826463 0.012565755321843329 0 0.27458783582826463 0.012565755321843329 0 0.26928034954363472 0.01099432455637152 0 0.26815911709364498 0.019514489362225031 0 0.27458783582826463 0.012565755321843329 0 0.27310560452179761 0.0095674853239665035 0 0.26928034954363472 0.01099432455637152 0 0.27127393371108272 0.0054169343353159512 0 0.27310560452179761 0.0095674853239665035 0 0.26928034954363472 0.01099432455637152 0 0.28116395689077539 0.015207467567734259 0 0.26416384502347939 0.032618461888623121 0 0.28116395689077539 0.015207467567734259 0 0.26815911709364498 0.019514489362225031 0 0.26416384502347939 0.032618461888623121 0 0.28116395689077539 0.015207467567734259 0 0.27775173961206168 0.02941095978416057 0 0.26416384502347939 0.032618461888623121 0 0.28116395689077539 0.015207467567734259 0 0.27458783582826463 0.012565755321843329 0 0.26815911709364498 0.019514489362225031 0 0.2489069739425 0.021637400389674748 0 0.25228035847618863 0.02688679106582054 0 0.25585841565974538 0.042233258010133973 0 0.26815911709364498 0.019514489362225031 0 0.25311855338379191 0.024668664965947041 0 0.26416384502347939 0.032618461888623121 0 0.25311855338379191 0.024668664965947041 0 0.26416384502347939 0.032618461888623121 0 0.25228035847618863 0.02688679106582054 0 0.25311855338379191 0.024668664965947041 0 0.26416384502347939 0.032618461888623121 0 0.2489069739425 0.021637400389674748 0 0.25228035847618863 0.02688679106582054 0 0.25311855338379191 0.024668664965947041 0 0.25228035847618863 0.02688679106582054 0 0.25311855338379191 0.024668664965947041 0 0.2489069739425 0.021637400389674748 0 0.25311855338379191 0.024668664965947041 0 0.25900523844679291 0.0090906536209348996 0 0.25311855338379191 0.024668664965947041 0 0.25900523844679291 0.0090906536209348996 0 0.2489069739425 0.021637400389674748 0 0.25311855338379191 0.024668664965947041 0 0.26815911709364498 0.019514489362225031 0 0.25311855338379191 0.024668664965947041 0 0.25900523844679291 0.0090906536209348996 0 0.26928034954363472 0.01099432455637152 0 0.26815911709364498 0.019514489362225031 0 0.25900523844679291 0.0090906536209348996 0 0.26701986470523431 0.0028523954276382379 0 0.26928034954363472 0.01099432455637152 0 0.25900523844679291 0.0090906536209348996 0 0.25900523844679291 0.0090906536209348996 0 0.26489192350979318 -0.0064873577240775106 0 0.26701986470523431 0.0028523954276382379 0 0.25900523844679291 0.0090906536209348996 0 0.26489192350979318 -0.0064873577240775106 0 0.28127895804124392 0.05869653450612005 0 0.26794279917258279 0.048584654113773551 0 0.27805620151387522 0.042617420402232667 0 0.28127895804124392 0.05869653450612005 0 0.26794279917258279 0.048584654113773551 0 0.26429652163301431 0.061701359010517647 0 0.26794279917258279 0.048584654113773551 0 0.27805620151387522 0.042617420402232667 0 0.26416384502347939 0.032618461888623121 0 0.28762295502011598 0.027200489278051441 0 0.27775173961206168 0.02941095978416057 0 0.27805620151387522 0.042617420402232667 0 0.27805620151387522 0.042617420402232667 0 0.26416384502347939 0.032618461888623121 0 0.27775173961206168 0.02941095978416057 0 0.27805620151387522 0.042617420402232667 0 0.26416384502347939 0.032618461888623121 0 0.26794279917258279 0.048584654113773551 0 0.2611959089814877 0.042898221548277563 0 0.26416384502347939 0.032618461888623121 0 0.2611959089814877 0.042898221548277563 0 0.25585841565974538 0.042233258010133973 0 0.25799090162224952 0.051667623778106117 0 0.2489069739425 0.021637400389674748 0 0.25585841565974538 0.042233258010133973 0 0.2611959089814877 0.042898221548277563 0 0.25868336492166327 0.038231401890038208 0 0.25585841565974538 0.042233258010133973 0 0.25228035847618863 0.02688679106582054 0 0.26416384502347939 0.032618461888623121 0 0.25868336492166327 0.038231401890038208 0 0.2611959089814877 0.042898221548277563 0 0.26416384502347939 0.032618461888623121 0 0.25868336492166327 0.038231401890038208 0 0.26416384502347939 0.032618461888623121 0 0.25868336492166327 0.038231401890038208 0 0.25228035847618863 0.02688679106582054 0 0.25868336492166327 0.038231401890038208 0 0.25585841565974538 0.042233258010133973 0 0.24915942417082321 0.043562136642382059 0 0.25585841565974538 0.042233258010133973 0 0.25194780840825542 0.047502886957762752 0 0.25585841565974538 0.042233258010133973 0 0.25194780840825542 0.047502886957762752 0 0.25799090162224952 0.051667623778106117 0 0.24612717135886061 0.053158967820149818 0 0.25194780840825542 0.047502886957762752 0 0.25799090162224952 0.051667623778106117 0 0.24612717135886061 0.053158967820149818 0 0.25799090162224952 0.051667623778106117 0 0.26429652163301431 0.061701359010517647 0 0.26794279917258279 0.048584654113773551 0 0.2611959089814877 0.042898221548277563 0 0.25799090162224952 0.051667623778106117 0 0.26794279917258279 0.048584654113773551 0 0.25799090162224952 0.051667623778106117 0 0.26429652163301431 0.061701359010517647 0 0.24612717135886061 0.053158967820149818 0 0.25923100858263742 0.079351551944828513 0 0.24612717135886061 0.053158967820149818 0 0.26429652163301431 0.061701359010517647 0 0.25923100858263742 0.079351551944828513 0 0.24537668551697431 0.097277083683747018 0 0.25923100858263742 0.079351551944828513 0 0.25922747002471352 0.097974378356717087 0 0.27555977218924488 0.077439952611008278 0 0.28759873658278978 0.090030408643589632 0 0.27101928807639453 0.09427347599549088 0 0.25923100858263742 0.079351551944828513 0 0.27555977218924488 0.077439952611008278 0 0.27101928807639453 0.09427347599549088 0 0.25923100858263742 0.079351551944828513 0 0.27101928807639453 0.09427347599549088 0 0.27233484580641432 0.1055441360695072 0 0.25923100858263742 0.079351551944828513 0 0.27233484580641432 0.1055441360695072 0 0.28127895804124392 0.05869653450612005 0 0.26429652163301431 0.061701359010517647 0 0.27555977218924488 0.077439952611008278 0 0.26429652163301431 0.061701359010517647 0 0.25923100858263742 0.079351551944828513 0 0.27555977218924488 0.077439952611008278 0 0.31072716300308328 0.059331554637136651 0 0.28127895804124392 0.05869653450612005 0 0.29303234378028109 0.075428628958087107 0 0.28127895804124392 0.05869653450612005 0 0.27555977218924488 0.077439952611008278 0 0.29303234378028109 0.075428628958087107 0 0.27555977218924488 0.077439952611008278 0 0.29303234378028109 0.075428628958087107 0 0.28759873658278978 0.090030408643589632 0 0.29303234378028109 0.075428628958087107 0 0.28759873658278978 0.090030408643589632 0 0.31153776068034922 0.089135316111794982 0 0.31072716300308328 0.059331554637136651 0 0.29303234378028109 0.075428628958087107 0 0.31153776068034922 0.089135316111794982 0 0.31072716300308328 0.059331554637136651 0 0.31153776068034922 0.089135316111794982 0 0.31234835835761571 0.11893907758645331 0 0.29168382321700531 0.1066062767909717 0 0.29960507646434792 0.12683409122409009 0 0.31234835835761571 0.11893907758645331 0 0.29168382321700531 0.1066062767909717 0 0.31153776068034922 0.089135316111794982 0 0.31234835835761571 0.11893907758645331 0 0.28759873658278978 0.090030408643589632 0 0.31153776068034922 0.089135316111794982 0 0.29168382321700531 0.1066062767909717 0 0.31153776068034922 0.089135316111794982 0 0.31234835835761571 0.11893907758645331 0 0.29168382321700531 0.1066062767909717 0 0.29168382321700531 0.1066062767909717 0 0.27101928807639453 0.09427347599549088 0 0.28759873658278978 0.090030408643589632 0 0.29168382321700531 0.1066062767909717 0 0.27101928807639453 0.09427347599549088 0 0.28726560712948962 0.11768030606968879 0 0.27233484580641432 0.1055441360695072 0 0.28543868303019121 0.131736720194186 0 0.29168382321700531 0.1066062767909717 0 0.28726560712948962 0.11768030606968879 0 0.29960507646434792 0.12683409122409009 0 0.29168382321700531 0.1066062767909717 0 0.28726560712948962 0.11768030606968879 0 0.27233484580641432 0.1055441360695072 0 0.2688255279836298 0.12262400996184721 0 0.27233484580641432 0.1055441360695072 0 0.28543868303019121 0.131736720194186 0 0.2688255279836298 0.12262400996184721 0 0.27233484580641432 0.1055441360695072 0 0.25996734019282808 0.1097247417287856 0 0.27233484580641432 0.1055441360695072 0 0.28543868303019121 0.131736720194186 0 0.29168382321700531 0.1066062767909717 0 0.27101928807639453 0.09427347599549088 0 0.27233484580641432 0.1055441360695072 0 0.25923100858263742 0.079351551944828513 0 0.27233484580641432 0.1055441360695072 0 0.25922747002471352 0.097974378356717087 0 0.27233484580641432 0.1055441360695072 0 0.25922747002471352 0.097974378356717087 0 0.25996734019282808 0.1097247417287856 0 0.24537668551697431 0.097277083683747018 0 0.25922747002471352 0.097974378356717087 0 0.25996734019282808 0.1097247417287856 0 0.24537668551697431 0.097277083683747018 0 0.25996734019282808 0.1097247417287856 0 0.25370366287882878 0.1241816415692342 0 0.2688255279836298 0.12262400996184721 0 0.25996734019282808 0.1097247417287856 0 0.25370366287882878 0.1241816415692342 0 0.25370366287882878 0.1241816415692342 0 0.26203064024068312 0.15108619945472171 0 0.2688255279836298 0.12262400996184721 0 0.25370366287882878 0.1241816415692342 0 0.27163016425534958 0.13738497633274069 0 0.25370366287882878 0.1241816415692342 0 0.27163016425534958 0.13738497633274069 0 0.26203064024068312 0.15108619945472171 0 0.2688255279836298 0.12262400996184721 0 0.27163016425534958 0.13738497633274069 0 0.28543868303019121 0.131736720194186 0 0.27163016425534958 0.13738497633274069 0 0.28543868303019121 0.131736720194186 0 0.2826446853024604 0.14124270427211749 0 0.27163016425534958 0.13738497633274069 0 0.27808704382392468 0.15255782491348299 0 0.26203064024068312 0.15108619945472171 0 0.27808704382392468 0.15255782491348299 0 0.26203064024068312 0.15108619945472171 0 0.26470071343822532 0.15971323610680241 0 0.27808704382392468 0.15255782491348299 0 0.26203064024068312 0.15108619945472171 0 0.27163016425534958 0.13738497633274069 0 0.27808704382392468 0.15255782491348299 0 0.2826446853024604 0.14124270427211749 0 0.27808704382392468 0.15255782491348299 0 0.26470071343822532 0.15971323610680241 0 0.24802047718606329 0.14980211908606039 0 0.25370366287882878 0.1241816415692342 0 0.26203064024068312 0.15108619945472171 0 0.26203064024068312 0.15108619945472171 0 0.26470071343822532 0.15971323610680241 0 0.26203064024068312 0.15108619945472171 0 0.25841385897244001 0.15585338151222791 0 0.26470071343822532 0.15971323610680241 0 0.24802047718606329 0.14980211908606039 0 0.25841385897244001 0.15585338151222791 0 0.25890360502478721 0.16281197140132819 0 0.24802047718606329 0.14980211908606039 0 0.26203064024068312 0.15108619945472171 0 0.24802047718606329 0.14980211908606039 0 0.26203064024068312 0.15108619945472171 0 0.25841385897244001 0.15585338151222791 0 0.26470071343822532 0.15971323610680241 0 0.25890360502478721 0.16281197140132819 0 0.26962736994955661 0.17563131892736969 0 0.24394273923527451 0.1708090208874482 0 0.25890360502478721 0.16281197140132819 0 0.25069145747160237 0.17986975870422739 0 0.24394273923527451 0.1708090208874482 0 0.24802047718606329 0.14980211908606039 0 0.25890360502478721 0.16281197140132819 0 0.24802047718606329 0.14980211908606039 0 0.25890360502478721 0.16281197140132819 0 0.24394273923527451 0.1708090208874482 0 0.25890360502478721 0.16281197140132819 0 0.25890360502478721 0.16281197140132819 0 0.26962736994955661 0.17563131892736969 0 0.26470071343822532 0.15971323610680241 0 0.25890360502478721 0.16281197140132819 0 0.25841385897244001 0.15585338151222791 0 0.26470071343822532 0.15971323610680241 0 0.25890360502478721 0.16281197140132819 0 0.25890360502478721 0.16281197140132819 0 0.25069145747160237 0.17986975870422739 0 0.2622875918713119 0.17871532590777511 0 0.25890360502478721 0.16281197140132819 0 0.2622875918713119 0.17871532590777511 0 0.26962736994955661 0.17563131892736969 0 0.24443808169503289 0.19165573435540739 0 0.25069145747160237 0.17986975870422739 0 0.25672659357731442 0.18931439154619459 0 0.25069145747160237 0.17986975870422739 0 0.2622875918713119 0.17871532590777511 0 0.25672659357731442 0.18931439154619459 0 0.2622875918713119 0.17871532590777511 0 0.2666871346110174 0.18721551203983949 0 0.25672659357731442 0.18931439154619459 0 0.2666871346110174 0.18721551203983949 0 0.2707313294469027 0.17919822452935469 0 0.28262567674856709 0.19158292471432059 0 0.2707313294469027 0.17919822452935469 0 0.26962736994955661 0.17563131892736969 0 0.28262567674856709 0.19158292471432059 0 0.26962736994955661 0.17563131892736969 0 0.28262567674856709 0.19158292471432059 0 0.26962736994955661 0.17563131892736969 0 0.28063414626850292 0.17836588696170111 0 0.28262567674856709 0.19158292471432059 0 0.2622875918713119 0.17871532590777511 0 0.2666871346110174 0.18721551203983949 0 0.2707313294469027 0.17919822452935469 0 0.2622875918713119 0.17871532590777511 0 0.2707313294469027 0.17919822452935469 0 0.26962736994955661 0.17563131892736969 0 0.2707313294469027 0.17919822452935469 0 0.26962736994955661 0.17563131892736969 0 0.26962736994955661 0.17563131892736969 0 0.28063414626850292 0.17836588696170111 0 0.27791551735799302 0.17228039079135241 0 0.26470071343822532 0.15971323610680241 0 0.26962736994955661 0.17563131892736969 0 0.26470071343822532 0.15971323610680241 0 0.26962736994955661 0.17563131892736969 0 0.27525802885731437 0.16516718346708009 0 0.27808704382392468 0.15255782491348299 0 0.26470071343822532 0.15971323610680241 0 0.27525802885731437 0.16516718346708009 0 0.26962736994955661 0.17563131892736969 0 0.27791551735799302 0.17228039079135241 0 0.27525802885731437 0.16516718346708009 0 0.27791551735799302 0.17228039079135241 0 0.27525802885731437 0.16516718346708009 0 0.28614252435659893 0.16995717380925851 0 0.27808704382392468 0.15255782491348299 0 0.27525802885731437 0.16516718346708009 0 0.28831271101088052 0.16150411312056051 0 0.27525802885731437 0.16516718346708009 0 0.28831271101088052 0.16150411312056051 0 0.28614252435659893 0.16995717380925851 0 0.28831271101088052 0.16150411312056051 0 0.28614252435659893 0.16995717380925851 0 0.2949765541501792 0.16654736560739511 0 0.28614252435659893 0.16995717380925851 0 0.2949765541501792 0.16654736560739511 0 0.2966990425067918 0.17398076245598329 0 0.28831271101088052 0.16150411312056051 0 0.2949765541501792 0.16654736560739511 0 0.29843684607612081 0.16152557188150271 0 0.28831271101088052 0.16150411312056051 0 0.29843684607612081 0.16152557188150271 0 0.2957188317017474 0.15417383984422159 0 0.28063414626850292 0.17836588696170111 0 0.28878787233227138 0.1800597202735717 0 0.28262567674856709 0.19158292471432059 0 0.28063414626850292 0.17836588696170111 0 0.28614252435659893 0.16995717380925851 0 0.28878787233227138 0.1800597202735717 0 0.28063414626850292 0.17836588696170111 0 0.27791551735799302 0.17228039079135241 0 0.28614252435659893 0.16995717380925851 0 0.28614252435659893 0.16995717380925851 0 0.28878787233227138 0.1800597202735717 0 0.2966990425067918 0.17398076245598329 0 0.28878787233227138 0.1800597202735717 0 0.2966990425067918 0.17398076245598329 0 0.29802567422580972 0.18704947290502161 0 0.28878787233227138 0.1800597202735717 0 0.29802567422580972 0.18704947290502161 0 0.28262567674856709 0.19158292471432059 0 0.29802567422580972 0.18704947290502161 0 0.32181551132831843 0.18004621980614391 0 0.2966990425067918 0.17398076245598329 0 0.29802567422580972 0.18704947290502161 0 0.31104746434799968 0.1673946430062502 0 0.29802567422580972 0.18704947290502161 0 0.31104746434799968 0.1673946430062502 0 0.29802567422580972 0.18704947290502161 0 0.31104746434799968 0.1673946430062502 0 0.32181551132831843 0.18004621980614391 0 0.30601579003330748 0.16116038764967211 0 0.2957188317017474 0.15417383984422159 0 0.31335061957957011 0.15578985477495891 0 0.29843684607612081 0.16152557188150271 0 0.30601579003330748 0.16116038764967211 0 0.2957188317017474 0.15417383984422159 0 0.29843684607612081 0.16152557188150271 0 0.3040416986791476 0.16682267597464789 0 0.30601579003330748 0.16116038764967211 0 0.2949765541501792 0.16654736560739511 0 0.2966990425067918 0.17398076245598329 0 0.3040416986791476 0.16682267597464789 0 0.2966990425067918 0.17398076245598329 0 0.3040416986791476 0.16682267597464789 0 0.31104746434799968 0.1673946430062502 0 0.2949765541501792 0.16654736560739511 0 0.29843684607612081 0.16152557188150271 0 0.3040416986791476 0.16682267597464789 0 0.3040416986791476 0.16682267597464789 0 0.31104746434799968 0.1673946430062502 0 0.30601579003330748 0.16116038764967211 0 0.3040416986791476 0.16682267597464789 0 0.31104746434799968 0.1673946430062502 0 0.31104746434799968 0.1673946430062502 0 0.30601579003330748 0.16116038764967211 0 0.31349927981525749 0.1612557404164488 0 0.30601579003330748 0.16116038764967211 0 0.31335061957957011 0.15578985477495891 0 0.31349927981525749 0.1612557404164488 0 0.30483300733717872 0.1478702823059759 0 0.29542285010037611 0.14329129564805981 0 0.31275865637682793 0.1340247663826373 0 0.30483300733717872 0.1478702823059759 0 0.31275865637682793 0.1340247663826373 0 0.31335061957957011 0.15578985477495891 0 0.30483300733717872 0.1478702823059759 0 0.2957188317017474 0.15417383984422159 0 0.31335061957957011 0.15578985477495891 0 0.2957188317017474 0.15417383984422159 0 0.31335061957957011 0.15578985477495891 0 0.30483300733717872 0.1478702823059759 0 0.2957188317017474 0.15417383984422159 0 0.29542285010037611 0.14329129564805981 0 0.29960507646434792 0.12683409122409009 0 0.29542285010037611 0.14329129564805981 0 0.31275865637682793 0.1340247663826373 0 0.29542285010037611 0.14329129564805981 0 0.31275865637682793 0.1340247663826373 0 0.31234835835761571 0.11893907758645331 0 0.29960507646434792 0.12683409122409009 0 0.31275865637682793 0.1340247663826373 0 0.29960507646434792 0.12683409122409009 0 0.28543868303019121 0.131736720194186 0 0.29542285010037611 0.14329129564805981 0 0.28726560712948962 0.11768030606968879 0 0.29960507646434792 0.12683409122409009 0 0.28543868303019121 0.131736720194186 0 0.28543868303019121 0.131736720194186 0 0.2826446853024604 0.14124270427211749 0 0.29542285010037611 0.14329129564805981 0 0.27808704382392468 0.15255782491348299 0 0.2826446853024604 0.14124270427211749 0 0.29542285010037611 0.14329129564805981 0 0.27808704382392468 0.15255782491348299 0 0.2957188317017474 0.15417383984422159 0 0.29542285010037611 0.14329129564805981 0 0.27808704382392468 0.15255782491348299 0 0.2957188317017474 0.15417383984422159 0 0.27808704382392468 0.15255782491348299 0 0.29542285010037611 0.14329129564805981 0 0.27808704382392468 0.15255782491348299 0 0.28831271101088052 0.16150411312056051 0 0.2957188317017474 0.15417383984422159 0 0.27685630599777589 0.2478154210616699 0 0.27299157826480569 0.23766007785357521 0 0.26048617882559622 0.24371083740660091 0 0.26048617882559622 0.24371083740660091 0 0.27110411734464762 0.2276843331004246 0 0.27299157826480569 0.23766007785357521 0 0.26048617882559622 0.24371083740660091 0 0.27110411734464762 0.2276843331004246 0 0.27691591880596222 0.25729022711116639 0 0.27685630599777589 0.2478154210616699 0 0.26048617882559622 0.24371083740660091 0 0.27685630599777589 0.2478154210616699 0 0.27901295757983852 0.24225897862297641 0 0.27299157826480569 0.23766007785357521 0 0.27685630599777589 0.2478154210616699 0 0.27901295757983852 0.24225897862297641 0 0.28234947844706793 0.24570967974740021 0 0.27901295757983852 0.24225897862297641 0 0.27719652076970691 0.235876877536806 0 0.2822644445936543 0.2387958425564555 0 0.27719652076970691 0.235876877536806 0 0.28215825558210461 0.2340236887935741 0 0.2822644445936543 0.2387958425564555 0 0.27901295757983852 0.24225897862297641 0 0.27719652076970691 0.235876877536806 0 0.27299157826480569 0.23766007785357521 0 0.24791323415382371 0.2458877298954085 0 0.25153222320099622 0.25722575917013901 0 0.26048617882559622 0.24371083740660091 0 0.2477315277427897 0.2356386040277525 0 0.24791323415382371 0.2458877298954085 0 0.26048617882559622 0.24371083740660091 0 0.24965972363503919 0.22122943443424911 0 0.26048617882559622 0.24371083740660091 0 0.27110411734464762 0.2276843331004246 0 0.2447696612887639 0.21650126134236319 0 0.24965972363503919 0.22122943443424911 0 0.27110411734464762 0.2276843331004246 0 0.24965972363503919 0.22122943443424911 0 0.26048617882559622 0.24371083740660091 0 0.2447696612887639 0.21650126134236319 0 0.27110411734464762 0.2276843331004246 0 0.2447696612887639 0.21650126134236319 0 0.27110411734464762 0.2276843331004246 0 0.2677963164460333 0.2150467959949465 0 0.24965972363503919 0.22122943443424911 0 0.2477315277427897 0.2356386040277525 0 0.26048617882559622 0.24371083740660091 0 0.27110411734464762 0.2276843331004246 0 0.28456489578522731 0.2073669030027222 0 0.2860351544522664 0.22291189892421159 0 0.27299157826480569 0.23766007785357521 0 0.27110411734464762 0.2276843331004246 0 0.27329338907126849 0.2286140193929726 0 0.27110411734464762 0.2276843331004246 0 0.27329338907126849 0.2286140193929726 0 0.27329338907126849 0.2286140193929726 0 0.27769713930278977 0.2310580429220736 0 0.28096010293809309 0.2280773344569369 0 0.27719652076970691 0.235876877536806 0 0.27299157826480569 0.23766007785357521 0 0.27329338907126849 0.2286140193929726 0 0.27110411734464762 0.2276843331004246 0 0.27329338907126849 0.2286140193929726 0 0.28096010293809309 0.2280773344569369 0 0.27719652076970691 0.235876877536806 0 0.27329338907126849 0.2286140193929726 0 0.27769713930278977 0.2310580429220736 0 0.27719652076970691 0.235876877536806 0 0.27769713930278977 0.2310580429220736 0 0.28215825558210461 0.2340236887935741 0 0.27769713930278977 0.2310580429220736 0 0.28096010293809309 0.2280773344569369 0 0.28215825558210461 0.2340236887935741 0 0.27110411734464762 0.2276843331004246 0 0.28096010293809309 0.2280773344569369 0 0.2860351544522664 0.22291189892421159 0 0.27110411734464762 0.2276843331004246 0 0.2677963164460333 0.2150467959949465 0 0.28456489578522731 0.2073669030027222 0 0.27110411734464762 0.2276843331004246 0 0.28456489578522731 0.2073669030027222 0 0.272670307474219 0.206747045740371 0 0.2677963164460333 0.2150467959949465 0 0.28456489578522731 0.2073669030027222 0 0.272670307474219 0.206747045740371 0 0.2677963164460333 0.2150467959949465 0 0.26045320274891359 0.2075872277184421 0 0.2447696612887639 0.21650126134236319 0 0.2677963164460333 0.2150467959949465 0 0.26045320274891359 0.2075872277184421 0 0.2445919001722652 0.2027793092260104 0 0.26045320274891359 0.2075872277184421 0 0.27130878719903789 0.19491439106551739 0 0.2445919001722652 0.2027793092260104 0 0.27130878719903789 0.19491439106551739 0 0.2445919001722652 0.2027793092260104 0 0.25672659357731442 0.18931439154619459 0 0.27130878719903789 0.19491439106551739 0 0.2666871346110174 0.18721551203983949 0 0.25672659357731442 0.18931439154619459 0 0.27130878719903789 0.19491439106551739 0 0.2666871346110174 0.18721551203983949 0 0.27130878719903789 0.19491439106551739 0 0.28262567674856709 0.19158292471432059 0 0.27130878719903789 0.19491439106551739 0 0.28262567674856709 0.19158292471432059 0 0.28456489578522731 0.2073669030027222 0 0.272670307474219 0.206747045740371 0 0.26045320274891359 0.2075872277184421 0 0.27130878719903789 0.19491439106551739 0 0.272670307474219 0.206747045740371 0 0.27130878719903789 0.19491439106551739 0 0.28456489578522731 0.2073669030027222 0 0.27130878719903789 0.19491439106551739 0 0.28262567674856709 0.19158292471432059 0 0.29802567422580972 0.18704947290502161 0 0.30459187314032082 0.20471057237354329 0 0.28456489578522731 0.2073669030027222 0 0.29802567422580972 0.18704947290502161 0 0.28456489578522731 0.2073669030027222 0 0.29802567422580972 0.18704947290502161 0 0.28262567674856709 0.19158292471432059 0 0.28456489578522731 0.2073669030027222 0 0.29802567422580972 0.18704947290502161 0 0.28262567674856709 0.19158292471432059 0 0.29802567422580972 0.18704947290502161 0 0.30459187314032082 0.20471057237354329 0 0.31598770299826118 0.19548598602398221 0 0.29802567422580972 0.18704947290502161 0 0.31598770299826118 0.19548598602398221 0 0.32181551132831843 0.18004621980614391 0 0.30459187314032082 0.20471057237354329 0 0.3112657248503683 0.22109255247881221 0 0.32160390274705047 0.2085142031879387 0 0.30459187314032082 0.20471057237354329 0 0.29694173849475131 0.21805006650638351 0 0.3112657248503683 0.22109255247881221 0 0.30459187314032082 0.20471057237354329 0 0.29694173849475131 0.21805006650638351 0 0.28456489578522731 0.2073669030027222 0 0.29694173849475131 0.21805006650638351 0 0.28456489578522731 0.2073669030027222 0 0.2860351544522664 0.22291189892421159 0 0.28096010293809309 0.2280773344569369 0 0.2860351544522664 0.22291189892421159 0 0.28751134043047888 0.23164143954930111 0 0.2860351544522664 0.22291189892421159 0 0.28751134043047888 0.23164143954930111 0 0.29310118177853489 0.2272447710257052 0 0.28096010293809309 0.2280773344569369 0 0.28215825558210461 0.2340236887935741 0 0.28751134043047888 0.23164143954930111 0 0.28215825558210461 0.2340236887935741 0 0.28751134043047888 0.23164143954930111 0 0.28579805486088677 0.2374330691078928 0 0.29310118177853489 0.2272447710257052 0 0.30108985200492661 0.22865112575325311 0 0.2939278235102516 0.23496932439537649 0 0.28751134043047888 0.23164143954930111 0 0.29310118177853489 0.2272447710257052 0 0.2939278235102516 0.23496932439537649 0 0.29694173849475131 0.21805006650638351 0 0.2860351544522664 0.22291189892421159 0 0.29310118177853489 0.2272447710257052 0 0.29694173849475131 0.21805006650638351 0 0.3112657248503683 0.22109255247881221 0 0.30108985200492661 0.22865112575325311 0 0.29694173849475131 0.21805006650638351 0 0.29310118177853489 0.2272447710257052 0 0.30108985200492661 0.22865112575325311 0 0.3112657248503683 0.22109255247881221 0 0.30108985200492661 0.22865112575325311 0 0.30814982578715833 0.23504095730125821 0 0.30108985200492661 0.22865112575325311 0 0.30079101833485439 0.23667575875814051 0 0.30814982578715833 0.23504095730125821 0 0.30108985200492661 0.22865112575325311 0 0.30079101833485439 0.23667575875814051 0 0.2939278235102516 0.23496932439537649 0 0.31246354634074469 0.25301562706991498 0 0.28965918427723281 0.24218391352450211 0 0.30079101833485439 0.23667575875814051 0 0.29637482176907359 0.2407438087058773 0 0.2939278235102516 0.23496932439537649 0 0.31246354634074469 0.25301562706991498 0 0.30301881801219099 0.2434786808704178 0 0.28965918427723281 0.24218391352450211 0 0.30079101833485439 0.23667575875814051 0 0.30814982578715833 0.23504095730125821 0 0.30301881801219099 0.2434786808704178 0 0.30079101833485439 0.23667575875814051 0 0.30301881801219099 0.2434786808704178 0 0.29637482176907359 0.2407438087058773 0 0.30814982578715833 0.23504095730125821 0 0.30301881801219099 0.2434786808704178 0 0.31261059057147461 0.2434248305083811 0 0.31246354634074469 0.25301562706991498 0 0.30301881801219099 0.2434786808704178 0 0.31261059057147461 0.2434248305083811 0 0.29345893722613059 0.25129825022350127 0 0.29035996411889098 0.24599513786664159 0 0.28965918427723281 0.24218391352450211 0 0.29345893722613059 0.25129825022350127 0 0.29035996411889098 0.24599513786664159 0 0.28892582916583598 0.2492018439528669 0 0.29035996411889098 0.24599513786664159 0 0.28965918427723281 0.24218391352450211 0 0.28783672664197268 0.24359463822150959 0 0.30301881801219099 0.2434786808704178 0 0.29637482176907359 0.2407438087058773 0 0.28965918427723281 0.24218391352450211 0 0.29637482176907359 0.2407438087058773 0 0.2939278235102516 0.23496932439537649 0 0.29248016532158921 0.23880015382188749 0 0.2939278235102516 0.23496932439537649 0 0.28995883172979869 0.23730356866179431 0 0.29248016532158921 0.23880015382188749 0 0.28751134043047888 0.23164143954930111 0 0.2939278235102516 0.23496932439537649 0 0.28995883172979869 0.23730356866179431 0 0.29637482176907359 0.2407438087058773 0 0.29248016532158921 0.23880015382188749 0 0.28965918427723281 0.24218391352450211 0 0.28995883172979869 0.23730356866179431 0 0.29248016532158921 0.23880015382188749 0 0.28965918427723281 0.24218391352450211 0 0.28995883172979869 0.23730356866179431 0 0.28965918427723281 0.24218391352450211 0 0.28579805486088677 0.2374330691078928 0 0.28965918427723281 0.24218391352450211 0 0.28777867495787518 0.24129070115530599 0 0.28579805486088677 0.2374330691078928 0 0.28965918427723281 0.24218391352450211 0 0.28777867495787518 0.24129070115530599 0 0.28965918427723281 0.24218391352450211 0 0.28579805486088677 0.2374330691078928 0 0.28777867495787518 0.24129070115530599 0 0.28579805486088677 0.2374330691078928 0 0.28505636658832489 0.24015885991938871 0 0.28777867495787518 0.24129070115530599 0 0.28505636658832489 0.24015885991938871 0 0.28397084752209928 0.24268433257024799 0 0.28751134043047888 0.23164143954930111 0 0.28995883172979869 0.23730356866179431 0 0.28579805486088677 0.2374330691078928 0 0.28215825558210461 0.2340236887935741 0 0.28579805486088677 0.2374330691078928 0 0.2822644445936543 0.2387958425564555 0 0.27901295757983852 0.24225897862297641 0 0.2822644445936543 0.2387958425564555 0 0.28397084752209928 0.24268433257024799 0 0.28505636658832489 0.24015885991938871 0 0.2822644445936543 0.2387958425564555 0 0.28397084752209928 0.24268433257024799 0 0.28579805486088677 0.2374330691078928 0 0.28505636658832489 0.24015885991938871 0 0.2822644445936543 0.2387958425564555 0 0.27901295757983852 0.24225897862297641 0 0.28234947844706793 0.24570967974740021 0 0.28397084752209928 0.24268433257024799 0 0.27685630599777589 0.2478154210616699 0 0.28234947844706793 0.24570967974740021 0 0.28494106210013392 0.2498489505319901 0 0.28234947844706793 0.24570967974740021 0 0.28397084752209928 0.24268433257024799 0 0.2869662190354918 0.2459407159501166 0 0.28234947844706793 0.24570967974740021 0 0.28494106210013392 0.2498489505319901 0 0.2869662190354918 0.2459407159501166 0 0.28494106210013392 0.2498489505319901 0 0.28892582916583598 0.2492018439528669 0 0.2869662190354918 0.2459407159501166 0 0.29035996411889098 0.24599513786664159 0 0.28892582916583598 0.2492018439528669 0 0.2869662190354918 0.2459407159501166 0 0.29035996411889098 0.24599513786664159 0 0.28783672664197268 0.24359463822150959 0 0.2869662190354918 0.2459407159501166 0 0.28965918427723281 0.24218391352450211 0 0.28777867495787518 0.24129070115530599 0 0.28783672664197268 0.24359463822150959 0 0.28397084752209928 0.24268433257024799 0 0.28783672664197268 0.24359463822150959 0 0.2869662190354918 0.2459407159501166 0 0.28777867495787518 0.24129070115530599 0 0.28397084752209928 0.24268433257024799 0 0.28783672664197268 0.24359463822150959 0 0.3379127634661398 0.24049180221066491 0 0.32643540241908581 0.2493154440826276 0 0.31942597565379999 0.2366753470562844 0 0.31246354634074469 0.25301562706991498 0 0.32643540241908581 0.2493154440826276 0 0.31261059057147461 0.2434248305083811 0 0.32643540241908581 0.2493154440826276 0 0.31261059057147461 0.2434248305083811 0 0.31942597565379999 0.2366753470562844 0 0.30814982578715833 0.23504095730125821 0 0.31261059057147461 0.2434248305083811 0 0.31942597565379999 0.2366753470562844 0 0.3379127634661398 0.24049180221066491 0 0.31942597565379999 0.2366753470562844 0 0.32600368008419539 0.22461502934577851 0 0.3112657248503683 0.22109255247881221 0 0.30814982578715833 0.23504095730125821 0 0.31942597565379999 0.2366753470562844 0 0.3112657248503683 0.22109255247881221 0 0.31942597565379999 0.2366753470562844 0 0.32600368008419539 0.22461502934577851 0 0.3379127634661398 0.24049180221066491 0 0.32600368008419539 0.22461502934577851 0 0.3398100337036184 0.2163012417951922 0 0.3398100337036184 0.2163012417951922 0 0.32160390274705047 0.2085142031879387 0 0.33063695298837592 0.19682719513420929 0 0.32600368008419539 0.22461502934577851 0 0.3398100337036184 0.2163012417951922 0 0.32160390274705047 0.2085142031879387 0 0.3112657248503683 0.22109255247881221 0 0.32600368008419539 0.22461502934577851 0 0.32160390274705047 0.2085142031879387 0 0.30459187314032082 0.20471057237354329 0 0.32160390274705047 0.2085142031879387 0 0.31598770299826118 0.19548598602398221 0 0.32160390274705047 0.2085142031879387 0 0.31598770299826118 0.19548598602398221 0 0.33063695298837592 0.19682719513420929 0 0.31598770299826118 0.19548598602398221 0 0.33063695298837592 0.19682719513420929 0 0.32181551132831843 0.18004621980614391 0 0.3398100337036184 0.2163012417951922 0 0.33063695298837592 0.19682719513420929 0 0.34652165966209031 0.1951830619424908 0 0.33063695298837592 0.19682719513420929 0 0.34652165966209031 0.1951830619424908 0 0.33808290749091702 0.1854324580495085 0 0.34652165966209031 0.1951830619424908 0 0.33808290749091702 0.1854324580495085 0 0.34805963641287802 0.18313381139210541 0 0.34652165966209031 0.1951830619424908 0 0.35834447101042982 0.1885307986193322 0 0.34805963641287802 0.18313381139210541 0 0.34652165966209031 0.1951830619424908 0 0.35697604229412883 0.20282503597125329 0 0.35834447101042982 0.1885307986193322 0 0.35834447101042982 0.1885307986193322 0 0.36867711819290189 0.19558193609178909 0 0.37211726383392318 0.18243968588977941 0 0.36867711819290189 0.19558193609178909 0 0.37211726383392318 0.18243968588977941 0 0.37959621891343998 0.18888004806970329 0 0.35697604229412883 0.20282503597125329 0 0.35834447101042982 0.1885307986193322 0 0.36867711819290189 0.19558193609178909 0 0.35697604229412883 0.20282503597125329 0 0.36867711819290189 0.19558193609178909 0 0.36464593244806109 0.2145418940701225 0 0.36867711819290189 0.19558193609178909 0 0.36464593244806109 0.2145418940701225 0 0.38262777372413942 0.20056577775977211 0 0.3398100337036184 0.2163012417951922 0 0.35697604229412883 0.20282503597125329 0 0.36464593244806109 0.2145418940701225 0 0.3398100337036184 0.2163012417951922 0 0.34652165966209031 0.1951830619424908 0 0.35697604229412883 0.20282503597125329 0 0.3379127634661398 0.24049180221066491 0 0.3398100337036184 0.2163012417951922 0 0.35784805351199239 0.2326945607342826 0 0.3398100337036184 0.2163012417951922 0 0.36464593244806109 0.2145418940701225 0 0.35784805351199239 0.2326945607342826 0 0.3398100337036184 0.2163012417951922 0 0.35784805351199239 0.2326945607342826 0 0.36464593244806109 0.2145418940701225 0 0.35784805351199239 0.2326945607342826 0 0.37504625414522869 0.2303727958758012 0 0.35784805351199239 0.2326945607342826 0 0.37588607332036628 0.2490878796733729 0 0.35784805351199239 0.2326945607342826 0 0.37588607332036628 0.2490878796733729 0 0.37504625414522869 0.2303727958758012 0 0.35634129443021012 0.25447852924978431 0 0.35784805351199239 0.2326945607342826 0 0.37588607332036628 0.2490878796733729 0 0.35634129443021012 0.25447852924978431 0 0.3379127634661398 0.24049180221066491 0 0.35784805351199239 0.2326945607342826 0 0.33844782525489081 0.14552375979656301 0 0.33442235067943221 0.13211305649348251 0 0.31842762243075678 0.15625517981560311 0 0.33844782525489081 0.14552375979656301 0 0.31842762243075678 0.15625517981560311 0 0.3463391887874393 0.1588133723418115 0 0.343988490580944 0.1176741160108202 0 0.33926610740018709 0.13500385884312699 0 0.33442235067943221 0.13211305649348251 0 0.33844782525489081 0.14552375979656301 0 0.33926610740018709 0.13500385884312699 0 0.33442235067943221 0.13211305649348251 0 0.33926610740018709 0.13500385884312699 0 0.33442235067943221 0.13211305649348251 0 0.31234835835761571 0.11893907758645331 0 0.33442235067943221 0.13211305649348251 0 0.31795714297393313 0.13124601312364301 0 0.33442235067943221 0.13211305649348251 0 0.31795714297393313 0.13124601312364301 0 0.31842762243075678 0.15625517981560311 0 0.31795714297393313 0.13124601312364301 0 0.31275865637682793 0.1340247663826373 0 0.31842762243075678 0.15625517981560311 0 0.31234835835761571 0.11893907758645331 0 0.33442235067943221 0.13211305649348251 0 0.31234835835761571 0.11893907758645331 0 0.31795714297393313 0.13124601312364301 0 0.31275865637682793 0.1340247663826373 0 0.31234835835761571 0.11893907758645331 0 0.31275865637682793 0.1340247663826373 0 0.31795714297393313 0.13124601312364301 0 0.31275865637682793 0.1340247663826373 0 0.31275865637682793 0.1340247663826373 0 0.31335061957957011 0.15578985477495891 0 0.31275865637682793 0.1340247663826373 0 0.31335061957957011 0.15578985477495891 0 0.31842762243075678 0.15625517981560311 0 0.33442235067943221 0.13211305649348251 0 0.31842762243075678 0.15625517981560311 0 0.31335061957957011 0.15578985477495891 0 0.31842762243075678 0.15625517981560311 0 0.31104746434799968 0.1673946430062502 0 0.31842762243075678 0.15625517981560311 0 0.33486110727476232 0.16933884429702981 0 0.31104746434799968 0.1673946430062502 0 0.31842762243075678 0.15625517981560311 0 0.31349927981525749 0.1612557404164488 0 0.31335061957957011 0.15578985477495891 0 0.31349927981525749 0.1612557404164488 0 0.31104746434799968 0.1673946430062502 0 0.33486110727476232 0.16933884429702981 0 0.31104746434799968 0.1673946430062502 0 0.31842762243075678 0.15625517981560311 0 0.31335061957957011 0.15578985477495891 0 0.31842762243075678 0.15625517981560311 0 0.31349927981525749 0.1612557404164488 0 0.31104746434799968 0.1673946430062502 0 0.32181551132831843 0.18004621980614391 0 0.33486110727476232 0.16933884429702981 0 0.32181551132831843 0.18004621980614391 0 0.33808290749091702 0.1854324580495085 0 0.34560534843082608 0.17304296670726349 0 0.33063695298837592 0.19682719513420929 0 0.32181551132831843 0.18004621980614391 0 0.33808290749091702 0.1854324580495085 0 0.32181551132831843 0.18004621980614391 0 0.33486110727476232 0.16933884429702981 0 0.34560534843082608 0.17304296670726349 0 0.32181551132831843 0.18004621980614391 0 0.34560534843082608 0.17304296670726349 0 0.31842762243075678 0.15625517981560311 0 0.33486110727476232 0.16933884429702981 0 0.3463391887874393 0.1588133723418115 0 0.31842762243075678 0.15625517981560311 0 0.3463391887874393 0.1588133723418115 0 0.33486110727476232 0.16933884429702981 0 0.35867475020152417 0.1712830455878149 0 0.33486110727476232 0.16933884429702981 0 0.3463391887874393 0.1588133723418115 0 0.35867475020152417 0.1712830455878149 0 0.33486110727476232 0.16933884429702981 0 0.35867475020152417 0.1712830455878149 0 0.34560534843082608 0.17304296670726349 0 0.35834447101042982 0.1885307986193322 0 0.35867475020152417 0.1712830455878149 0 0.34805963641287802 0.18313381139210541 0 0.33808290749091702 0.1854324580495085 0 0.34805963641287802 0.18313381139210541 0 0.34560534843082608 0.17304296670726349 0 0.35867475020152417 0.1712830455878149 0 0.34805963641287802 0.18313381139210541 0 0.34560534843082608 0.17304296670726349 0 0.35834447101042982 0.1885307986193322 0 0.35867475020152417 0.1712830455878149 0 0.37211726383392318 0.18243968588977941 0 0.35867475020152417 0.1712830455878149 0 0.37211726383392318 0.18243968588977941 0 0.38248839312828642 0.17322724687860011 0 0.35867475020152417 0.1712830455878149 0 0.38248839312828642 0.17322724687860011 0 0.3463391887874393 0.1588133723418115 0 0.35867475020152417 0.1712830455878149 0 0.37425075514412182 0.1613715648680196 0 0.35867475020152417 0.1712830455878149 0 0.37425075514412182 0.1613715648680196 0 0.38248839312828642 0.17322724687860011 0 0.3463391887874393 0.1588133723418115 0 0.37425075514412182 0.1613715648680196 0 0.37425075514412182 0.1613715648680196 0 0.36753442956304122 0.14046640889011411 0 0.37911076050976511 0.15167221068913639 0 0.37425075514412182 0.1613715648680196 0 0.35378385697663972 0.14543333148879159 0 0.36753442956304122 0.14046640889011411 0 0.37425075514412182 0.1613715648680196 0 0.36753442956304122 0.14046640889011411 0 0.36753442956304122 0.14046640889011411 0 0.37911076050976511 0.15167221068913639 0 0.3463391887874393 0.1588133723418115 0 0.37425075514412182 0.1613715648680196 0 0.35378385697663972 0.14543333148879159 0 0.33844782525489081 0.14552375979656301 0 0.33926610740018709 0.13500385884312699 0 0.35378385697663972 0.14543333148879159 0 0.33844782525489081 0.14552375979656301 0 0.3463391887874393 0.1588133723418115 0 0.35378385697663972 0.14543333148879159 0 0.343988490580944 0.1176741160108202 0 0.33926610740018709 0.13500385884312699 0 0.3557614600719885 0.1290702624504714 0 0.35378385697663972 0.14543333148879159 0 0.3557614600719885 0.1290702624504714 0 0.36753442956304122 0.14046640889011411 0 0.33926610740018709 0.13500385884312699 0 0.35378385697663972 0.14543333148879159 0 0.3557614600719885 0.1290702624504714 0 0.36234477620530581 0.12431315491142481 0 0.38206466283770479 0.146561596848436 0 0.36234477620530581 0.12431315491142481 0 0.36753442956304122 0.14046640889011411 0 0.38206466283770479 0.146561596848436 0 0.36234477620530581 0.12431315491142481 0 0.3557614600719885 0.1290702624504714 0 0.36753442956304122 0.14046640889011411 0 0.36234477620530581 0.12431315491142481 0 0.36753442956304122 0.14046640889011411 0 0.3557614600719885 0.1290702624504714 0 0.36753442956304122 0.14046640889011411 0 0.36234477620530581 0.12431315491142481 0 0.38206466283770479 0.146561596848436 0 0.38784786648637848 0.12498960030151041 0 0.39580058914059452 0.1490980931887998 0 0.38206466283770479 0.146561596848436 0 0.38784786648637848 0.12498960030151041 0 0.39580058914059452 0.1490980931887998 0 0.38784786648637848 0.12498960030151041 0 0.39497711538788383 0.13620291539220281 0 0.38784786648637848 0.12498960030151041 0 0.40536034682354632 0.12481683740862159 0 0.39497711538788383 0.13620291539220281 0 0.40981053908925419 0.14123984962813549 0 0.40536034682354632 0.12481683740862159 0 0.39497711538788383 0.13620291539220281 0 0.39580058914059452 0.1490980931887998 0 0.38784786648637848 0.12498960030151041 0 0.39497711538788383 0.13620291539220281 0 0.40981053908925419 0.14123984962813549 0 0.39580058914059452 0.1490980931887998 0 0.38206466283770479 0.146561596848436 0 0.39687031602956763 0.16326568453002829 0 0.39580058914059452 0.1490980931887998 0 0.40981053908925419 0.14123984962813549 0 0.41018078742555969 0.15504633733473569 0 0.39497711538788383 0.13620291539220281 0 0.39580058914059452 0.1490980931887998 0 0.40981053908925419 0.14123984962813549 0 0.38206466283770479 0.146561596848436 0 0.37911076050976511 0.15167221068913639 0 0.39068709145648911 0.16287801248815861 0 0.38206466283770479 0.146561596848436 0 0.39687031602956763 0.16326568453002829 0 0.36753442956304122 0.14046640889011411 0 0.38206466283770479 0.146561596848436 0 0.37911076050976511 0.15167221068913639 0 0.37425075514412182 0.1613715648680196 0 0.37911076050976511 0.15167221068913639 0 0.39068709145648911 0.16287801248815861 0 0.38206466283770479 0.146561596848436 0 0.39687031602956763 0.16326568453002829 0 0.39068709145648911 0.16287801248815861 0 0.37425075514412182 0.1613715648680196 0 0.39068709145648911 0.16287801248815861 0 0.37425075514412182 0.1613715648680196 0 0.38248839312828642 0.17322724687860011 0 0.39068709145648911 0.16287801248815861 0 0.38248839312828642 0.17322724687860011 0 0.39068709145648911 0.16287801248815861 0 0.39173266295372422 0.1703821586821625 0 0.37911076050976511 0.15167221068913639 0 0.39068709145648911 0.16287801248815861 0 0.37211726383392318 0.18243968588977941 0 0.38456142671463689 0.18119341109058101 0 0.37959621891343998 0.18888004806970329 0 0.37211726383392318 0.18243968588977941 0 0.38248839312828642 0.17322724687860011 0 0.38456142671463689 0.18119341109058101 0 0.38248839312828642 0.17322724687860011 0 0.39015071041641458 0.1752968202883449 0 0.38456142671463689 0.18119341109058101 0 0.39015071041641458 0.1752968202883449 0 0.38456142671463689 0.18119341109058101 0 0.3936647719149563 0.17997510126181099 0 0.38248839312828642 0.17322724687860011 0 0.39015071041641458 0.1752968202883449 0 0.39173266295372422 0.1703821586821625 0 0.38935120208080087 0.18734156415524739 0 0.38456142671463689 0.18119341109058101 0 0.37959621891343998 0.18888004806970329 0 0.38935120208080087 0.18734156415524739 0 0.38456142671463689 0.18119341109058101 0 0.3936647719149563 0.17997510126181099 0 0.40402992335265742 0.18295193175906091 0 0.40178454947010472 0.1688100387854462 0 0.4113280318459675 0.18796372784287679 0 0.38935120208080087 0.18734156415524739 0 0.39769522389517081 0.18613352877741379 0 0.3936647719149563 0.17997510126181099 0 0.39769522389517081 0.18613352877741379 0 0.3936647719149563 0.17997510126181099 0 0.39874070762402308 0.17719757549675871 0 0.3936647719149563 0.17997510126181099 0 0.39444527572727123 0.17454960687581639 0 0.39874070762402308 0.17719757549675871 0 0.39015071041641458 0.1752968202883449 0 0.3936647719149563 0.17997510126181099 0 0.39444527572727123 0.17454960687581639 0 0.39015071041641458 0.1752968202883449 0 0.39444527572727123 0.17454960687581639 0 0.39173266295372422 0.1703821586821625 0 0.39444527572727123 0.17454960687581639 0 0.39874070762402308 0.17719757549675871 0 0.39793752572723801 0.16989637865000479 0 0.39874070762402308 0.17719757549675871 0 0.40402992335265742 0.18295193175906091 0 0.40178454947010472 0.1688100387854462 0 0.39874070762402308 0.17719757549675871 0 0.39793752572723801 0.16989637865000479 0 0.40178454947010472 0.1688100387854462 0 0.39769522389517081 0.18613352877741379 0 0.39874070762402308 0.17719757549675871 0 0.40402992335265742 0.18295193175906091 0 0.39580058914059452 0.1490980931887998 0 0.39687031602956763 0.16326568453002829 0 0.40178454947010472 0.1688100387854462 0 0.39580058914059452 0.1490980931887998 0 0.40178454947010472 0.1688100387854462 0 0.41018078742555969 0.15504633733473569 0 0.39687031602956763 0.16326568453002829 0 0.39068709145648911 0.16287801248815861 0 0.39068709145648911 0.16287801248815861 0 0.39793752572723801 0.16989637865000479 0 0.39068709145648911 0.16287801248815861 0 0.39173266295372422 0.1703821586821625 0 0.39793752572723801 0.16989637865000479 0 0.39444527572727123 0.17454960687581639 0 0.39173266295372422 0.1703821586821625 0 0.39793752572723801 0.16989637865000479 0 0.39687031602956763 0.16326568453002829 0 0.39068709145648911 0.16287801248815861 0 0.39793752572723801 0.16989637865000479 0 0.39687031602956763 0.16326568453002829 0 0.40178454947010472 0.1688100387854462 0 0.39687031602956763 0.16326568453002829 0 0.39793752572723801 0.16989637865000479 0 0.40178454947010472 0.1688100387854462 0 0.42156831075211598 0.1680848541833582 0 0.42464396279062439 0.14627678386406909 0 0.41018078742555969 0.15504633733473569 0 0.40178454947010472 0.1688100387854462 0 0.42156831075211598 0.1680848541833582 0 0.41018078742555969 0.15504633733473569 0 0.40178454947010472 0.1688100387854462 0 0.4113280318459675 0.18796372784287679 0 0.42150443610250471 0.1910584807224564 0 0.40178454947010472 0.1688100387854462 0 0.42150443610250471 0.1910584807224564 0 0.40178454947010472 0.1688100387854462 0 0.42156831075211598 0.1680848541833582 0 0.42150443610250471 0.1910584807224564 0 0.42156831075211598 0.1680848541833582 0 0.43118451961009657 0.17908750652768421 0 0.42150443610250471 0.1910584807224564 0 0.43118451961009657 0.17908750652768421 0 0.42150443610250471 0.1910584807224564 0 0.44066350929549042 0.1899546779532231 0 0.42156831075211598 0.1680848541833582 0 0.43118451961009657 0.17908750652768421 0 0.44223327263954998 0.1675638295240294 0 0.42156831075211598 0.1680848541833582 0 0.42464396279062439 0.14627678386406909 0 0.44223327263954998 0.1675638295240294 0 0.42464396279062439 0.14627678386406909 0 0.44223327263954998 0.1675638295240294 0 0.42464396279062439 0.14627678386406909 0 0.44100510488797162 0.1518324801367677 0 0.42464396279062439 0.14627678386406909 0 0.43171131441089522 0.13754306829591861 0 0.44100510488797162 0.1518324801367677 0 0.43731578770263868 0.15311191614552969 0 0.42464396279062439 0.14627678386406909 0 0.44100510488797162 0.1518324801367677 0 0.43731578770263868 0.15311191614552969 0 0.42464396279062439 0.14627678386406909 0 0.44223327263954998 0.1675638295240294 0 0.43171131441089522 0.13754306829591861 0 0.41885098875887777 0.13391820237067861 0 0.42338535559027479 0.1205090768914225 0 0.43171131441089522 0.13754306829591861 0 0.44201491538503751 0.1221884416046867 0 0.42338535559027479 0.1205090768914225 0 0.42464396279062439 0.14627678386406909 0 0.43171131441089522 0.13754306829591861 0 0.41885098875887777 0.13391820237067861 0 0.41885098875887777 0.13391820237067861 0 0.40981053908925419 0.14123984962813549 0 0.40536034682354632 0.12481683740862159 0 0.41885098875887777 0.13391820237067861 0 0.42338535559027479 0.1205090768914225 0 0.40536034682354632 0.12481683740862159 0 0.42464396279062439 0.14627678386406909 0 0.41885098875887777 0.13391820237067861 0 0.40981053908925419 0.14123984962813549 0 0.42464396279062439 0.14627678386406909 0 0.40981053908925419 0.14123984962813549 0 0.42464396279062439 0.14627678386406909 0 0.40981053908925419 0.14123984962813549 0 0.41018078742555969 0.15504633733473569 0 0.39103074677198191 0.2378645478919707 0 0.40699913865084292 0.2200073724427305 0 0.40933178642478668 0.24530746794650141 0 0.39392409312874033 0.26548119861246328 0 0.39103074677198191 0.2378645478919707 0 0.40933178642478668 0.24530746794650141 0 0.39103074677198191 0.2378645478919707 0 0.37588607332036628 0.2490878796733729 0 0.37504625414522869 0.2303727958758012 0 0.39103074677198191 0.2378645478919707 0 0.37504625414522869 0.2303727958758012 0 0.38582046467374198 0.21767509700925741 0 0.36464593244806109 0.2145418940701225 0 0.37504625414522869 0.2303727958758012 0 0.38582046467374198 0.21767509700925741 0 0.39103074677198191 0.2378645478919707 0 0.38582046467374198 0.21767509700925741 0 0.40699913865084292 0.2200073724427305 0 0.39535308900850558 0.20493870697966851 0 0.38582046467374198 0.21767509700925741 0 0.40699913865084292 0.2200073724427305 0 0.39535308900850558 0.20493870697966851 0 0.40736650267529367 0.20534760411496161 0 0.40699913865084292 0.2200073724427305 0 0.36464593244806109 0.2145418940701225 0 0.38582046467374198 0.21767509700925741 0 0.38262777372413942 0.20056577775977211 0 0.39535308900850558 0.20493870697966851 0 0.38582046467374198 0.21767509700925741 0 0.38262777372413942 0.20056577775977211 0 0.36867711819290189 0.19558193609178909 0 0.38262777372413942 0.20056577775977211 0 0.37959621891343998 0.18888004806970329 0 0.38935120208080087 0.18734156415524739 0 0.38262777372413942 0.20056577775977211 0 0.37959621891343998 0.18888004806970329 0 0.38935120208080087 0.18734156415524739 0 0.38262777372413942 0.20056577775977211 0 0.39495039075152383 0.19500119794261639 0 0.38935120208080087 0.18734156415524739 0 0.39769522389517081 0.18613352877741379 0 0.39495039075152383 0.19500119794261639 0 0.39535308900850558 0.20493870697966851 0 0.38262777372413942 0.20056577775977211 0 0.39495039075152383 0.19500119794261639 0 0.39535308900850558 0.20493870697966851 0 0.40543434764706382 0.19433380204898831 0 0.40736650267529367 0.20534760411496161 0 0.39535308900850558 0.20493870697966851 0 0.39495039075152383 0.19500119794261639 0 0.40543434764706382 0.19433380204898831 0 0.39769522389517081 0.18613352877741379 0 0.39495039075152383 0.19500119794261639 0 0.40543434764706382 0.19433380204898831 0 0.39769522389517081 0.18613352877741379 0 0.40402992335265742 0.18295193175906091 0 0.40543434764706382 0.19433380204898831 0 0.41405593538476537 0.1978098369375659 0 0.42150443610250471 0.1910584807224564 0 0.41932031768340311 0.20743549227764799 0 0.40543434764706382 0.19433380204898831 0 0.4113280318459675 0.18796372784287679 0 0.41405593538476537 0.1978098369375659 0 0.40402992335265742 0.18295193175906091 0 0.40543434764706382 0.19433380204898831 0 0.4113280318459675 0.18796372784287679 0 0.40543434764706382 0.19433380204898831 0 0.41405593538476537 0.1978098369375659 0 0.40736650267529367 0.20534760411496161 0 0.4113280318459675 0.18796372784287679 0 0.41405593538476537 0.1978098369375659 0 0.41800374937960327 0.1912601641577685 0 0.4113280318459675 0.18796372784287679 0 0.41800374937960327 0.1912601641577685 0 0.42150443610250471 0.1910584807224564 0 0.41405593538476537 0.1978098369375659 0 0.41800374937960327 0.1912601641577685 0 0.42150443610250471 0.1910584807224564 0 0.41800374937960327 0.1912601641577685 0 0.42150443610250471 0.1910584807224564 0 0.42150443610250471 0.1910584807224564 0 0.43964605568812892 0.21152628449425559 0 0.44066350929549042 0.1899546779532231 0 0.42150443610250471 0.1910584807224564 0 0.44066350929549042 0.1899546779532231 0 0.42150443610250471 0.1910584807224564 0 0.43964605568812892 0.21152628449425559 0 0.42692227912344938 0.2185749218571387 0 0.41932031768340311 0.20743549227764799 0 0.43964605568812892 0.21152628449425559 0 0.42150443610250471 0.1910584807224564 0 0.41932031768340311 0.20743549227764799 0 0.43964605568812892 0.21152628449425559 0 0.42692227912344938 0.2185749218571387 0 0.41932031768340311 0.20743549227764799 0 0.40699913865084292 0.2200073724427305 0 0.41932031768340311 0.20743549227764799 0 0.40736650267529367 0.20534760411496161 0 0.40699913865084292 0.2200073724427305 0 0.41405593538476537 0.1978098369375659 0 0.41932031768340311 0.20743549227764799 0 0.40736650267529367 0.20534760411496161 0 0.40699913865084292 0.2200073724427305 0 0.42791060214005622 0.23524578657545639 0 0.40933178642478668 0.24530746794650141 0 0.42692227912344938 0.2185749218571387 0 0.40699913865084292 0.2200073724427305 0 0.42791060214005622 0.23524578657545639 0 0.42692227912344938 0.2185749218571387 0 0.42791060214005622 0.23524578657545639 0 0.44687549402799981 0.2240274878755969 0 0.42507863072368701 0.2531856777568211 0 0.42791060214005622 0.23524578657545639 0 0.43876594592942619 0.2491002947533556 0 0.42791060214005622 0.23524578657545639 0 0.43876594592942619 0.2491002947533556 0 0.44210509291822658 0.23713285843962781 0 0.42507863072368701 0.2531856777568211 0 0.42791060214005622 0.23524578657545639 0 0.40933178642478668 0.24530746794650141 0 0.4657425708042397 0.25282124097232528 0 0.45444189403291402 0.2411770147019261 0 0.46902648610557401 0.23978031661179641 0 0.45444189403291402 0.2411770147019261 0 0.46153812927118693 0.22769678494989409 0 0.46902648610557401 0.23978031661179641 0 0.44893917376128722 0.25670587451621701 0 0.45444189403291402 0.2411770147019261 0 0.43876594592942619 0.2491002947533556 0 0.45444189403291402 0.2411770147019261 0 0.43876594592942619 0.2491002947533556 0 0.44210509291822658 0.23713285843962781 0 0.42791060214005622 0.23524578657545639 0 0.44210509291822658 0.23713285843962781 0 0.44687549402799981 0.2240274878755969 0 0.45444189403291402 0.2411770147019261 0 0.44210509291822658 0.23713285843962781 0 0.44687549402799981 0.2240274878755969 0 0.45444189403291402 0.2411770147019261 0 0.44687549402799981 0.2240274878755969 0 0.46153812927118693 0.22769678494989409 0 0.44687549402799981 0.2240274878755969 0 0.46153812927118693 0.22769678494989409 0 0.45434831412809351 0.2169717754240589 0 0.46153812927118693 0.22769678494989409 0 0.46788422009904918 0.21602458295004651 0 0.45434831412809351 0.2169717754240589 0 0.46788422009904918 0.21602458295004651 0 0.45579767155410239 0.20558373685050119 0 0.47298928242684912 0.20478556194466599 0 0.46788422009904918 0.21602458295004651 0 0.45579767155410239 0.20558373685050119 0 0.45434831412809351 0.2169717754240589 0 0.45579767155410239 0.20558373685050119 0 0.45434831412809351 0.2169717754240589 0 0.43964605568812892 0.21152628449425559 0 0.45579767155410239 0.20558373685050119 0 0.43964605568812892 0.21152628449425559 0 0.44944268158891898 0.19797959918788341 0 0.42692227912344938 0.2185749218571387 0 0.44687549402799981 0.2240274878755969 0 0.43964605568812892 0.21152628449425559 0 0.44687549402799981 0.2240274878755969 0 0.45434831412809351 0.2169717754240589 0 0.43964605568812892 0.21152628449425559 0 0.43964605568812892 0.21152628449425559 0 0.44944268158891898 0.19797959918788341 0 0.44066350929549042 0.1899546779532231 0 0.44066350929549042 0.1899546779532231 0 0.45982258248847607 0.18885087518398949 0 0.44944268158891898 0.19797959918788341 0 0.44066350929549042 0.1899546779532231 0 0.45982258248847607 0.18885087518398949 0 0.45579767155410239 0.20558373685050119 0 0.44944268158891898 0.19797959918788341 0 0.45982258248847607 0.18885087518398949 0 0.45982258248847607 0.18885087518398949 0 0.47298928242684912 0.20478556194466599 0 0.45579767155410239 0.20558373685050119 0 0.45982258248847607 0.18885087518398949 0 0.47298928242684912 0.20478556194466599 0 0.45982258248847607 0.18885087518398949 0 0.46246267395613577 0.18869877282268771 0 0.47298928242684912 0.20478556194466599 0 0.45982258248847607 0.18885087518398949 0 0.46246267395613577 0.18869877282268771 0 0.48123133697806858 0.18761746257298201 0 0.49061566848903448 0.19913054633610969 0 0.48123133697806791 0.21172494034894249 0 0.46246267395613577 0.18869877282268771 0 0.48123133697806791 0.21172494034894249 0 0.47298928242684912 0.20478556194466599 0 0.46246267395613577 0.18869877282268771 0 0.48123133697806791 0.21172494034894249 0 0.46246267395613577 0.18869877282268771 0 0.48123133697806858 0.18761746257298201 0 0.48123133697806791 0.21172494034894249 0 0.46246267395613577 0.18869877282268771 0 0.48123133697806858 0.18761746257298201 0 0.49061566848903448 0.19913054633610969 0 0.5 0.21064363009923689 0 0.50000000000000144 0.18653615232327739 0 0.48123133697806858 0.18761746257298201 0 0.49061566848903448 0.19913054633610969 0 0.50000000000000144 0.18653615232327739 0 0.49061566848903448 0.19913054633610969 0 0.5 0.21064363009923689 0 0.48123133697806791 0.21172494034894249 0 0.46788422009904918 0.21602458295004651 0 0.48123133697806791 0.21172494034894249 0 0.47298928242684912 0.20478556194466599 0 0.46153812927118693 0.22769678494989409 0 0.47761079907368659 0.22975513346519441 0 0.46902648610557401 0.23978031661179641 0 0.46153812927118693 0.22769678494989409 0 0.46788422009904918 0.21602458295004651 0 0.47761079907368659 0.22975513346519441 0 0.46788422009904918 0.21602458295004651 0 0.48123133697806791 0.21172494034894249 0 0.47761079907368659 0.22975513346519441 0 0.48123133697806791 0.21172494034894249 0 0.50000000000000078 0.23475110787519651 0 0.48123133697806791 0.21172494034894249 0 0.47761079907368659 0.22975513346519441 0 0.50000000000000078 0.23475110787519651 0 0.5 0.21064363009923689 0 0.48123133697806791 0.21172494034894249 0 0.50000000000000078 0.23475110787519651 0 0.47761079907368659 0.22975513346519441 0 0.50000000000000078 0.23475110787519651 0 0.48319944748130261 0.24680576274814439 0 0.48930401013157893 0.26400543771054868 0 0.50000000000000078 0.23475110787519651 0 0.48319944748130261 0.24680576274814439 0 0.47761079907368659 0.22975513346519441 0 0.48319944748130261 0.24680576274814439 0 0.46902648610557401 0.23978031661179641 0 0.4657425708042397 0.25282124097232528 0 0.48319944748130261 0.24680576274814439 0 0.46902648610557401 0.23978031661179641 0 0.46067006992531578 0.14501277255513739 0 0.44100510488797162 0.1518324801367677 0 0.45842061247378069 0.15774620364127601 0 0.46067006992531578 0.14501277255513739 0 0.45842061247378069 0.15774620364127601 0 0.47181417780450058 0.15130991192119209 0 0.46067006992531578 0.14501277255513739 0 0.44779797982522251 0.13591138282507809 0 0.46358849451689271 0.12298015153287919 0 0.46067006992531578 0.14501277255513739 0 0.48033503496266028 0.13819306497350831 0 0.46358849451689271 0.12298015153287919 0 0.44779797982522251 0.13591138282507809 0 0.46358849451689271 0.12298015153287919 0 0.44201491538503751 0.1221884416046867 0 0.43171131441089522 0.13754306829591861 0 0.44779797982522251 0.13591138282507809 0 0.44201491538503751 0.1221884416046867 0 0.46067006992531578 0.14501277255513739 0 0.44100510488797162 0.1518324801367677 0 0.43171131441089522 0.13754306829591861 0 0.44779797982522251 0.13591138282507809 0 0.44100510488797162 0.1518324801367677 0 0.44100510488797162 0.1518324801367677 0 0.45842061247378069 0.15774620364127601 0 0.46067006992531578 0.14501277255513739 0 0.44779797982522251 0.13591138282507809 0 0.44100510488797162 0.1518324801367677 0 0.43731578770263868 0.15311191614552969 0 0.44100510488797162 0.1518324801367677 0 0.43731578770263868 0.15311191614552969 0 0.44100510488797162 0.1518324801367677 0 0.44223327263954998 0.1675638295240294 0 0.44100510488797162 0.1518324801367677 0 0.44223327263954998 0.1675638295240294 0 0.45064745071206469 0.16407050785850311 0 0.44100510488797162 0.1518324801367677 0 0.45064745071206469 0.16407050785850311 0 0.45842061247378069 0.15774620364127601 0 0.44223327263954998 0.1675638295240294 0 0.45064745071206469 0.16407050785850311 0 0.45252365300287162 0.17650517324400131 0 0.44066350929549042 0.1899546779532231 0 0.45982258248847607 0.18885087518398949 0 0.44223327263954998 0.1675638295240294 0 0.45982258248847607 0.18885087518398949 0 0.44223327263954998 0.1675638295240294 0 0.45982258248847607 0.18885087518398949 0 0.44223327263954998 0.1675638295240294 0 0.45252365300287162 0.17650517324400131 0 0.43118451961009657 0.17908750652768421 0 0.44066350929549042 0.1899546779532231 0 0.44223327263954998 0.1675638295240294 0 0.45252365300287162 0.17650517324400131 0 0.46852950543390098 0.17564223008125701 0 0.45888445054831062 0.16819836462120771 0 0.46246267395613577 0.18869877282268771 0 0.45252365300287162 0.17650517324400131 0 0.46852950543390098 0.17564223008125701 0 0.46246267395613577 0.18869877282268771 0 0.45252365300287162 0.17650517324400131 0 0.45982258248847607 0.18885087518398949 0 0.46246267395613577 0.18869877282268771 0 0.45252365300287162 0.17650517324400131 0 0.45842061247378069 0.15774620364127601 0 0.4758361200595902 0.1636599271457834 0 0.47181417780450058 0.15130991192119209 0 0.45842061247378069 0.15774620364127601 0 0.4758361200595902 0.1636599271457834 0 0.45842061247378069 0.15774620364127601 0 0.45888445054831062 0.16819836462120771 0 0.4758361200595902 0.1636599271457834 0 0.46852950543390098 0.17564223008125701 0 0.45888445054831062 0.16819836462120771 0 0.4758361200595902 0.1636599271457834 0 0.45064745071206469 0.16407050785850311 0 0.45842061247378069 0.15774620364127601 0 0.45888445054831062 0.16819836462120771 0 0.45064745071206469 0.16407050785850311 0 0.45252365300287162 0.17650517324400131 0 0.45888445054831062 0.16819836462120771 0 0.4758361200595902 0.1636599271457834 0 0.48630368258704137 0.17140311931871249 0 0.48517032610197292 0.15232670889348399 0 0.46852950543390098 0.17564223008125701 0 0.4758361200595902 0.1636599271457834 0 0.48630368258704137 0.17140311931871249 0 0.46246267395613577 0.18869877282268771 0 0.48123133697806858 0.18761746257298201 0 0.46852950543390098 0.17564223008125701 0 0.48123133697806858 0.18761746257298201 0 0.46852950543390098 0.17564223008125701 0 0.48630368258704137 0.17140311931871249 0 0.48123133697806858 0.18761746257298201 0 0.50000000000000144 0.18653615232327739 0 0.48123133697806858 0.18761746257298201 0 0.50000000000000144 0.18653615232327739 0 0.48630368258704137 0.17140311931871249 0 0.50000000000000144 0.18653615232327739 0 0.48630368258704137 0.17140311931871249 0 0.5 0.15895475485757751 0 0.48630368258704137 0.17140311931871249 0 0.5 0.15895475485757751 0 0.48517032610197292 0.15232670889348399 0 0.48517032610197292 0.15232670889348399 0 0.48033503496266028 0.13819306497350831 0 0.50000000000000444 0.13137335739187769 0 0.5 0.15895475485757751 0 0.48517032610197292 0.15232670889348399 0 0.50000000000000444 0.13137335739187769 0 0.46067006992531578 0.14501277255513739 0 0.47181417780450058 0.15130991192119209 0 0.48033503496266028 0.13819306497350831 0 0.46067006992531578 0.14501277255513739 0 0.48033503496266028 0.13819306497350831 0 0.4758361200595902 0.1636599271457834 0 0.48517032610197292 0.15232670889348399 0 0.47181417780450058 0.15130991192119209 0 0.48517032610197292 0.15232670889348399 0 0.47181417780450058 0.15130991192119209 0 0.48033503496266028 0.13819306497350831 0 0.48033503496266028 0.13819306497350831 0 0.48287207193790682 0.119833017198512 0 0.46358849451689271 0.12298015153287919 0 0.48033503496266028 0.13819306497350831 0 0.50000000000000444 0.13137335739187769 0 0.48287207193790682 0.119833017198512 0 0.48033503496266028 0.13819306497350831 0 0.50000000000000444 0.13137335739187769 0 0.50000000000000444 0.13137335739187769 0 0.5 0.112750504140729 0 0.48287207193790682 0.119833017198512 0 0.5 0.112750504140729 0 0.47708970494047592 0.096547162644013557 0 0.48287207193790682 0.119833017198512 0 0.5 0.112750504140729 0 0.49999999999999811 0.094127650889580305 0 0.47708970494047592 0.096547162644013557 0 0.49999999999999811 0.094127650889580305 0 0.47708970494047592 0.096547162644013557 0 0.47708970494047592 0.096547162644013557 0 0.48287207193790682 0.119833017198512 0 0.46358849451689271 0.12298015153287919 0 0.49999999999999811 0.094127650889580305 0 0.5 0.065085683867034727 0 0.49030416231355511 0.073256317384286063 0 0.49030416231355511 0.073256317384286063 0 0.47714578073418512 0.066537383845565096 0 0.49228297291204992 0.059454014438704107 0 0.5 0.065085683867034727 0 0.49030416231355511 0.073256317384286063 0 0.49228297291204992 0.059454014438704107 0 0.49999999999999811 0.094127650889580305 0 0.47708970494047592 0.096547162644013557 0 0.48209205792154058 0.081076853880546043 0 0.49999999999999811 0.094127650889580305 0 0.49030416231355511 0.073256317384286063 0 0.48209205792154058 0.081076853880546043 0 0.47708970494047592 0.096547162644013557 0 0.48209205792154058 0.081076853880546043 0 0.46573084566111861 0.080721753047445138 0 0.48209205792154058 0.081076853880546043 0 0.47714578073418512 0.066537383845565096 0 0.46573084566111861 0.080721753047445138 0 0.49030416231355511 0.073256317384286063 0 0.48209205792154058 0.081076853880546043 0 0.47714578073418512 0.066537383845565096 0 0.45650324214529259 0.065280330615496637 0 0.46573084566111861 0.080721753047445138 0 0.4463318017969411 0.077534016390637867 0 0.47714578073418512 0.066537383845565096 0 0.45650324214529259 0.065280330615496637 0 0.46573084566111861 0.080721753047445138 0 0.46573084566111861 0.080721753047445138 0 0.4463318017969411 0.077534016390637867 0 0.45417940988095362 0.098966674398447016 0 0.47708970494047592 0.096547162644013557 0 0.46573084566111861 0.080721753047445138 0 0.45417940988095362 0.098966674398447016 0 0.4463318017969411 0.077534016390637867 0 0.45417940988095362 0.098966674398447016 0 0.43319821241535611 0.085947639564665793 0 0.4463318017969411 0.077534016390637867 0 0.44127530461137909 0.064432497562673663 0 0.4323056194460711 0.072068218276874901 0 0.45650324214529259 0.065280330615496637 0 0.4463318017969411 0.077534016390637867 0 0.44127530461137909 0.064432497562673663 0 0.46358849451689271 0.12298015153287919 0 0.45417940988095362 0.098966674398447016 0 0.44201491538503751 0.1221884416046867 0 0.47708970494047592 0.096547162644013557 0 0.46358849451689271 0.12298015153287919 0 0.45417940988095362 0.098966674398447016 0 0.47708970494047592 0.096547162644013557 0 0.45417940988095362 0.098966674398447016 0 0.45417940988095362 0.098966674398447016 0 0.43126911482143138 0.1013861861528805 0 0.43319821241535611 0.085947639564665793 0 0.45417940988095362 0.098966674398447016 0 0.43126911482143138 0.1013861861528805 0 0.45417940988095362 0.098966674398447016 0 0.44201491538503751 0.1221884416046867 0 0.43126911482143138 0.1013861861528805 0 0.44201491538503751 0.1221884416046867 0 0.42338535559027479 0.1205090768914225 0 0.43126911482143138 0.1013861861528805 0 0.42338535559027479 0.1205090768914225 0 0.40835881976190908 0.10380569790731391 0 0.40536034682354632 0.12481683740862159 0 0.40835881976190908 0.10380569790731391 0 0.43126911482143138 0.1013861861528805 0 0.42338535559027479 0.1205090768914225 0 0.40835881976190908 0.10380569790731391 0 0.43126911482143138 0.1013861861528805 0 0.40835881976190908 0.10380569790731391 0 0.43126911482143138 0.1013861861528805 0 0.41935522763475591 0.089699073352522835 0 0.4463318017969411 0.077534016390637867 0 0.43319821241535611 0.085947639564665793 0 0.4323056194460711 0.072068218276874901 0 0.43319821241535611 0.085947639564665793 0 0.41924297708616731 0.074654461475880396 0 0.41935522763475591 0.089699073352522835 0 0.43126911482143138 0.1013861861528805 0 0.43319821241535611 0.085947639564665793 0 0.41935522763475591 0.089699073352522835 0 0.4323056194460711 0.072068218276874901 0 0.41924297708616731 0.074654461475880396 0 0.42690609811089331 0.059013607202760512 0 0.44127530461137909 0.064432497562673663 0 0.4323056194460711 0.072068218276874901 0 0.42690609811089331 0.059013607202760512 0 0.43319821241535611 0.085947639564665793 0 0.4323056194460711 0.072068218276874901 0 0.41924297708616731 0.074654461475880396 0 0.41924297708616731 0.074654461475880396 0 0.41572401702962131 0.06154942829698281 0 0.42690609811089331 0.059013607202760512 0 0.41924297708616731 0.074654461475880396 0 0.40863285456409321 0.067745049984629005 0 0.41572401702962131 0.06154942829698281 0 0.41924297708616731 0.074654461475880396 0 0.40863285456409321 0.067745049984629005 0 0.40581890464532883 0.082285452545517224 0 0.40835881976190908 0.10380569790731391 0 0.41935522763475591 0.089699073352522835 0 0.40581890464532883 0.082285452545517224 0 0.41924297708616731 0.074654461475880396 0 0.41935522763475591 0.089699073352522835 0 0.40581890464532883 0.082285452545517224 0 0.40581890464532883 0.082285452545517224 0 0.39175039171038772 0.087168104040655559 0 0.39624558431573131 0.06624045880030964 0 0.40835881976190908 0.10380569790731391 0 0.40581890464532883 0.082285452545517224 0 0.39175039171038772 0.087168104040655559 0 0.39175039171038772 0.087168104040655559 0 0.39624558431573131 0.06624045880030964 0 0.38418619936747078 0.072555057714184676 0 0.40863285456409321 0.067745049984629005 0 0.40581890464532883 0.082285452545517224 0 0.39624558431573131 0.06624045880030964 0 0.40863285456409321 0.067745049984629005 0 0.39624558431573131 0.06624045880030964 0 0.40829937009812589 0.05445646228617778 0 0.37194242117794668 0.076772614526931793 0 0.38418619936747078 0.072555057714184676 0 0.38237628961462611 0.059732338949836518 0 0.36864505415383159 0.080457991471440893 0 0.38237628961462611 0.059732338949836518 0 0.39624558431573131 0.06624045880030964 0 0.38418619936747078 0.072555057714184676 0 0.38237628961462611 0.059732338949836518 0 0.37194242117794668 0.076772614526931793 0 0.38418619936747078 0.072555057714184676 0 0.38194353902199202 0.084344220923998292 0 0.39175039171038772 0.087168104040655559 0 0.38194353902199202 0.084344220923998292 0 0.37989514383216261 0.1008811074142211 0 0.37194242117794668 0.076772614526931793 0 0.37989514383216261 0.1008811074142211 0 0.37194242117794668 0.076772614526931793 0 0.38194353902199202 0.084344220923998292 0 0.37989514383216261 0.1008811074142211 0 0.39175039171038772 0.087168104040655559 0 0.38418619936747078 0.072555057714184676 0 0.38194353902199202 0.084344220923998292 0 0.39175039171038772 0.087168104040655559 0 0.37989514383216261 0.1008811074142211 0 0.39428450139263399 0.1099935163928351 0 0.37989514383216261 0.1008811074142211 0 0.38784786648637848 0.12498960030151041 0 0.37989514383216261 0.1008811074142211 0 0.38784786648637848 0.12498960030151041 0 0.39428450139263399 0.1099935163928351 0 0.37989514383216261 0.1008811074142211 0 0.38784786648637848 0.12498960030151041 0 0.37533236417423199 0.11575217945856781 0 0.36234477620530581 0.12431315491142481 0 0.38784786648637848 0.12498960030151041 0 0.37533236417423199 0.11575217945856781 0 0.38784786648637848 0.12498960030151041 0 0.39428450139263399 0.1099935163928351 0 0.40536034682354632 0.12481683740862159 0 0.40835881976190908 0.10380569790731391 0 0.39428450139263399 0.1099935163928351 0 0.40536034682354632 0.12481683740862159 0 0.40835881976190908 0.10380569790731391 0 0.39175039171038772 0.087168104040655559 0 0.39428450139263399 0.1099935163928351 0 0.4022109480673669 0.029794301680725051 0 0.39903054770448521 0.019764345079569041 0 0.38956197386376129 0.02112761593547402 0 0.4022109480673669 0.029794301680725051 0 0.38956197386376129 0.02112761593547402 0 0.39250591407207142 0.036175579460824843 0 0.4022109480673669 0.029794301680725051 0 0.39903054770448521 0.019764345079569041 0 0.40715192280340562 0.01462234732060084 0 0.3939873043738738 0.005606014803845533 0 0.40715192280340562 0.01462234732060084 0 0.41629264407573002 -0.006850845090226044 0 0.39903054770448521 0.019764345079569041 0 0.3939873043738738 0.005606014803845533 0 0.40715192280340562 0.01462234732060084 0 0.39903054770448521 0.019764345079569041 0 0.3939873043738738 0.005606014803845533 0 0.38956197386376129 0.02112761593547402 0 0.3939873043738738 0.005606014803845533 0 0.38284321145746519 0.01274873380563272 0 0.38956197386376129 0.02112761593547402 0 0.37357914744350779 0.002440479778912224 0 0.37424442014871812 0.021820824704299101 0 0.38284321145746519 0.01274873380563272 0 0.37357914744350779 0.002440479778912224 0 0.3939873043738738 0.005606014803845533 0 0.38284321145746519 0.01274873380563272 0 0.37424442014871812 0.021820824704299101 0 0.39250591407207142 0.036175579460824843 0 0.36321924137845568 0.02934286747329215 0 0.37424442014871812 0.021820824704299101 0 0.39250591407207142 0.036175579460824843 0 0.37424442014871812 0.021820824704299101 0 0.38956197386376129 0.02112761593547402 0 0.39250591407207142 0.036175579460824843 0 0.37424442014871812 0.021820824704299101 0 0.38284321145746519 0.01274873380563272 0 0.38956197386376129 0.02112761593547402 0 0.36321924137845568 0.02934286747329215 0 0.37923500638336632 0.043068186250585699 0 0.39250591407207142 0.036175579460824843 0 0.36321924137845568 0.02934286747329215 0 0.39250591407207142 0.036175579460824843 0 0.37923500638336632 0.043068186250585699 0 0.39610752507542107 0.039006686428232497 0 0.39250591407207142 0.036175579460824843 0 0.37923500638336632 0.043068186250585699 0 0.38237628961462611 0.059732338949836518 0 0.39610752507542107 0.039006686428232497 0 0.38237628961462611 0.059732338949836518 0 0.39610752507542107 0.039006686428232497 0 0.38237628961462611 0.059732338949836518 0 0.39498436831919048 0.053995491217328308 0 0.39610752507542107 0.039006686428232497 0 0.39624558431573131 0.06624045880030964 0 0.38237628961462611 0.059732338949836518 0 0.39498436831919048 0.053995491217328308 0 0.39624558431573131 0.06624045880030964 0 0.39498436831919048 0.053995491217328308 0 0.40127216254757908 0.052142880950221668 0 0.39498436831919048 0.053995491217328308 0 0.40127216254757908 0.052142880950221668 0 0.39610752507542107 0.039006686428232497 0 0.40127216254757908 0.052142880950221668 0 0.40829937009812589 0.05445646228617778 0 0.40647643562697111 0.047157343142538291 0 0.39624558431573131 0.06624045880030964 0 0.40127216254757908 0.052142880950221668 0 0.40829937009812589 0.05445646228617778 0 0.39624558431573131 0.06624045880030964 0 0.40829937009812589 0.05445646228617778 0 0.4022109480673669 0.029794301680725051 0 0.39724992059935432 0.037282377443883637 0 0.39250591407207142 0.036175579460824843 0 0.39724992059935432 0.037282377443883637 0 0.39250591407207142 0.036175579460824843 0 0.39610752507542107 0.039006686428232497 0 0.39724992059935432 0.037282377443883637 0 0.39250591407207142 0.036175579460824843 0 0.39610752507542107 0.039006686428232497 0 0.39724992059935432 0.037282377443883637 0 0.39610752507542107 0.039006686428232497 0 0.39250591407207142 0.036175579460824843 0 0.39610752507542107 0.039006686428232497 0 0.40647643562697111 0.047157343142538291 0 0.40127216254757908 0.052142880950221668 0 0.39610752507542107 0.039006686428232497 0 0.40647643562697111 0.047157343142538291 0 0.39610752507542107 0.039006686428232497 0 0.39724992059935432 0.037282377443883637 0 0.40647643562697111 0.047157343142538291 0 0.4022109480673669 0.029794301680725051 0 0.39724992059935432 0.037282377443883637 0 0.41056521822753728 0.033900572446116307 0 0.4022109480673669 0.029794301680725051 0 0.39724992059935432 0.037282377443883637 0 0.39724992059935432 0.037282377443883637 0 0.42035315588052052 0.042672465772045823 0 0.39724992059935432 0.037282377443883637 0 0.41056521822753728 0.033900572446116307 0 0.42035315588052052 0.042672465772045823 0 0.39724992059935432 0.037282377443883637 0 0.42035315588052052 0.042672465772045823 0 0.40647643562697111 0.047157343142538291 0 0.41056521822753728 0.033900572446116307 0 0.42035315588052052 0.042672465772045823 0 0.41918056088687422 0.025106301550984179 0 0.42035315588052052 0.042672465772045823 0 0.41807260402200452 0.053616349792940499 0 0.42690609811089331 0.059013607202760512 0 0.40863285456409321 0.067745049984629005 0 0.40829937009812589 0.05445646228617778 0 0.41572401702962131 0.06154942829698281 0 0.40829937009812589 0.05445646228617778 0 0.41807260402200452 0.053616349792940499 0 0.41572401702962131 0.06154942829698281 0 0.42035315588052052 0.042672465772045823 0 0.40829937009812589 0.05445646228617778 0 0.40647643562697111 0.047157343142538291 0 0.42035315588052052 0.042672465772045823 0 0.40829937009812589 0.05445646228617778 0 0.42035315588052052 0.042672465772045823 0 0.40829937009812589 0.05445646228617778 0 0.41807260402200452 0.053616349792940499 0 0.41807260402200452 0.053616349792940499 0 0.41572401702962131 0.06154942829698281 0 0.42690609811089331 0.059013607202760512 0 0.42035315588052052 0.042672465772045823 0 0.42690609811089331 0.059013607202760512 0 0.44432976155769699 0.048266315327598383 0 0.42035315588052052 0.042672465772045823 0 0.43671568676264189 0.026676163003921921 0 0.42035315588052052 0.042672465772045823 0 0.43671568676264189 0.026676163003921921 0 0.44432976155769699 0.048266315327598383 0 0.42035315588052052 0.042672465772045823 0 0.44432976155769699 0.048266315327598383 0 0.42035315588052052 0.042672465772045823 0 0.43671568676264189 0.026676163003921921 0 0.41918056088687422 0.025106301550984179 0 0.43671568676264189 0.026676163003921921 0 0.41918056088687422 0.025106301550984179 0 0.43085411213296282 0.0071934808399317304 0 0.4022109480673669 0.029794301680725051 0 0.41918056088687422 0.025106301550984179 0 0.40715192280340562 0.01462234732060084 0 0.41918056088687422 0.025106301550984179 0 0.40715192280340562 0.01462234732060084 0 0.43085411213296282 0.0071934808399317304 0 0.4022109480673669 0.029794301680725051 0 0.41056521822753728 0.033900572446116307 0 0.41918056088687422 0.025106301550984179 0 0.40715192280340562 0.01462234732060084 0 0.43085411213296282 0.0071934808399317304 0 0.41629264407573002 -0.006850845090226044 0 0.43085411213296282 0.0071934808399317304 0 0.45307821764476319 0.010679860235798 0 0.45275060893296981 -0.0060266252809792519 0 0.43671568676264189 0.026676163003921921 0 0.43085411213296282 0.0071934808399317304 0 0.45307821764476319 0.010679860235798 0 0.43671568676264189 0.026676163003921921 0 0.45307821764476319 0.010679860235798 0 0.45536773125663488 0.033055304065500078 0 0.43671568676264189 0.026676163003921921 0 0.45307821764476319 0.010679860235798 0 0.45307821764476319 0.010679860235798 0 0.45536773125663488 0.033055304065500078 0 0.4743220131113518 0.027463297392627269 0 0.45307821764476319 0.010679860235798 0 0.47441986059974051 0.002164373494884166 0 0.4743220131113518 0.027463297392627269 0 0.45307821764476319 0.010679860235798 0 0.47441986059974051 0.002164373494884166 0 0.45275060893296981 -0.0060266252809792519 0 0.45650324214529259 0.065280330615496637 0 0.44127530461137909 0.064432497562673663 0 0.44432976155769699 0.048266315327598383 0 0.44127530461137909 0.064432497562673663 0 0.42690609811089331 0.059013607202760512 0 0.44432976155769699 0.048266315327598383 0 0.43671568676264189 0.026676163003921921 0 0.44432976155769699 0.048266315327598383 0 0.45536773125663488 0.033055304065500078 0 0.45536773125663488 0.033055304065500078 0 0.4683063672348734 0.053860164883151249 0 0.4743220131113518 0.027463297392627269 0 0.44432976155769699 0.048266315327598383 0 0.45536773125663488 0.033055304065500078 0 0.4683063672348734 0.053860164883151249 0 0.44432976155769699 0.048266315327598383 0 0.4683063672348734 0.053860164883151249 0 0.45650324214529259 0.065280330615496637 0 0.44432976155769699 0.048266315327598383 0 0.4683063672348734 0.053860164883151249 0 0.47714578073418512 0.066537383845565096 0 0.45650324214529259 0.065280330615496637 0 0.4683063672348734 0.053860164883151249 0 0.47714578073418512 0.066537383845565096 0 0.4683063672348734 0.053860164883151249 0 0.49228297291204992 0.059454014438704107 0 0.4683063672348734 0.053860164883151249 0 0.48335627184046892 0.043534316590418197 0 0.49228297291204992 0.059454014438704107 0 0.4683063672348734 0.053860164883151249 0 0.49228297291204992 0.059454014438704107 0 0.4683063672348734 0.053860164883151249 0 0.48335627184046892 0.043534316590418197 0 0.4743220131113518 0.027463297392627269 0 0.48335627184046892 0.043534316590418197 0 0.5 0.03604371684448926 0 0.4743220131113518 0.027463297392627269 0 0.48335627184046892 0.043534316590418197 0 0.5 0.03604371684448926 0 0.49228297291204992 0.059454014438704107 0 0.5 0.065085683867034727 0 0.5 0.03604371684448926 0 0.49228297291204992 0.059454014438704107 0 0.47441986059974051 0.002164373494884166 0 0.4743220131113518 0.027463297392627269 0 0.5 0.0070017498219436813 0 0.5 0.03604371684448926 0 0.4743220131113518 0.027463297392627269 0 0.5 0.0070017498219436813 0 0.47441986059974051 0.002164373494884166 0 0.5 0.0070017498219436813 0 0.48435038112254591 -0.01295811459108822 0 0.5 0.0070017498219436813 0 0.48435038112254591 -0.01295811459108822 0 0.5 -0.022040217200601949 0 0.47441986059974051 0.002164373494884166 0 0.48435038112254591 -0.01295811459108822 0 0.46567746476080879 -0.018036067265790781 0 0.48165458025218022 -0.033880411805876212 0 0.46055892944421639 -0.034826981934293802 0 0.46567746476080879 -0.018036067265790781 0 0.48435038112254591 -0.01295811459108822 0 0.48165458025218022 -0.033880411805876212 0 0.46567746476080879 -0.018036067265790781 0 0.48435038112254591 -0.01295811459108822 0 0.5 -0.022040217200601949 0 0.48165458025218022 -0.033880411805876212 0 0.5 -0.051082184223147482 0 0.48331950433178789 -0.05028970193443566 0 0.48165458025218022 -0.033880411805876212 0 0.5 -0.022040217200601949 0 0.5 -0.051082184223147482 0 0.48165458025218022 -0.033880411805876212 0 0.5 -0.051082184223147482 0 0.48331950433178789 -0.05028970193443566 0 0.48351099524096458 -0.065188187078006596 0 0.46811244183400691 -0.051008024630712363 0 0.48351099524096458 -0.065188187078006596 0 0.46325174163611299 -0.065085723760132191 0 0.48331950433178789 -0.05028970193443566 0 0.46811244183400691 -0.051008024630712363 0 0.48351099524096458 -0.065188187078006596 0 0.48331950433178789 -0.05028970193443566 0 0.48165458025218022 -0.033880411805876212 0 0.46811244183400691 -0.051008024630712363 0 0.48165458025218022 -0.033880411805876212 0 0.46055892944421639 -0.034826981934293802 0 0.46811244183400691 -0.051008024630712363 0 0.46055892944421639 -0.034826981934293802 0 0.46811244183400691 -0.051008024630712363 0 0.44580381826440463 -0.044156532015693237 0 0.46811244183400691 -0.051008024630712363 0 0.44580381826440463 -0.044156532015693237 0 0.46325174163611299 -0.065085723760132191 0 0.44580381826440463 -0.044156532015693237 0 0.46325174163611299 -0.065085723760132191 0 0.46811244183400691 -0.051008024630712363 0 0.46325174163611299 -0.065085723760132191 0 0.44420654965085082 -0.062216100931960373 0 0.44580381826440463 -0.044156532015693237 0 0.42712667170951002 -0.058909162300086547 0 0.44420654965085082 -0.062216100931960373 0 0.44580381826440463 -0.044156532015693237 0 0.46325174163611299 -0.065085723760132191 0 0.46055892944421639 -0.034826981934293802 0 0.44580381826440463 -0.044156532015693237 0 0.43960160651246799 -0.018737423931294579 0 0.43960160651246799 -0.018737423931294579 0 0.45275060893296981 -0.0060266252809792519 0 0.46567746476080879 -0.018036067265790781 0 0.43085411213296282 0.0071934808399317304 0 0.43960160651246799 -0.018737423931294579 0 0.45275060893296981 -0.0060266252809792519 0 0.47441986059974051 0.002164373494884166 0 0.45275060893296981 -0.0060266252809792519 0 0.46567746476080879 -0.018036067265790781 0 0.46055892944421639 -0.034826981934293802 0 0.43960160651246799 -0.018737423931294579 0 0.46567746476080879 -0.018036067265790781 0 0.47818452339587708 -0.1165119508780514 0 0.50000000000000278 -0.1091661182682386 0 0.5 -0.13347981615570359 0 0.50000000000000278 -0.1091661182682386 0 0.48162587081805858 -0.087125921014184843 0 0.47818452339587708 -0.1165119508780514 0 0.50000000000000278 -0.1091661182682386 0 0.47745756082527618 -0.1021495788090297 0 0.50000000000000278 -0.1091661182682386 0 0.47745756082527618 -0.1021495788090297 0 0.48162587081805858 -0.087125921014184843 0 0.47818452339587708 -0.1165119508780514 0 0.47745756082527618 -0.1021495788090297 0 0.45929027747438272 -0.10448110762161331 0 0.47745756082527618 -0.1021495788090297 0 0.48162587081805858 -0.087125921014184843 0 0.46818713243806243 -0.093462796263060144 0 0.48162587081805858 -0.087125921014184843 0 0.46325174163611299 -0.065085723760132191 0 0.46656747462136422 -0.083363997574371698 0 0.48162587081805858 -0.087125921014184843 0 0.46656747462136422 -0.083363997574371698 0 0.46818713243806243 -0.093462796263060144 0 0.50000000000000278 -0.1091661182682386 0 0.48162587081805858 -0.087125921014184843 0 0.5 -0.080124151245693054 0 0.48162587081805858 -0.087125921014184843 0 0.5 -0.080124151245693054 0 0.48351099524096458 -0.065188187078006596 0 0.5 -0.051082184223147482 0 0.5 -0.080124151245693054 0 0.48351099524096458 -0.065188187078006596 0 0.48162587081805858 -0.087125921014184843 0 0.48351099524096458 -0.065188187078006596 0 0.46325174163611299 -0.065085723760132191 0 0.48162587081805858 -0.087125921014184843 0 0.46325174163611299 -0.065085723760132191 0 0.46325174163611299 -0.065085723760132191 0 0.44779547222269012 -0.07571174360441861 0 0.4542230721705241 -0.091234814858292518 0 0.44420654965085082 -0.062216100931960373 0 0.46325174163611299 -0.065085723760132191 0 0.44779547222269012 -0.07571174360441861 0 0.44420654965085082 -0.062216100931960373 0 0.44779547222269012 -0.07571174360441861 0 0.43605259790445722 -0.074801038719200894 0 0.44779547222269012 -0.07571174360441861 0 0.441034556727114 -0.086800976364950752 0 0.4542230721705241 -0.091234814858292518 0 0.44779547222269012 -0.07571174360441861 0 0.441034556727114 -0.086800976364950752 0 0.43605259790445722 -0.074801038719200894 0 0.441034556727114 -0.086800976364950752 0 0.4542230721705241 -0.091234814858292518 0 0.44037425786955031 -0.1001430447449046 0 0.46325174163611299 -0.065085723760132191 0 0.4542230721705241 -0.091234814858292518 0 0.46325174163611299 -0.065085723760132191 0 0.4542230721705241 -0.091234814858292518 0 0.46656747462136422 -0.083363997574371698 0 0.4542230721705241 -0.091234814858292518 0 0.46656747462136422 -0.083363997574371698 0 0.46818713243806243 -0.093462796263060144 0 0.47745756082527618 -0.1021495788090297 0 0.46818713243806243 -0.093462796263060144 0 0.45929027747438272 -0.10448110762161331 0 0.4542230721705241 -0.091234814858292518 0 0.46818713243806243 -0.093462796263060144 0 0.45929027747438272 -0.10448110762161331 0 0.4542230721705241 -0.091234814858292518 0 0.45929027747438272 -0.10448110762161331 0 0.44519440270493238 -0.1173839059564518 0 0.4542230721705241 -0.091234814858292518 0 0.44519440270493238 -0.1173839059564518 0 0.4542230721705241 -0.091234814858292518 0 0.44037425786955031 -0.1001430447449046 0 0.44519440270493238 -0.1173839059564518 0 0.45929027747438272 -0.10448110762161331 0 0.44519440270493238 -0.1173839059564518 0 0.44037425786955031 -0.1001430447449046 0 0.44519440270493238 -0.1173839059564518 0 0.43733469804818831 -0.11156713863760261 0 0.44519440270493238 -0.1173839059564518 0 0.43583674875745881 -0.11887614197332121 0 0.43733469804818831 -0.11156713863760261 0 0.44519440270493238 -0.1173839059564518 0 0.44103349219651622 -0.1294348541443999 0 0.44519440270493238 -0.1173839059564518 0 0.43473286131254663 -0.1269599813022704 0 0.44519440270493238 -0.1173839059564518 0 0.43652399803370612 -0.1266503843383173 0 0.44103349219651622 -0.1294348541443999 0 0.44519440270493238 -0.1173839059564518 0 0.43473286131254663 -0.1269599813022704 0 0.43652399803370612 -0.1266503843383173 0 0.44519440270493238 -0.1173839059564518 0 0.43583674875745881 -0.11887614197332121 0 0.43473286131254663 -0.1269599813022704 0 0.44519440270493238 -0.1173839059564518 0 0.4507048422038758 -0.1254569291466279 0 0.44103349219651622 -0.1294348541443999 0 0.44519440270493238 -0.1173839059564518 0 0.45845740270007618 -0.1179768520576317 0 0.4507048422038758 -0.1254569291466279 0 0.47818452339587708 -0.1165119508780514 0 0.45929027747438272 -0.10448110762161331 0 0.45845740270007618 -0.1179768520576317 0 0.45845740270007618 -0.1179768520576317 0 0.46233294642030121 -0.13029577410444981 0 0.4507048422038758 -0.1254569291466279 0 0.47818452339587708 -0.1165119508780514 0 0.45845740270007618 -0.1179768520576317 0 0.46233294642030121 -0.13029577410444981 0 0.45929027747438272 -0.10448110762161331 0 0.44519440270493238 -0.1173839059564518 0 0.45845740270007618 -0.1179768520576317 0 0.40724277249555002 -0.1192463337858536 0 0.41884687315735308 -0.1196411488000769 0 0.41208161927757919 -0.13087523561031761 0 0.40724277249555002 -0.1192463337858536 0 0.41698364908723728 -0.1130169343472482 0 0.41068457829189181 -0.1070723437572161 0 0.41698364908723728 -0.1130169343472482 0 0.4250766521847687 -0.1135111272305598 0 0.42274743771597889 -0.1059915359454271 0 0.41698364908723728 -0.1130169343472482 0 0.41884687315735308 -0.1196411488000769 0 0.4250766521847687 -0.1135111272305598 0 0.40724277249555002 -0.1192463337858536 0 0.41698364908723728 -0.1130169343472482 0 0.41884687315735308 -0.1196411488000769 0 0.41884687315735308 -0.1196411488000769 0 0.42661387223904329 -0.12098454377727109 0 0.41208161927757919 -0.13087523561031761 0 0.41884687315735308 -0.1196411488000769 0 0.42661387223904329 -0.12098454377727109 0 0.4250766521847687 -0.1135111272305598 0 0.42661387223904329 -0.12098454377727109 0 0.43583674875745881 -0.11887614197332121 0 0.43473286131254663 -0.1269599813022704 0 0.42661387223904329 -0.12098454377727109 0 0.43583674875745881 -0.11887614197332121 0 0.43287065052056112 -0.1145040342651165 0 0.43733469804818831 -0.11156713863760261 0 0.43287065052056112 -0.1145040342651165 0 0.43239743038843881 -0.106928566248219 0 0.43583674875745881 -0.11887614197332121 0 0.43733469804818831 -0.11156713863760261 0 0.43287065052056112 -0.1145040342651165 0 0.43287065052056112 -0.1145040342651165 0 0.4250766521847687 -0.1135111272305598 0 0.43239743038843881 -0.106928566248219 0 0.42661387223904329 -0.12098454377727109 0 0.43287065052056112 -0.1145040342651165 0 0.4250766521847687 -0.1135111272305598 0 0.4250766521847687 -0.1135111272305598 0 0.42274743771597889 -0.1059915359454271 0 0.43239743038843881 -0.106928566248219 0 0.42274743771597889 -0.1059915359454271 0 0.43239743038843881 -0.106928566248219 0 0.42854124961890733 -0.099856724000988273 0 0.44037425786955031 -0.1001430447449046 0 0.43239743038843881 -0.106928566248219 0 0.42854124961890733 -0.099856724000988273 0 0.44037425786955031 -0.1001430447449046 0 0.43733469804818831 -0.11156713863760261 0 0.43239743038843881 -0.106928566248219 0 0.44037425786955031 -0.1001430447449046 0 0.42854124961890733 -0.099856724000988273 0 0.42870758522811919 -0.089164076341860632 0 0.42274743771597889 -0.1059915359454271 0 0.42854124961890733 -0.099856724000988273 0 0.41847953689244971 -0.097056396724529995 0 0.42854124961890733 -0.099856724000988273 0 0.41847953689244971 -0.097056396724529995 0 0.42870758522811919 -0.089164076341860632 0 0.42274743771597889 -0.1059915359454271 0 0.41847953689244971 -0.097056396724529995 0 0.41068457829189181 -0.1070723437572161 0 0.41698364908723728 -0.1130169343472482 0 0.42274743771597889 -0.1059915359454271 0 0.41068457829189181 -0.1070723437572161 0 0.41847953689244971 -0.097056396724529995 0 0.41068457829189181 -0.1070723437572161 0 0.40440998182912408 -0.094196755676502056 0 0.40751187940595462 -0.08478461483936342 0 0.41476450049512009 -0.087087396641621656 0 0.40440998182912408 -0.094196755676502056 0 0.41847953689244971 -0.097056396724529995 0 0.41476450049512009 -0.087087396641621656 0 0.40440998182912408 -0.094196755676502056 0 0.40751187940595462 -0.08478461483936342 0 0.41476450049512009 -0.087087396641621656 0 0.40927176781453312 -0.077086569868640542 0 0.40751187940595462 -0.08478461483936342 0 0.40927176781453312 -0.077086569868640542 0 0.40237588567979138 -0.081472047511817525 0 0.41476450049512009 -0.087087396641621656 0 0.42870758522811919 -0.089164076341860632 0 0.42122478008006597 -0.0757594802833121 0 0.41476450049512009 -0.087087396641621656 0 0.42122478008006597 -0.0757594802833121 0 0.40927176781453312 -0.077086569868640542 0 0.41847953689244971 -0.097056396724529995 0 0.41476450049512009 -0.087087396641621656 0 0.42870758522811919 -0.089164076341860632 0 0.441034556727114 -0.086800976364950752 0 0.44037425786955031 -0.1001430447449046 0 0.42870758522811919 -0.089164076341860632 0 0.441034556727114 -0.086800976364950752 0 0.42870758522811919 -0.089164076341860632 0 0.43605259790445722 -0.074801038719200894 0 0.42870758522811919 -0.089164076341860632 0 0.43605259790445722 -0.074801038719200894 0 0.42122478008006597 -0.0757594802833121 0 0.43605259790445722 -0.074801038719200894 0 0.42122478008006597 -0.0757594802833121 0 0.42712667170951002 -0.058909162300086547 0 0.44420654965085082 -0.062216100931960373 0 0.43605259790445722 -0.074801038719200894 0 0.42712667170951002 -0.058909162300086547 0 0.42122478008006597 -0.0757594802833121 0 0.4114316245373863 -0.068167670275121897 0 0.42712667170951002 -0.058909162300086547 0 0.40927176781453312 -0.077086569868640542 0 0.4114316245373863 -0.068167670275121897 0 0.39842538017083612 -0.076484449263173909 0 0.42122478008006597 -0.0757594802833121 0 0.40927176781453312 -0.077086569868640542 0 0.4114316245373863 -0.068167670275121897 0 0.4114316245373863 -0.068167670275121897 0 0.39842538017083612 -0.076484449263173909 0 0.40640664480004829 -0.052123305293471443 0 0.39842538017083612 -0.076484449263173909 0 0.38906844471504909 -0.048791226331097663 0 0.4114316245373863 -0.068167670275121897 0 0.39842538017083612 -0.076484449263173909 0 0.39842538017083612 -0.076484449263173909 0 0.38333741963197843 -0.065496938221855289 0 0.38906844471504909 -0.048791226331097663 0 0.39842538017083612 -0.076484449263173909 0 0.38333741963197843 -0.065496938221855289 0 0.37036238702559748 -0.076146834841134659 0 0.39842538017083612 -0.076484449263173909 0 0.373127492796404 -0.092661058915291472 0 0.39842538017083612 -0.076484449263173909 0 0.37036238702559748 -0.076146834841134659 0 0.373127492796404 -0.092661058915291472 0 0.39842538017083612 -0.076484449263173909 0 0.3905434538793735 -0.094168622203984975 0 0.373127492796404 -0.092661058915291472 0 0.39842538017083612 -0.076484449263173909 0 0.40142869859064212 -0.08537321064543299 0 0.3905434538793735 -0.094168622203984975 0 0.39842538017083612 -0.076484449263173909 0 0.40142869859064212 -0.08537321064543299 0 0.40237588567979138 -0.081472047511817525 0 0.40927176781453312 -0.077086569868640542 0 0.39842538017083612 -0.076484449263173909 0 0.40237588567979138 -0.081472047511817525 0 0.39842538017083612 -0.076484449263173909 0 0.40142869859064212 -0.08537321064543299 0 0.40142869859064212 -0.08537321064543299 0 0.40237588567979138 -0.081472047511817525 0 0.40751187940595462 -0.08478461483936342 0 0.40142869859064212 -0.08537321064543299 0 0.40237588567979138 -0.081472047511817525 0 0.40751187940595462 -0.08478461483936342 0 0.40142869859064212 -0.08537321064543299 0 0.40440998182912408 -0.094196755676502056 0 0.40142869859064212 -0.08537321064543299 0 0.40440998182912408 -0.094196755676502056 0 0.40142869859064212 -0.08537321064543299 0 0.39542953791662688 -0.1100818502818986 0 0.40142869859064212 -0.08537321064543299 0 0.3905434538793735 -0.094168622203984975 0 0.39542953791662688 -0.1100818502818986 0 0.40142869859064212 -0.08537321064543299 0 0.40440998182912408 -0.094196755676502056 0 0.39542953791662688 -0.1100818502818986 0 0.41068457829189181 -0.1070723437572161 0 0.40440998182912408 -0.094196755676502056 0 0.39542953791662688 -0.1100818502818986 0 0.3905434538793735 -0.094168622203984975 0 0.38430615992235861 -0.10624254191412789 0 0.373127492796404 -0.092661058915291472 0 0.3905434538793735 -0.094168622203984975 0 0.38430615992235861 -0.10624254191412789 0 0.39542953791662688 -0.1100818502818986 0 0.38430615992235861 -0.10624254191412789 0 0.373127492796404 -0.092661058915291472 0 0.37262698081820339 -0.10985920037046069 0 0.38430615992235861 -0.10624254191412789 0 0.37980885755413418 -0.11928611433555709 0 0.39542953791662688 -0.1100818502818986 0 0.37980885755413418 -0.11928611433555709 0 0.39542953791662688 -0.1100818502818986 0 0.38943037724261159 -0.1347904899183642 0 0.38430615992235861 -0.10624254191412789 0 0.37980885755413418 -0.11928611433555709 0 0.37262698081820339 -0.10985920037046069 0 0.40724277249555002 -0.1192463337858536 0 0.39542953791662688 -0.1100818502818986 0 0.38943037724261159 -0.1347904899183642 0 0.39542953791662688 -0.1100818502818986 0 0.38943037724261159 -0.1347904899183642 0 0.40724277249555002 -0.1192463337858536 0 0.41068457829189181 -0.1070723437572161 0 0.39542953791662688 -0.1100818502818986 0 0.41629264407573002 -0.006850845090226044 0 0.42276864855888052 -0.033584784942844392 0 0.40125875037878711 -0.026146768788422061 0 0.43085411213296282 0.0071934808399317304 0 0.43960160651246799 -0.018737423931294579 0 0.41629264407573002 -0.006850845090226044 0 0.43960160651246799 -0.018737423931294579 0 0.41629264407573002 -0.006850845090226044 0 0.42276864855888052 -0.033584784942844392 0 0.44580381826440463 -0.044156532015693237 0 0.42276864855888052 -0.033584784942844392 0 0.42712667170951002 -0.058909162300086547 0 0.44580381826440463 -0.044156532015693237 0 0.43960160651246799 -0.018737423931294579 0 0.42276864855888052 -0.033584784942844392 0 0.4114316245373863 -0.068167670275121897 0 0.42712667170951002 -0.058909162300086547 0 0.40640664480004829 -0.052123305293471443 0 0.42276864855888052 -0.033584784942844392 0 0.42712667170951002 -0.058909162300086547 0 0.40640664480004829 -0.052123305293471443 0 0.42276864855888052 -0.033584784942844392 0 0.40640664480004829 -0.052123305293471443 0 0.40125875037878711 -0.026146768788422061 0 0.40640664480004829 -0.052123305293471443 0 0.38906844471504909 -0.048791226331097663 0 0.40125875037878711 -0.026146768788422061 0 0.39842538017083612 -0.076484449263173909 0 0.40640664480004829 -0.052123305293471443 0 0.38906844471504909 -0.048791226331097663 0 0.38906844471504909 -0.048791226331097663 0 0.36552082236990341 -0.042261935088275922 0 0.37096486530484057 -0.058236420929508259 0 0.38333741963197843 -0.065496938221855289 0 0.38906844471504909 -0.048791226331097663 0 0.37096486530484057 -0.058236420929508259 0 0.38906844471504909 -0.048791226331097663 0 0.37971150925926189 -0.0210980033990215 0 0.40125875037878711 -0.026146768788422061 0 0.38906844471504909 -0.048791226331097663 0 0.37971150925926189 -0.0210980033990215 0 0.36552082236990341 -0.042261935088275922 0 0.38906844471504909 -0.048791226331097663 0 0.37971150925926189 -0.0210980033990215 0 0.3939873043738738 0.005606014803845533 0 0.37971150925926189 -0.0210980033990215 0 0.40125875037878711 -0.026146768788422061 0 0.3939873043738738 0.005606014803845533 0 0.41629264407573002 -0.006850845090226044 0 0.40125875037878711 -0.026146768788422061 0 0.37357914744350779 0.002440479778912224 0 0.3939873043738738 0.005606014803845533 0 0.37971150925926189 -0.0210980033990215 0 0.37357914744350779 0.002440479778912224 0 0.35598292622536432 0.0074660699477739154 0 0.35747226134953669 -0.011539359516293059 0 0.37357914744350779 0.002440479778912224 0 0.37971150925926189 -0.0210980033990215 0 0.35747226134953669 -0.011539359516293059 0 0.37971150925926189 -0.0210980033990215 0 0.3567572465296398 -0.028300240308235611 0 0.35747226134953669 -0.011539359516293059 0 0.37971150925926189 -0.0210980033990215 0 0.3567572465296398 -0.028300240308235611 0 0.36552082236990341 -0.042261935088275922 0 0.3567572465296398 -0.028300240308235611 0 0.34108130633743572 -0.022855778308436141 0 0.34876980709143918 -0.036804132634757111 0 0.3567572465296398 -0.028300240308235611 0 0.35747226134953669 -0.011539359516293059 0 0.34108130633743572 -0.022855778308436141 0 0.35598292622536432 0.0074660699477739154 0 0.35747226134953669 -0.011539359516293059 0 0.33772143230201052 -0.0068886848087512803 0 0.35747226134953669 -0.011539359516293059 0 0.33772143230201052 -0.0068886848087512803 0 0.34108130633743572 -0.022855778308436141 0 0.33772143230201052 -0.0068886848087512803 0 0.34108130633743572 -0.022855778308436141 0 0.317215061455216 -0.016157064213598971 0 0.34108130633743572 -0.022855778308436141 0 0.317215061455216 -0.016157064213598971 0 0.33020564447161199 -0.035019528032180489 0 0.317215061455216 -0.016157064213598971 0 0.33020564447161199 -0.035019528032180489 0 0.317215061455216 -0.016157064213598971 0 0.31587151978819911 -0.020338956197947448 0 0.33020564447161199 -0.035019528032180489 0 0.31587151978819911 -0.020338956197947448 0 0.33020564447161199 -0.035019528032180489 0 0.317215061455216 -0.016157064213598971 0 0.31587151978819911 -0.020338956197947448 0 0.32325249182581611 0.0026349705202008129 0 0.317215061455216 -0.016157064213598971 0 0.32325249182581611 0.0026349705202008129 0 0.33772143230201052 -0.0068886848087512803 0 0.317215061455216 -0.016157064213598971 0 0.32325249182581611 0.0026349705202008129 0 0.317215061455216 -0.016157064213598971 0 0.30690038754225768 -0.0011800486910433781 0 0.32587161445787949 -0.051186402763021513 0 0.31829608624605688 -0.065472752473192938 0 0.30886460616181383 -0.042148593106558697 0 0.32587161445787949 -0.051186402763021513 0 0.33198766712898281 -0.064044197254424853 0 0.31829608624605688 -0.065472752473192938 0 0.31587151978819911 -0.020338956197947448 0 0.33020564447161199 -0.035019528032180489 0 0.30886460616181383 -0.042148593106558697 0 0.32587161445787949 -0.051186402763021513 0 0.33020564447161199 -0.035019528032180489 0 0.30886460616181383 -0.042148593106558697 0 0.34108130633743572 -0.022855778308436141 0 0.33020564447161199 -0.035019528032180489 0 0.34876980709143918 -0.036804132634757111 0 0.32587161445787949 -0.051186402763021513 0 0.33020564447161199 -0.035019528032180489 0 0.34000406828093183 -0.049246942948750677 0 0.33020564447161199 -0.035019528032180489 0 0.3502840157486049 -0.055583181436657553 0 0.33020564447161199 -0.035019528032180489 0 0.34000406828093183 -0.049246942948750677 0 0.33020564447161199 -0.035019528032180489 0 0.34000406828093183 -0.049246942948750677 0 0.3502840157486049 -0.055583181436657553 0 0.33020564447161199 -0.035019528032180489 0 0.3502840157486049 -0.055583181436657553 0 0.34876980709143918 -0.036804132634757111 0 0.34000406828093183 -0.049246942948750677 0 0.33198766712898281 -0.064044197254424853 0 0.34180884154053498 -0.065879049105621951 0 0.32587161445787949 -0.051186402763021513 0 0.34000406828093183 -0.049246942948750677 0 0.33198766712898281 -0.064044197254424853 0 0.34000406828093183 -0.049246942948750677 0 0.34980249209025183 -0.063474357865320699 0 0.34000406828093183 -0.049246942948750677 0 0.34980249209025183 -0.063474357865320699 0 0.34180884154053498 -0.065879049105621951 0 0.34000406828093183 -0.049246942948750677 0 0.3502840157486049 -0.055583181436657553 0 0.34980249209025183 -0.063474357865320699 0 0.3502840157486049 -0.055583181436657553 0 0.34980249209025183 -0.063474357865320699 0 0.35472253155892502 -0.068395270968063401 0 0.3502840157486049 -0.055583181436657553 0 0.34876980709143918 -0.036804132634757111 0 0.36552082236990341 -0.042261935088275922 0 0.3567572465296398 -0.028300240308235611 0 0.34876980709143918 -0.036804132634757111 0 0.36552082236990341 -0.042261935088275922 0 0.3502840157486049 -0.055583181436657553 0 0.36552082236990341 -0.042261935088275922 0 0.37096486530484057 -0.058236420929508259 0 0.3502840157486049 -0.055583181436657553 0 0.37096486530484057 -0.058236420929508259 0 0.37036238702559748 -0.076146834841134659 0 0.38333741963197843 -0.065496938221855289 0 0.37096486530484057 -0.058236420929508259 0 0.37036238702559748 -0.076146834841134659 0 0.3502840157486049 -0.055583181436657553 0 0.37036238702559748 -0.076146834841134659 0 0.37036238702559748 -0.076146834841134659 0 0.35472253155892502 -0.068395270968063401 0 0.35439705838588692 -0.077054866778644621 0 0.37036238702559748 -0.076146834841134659 0 0.36026598055858428 -0.086219317086442732 0 0.35439705838588692 -0.077054866778644621 0 0.37036238702559748 -0.076146834841134659 0 0.373127492796404 -0.092661058915291472 0 0.36026598055858428 -0.086219317086442732 0 0.373127492796404 -0.092661058915291472 0 0.36026598055858428 -0.086219317086442732 0 0.35442896873054819 -0.093899165736773108 0 0.36026598055858428 -0.086219317086442732 0 0.34819406691839527 -0.085912356067407769 0 0.35439705838588692 -0.077054866778644621 0 0.36026598055858428 -0.086219317086442732 0 0.34819406691839527 -0.085912356067407769 0 0.35442896873054819 -0.093899165736773108 0 0.34819406691839527 -0.085912356067407769 0 0.35442896873054819 -0.093899165736773108 0 0.34250823495700278 -0.096843945418323016 0 0.34819406691839527 -0.085912356067407769 0 0.35439705838588692 -0.077054866778644621 0 0.34213718893203959 -0.07422010281979162 0 0.3502840157486049 -0.055583181436657553 0 0.37036238702559748 -0.076146834841134659 0 0.35472253155892502 -0.068395270968063401 0 0.34876670454428399 -0.06971711391855949 0 0.35439705838588692 -0.077054866778644621 0 0.34213718893203959 -0.07422010281979162 0 0.34980249209025183 -0.063474357865320699 0 0.34876670454428399 -0.06971711391855949 0 0.34180884154053498 -0.065879049105621951 0 0.34876670454428399 -0.06971711391855949 0 0.34180884154053498 -0.065879049105621951 0 0.34213718893203959 -0.07422010281979162 0 0.34980249209025183 -0.063474357865320699 0 0.34876670454428399 -0.06971711391855949 0 0.35472253155892502 -0.068395270968063401 0 0.34876670454428399 -0.06971711391855949 0 0.35472253155892502 -0.068395270968063401 0 0.35439705838588692 -0.077054866778644621 0 0.36703358201424818 -0.1205643964158449 0 0.35968204517414459 -0.1107584800748472 0 0.35606369033391522 -0.1259709067163762 0 0.37980885755413418 -0.11928611433555709 0 0.36703358201424818 -0.1205643964158449 0 0.37262698081820339 -0.10985920037046069 0 0.36703358201424818 -0.1205643964158449 0 0.37262698081820339 -0.10985920037046069 0 0.35968204517414459 -0.1107584800748472 0 0.373127492796404 -0.092661058915291472 0 0.3478296054219725 -0.1088376685674099 0 0.373127492796404 -0.092661058915291472 0 0.37262698081820339 -0.10985920037046069 0 0.35968204517414459 -0.1107584800748472 0 0.373127492796404 -0.092661058915291472 0 0.35968204517414459 -0.1107584800748472 0 0.3478296054219725 -0.1088376685674099 0 0.373127492796404 -0.092661058915291472 0 0.35442896873054819 -0.093899165736773108 0 0.3478296054219725 -0.1088376685674099 0 0.35442896873054819 -0.093899165736773108 0 0.3478296054219725 -0.1088376685674099 0 0.34250823495700278 -0.096843945418323016 0 0.3478296054219725 -0.1088376685674099 0 0.34004518790650529 -0.12527848050574 0 0.35606369033391522 -0.1259709067163762 0 0.35968204517414459 -0.1107584800748472 0 0.3478296054219725 -0.1088376685674099 0 0.35606369033391522 -0.1259709067163762 0 0.35968204517414459 -0.1107584800748472 0 0.35606369033391522 -0.1259709067163762 0 0.3478296054219725 -0.1088376685674099 0 0.3336003219875231 -0.1076211020920432 0 0.32253171804754088 -0.12501427821952829 0 0.3478296054219725 -0.1088376685674099 0 0.32253171804754088 -0.12501427821952829 0 0.34004518790650529 -0.12527848050574 0 0.3478296054219725 -0.1088376685674099 0 0.32253171804754088 -0.12501427821952829 0 0.3336003219875231 -0.1076211020920432 0 0.3322859580981179 -0.098725703467523684 0 0.32284609341298121 -0.10868391478743129 0 0.3478296054219725 -0.1088376685674099 0 0.3336003219875231 -0.1076211020920432 0 0.34250823495700278 -0.096843945418323016 0 0.3336003219875231 -0.1076211020920432 0 0.34250823495700278 -0.096843945418323016 0 0.3322859580981179 -0.098725703467523684 0 0.34250823495700278 -0.096843945418323016 0 0.3322859580981179 -0.098725703467523684 0 0.33540967344911948 -0.088036983583798772 0 0.32220919005921328 -0.094454801116449272 0 0.31258915767766499 -0.1029799685902579 0 0.31246538712165289 -0.087003597160487944 0 0.3322859580981179 -0.098725703467523684 0 0.32220919005921328 -0.094454801116449272 0 0.32284609341298121 -0.10868391478743129 0 0.32220919005921328 -0.094454801116449272 0 0.31258915767766499 -0.1029799685902579 0 0.32284609341298121 -0.10868391478743129 0 0.31258915767766499 -0.1029799685902579 0 0.32284609341298121 -0.10868391478743129 0 0.30701266551867318 -0.11795202584412939 0 0.3336003219875231 -0.1076211020920432 0 0.32284609341298121 -0.10868391478743129 0 0.32253171804754088 -0.12501427821952829 0 0.32284609341298121 -0.10868391478743129 0 0.30701266551867318 -0.11795202584412939 0 0.32253171804754088 -0.12501427821952829 0 0.33198766712898281 -0.064044197254424853 0 0.34213718893203959 -0.07422010281979162 0 0.32642601186692399 -0.078569743361430744 0 0.33198766712898281 -0.064044197254424853 0 0.34180884154053498 -0.065879049105621951 0 0.34213718893203959 -0.07422010281979162 0 0.34213718893203959 -0.07422010281979162 0 0.33540967344911948 -0.088036983583798772 0 0.32642601186692399 -0.078569743361430744 0 0.34819406691839527 -0.085912356067407769 0 0.34213718893203959 -0.07422010281979162 0 0.33540967344911948 -0.088036983583798772 0 0.34819406691839527 -0.085912356067407769 0 0.34250823495700278 -0.096843945418323016 0 0.33540967344911948 -0.088036983583798772 0 0.3322859580981179 -0.098725703467523684 0 0.32220919005921328 -0.094454801116449272 0 0.33540967344911948 -0.088036983583798772 0 0.32220919005921328 -0.094454801116449272 0 0.33540967344911948 -0.088036983583798772 0 0.32642601186692399 -0.078569743361430744 0 0.32220919005921328 -0.094454801116449272 0 0.32642601186692399 -0.078569743361430744 0 0.31246538712165289 -0.087003597160487944 0 0.32642601186692399 -0.078569743361430744 0 0.31246538712165289 -0.087003597160487944 0 0.32642601186692399 -0.078569743361430744 0 0.31829608624605688 -0.065472752473192938 0 0.31246538712165289 -0.087003597160487944 0 0.33198766712898281 -0.064044197254424853 0 0.32642601186692399 -0.078569743361430744 0 0.31829608624605688 -0.065472752473192938 0 0.31829608624605688 -0.065472752473192938 0 0.30185769253542699 -0.063958230015169509 0 0.31246538712165289 -0.087003597160487944 0 0.30185769253542699 -0.063958230015169509 0 0.29485077890903838 -0.08576786692377969 0 0.31246538712165289 -0.087003597160487944 0 0.29485077890903838 -0.08576786692377969 0 0.29850476237638052 -0.095437450959542897 0 0.30185769253542699 -0.063958230015169509 0 0.31246538712165289 -0.087003597160487944 0 0.29485077890903838 -0.08576786692377969 0 0.31246538712165289 -0.087003597160487944 0 0.29850476237638052 -0.095437450959542897 0 0.29485077890903838 -0.08576786692377969 0 0.29011601486440819 -0.10050523777883651 0 0.27233191485367331 -0.086662364145387083 0 0.29485077890903838 -0.08576786692377969 0 0.29850476237638052 -0.095437450959542897 0 0.29485077890903838 -0.08576786692377969 0 0.29011601486440819 -0.10050523777883651 0 0.30185769253542699 -0.063958230015169509 0 0.29485077890903838 -0.08576786692377969 0 0.28549509337792828 -0.061009794462930381 0 0.29485077890903838 -0.08576786692377969 0 0.27233191485367331 -0.086662364145387083 0 0.28549509337792828 -0.061009794462930381 0 0.29485077890903838 -0.08576786692377969 0 0.28549509337792828 -0.061009794462930381 0 0.30701266551867318 -0.11795202584412939 0 0.29478762612759141 -0.11288625738249181 0 0.29867666688697703 -0.1272849549211697 0 0.30701266551867318 -0.11795202584412939 0 0.29850476237638052 -0.095437450959542897 0 0.29478762612759141 -0.11288625738249181 0 0.31258915767766499 -0.1029799685902579 0 0.30701266551867318 -0.11795202584412939 0 0.29850476237638052 -0.095437450959542897 0 0.30701266551867318 -0.11795202584412939 0 0.29850476237638052 -0.095437450959542897 0 0.31258915767766499 -0.1029799685902579 0 0.31246538712165289 -0.087003597160487944 0 0.29850476237638052 -0.095437450959542897 0 0.29850476237638052 -0.095437450959542897 0 0.29011601486440819 -0.10050523777883651 0 0.29478762612759141 -0.11288625738249181 0 0.29850476237638052 -0.095437450959542897 0 0.29011601486440819 -0.10050523777883651 0 0.29485077890903838 -0.08576786692377969 0 0.29850476237638052 -0.095437450959542897 0 0.29011601486440819 -0.10050523777883651 0 0.29011601486440819 -0.10050523777883651 0 0.27631136395687561 -0.10884486509677729 0 0.29011601486440819 -0.10050523777883651 0 0.28377904751550082 -0.12022960778689511 0 0.29011601486440819 -0.10050523777883651 0 0.28377904751550082 -0.12022960778689511 0 0.27631136395687561 -0.10884486509677729 0 0.29011601486440819 -0.10050523777883651 0 0.29478762612759141 -0.11288625738249181 0 0.28377904751550082 -0.12022960778689511 0 0.29478762612759141 -0.11288625738249181 0 0.28377904751550082 -0.12022960778689511 0 0.29867666688697703 -0.1272849549211697 0 0.28377904751550082 -0.12022960778689511 0 0.27500980117207829 -0.12155323577333579 0 0.27631136395687561 -0.10884486509677729 0 0.27631136395687561 -0.10884486509677729 0 0.26250671304934198 -0.1171844924147165 0 0.27500980117207829 -0.12155323577333579 0 0.27631136395687561 -0.10884486509677729 0 0.26250671304934198 -0.1171844924147165 0 0.29011601486440819 -0.10050523777883651 0 0.27631136395687561 -0.10884486509677729 0 0.27233191485367331 -0.086662364145387083 0 0.27631136395687561 -0.10884486509677729 0 0.26480060580106352 -0.1019600400236301 0 0.27233191485367331 -0.086662364145387083 0 0.27631136395687561 -0.10884486509677729 0 0.26480060580106352 -0.1019600400236301 0 0.26250671304934198 -0.1171844924147165 0 0.26480060580106352 -0.1019600400236301 0 0.27233191485367331 -0.086662364145387083 0 0.248052431344363 -0.095148438437639593 0 0.26480060580106352 -0.1019600400236301 0 0.26250671304934198 -0.1171844924147165 0 0.248052431344363 -0.095148438437639593 0 0.26250671304934198 -0.1171844924147165 0 0.248052431344363 -0.095148438437639593 0 0.26250671304934198 -0.1171844924147165 0 0.248052431344363 -0.095148438437639593 0 0.24260121657943401 -0.11258968035378961 0 0.26250671304934198 -0.1171844924147165 0 0.2441250445765018 -0.1282891748563233 0 0.27233191485367331 -0.086662364145387083 0 0.25578894406637898 -0.071814983055159112 0 0.28549509337792828 -0.061009794462930381 0 0.27233191485367331 -0.086662364145387083 0 0.25578894406637898 -0.071814983055159112 0 0.248052431344363 -0.095148438437639593 0 0.25578894406637898 -0.071814983055159112 0 0.26356106344924501 -0.050736506704392427 0 0.24466000719816181 -0.052572806154117767 0 0.27613940784681967 -0.036251722002080641 0 0.28549509337792828 -0.061009794462930381 0 0.26356106344924501 -0.050736506704392427 0 0.27613940784681967 -0.036251722002080641 0 0.28549509337792828 -0.061009794462930381 0 0.25578894406637898 -0.071814983055159112 0 0.26356106344924501 -0.050736506704392427 0 0.28549509337792828 -0.061009794462930381 0 0.26356106344924501 -0.050736506704392427 0 0.25572186475693609 -0.032033227847674262 0 0.24466000719816181 -0.052572806154117767 0 0.26356106344924501 -0.050736506704392427 0 0.27613940784681967 -0.036251722002080641 0 0.25572186475693609 -0.032033227847674262 0 0.25572186475693609 -0.032033227847674262 0 0.24466000719816181 -0.052572806154117767 0 0.25572186475693609 -0.032033227847674262 0 0.25159771702699008 -0.014371615300676641 0 0.26678372231571063 -0.011493649541230871 0 0.25572186475693609 -0.032033227847674262 0 0.26678372231571063 -0.011493649541230871 0 0.26489192350979318 -0.0064873577240775106 0 0.2403210271001277 -0.0038011986657945939 0 0.25900523844679291 0.0090906536209348996 0 0.26489192350979318 -0.0064873577240775106 0 0.2403210271001277 -0.0038011986657945939 0 0.25159771702699008 -0.014371615300676641 0 0.26489192350979318 -0.0064873577240775106 0 0.2403210271001277 -0.0038011986657945939 0 0.25159771702699008 -0.014371615300676641 0 0.26489192350979318 -0.0064873577240775106 0 0.26678372231571063 -0.011493649541230871 0 0.2692248172919926 -0.0069610417805164738 0 0.27741899960964289 -0.015799745368864509 0 0.28512431700806451 -0.0086992195202469716 0 0.2692248172919926 -0.0069610417805164738 0 0.27791710391185381 -0.0010379811687957271 0 0.28512431700806451 -0.0086992195202469716 0 0.2692248172919926 -0.0069610417805164738 0 0.28512431700806451 -0.0086992195202469716 0 0.26701986470523431 0.0028523954276382379 0 0.26489192350979318 -0.0064873577240775106 0 0.2692248172919926 -0.0069610417805164738 0 0.26489192350979318 -0.0064873577240775106 0 0.2692248172919926 -0.0069610417805164738 0 0.2692248172919926 -0.0069610417805164738 0 0.26678372231571063 -0.011493649541230871 0 0.27741899960964289 -0.015799745368864509 0 0.26489192350979318 -0.0064873577240775106 0 0.26678372231571063 -0.011493649541230871 0 0.26489192350979318 -0.0064873577240775106 0 0.2692248172919926 -0.0069610417805164738 0 0.26678372231571063 -0.011493649541230871 0 0.2692248172919926 -0.0069610417805164738 0 0.26678372231571063 -0.011493649541230871 0 0.27613940784681967 -0.036251722002080641 0 0.26678372231571063 -0.011493649541230871 0 0.27613940784681967 -0.036251722002080641 0 0.26678372231571063 -0.011493649541230871 0 0.27741899960964289 -0.015799745368864509 0 0.27613940784681967 -0.036251722002080641 0 0.25572186475693609 -0.032033227847674262 0 0.26678372231571063 -0.011493649541230871 0 0.27613940784681967 -0.036251722002080641 0 0.27741899960964289 -0.015799745368864509 0 0.29413594975842328 -0.02512550933568073 0 0.27741899960964289 -0.015799745368864509 0 0.29413594975842328 -0.02512550933568073 0 0.28512431700806451 -0.0086992195202469716 0 0.28514691493175248 0.01112824383243886 0 0.28512431700806451 -0.0086992195202469716 0 0.30050921735997521 -0.004605356182754896 0 0.29413594975842328 -0.02512550933568073 0 0.28512431700806451 -0.0086992195202469716 0 0.30050921735997521 -0.004605356182754896 0 0.317215061455216 -0.016157064213598971 0 0.31587151978819911 -0.020338956197947448 0 0.30050921735997521 -0.004605356182754896 0 0.31587151978819911 -0.020338956197947448 0 0.30050921735997521 -0.004605356182754896 0 0.317215061455216 -0.016157064213598971 0 0.30050921735997521 -0.004605356182754896 0 0.30690038754225768 -0.0011800486910433781 0 0.317215061455216 -0.016157064213598971 0 0.30690038754225768 -0.0011800486910433781 0 0.31587151978819911 -0.020338956197947448 0 0.29413594975842328 -0.02512550933568073 0 0.30886460616181383 -0.042148593106558697 0 0.31587151978819911 -0.020338956197947448 0 0.29413594975842328 -0.02512550933568073 0 0.30050921735997521 -0.004605356182754896 0 0.31587151978819911 -0.020338956197947448 0 0.30886460616181383 -0.042148593106558697 0 0.29413594975842328 -0.02512550933568073 0 0.30886460616181383 -0.042148593106558697 0 0.29329854993608251 -0.045698769784483992 0 0.31829608624605688 -0.065472752473192938 0 0.30185769253542699 -0.063958230015169509 0 0.30886460616181383 -0.042148593106558697 0 0.30185769253542699 -0.063958230015169509 0 0.30886460616181383 -0.042148593106558697 0 0.30185769253542699 -0.063958230015169509 0 0.30886460616181383 -0.042148593106558697 0 0.29329854993608251 -0.045698769784483992 0 0.27613940784681967 -0.036251722002080641 0 0.28549509337792828 -0.061009794462930381 0 0.29329854993608251 -0.045698769784483992 0 0.30185769253542699 -0.063958230015169509 0 0.28549509337792828 -0.061009794462930381 0 0.29329854993608251 -0.045698769784483992 0 0.27613940784681967 -0.036251722002080641 0 0.29413594975842328 -0.02512550933568073 0 0.29329854993608251 -0.045698769784483992 0 0.28257577117233168 -0.20518994938083851 0 0.30379191605182437 -0.20471284840499179 0 0.29252942038038049 -0.2260032745248223 0 0.28257577117233168 -0.20518994938083851 0 0.29252942038038049 -0.2260032745248223 0 0.27440370665207992 -0.22158759206732809 0 0.28257577117233168 -0.20518994938083851 0 0.29805932829815662 -0.18954203104115269 0 0.30379191605182437 -0.20471284840499179 0 0.28257577117233168 -0.20518994938083851 0 0.29805932829815662 -0.18954203104115269 0 0.28309810934824442 -0.18139531770741171 0 0.29805932829815662 -0.18954203104115269 0 0.30379191605182437 -0.20471284840499179 0 0.31670590871501719 -0.18767809548444081 0 0.30379191605182437 -0.20471284840499179 0 0.31109634377457301 -0.22154997806035029 0 0.29252942038038049 -0.2260032745248223 0 0.31109634377457301 -0.22154997806035029 0 0.30987088180634448 -0.24125362874219619 0 0.29252942038038049 -0.2260032745248223 0 0.30987088180634448 -0.24125362874219619 0 0.29250997527574701 -0.24677647679701359 0 0.29252942038038049 -0.2260032745248223 0 0.29250997527574701 -0.24677647679701359 0 0.29252942038038049 -0.2260032745248223 0 0.27462122614518292 -0.24127539045551061 0 0.29252942038038049 -0.2260032745248223 0 0.27440370665207992 -0.22158759206732809 0 0.27462122614518292 -0.24127539045551061 0 0.27440370665207992 -0.22158759206732809 0 0.27462122614518292 -0.24127539045551061 0 0.25406429941061343 -0.23112732810889039 0 0.29250997527574701 -0.24677647679701359 0 0.27462122614518292 -0.24127539045551061 0 0.27534065318434953 -0.25880162201512719 0 0.25406429941061343 -0.23112732810889039 0 0.25726365536858148 -0.25362034743760148 0 0.24146341680214309 -0.24448521489457861 0 0.27462122614518292 -0.24127539045551061 0 0.25406429941061343 -0.23112732810889039 0 0.25726365536858148 -0.25362034743760148 0 0.27440370665207992 -0.22158759206732809 0 0.25406429941061343 -0.23112732810889039 0 0.25948399805722178 -0.21095426616987389 0 0.25406429941061343 -0.23112732810889039 0 0.25948399805722178 -0.21095426616987389 0 0.23924146656863479 -0.21600942233651971 0 0.25948399805722178 -0.21095426616987389 0 0.25294493867930001 -0.1971512634910503 0 0.23924146656863479 -0.21600942233651971 0 0.28257577117233168 -0.20518994938083851 0 0.27440370665207992 -0.22158759206732809 0 0.25948399805722178 -0.21095426616987389 0 0.28257577117233168 -0.20518994938083851 0 0.26980921912182793 -0.19283345323968809 0 0.28309810934824442 -0.18139531770741171 0 0.28257577117233168 -0.20518994938083851 0 0.25948399805722178 -0.21095426616987389 0 0.26980921912182793 -0.19283345323968809 0 0.26980921912182793 -0.19283345323968809 0 0.25294493867930001 -0.1971512634910503 0 0.26076150014885863 -0.1842019471946538 0 0.25948399805722178 -0.21095426616987389 0 0.26980921912182793 -0.19283345323968809 0 0.25294493867930001 -0.1971512634910503 0 0.25294493867930001 -0.1971512634910503 0 0.25115080808597218 -0.18349252771031549 0 0.26076150014885863 -0.1842019471946538 0 0.25115080808597218 -0.18349252771031549 0 0.26076150014885863 -0.1842019471946538 0 0.25889962869698091 -0.1746028342129915 0 0.26076150014885863 -0.1842019471946538 0 0.25889962869698091 -0.1746028342129915 0 0.27017957837672091 -0.17747692395416009 0 0.25115080808597218 -0.18349252771031549 0 0.25889962869698091 -0.1746028342129915 0 0.24727016264961249 -0.1692414738038848 0 0.25889962869698091 -0.1746028342129915 0 0.26616743516329899 -0.16248611748055669 0 0.24727016264961249 -0.1692414738038848 0 0.26140577643439422 -0.14332992145424359 0 0.24727016264961249 -0.1692414738038848 0 0.26616743516329899 -0.16248611748055669 0 0.26140577643439422 -0.14332992145424359 0 0.24727016264961249 -0.1692414738038848 0 0.25889962869698091 -0.1746028342129915 0 0.26616743516329899 -0.16248611748055669 0 0.27017957837672091 -0.17747692395416009 0 0.26616743516329899 -0.16248611748055669 0 0.27825348655266058 -0.16907893574793359 0 0.27017957837672091 -0.17747692395416009 0 0.26616743516329899 -0.16248611748055669 0 0.27746834422487981 -0.157383776805052 0 0.26883056353995632 -0.15253713768717189 0 0.26616743516329899 -0.16248611748055669 0 0.27746834422487981 -0.157383776805052 0 0.27825348655266058 -0.16907893574793359 0 0.27825348655266058 -0.16907893574793359 0 0.27017957837672091 -0.17747692395416009 0 0.28309810934824442 -0.18139531770741171 0 0.26980921912182793 -0.19283345323968809 0 0.27017957837672091 -0.17747692395416009 0 0.28309810934824442 -0.18139531770741171 0 0.26980921912182793 -0.19283345323968809 0 0.26076150014885863 -0.1842019471946538 0 0.27017957837672091 -0.17747692395416009 0 0.25959792799319448 -0.13115630782849941 0 0.26140577643439422 -0.14332992145424359 0 0.2441250445765018 -0.1282891748563233 0 0.26250671304934198 -0.1171844924147165 0 0.25959792799319448 -0.13115630782849941 0 0.2441250445765018 -0.1282891748563233 0 0.26616743516329899 -0.16248611748055669 0 0.26140577643439422 -0.14332992145424359 0 0.26883056353995632 -0.15253713768717189 0 0.26140577643439422 -0.14332992145424359 0 0.2760714190023883 -0.1442202816071636 0 0.27744208016659549 -0.13995397779495439 0 0.27746834422487981 -0.157383776805052 0 0.26883056353995632 -0.15253713768717189 0 0.27327340453904758 -0.14909472247049649 0 0.27746834422487981 -0.157383776805052 0 0.27327340453904758 -0.14909472247049649 0 0.27944720334199591 -0.1510298305388795 0 0.27746834422487981 -0.157383776805052 0 0.27944720334199591 -0.1510298305388795 0 0.28543485155381138 -0.1532631785773593 0 0.27944720334199591 -0.1510298305388795 0 0.27867318395593788 -0.14678707333018209 0 0.28267306369304718 -0.14834113794059131 0 0.27327340453904758 -0.14909472247049649 0 0.27944720334199591 -0.1510298305388795 0 0.27867318395593788 -0.14678707333018209 0 0.27327340453904758 -0.14909472247049649 0 0.27867318395593788 -0.14678707333018209 0 0.2760714190023883 -0.1442202816071636 0 0.27867318395593788 -0.14678707333018209 0 0.28203705400801471 -0.14409361128278431 0 0.28267306369304718 -0.14834113794059131 0 0.27867318395593788 -0.14678707333018209 0 0.27862243637812423 -0.14384960257769991 0 0.2760714190023883 -0.1442202816071636 0 0.27867318395593788 -0.14678707333018209 0 0.27862243637812423 -0.14384960257769991 0 0.28203705400801471 -0.14409361128278431 0 0.27862243637812423 -0.14384960257769991 0 0.27744208016659549 -0.13995397779495439 0 0.28203705400801471 -0.14409361128278431 0 0.27862243637812423 -0.14384960257769991 0 0.2760714190023883 -0.1442202816071636 0 0.27744208016659549 -0.13995397779495439 0 0.2760714190023883 -0.1442202816071636 0 0.27744208016659549 -0.13995397779495439 0 0.26140577643439422 -0.14332992145424359 0 0.27327340453904758 -0.14909472247049649 0 0.2760714190023883 -0.1442202816071636 0 0.26140577643439422 -0.14332992145424359 0 0.26883056353995632 -0.15253713768717189 0 0.27327340453904758 -0.14909472247049649 0 0.26250671304934198 -0.1171844924147165 0 0.25959792799319448 -0.13115630782849941 0 0.27744208016659549 -0.13995397779495439 0 0.27500980117207829 -0.12155323577333579 0 0.26250671304934198 -0.1171844924147165 0 0.27744208016659549 -0.13995397779495439 0 0.28377904751550082 -0.12022960778689511 0 0.27500980117207829 -0.12155323577333579 0 0.27744208016659549 -0.13995397779495439 0 0.26250671304934198 -0.1171844924147165 0 0.27744208016659549 -0.13995397779495439 0 0.28377904751550082 -0.12022960778689511 0 0.27744208016659549 -0.13995397779495439 0 0.25959792799319448 -0.13115630782849941 0 0.26140577643439422 -0.14332992145424359 0 0.27744208016659549 -0.13995397779495439 0 0.28377904751550082 -0.12022960778689511 0 0.27744208016659549 -0.13995397779495439 0 0.28932323864627207 -0.13288207724771259 0 0.28377904751550082 -0.12022960778689511 0 0.28932323864627207 -0.13288207724771259 0 0.29867666688697703 -0.1272849549211697 0 0.28932323864627207 -0.13288207724771259 0 0.29298701750044082 -0.14249666764126889 0 0.28471550868115297 -0.14112277714418339 0 0.27744208016659549 -0.13995397779495439 0 0.28932323864627207 -0.13288207724771259 0 0.28471550868115297 -0.14112277714418339 0 0.28932323864627207 -0.13288207724771259 0 0.29298701750044082 -0.14249666764126889 0 0.30163685485285813 -0.1392931605370735 0 0.28932323864627207 -0.13288207724771259 0 0.30163685485285813 -0.1392931605370735 0 0.29867666688697703 -0.1272849549211697 0 0.29298701750044082 -0.14249666764126889 0 0.28777302560547591 -0.14653199597375141 0 0.29658698791447552 -0.15065635986343121 0 0.29298701750044082 -0.14249666764126889 0 0.28471550868115297 -0.14112277714418339 0 0.28777302560547591 -0.14653199597375141 0 0.28471550868115297 -0.14112277714418339 0 0.28203705400801471 -0.14409361128278431 0 0.28777302560547591 -0.14653199597375141 0 0.27744208016659549 -0.13995397779495439 0 0.28471550868115297 -0.14112277714418339 0 0.28203705400801471 -0.14409361128278431 0 0.28203705400801471 -0.14409361128278431 0 0.28267306369304718 -0.14834113794059131 0 0.28777302560547591 -0.14653199597375141 0 0.28267306369304718 -0.14834113794059131 0 0.28777302560547591 -0.14653199597375141 0 0.28543485155381138 -0.1532631785773593 0 0.27944720334199591 -0.1510298305388795 0 0.28267306369304718 -0.14834113794059131 0 0.28543485155381138 -0.1532631785773593 0 0.28543485155381138 -0.1532631785773593 0 0.29658698791447552 -0.15065635986343121 0 0.29083384063311041 -0.16291767632429169 0 0.28777302560547591 -0.14653199597375141 0 0.28543485155381138 -0.1532631785773593 0 0.29658698791447552 -0.15065635986343121 0 0.29658698791447552 -0.15065635986343121 0 0.30903803874224028 -0.154944676915485 0 0.29083384063311041 -0.16291767632429169 0 0.30903803874224028 -0.154944676915485 0 0.30163685485285813 -0.1392931605370735 0 0.31552056866096628 -0.14046660072871581 0 0.29658698791447552 -0.15065635986343121 0 0.30903803874224028 -0.154944676915485 0 0.30163685485285813 -0.1392931605370735 0 0.29298701750044082 -0.14249666764126889 0 0.29658698791447552 -0.15065635986343121 0 0.30163685485285813 -0.1392931605370735 0 0.30163685485285813 -0.1392931605370735 0 0.29867666688697703 -0.1272849549211697 0 0.31552056866096628 -0.14046660072871581 0 0.30701266551867318 -0.11795202584412939 0 0.31552056866096628 -0.14046660072871581 0 0.30701266551867318 -0.11795202584412939 0 0.29867666688697703 -0.1272849549211697 0 0.31552056866096628 -0.14046660072871581 0 0.29805932829815662 -0.18954203104115269 0 0.28309810934824442 -0.18139531770741171 0 0.30374566956112747 -0.172867968401477 0 0.28309810934824442 -0.18139531770741171 0 0.29083384063311041 -0.16291767632429169 0 0.30374566956112747 -0.172867968401477 0 0.27825348655266058 -0.16907893574793359 0 0.28309810934824442 -0.18139531770741171 0 0.29083384063311041 -0.16291767632429169 0 0.27746834422487981 -0.157383776805052 0 0.27825348655266058 -0.16907893574793359 0 0.29083384063311041 -0.16291767632429169 0 0.27746834422487981 -0.157383776805052 0 0.28543485155381138 -0.1532631785773593 0 0.29083384063311041 -0.16291767632429169 0 0.30903803874224028 -0.154944676915485 0 0.30374566956112747 -0.172867968401477 0 0.3240284718032595 -0.16298117561330211 0 0.30903803874224028 -0.154944676915485 0 0.29083384063311041 -0.16291767632429169 0 0.30374566956112747 -0.172867968401477 0 0.29805932829815662 -0.18954203104115269 0 0.30374566956112747 -0.172867968401477 0 0.31670590871501719 -0.18767809548444081 0 0.30374566956112747 -0.172867968401477 0 0.3240284718032595 -0.16298117561330211 0 0.31670590871501719 -0.18767809548444081 0 0.3240284718032595 -0.16298117561330211 0 0.33253637494555272 -0.18549575049788841 0 0.31670590871501719 -0.18767809548444081 0 0.3240284718032595 -0.16298117561330211 0 0.33799671017450289 -0.15427059616939481 0 0.34627497421775172 -0.16712500364912669 0 0.3240284718032595 -0.16298117561330211 0 0.33253637494555272 -0.18549575049788841 0 0.34627497421775172 -0.16712500364912669 0 0.34627497421775172 -0.16712500364912669 0 0.34011486294275067 -0.1930235804920396 0 0.33253637494555272 -0.18549575049788841 0 0.34627497421775172 -0.16712500364912669 0 0.34011486294275067 -0.1930235804920396 0 0.3240284718032595 -0.16298117561330211 0 0.33253637494555272 -0.18549575049788841 0 0.31552056866096628 -0.14046660072871581 0 0.32253171804754088 -0.12501427821952829 0 0.33350864076215958 -0.14068733778211151 0 0.30701266551867318 -0.11795202584412939 0 0.31552056866096628 -0.14046660072871581 0 0.32253171804754088 -0.12501427821952829 0 0.3240284718032595 -0.16298117561330211 0 0.31552056866096628 -0.14046660072871581 0 0.33350864076215958 -0.14068733778211151 0 0.3240284718032595 -0.16298117561330211 0 0.31552056866096628 -0.14046660072871581 0 0.30903803874224028 -0.154944676915485 0 0.3240284718032595 -0.16298117561330211 0 0.31552056866096628 -0.14046660072871581 0 0.3240284718032595 -0.16298117561330211 0 0.33799671017450289 -0.15427059616939481 0 0.33350864076215958 -0.14068733778211151 0 0.33799671017450289 -0.15427059616939481 0 0.33350864076215958 -0.14068733778211151 0 0.35233452294063261 -0.141202487244703 0 0.33350864076215958 -0.14068733778211151 0 0.34402529308911528 -0.13391297654823131 0 0.35233452294063261 -0.141202487244703 0 0.32253171804754088 -0.12501427821952829 0 0.33350864076215958 -0.14068733778211151 0 0.34004518790650529 -0.12527848050574 0 0.33350864076215958 -0.14068733778211151 0 0.34004518790650529 -0.12527848050574 0 0.34402529308911528 -0.13391297654823131 0 0.34004518790650529 -0.12527848050574 0 0.35606369033391522 -0.1259709067163762 0 0.34402529308911528 -0.13391297654823131 0 0.35606369033391522 -0.1259709067163762 0 0.34402529308911528 -0.13391297654823131 0 0.35233452294063261 -0.141202487244703 0 0.35606369033391522 -0.1259709067163762 0 0.35233452294063261 -0.141202487244703 0 0.33799671017450289 -0.15427059616939481 0 0.35233452294063261 -0.141202487244703 0 0.34627497421775172 -0.16712500364912669 0 0.35233452294063261 -0.141202487244703 0 0.34627497421775172 -0.16712500364912669 0 0.35233452294063261 -0.141202487244703 0 0.34627497421775172 -0.16712500364912669 0 0.36205375531824391 -0.1583193433668508 0 0.35233452294063261 -0.141202487244703 0 0.37378191529930621 -0.14944718128022591 0 0.37093785636814908 -0.13798691163813531 0 0.35233452294063261 -0.141202487244703 0 0.37378191529930621 -0.14944718128022591 0 0.36205375531824391 -0.1583193433668508 0 0.37378191529930621 -0.14944718128022591 0 0.36205375531824391 -0.1583193433668508 0 0.37308854109455708 -0.16093157526259191 0 0.35606369033391522 -0.1259709067163762 0 0.35233452294063261 -0.141202487244703 0 0.37093785636814908 -0.13798691163813531 0 0.35233452294063261 -0.141202487244703 0 0.37093785636814908 -0.13798691163813531 0 0.37980885755413418 -0.11928611433555709 0 0.36703358201424818 -0.1205643964158449 0 0.37093785636814908 -0.13798691163813531 0 0.36703358201424818 -0.1205643964158449 0 0.35606369033391522 -0.1259709067163762 0 0.37093785636814908 -0.13798691163813531 0 0.35440938842994413 -0.18403818521213361 0 0.34627497421775172 -0.16712500364912669 0 0.34011486294275067 -0.1930235804920396 0 0.35440938842994413 -0.18403818521213361 0 0.34627497421775172 -0.16712500364912669 0 0.36427806099096738 -0.1715772602872144 0 0.34627497421775172 -0.16712500364912669 0 0.36427806099096738 -0.1715772602872144 0 0.36205375531824391 -0.1583193433668508 0 0.36427806099096738 -0.1715772602872144 0 0.37308854109455708 -0.16093157526259191 0 0.38040919016197472 -0.17194589761299089 0 0.36427806099096738 -0.1715772602872144 0 0.36205375531824391 -0.1583193433668508 0 0.37308854109455708 -0.16093157526259191 0 0.36427806099096738 -0.1715772602872144 0 0.37230187155944527 -0.18410680502223259 0 0.38040919016197472 -0.17194589761299089 0 0.35440938842994413 -0.18403818521213361 0 0.36427806099096738 -0.1715772602872144 0 0.37230187155944527 -0.18410680502223259 0 0.37230187155944527 -0.18410680502223259 0 0.36943541324010287 -0.20186706000128449 0 0.35149154164174501 -0.20315574626222041 0 0.37230187155944527 -0.18410680502223259 0 0.36943541324010287 -0.20186706000128449 0 0.38044042972011022 -0.19453179374419641 0 0.37230187155944527 -0.18410680502223259 0 0.35149154164174501 -0.20315574626222041 0 0.35440938842994413 -0.18403818521213361 0 0.37230187155944527 -0.18410680502223259 0 0.35149154164174501 -0.20315574626222041 0 0.36366819524513028 -0.21031437113148671 0 0.35862104841248232 -0.2228308520016947 0 0.37925693361890289 -0.2120285714887051 0 0.36943541324010287 -0.20186706000128449 0 0.36366819524513028 -0.21031437113148671 0 0.35149154164174501 -0.20315574626222041 0 0.36943541324010287 -0.20186706000128449 0 0.36366819524513028 -0.21031437113148671 0 0.37925693361890289 -0.2120285714887051 0 0.35149154164174501 -0.20315574626222041 0 0.33068121172404469 -0.22220468750220829 0 0.35862104841248232 -0.2228308520016947 0 0.36366819524513028 -0.21031437113148671 0 0.35149154164174501 -0.20315574626222041 0 0.35862104841248232 -0.2228308520016947 0 0.35440938842994413 -0.18403818521213361 0 0.35149154164174501 -0.20315574626222041 0 0.34011486294275067 -0.1930235804920396 0 0.35149154164174501 -0.20315574626222041 0 0.34011486294275067 -0.1930235804920396 0 0.3308500388182079 -0.19477209315265531 0 0.35149154164174501 -0.20315574626222041 0 0.3308500388182079 -0.19477209315265531 0 0.32373992820587338 -0.20544181336631709 0 0.33253637494555272 -0.18549575049788841 0 0.34011486294275067 -0.1930235804920396 0 0.3308500388182079 -0.19477209315265531 0 0.35149154164174501 -0.20315574626222041 0 0.32373992820587338 -0.20544181336631709 0 0.33068121172404469 -0.22220468750220829 0 0.35149154164174501 -0.20315574626222041 0 0.33068121172404469 -0.22220468750220829 0 0.30379191605182437 -0.20471284840499179 0 0.31109634377457301 -0.22154997806035029 0 0.32373992820587338 -0.20544181336631709 0 0.31109634377457301 -0.22154997806035029 0 0.32373992820587338 -0.20544181336631709 0 0.33068121172404469 -0.22220468750220829 0 0.3308500388182079 -0.19477209315265531 0 0.32373992820587338 -0.20544181336631709 0 0.31670590871501719 -0.18767809548444081 0 0.33253637494555272 -0.18549575049788841 0 0.3308500388182079 -0.19477209315265531 0 0.31670590871501719 -0.18767809548444081 0 0.30379191605182437 -0.20471284840499179 0 0.32373992820587338 -0.20544181336631709 0 0.31670590871501719 -0.18767809548444081 0 0.30987088180634448 -0.24125362874219619 0 0.33627474799740559 -0.24529035195854479 0 0.32740146312166057 -0.2615598439342075 0 0.30987088180634448 -0.24125362874219619 0 0.33068121172404469 -0.22220468750220829 0 0.33627474799740559 -0.24529035195854479 0 0.31109634377457301 -0.22154997806035029 0 0.30987088180634448 -0.24125362874219619 0 0.33068121172404469 -0.22220468750220829 0 0.30987088180634448 -0.24125362874219619 0 0.33068121172404469 -0.22220468750220829 0 0.33068121172404469 -0.22220468750220829 0 0.33627474799740559 -0.24529035195854479 0 0.34620802689974478 -0.2341148902952345 0 0.33627474799740559 -0.24529035195854479 0 0.3592550994650468 -0.24613366971849041 0 0.34620802689974478 -0.2341148902952345 0 0.33068121172404469 -0.22220468750220829 0 0.34620802689974478 -0.2341148902952345 0 0.35862104841248232 -0.2228308520016947 0 0.3592550994650468 -0.24613366971849041 0 0.34620802689974478 -0.2341148902952345 0 0.35862104841248232 -0.2228308520016947 0 0.35862104841248232 -0.2228308520016947 0 0.37496953662933208 -0.22868277770556319 0 0.37925693361890289 -0.2120285714887051 0 0.3592550994650468 -0.24613366971849041 0 0.35862104841248232 -0.2228308520016947 0 0.37496953662933208 -0.22868277770556319 0 0.3592550994650468 -0.24613366971849041 0 0.37496953662933208 -0.22868277770556319 0 0.37997975350283419 -0.24239130628825581 0 0.3592550994650468 -0.24613366971849041 0 0.37997975350283419 -0.24239130628825581 0 0.37962897743813367 -0.25651992395937562 0 0.37997975350283419 -0.24239130628825581 0 0.39078422201957003 -0.24969070593678949 0 0.39374115574330237 -0.23275594279604889 0 0.37496953662933208 -0.22868277770556319 0 0.37997975350283419 -0.24239130628825581 0 0.39374115574330237 -0.23275594279604889 0 0.37997975350283419 -0.24239130628825581 0 0.39078422201957003 -0.24969070593678949 0 0.37962897743813367 -0.25651992395937562 0 0.39078422201957003 -0.24969070593678949 0 0.40271577749504128 -0.24808950568319249 0 0.39374115574330237 -0.23275594279604889 0 0.40271577749504128 -0.24808950568319249 0 0.39374115574330237 -0.23275594279604889 0 0.41071323046394659 -0.2405815597806012 0 0.39374115574330237 -0.23275594279604889 0 0.40098237452119001 -0.21274615241137729 0 0.41052741769560203 -0.22783696307390669 0 0.39374115574330237 -0.23275594279604889 0 0.41071323046394659 -0.2405815597806012 0 0.41052741769560203 -0.22783696307390669 0 0.39374115574330237 -0.23275594279604889 0 0.37925693361890289 -0.2120285714887051 0 0.40098237452119001 -0.21274615241137729 0 0.37496953662933208 -0.22868277770556319 0 0.39374115574330237 -0.23275594279604889 0 0.37925693361890289 -0.2120285714887051 0 0.36943541324010287 -0.20186706000128449 0 0.37925693361890289 -0.2120285714887051 0 0.38044042972011022 -0.19453179374419641 0 0.37925693361890289 -0.2120285714887051 0 0.38044042972011022 -0.19453179374419641 0 0.39584695818252569 -0.1933624959239181 0 0.38044042972011022 -0.19453179374419641 0 0.39584695818252569 -0.1933624959239181 0 0.3883302688968957 -0.18261969374673129 0 0.39584695818252569 -0.1933624959239181 0 0.40098237452119001 -0.21274615241137729 0 0.4098684358706004 -0.20142281071300391 0 0.39584695818252569 -0.1933624959239181 0 0.4098684358706004 -0.20142281071300391 0 0.41232050953237392 -0.17982343258281169 0 0.37925693361890289 -0.2120285714887051 0 0.39584695818252569 -0.1933624959239181 0 0.40098237452119001 -0.21274615241137729 0 0.41622029565463942 -0.21609362125780859 0 0.4098684358706004 -0.20142281071300391 0 0.4264315356173396 -0.20432849808395781 0 0.40098237452119001 -0.21274615241137729 0 0.41622029565463942 -0.21609362125780859 0 0.4098684358706004 -0.20142281071300391 0 0.4098684358706004 -0.20142281071300391 0 0.4264315356173396 -0.20432849808395781 0 0.41232050953237392 -0.17982343258281169 0 0.4264315356173396 -0.20432849808395781 0 0.41232050953237392 -0.17982343258281169 0 0.4264315356173396 -0.20432849808395781 0 0.43189275347364769 -0.18601108132065861 0 0.4422427041991972 -0.19293897445371649 0 0.4264315356173396 -0.20432849808395781 0 0.41232050953237392 -0.17982343258281169 0 0.43189275347364769 -0.18601108132065861 0 0.4264315356173396 -0.20432849808395781 0 0.44054256170230521 -0.22883356358510401 0 0.4264315356173396 -0.20432849808395781 0 0.42740075470870198 -0.2217522577010006 0 0.44054256170230521 -0.22883356358510401 0 0.41622029565463942 -0.21609362125780859 0 0.4264315356173396 -0.20432849808395781 0 0.42740075470870198 -0.2217522577010006 0 0.41622029565463942 -0.21609362125780859 0 0.42740075470870198 -0.2217522577010006 0 0.42211125551440248 -0.22847504556360529 0 0.42740075470870198 -0.2217522577010006 0 0.42211125551440248 -0.22847504556360529 0 0.43135414754850671 -0.23039238084196881 0 0.42211125551440248 -0.22847504556360529 0 0.42953670257014748 -0.23642300718324211 0 0.42008770906388448 -0.23759219001855961 0 0.42211125551440248 -0.22847504556360529 0 0.43135414754850671 -0.23039238084196881 0 0.42953670257014748 -0.23642300718324211 0 0.43135414754850671 -0.23039238084196881 0 0.43570292594701721 -0.2354153486954452 0 0.44054256170230521 -0.22883356358510401 0 0.42740075470870198 -0.2217522577010006 0 0.43135414754850671 -0.23039238084196881 0 0.44054256170230521 -0.22883356358510401 0 0.43135414754850671 -0.23039238084196881 0 0.43570292594701721 -0.2354153486954452 0 0.42953670257014748 -0.23642300718324211 0 0.43570292594701721 -0.2354153486954452 0 0.43468079386219632 -0.24191883787933049 0 0.44107348969050558 -0.240693309601615 0 0.43468079386219632 -0.24191883787933049 0 0.4271596561998503 -0.244205651647634 0 0.42953670257014748 -0.23642300718324211 0 0.43570292594701721 -0.2354153486954452 0 0.43468079386219632 -0.24191883787933049 0 0.42953670257014748 -0.23642300718324211 0 0.43292967301130941 -0.2488540036824014 0 0.43917511256413022 -0.2466480151322302 0 0.43871762778532231 -0.25212208882244802 0 0.43468079386219632 -0.24191883787933049 0 0.43292967301130941 -0.2488540036824014 0 0.43917511256413022 -0.2466480151322302 0 0.43468079386219632 -0.24191883787933049 0 0.43292967301130941 -0.2488540036824014 0 0.4271596561998503 -0.244205651647634 0 0.4271596561998503 -0.244205651647634 0 0.4190014546393992 -0.24696823138092139 0 0.42541254610488072 -0.25270056741268049 0 0.43292967301130941 -0.2488540036824014 0 0.4271596561998503 -0.244205651647634 0 0.42541254610488072 -0.25270056741268049 0 0.4271596561998503 -0.244205651647634 0 0.42008770906388448 -0.23759219001855961 0 0.4190014546393992 -0.24696823138092139 0 0.4271596561998503 -0.244205651647634 0 0.42953670257014748 -0.23642300718324211 0 0.42008770906388448 -0.23759219001855961 0 0.42008770906388448 -0.23759219001855961 0 0.4190014546393992 -0.24696823138092139 0 0.41071323046394659 -0.2405815597806012 0 0.4190014546393992 -0.24696823138092139 0 0.41071323046394659 -0.2405815597806012 0 0.41170531542548788 -0.25126417515390992 0 0.40271577749504128 -0.24808950568319249 0 0.41071323046394659 -0.2405815597806012 0 0.41170531542548788 -0.25126417515390992 0 0.42008770906388448 -0.23759219001855961 0 0.41071323046394659 -0.2405815597806012 0 0.41052741769560203 -0.22783696307390669 0 0.40098237452119001 -0.21274615241137729 0 0.41622029565463942 -0.21609362125780859 0 0.41052741769560203 -0.22783696307390669 0 0.41622029565463942 -0.21609362125780859 0 0.42211125551440248 -0.22847504556360529 0 0.41052741769560203 -0.22783696307390669 0 0.42211125551440248 -0.22847504556360529 0 0.42008770906388448 -0.23759219001855961 0 0.41052741769560203 -0.22783696307390669 0 0.38943037724261159 -0.1347904899183642 0 0.39869330261889507 -0.14602014112377221 0 0.41208161927757919 -0.13087523561031761 0 0.40724277249555002 -0.1192463337858536 0 0.38943037724261159 -0.1347904899183642 0 0.41208161927757919 -0.13087523561031761 0 0.38943037724261159 -0.1347904899183642 0 0.41208161927757919 -0.13087523561031761 0 0.37980885755413418 -0.11928611433555709 0 0.37093785636814908 -0.13798691163813531 0 0.38943037724261159 -0.1347904899183642 0 0.37093785636814908 -0.13798691163813531 0 0.38943037724261159 -0.1347904899183642 0 0.37378191529930621 -0.14944718128022591 0 0.38943037724261159 -0.1347904899183642 0 0.38491978370229318 -0.15336819376567751 0 0.38943037724261159 -0.1347904899183642 0 0.38491978370229318 -0.15336819376567751 0 0.37378191529930621 -0.14944718128022591 0 0.37093785636814908 -0.13798691163813531 0 0.38943037724261159 -0.1347904899183642 0 0.37378191529930621 -0.14944718128022591 0 0.37308854109455708 -0.16093157526259191 0 0.38491978370229318 -0.15336819376567751 0 0.39869330261889507 -0.14602014112377221 0 0.39311220147714548 -0.16505786378224471 0 0.41392253139484558 -0.14600892254225711 0 0.38491978370229318 -0.15336819376567751 0 0.39869330261889507 -0.14602014112377221 0 0.39311220147714548 -0.16505786378224471 0 0.38943037724261159 -0.1347904899183642 0 0.38491978370229318 -0.15336819376567751 0 0.39869330261889507 -0.14602014112377221 0 0.39311220147714548 -0.16505786378224471 0 0.41392253139484558 -0.14600892254225711 0 0.39311220147714548 -0.16505786378224471 0 0.41068030945659773 -0.16570921719709561 0 0.41392253139484558 -0.14600892254225711 0 0.39311220147714548 -0.16505786378224471 0 0.39994988354525202 -0.1760395102610646 0 0.41068030945659773 -0.16570921719709561 0 0.38491978370229318 -0.15336819376567751 0 0.39311220147714548 -0.16505786378224471 0 0.38040919016197472 -0.17194589761299089 0 0.37308854109455708 -0.16093157526259191 0 0.38491978370229318 -0.15336819376567751 0 0.38040919016197472 -0.17194589761299089 0 0.38491978370229318 -0.15336819376567751 0 0.38040919016197472 -0.17194589761299089 0 0.37230187155944527 -0.18410680502223259 0 0.39311220147714548 -0.16505786378224471 0 0.3883302688968957 -0.18261969374673129 0 0.37230187155944527 -0.18410680502223259 0 0.39311220147714548 -0.16505786378224471 0 0.38040919016197472 -0.17194589761299089 0 0.37230187155944527 -0.18410680502223259 0 0.38044042972011022 -0.19453179374419641 0 0.3883302688968957 -0.18261969374673129 0 0.37230187155944527 -0.18410680502223259 0 0.39311220147714548 -0.16505786378224471 0 0.39584695818252569 -0.1933624959239181 0 0.39994988354525202 -0.1760395102610646 0 0.41232050953237392 -0.17982343258281169 0 0.39584695818252569 -0.1933624959239181 0 0.3883302688968957 -0.18261969374673129 0 0.39994988354525202 -0.1760395102610646 0 0.39311220147714548 -0.16505786378224471 0 0.3883302688968957 -0.18261969374673129 0 0.39994988354525202 -0.1760395102610646 0 0.39994988354525202 -0.1760395102610646 0 0.41232050953237392 -0.17982343258281169 0 0.41068030945659773 -0.16570921719709561 0 0.41232050953237392 -0.17982343258281169 0 0.42257653670861861 -0.1716129151356913 0 0.41068030945659773 -0.16570921719709561 0 0.43189275347364769 -0.18601108132065861 0 0.42257653670861861 -0.1716129151356913 0 0.43412364138782639 -0.16920851808495629 0 0.43189275347364769 -0.18601108132065861 0 0.43412364138782639 -0.16920851808495629 0 0.44001273516831668 -0.1783764172762527 0 0.41232050953237392 -0.17982343258281169 0 0.43189275347364769 -0.18601108132065861 0 0.42257653670861861 -0.1716129151356913 0 0.43412364138782639 -0.16920851808495629 0 0.42386546969264721 -0.157312326492934 0 0.43988674428557012 -0.15629540566381109 0 0.42257653670861861 -0.1716129151356913 0 0.43412364138782639 -0.16920851808495629 0 0.42386546969264721 -0.157312326492934 0 0.42386546969264721 -0.157312326492934 0 0.41068030945659773 -0.16570921719709561 0 0.41392253139484558 -0.14600892254225711 0 0.42257653670861861 -0.1716129151356913 0 0.42386546969264721 -0.157312326492934 0 0.41068030945659773 -0.16570921719709561 0 0.39869330261889507 -0.14602014112377221 0 0.41392253139484558 -0.14600892254225711 0 0.41208161927757919 -0.13087523561031761 0 0.42386546969264721 -0.157312326492934 0 0.41392253139484558 -0.14600892254225711 0 0.43230421280140441 -0.1433416226119455 0 0.42386546969264721 -0.157312326492934 0 0.43230421280140441 -0.1433416226119455 0 0.43988674428557012 -0.15629540566381109 0 0.42661387223904329 -0.12098454377727109 0 0.43473286131254663 -0.1269599813022704 0 0.41208161927757919 -0.13087523561031761 0 0.41392253139484558 -0.14600892254225711 0 0.43230421280140441 -0.1433416226119455 0 0.43473286131254663 -0.1269599813022704 0 0.43230421280140441 -0.1433416226119455 0 0.43473286131254663 -0.1269599813022704 0 0.43648454183824659 -0.13175811878196239 0 0.41392253139484558 -0.14600892254225711 0 0.43473286131254663 -0.1269599813022704 0 0.43473286131254663 -0.1269599813022704 0 0.41208161927757919 -0.13087523561031761 0 0.43473286131254663 -0.1269599813022704 0 0.43652399803370612 -0.1266503843383173 0 0.43473286131254663 -0.1269599813022704 0 0.43652399803370612 -0.1266503843383173 0 0.43686479974981568 -0.1288436488615915 0 0.43473286131254663 -0.1269599813022704 0 0.43686479974981568 -0.1288436488615915 0 0.43648454183824659 -0.13175811878196239 0 0.41392253139484558 -0.14600892254225711 0 0.43473286131254663 -0.1269599813022704 0 0.41208161927757919 -0.13087523561031761 0 0.46233294642030121 -0.13029577410444981 0 0.4507048422038758 -0.1254569291466279 0 0.44969735458306581 -0.1318629992909984 0 0.46233294642030121 -0.13029577410444981 0 0.44969735458306581 -0.1318629992909984 0 0.44471813751157008 -0.14226443976851619 0 0.4507048422038758 -0.1254569291466279 0 0.44969735458306581 -0.1318629992909984 0 0.44103349219651622 -0.1294348541443999 0 0.43686479974981568 -0.1288436488615915 0 0.43648454183824659 -0.13175811878196239 0 0.44103349219651622 -0.1294348541443999 0 0.43652399803370612 -0.1266503843383173 0 0.43686479974981568 -0.1288436488615915 0 0.44103349219651622 -0.1294348541443999 0 0.44969735458306581 -0.1318629992909984 0 0.44103349219651622 -0.1294348541443999 0 0.44471813751157008 -0.14226443976851619 0 0.43648454183824659 -0.13175811878196239 0 0.44103349219651622 -0.1294348541443999 0 0.44471813751157008 -0.14226443976851619 0 0.43230421280140441 -0.1433416226119455 0 0.43648454183824659 -0.13175811878196239 0 0.44471813751157008 -0.14226443976851619 0 0.44471813751157008 -0.14226443976851619 0 0.45766723532789633 -0.15879666333412101 0 0.43988674428557012 -0.15629540566381109 0 0.43230421280140441 -0.1433416226119455 0 0.44471813751157008 -0.14226443976851619 0 0.43988674428557012 -0.15629540566381109 0 0.46233294642030121 -0.13029577410444981 0 0.45766723532789633 -0.15879666333412101 0 0.46233294642030121 -0.13029577410444981 0 0.45766723532789633 -0.15879666333412101 0 0.47903454186700689 -0.14491860817462909 0 0.46233294642030121 -0.13029577410444981 0 0.44471813751157008 -0.14226443976851619 0 0.45766723532789633 -0.15879666333412101 0 0.45766723532789633 -0.15879666333412101 0 0.43988674428557012 -0.15629540566381109 0 0.4458378175146181 -0.17411517349359901 0 0.43412364138782639 -0.16920851808495629 0 0.43988674428557012 -0.15629540566381109 0 0.4458378175146181 -0.17411517349359901 0 0.45766723532789633 -0.15879666333412101 0 0.4458378175146181 -0.17411517349359901 0 0.45300152423549178 -0.1872975525637923 0 0.43412364138782639 -0.16920851808495629 0 0.4458378175146181 -0.17411517349359901 0 0.44001273516831668 -0.1783764172762527 0 0.4458378175146181 -0.17411517349359901 0 0.44001273516831668 -0.1783764172762527 0 0.44489139372352893 -0.18154716366216431 0 0.43189275347364769 -0.18601108132065861 0 0.44001273516831668 -0.1783764172762527 0 0.4419738252115778 -0.1858134044909181 0 0.44001273516831668 -0.1783764172762527 0 0.44489139372352893 -0.18154716366216431 0 0.4419738252115778 -0.1858134044909181 0 0.4458378175146181 -0.17411517349359901 0 0.45051520093052061 -0.18628588467377419 0 0.45300152423549178 -0.1872975525637923 0 0.4458378175146181 -0.17411517349359901 0 0.44489139372352893 -0.18154716366216431 0 0.45051520093052061 -0.18628588467377419 0 0.44489139372352893 -0.18154716366216431 0 0.4419738252115778 -0.1858134044909181 0 0.45051520093052061 -0.18628588467377419 0 0.45051520093052061 -0.18628588467377419 0 0.45300152423549178 -0.1872975525637923 0 0.45766723532789633 -0.15879666333412101 0 0.45300152423549178 -0.1872975525637923 0 0.47602254605796679 -0.17263393053228049 0 0.45300152423549178 -0.1872975525637923 0 0.47602254605796679 -0.17263393053228049 0 0.47650076211774711 -0.19685923119094451 0 0.45766723532789633 -0.15879666333412101 0 0.45300152423549178 -0.1872975525637923 0 0.47602254605796679 -0.17263393053228049 0 0.5 -0.18210721193063359 0 0.47650076211774711 -0.19685923119094451 0 0.47602254605796679 -0.17263393053228049 0 0.5 -0.18210721193063359 0 0.5 -0.15779351404316869 0 0.47602254605796679 -0.17263393053228049 0 0.5 -0.15779351404316869 0 0.47903454186700689 -0.14491860817462909 0 0.45766723532789633 -0.15879666333412101 0 0.47602254605796679 -0.17263393053228049 0 0.47903454186700689 -0.14491860817462909 0 0.5 -0.15779351404316869 0 0.47903454186700689 -0.14491860817462909 0 0.5 -0.13347981615570359 0 0.47818452339587708 -0.1165119508780514 0 0.47903454186700689 -0.14491860817462909 0 0.5 -0.13347981615570359 0 0.47818452339587708 -0.1165119508780514 0 0.46233294642030121 -0.13029577410444981 0 0.47903454186700689 -0.14491860817462909 0 0.46031275976808328 -0.23316788994673901 0 0.45494703228505612 -0.22365309056703511 0 0.45215825402727128 -0.23076677405108431 0 0.46031275976808328 -0.23316788994673901 0 0.45530172715096351 -0.23784707953664069 0 0.45215825402727128 -0.23076677405108431 0 0.46031275976808328 -0.23316788994673901 0 0.45494703228505612 -0.22365309056703511 0 0.46412837801973811 -0.21929252942849389 0 0.46031275976808328 -0.23316788994673901 0 0.46412837801973811 -0.21929252942849389 0 0.47030631581894022 -0.23354799250188951 0 0.46031275976808328 -0.23316788994673901 0 0.46848515047489081 -0.24338241864882551 0 0.46066141885548939 -0.24148158248895141 0 0.46031275976808328 -0.23316788994673901 0 0.46848515047489081 -0.24338241864882551 0 0.47030631581894022 -0.23354799250188951 0 0.46848515047489081 -0.24338241864882551 0 0.47379426967759908 -0.2551161382871 0 0.45921282319897938 -0.25088534477896152 0 0.46848515047489081 -0.24338241864882551 0 0.46066141885548939 -0.24148158248895141 0 0.45921282319897938 -0.25088534477896152 0 0.46066141885548939 -0.24148158248895141 0 0.45530172715096351 -0.23784707953664069 0 0.45921282319897938 -0.25088534477896152 0 0.46031275976808328 -0.23316788994673901 0 0.46066141885548939 -0.24148158248895141 0 0.45530172715096351 -0.23784707953664069 0 0.44552755473851618 -0.24512414212957201 0 0.44054256170230521 -0.22883356358510401 0 0.45465358778727077 -0.25333862908624999 0 0.44416337990499422 -0.23293380641746719 0 0.45921282319897938 -0.25088534477896152 0 0.45465358778727077 -0.25333862908624999 0 0.45530172715096351 -0.23784707953664069 0 0.44416337990499422 -0.23293380641746719 0 0.45921282319897938 -0.25088534477896152 0 0.44054256170230521 -0.22883356358510401 0 0.44416337990499422 -0.23293380641746719 0 0.45465358778727077 -0.25333862908624999 0 0.44054256170230521 -0.22883356358510401 0 0.45465358778727077 -0.25333862908624999 0 0.44416337990499422 -0.23293380641746719 0 0.45921282319897938 -0.25088534477896152 0 0.44552755473851618 -0.24512414212957201 0 0.44107348969050558 -0.240693309601615 0 0.44054256170230521 -0.22883356358510401 0 0.44552755473851618 -0.24512414212957201 0 0.44412948591815982 -0.25166394159908168 0 0.44816248816364901 -0.25238097519102243 0 0.44247641072782801 -0.24603235211562469 0 0.43917511256413022 -0.2466480151322302 0 0.44412948591815982 -0.25166394159908168 0 0.44552755473851618 -0.24512414212957201 0 0.44247641072782801 -0.24603235211562469 0 0.44412948591815982 -0.25166394159908168 0 0.44552755473851618 -0.24512414212957201 0 0.44247641072782801 -0.24603235211562469 0 0.44107348969050558 -0.240693309601615 0 0.43468079386219632 -0.24191883787933049 0 0.43917511256413022 -0.2466480151322302 0 0.44107348969050558 -0.240693309601615 0 0.44247641072782801 -0.24603235211562469 0 0.43917511256413022 -0.2466480151322302 0 0.44107348969050558 -0.240693309601615 0 0.43570292594701721 -0.2354153486954452 0 0.44107348969050558 -0.240693309601615 0 0.44054256170230521 -0.22883356358510401 0 0.4264315356173396 -0.20432849808395781 0 0.44054256170230521 -0.22883356358510401 0 0.44673315619821857 -0.2255884067429007 0 0.44054256170230521 -0.22883356358510401 0 0.44416337990499422 -0.23293380641746719 0 0.44673315619821857 -0.2255884067429007 0 0.44416337990499422 -0.23293380641746719 0 0.45215825402727128 -0.23076677405108431 0 0.44673315619821857 -0.2255884067429007 0 0.45530172715096351 -0.23784707953664069 0 0.44416337990499422 -0.23293380641746719 0 0.45215825402727128 -0.23076677405108431 0 0.45494703228505612 -0.22365309056703511 0 0.45215825402727128 -0.23076677405108431 0 0.44673315619821857 -0.2255884067429007 0 0.4264315356173396 -0.20432849808395781 0 0.44673315619821857 -0.2255884067429007 0 0.44986734021685498 -0.20644297965334649 0 0.44673315619821857 -0.2255884067429007 0 0.44986734021685498 -0.20644297965334649 0 0.45494703228505612 -0.22365309056703511 0 0.44673315619821857 -0.2255884067429007 0 0.44986734021685498 -0.20644297965334649 0 0.45300152423549178 -0.1872975525637923 0 0.44986734021685498 -0.20644297965334649 0 0.4422427041991972 -0.19293897445371649 0 0.45300152423549178 -0.1872975525637923 0 0.44986734021685498 -0.20644297965334649 0 0.4264315356173396 -0.20432849808395781 0 0.44986734021685498 -0.20644297965334649 0 0.4422427041991972 -0.19293897445371649 0 0.43189275347364769 -0.18601108132065861 0 0.4419738252115778 -0.1858134044909181 0 0.4422427041991972 -0.19293897445371649 0 0.4419738252115778 -0.1858134044909181 0 0.45051520093052061 -0.18628588467377419 0 0.4422427041991972 -0.19293897445371649 0 0.45051520093052061 -0.18628588467377419 0 0.45300152423549178 -0.1872975525637923 0 0.4422427041991972 -0.19293897445371649 0 0.45300152423549178 -0.1872975525637923 0 0.47650076211774711 -0.19685923119094451 0 0.45300152423549178 -0.1872975525637923 0 0.44986734021685498 -0.20644297965334649 0 0.46374770476768601 -0.204378797979305 0 0.45300152423549178 -0.1872975525637923 0 0.46374770476768601 -0.204378797979305 0 0.47650076211774711 -0.19685923119094451 0 0.45494703228505612 -0.22365309056703511 0 0.46412837801973811 -0.21929252942849389 0 0.44986734021685498 -0.20644297965334649 0 0.46412837801973811 -0.21929252942849389 0 0.44986734021685498 -0.20644297965334649 0 0.46374770476768601 -0.204378797979305 0 0.46412837801973811 -0.21929252942849389 0 0.46374770476768601 -0.204378797979305 0 0.47707366821483449 -0.2120031562722216 0 0.46374770476768601 -0.204378797979305 0 0.47707366821483449 -0.2120031562722216 0 0.47650076211774711 -0.19685923119094451 0 0.47650076211774711 -0.19685923119094451 0 0.50000000000000155 -0.2064209098180986 0 0.5 -0.18210721193063359 0 0.47650076211774711 -0.19685923119094451 0 0.50000000000000155 -0.2064209098180986 0 0.50000000000000155 -0.2064209098180986 0 0.48970053883092229 -0.21844058073303951 0 0.5 -0.23051517486053599 0 0.47707366821483449 -0.2120031562722216 0 0.47650076211774711 -0.19685923119094451 0 0.50000000000000155 -0.2064209098180986 0 0.47707366821483449 -0.2120031562722216 0 0.50000000000000155 -0.2064209098180986 0 0.48970053883092229 -0.21844058073303951 0 0.48970053883092229 -0.21844058073303951 0 0.5 -0.23051517486053599 0 0.47892356359843868 -0.22663529354614381 0 0.5 -0.23051517486053599 0 0.47892356359843868 -0.22663529354614381 0 0.48037632353124621 -0.24431513348718631 0 0.47707366821483449 -0.2120031562722216 0 0.48970053883092229 -0.21844058073303951 0 0.47892356359843868 -0.22663529354614381 0 0.46412837801973811 -0.21929252942849389 0 0.47707366821483449 -0.2120031562722216 0 0.47892356359843868 -0.22663529354614381 0 0.46412837801973811 -0.21929252942849389 0 0.47892356359843868 -0.22663529354614381 0 0.47030631581894022 -0.23354799250188951 0 0.47892356359843868 -0.22663529354614381 0 0.47030631581894022 -0.23354799250188951 0 0.48037632353124621 -0.24431513348718631 0 0.46848515047489081 -0.24338241864882551 0 0.48037632353124621 -0.24431513348718631 0 0.47379426967759908 -0.2551161382871 0 0.46848515047489081 -0.24338241864882551 0 0.47030631581894022 -0.23354799250188951 0 0.48037632353124621 -0.24431513348718631 0 0.5 -0.23051517486053599 0 0.48037632353124621 -0.24431513348718631 0 0.5 -0.25460943990297341 0 0.48037632353124621 -0.24431513348718631 0 0.5 -0.25460943990297341 0 0.48801367558502928 -0.26571606475136661 0 0.50000000000000022 -0.27870370494541058 0 0.48801367558502928 -0.26571606475136661 0 0.48931170978694949 -0.28678842150195 0 0.5 -0.25460943990297341 0 0.50000000000000022 -0.27870370494541058 0 0.48801367558502928 -0.26571606475136661 0 0.47426226649296438 -0.26883688314045567 0 0.47311276962135179 -0.28508457281551508 0 0.48931170978694949 -0.28678842150195 0 0.48801367558502928 -0.26571606475136661 0 0.47426226649296438 -0.26883688314045567 0 0.48931170978694949 -0.28678842150195 0 0.47426226649296438 -0.26883688314045567 0 0.48931170978694949 -0.28678842150195 0 0.47426226649296438 -0.26883688314045567 0 0.47379426967759908 -0.2551161382871 0 0.45921282319897938 -0.25088534477896152 0 0.48037632353124621 -0.24431513348718631 0 0.48801367558502928 -0.26571606475136661 0 0.47379426967759908 -0.2551161382871 0 0.48801367558502928 -0.26571606475136661 0 0.47426226649296438 -0.26883688314045567 0 0.47379426967759908 -0.2551161382871 0 0.47426226649296438 -0.26883688314045567 0 0.45921282319897938 -0.25088534477896152 0 0.45867357026917482 -0.26750260605831883 0 0.45921282319897938 -0.25088534477896152 0 0.45465358778727077 -0.25333862908624999 0 0.45867357026917482 -0.26750260605831883 0 0.47426226649296438 -0.26883688314045567 0 0.45921282319897938 -0.25088534477896152 0 0.45465358778727077 -0.25333862908624999 0 0.45867357026917482 -0.26750260605831883 0 0.44833932421064931 -0.25939718794918609 0 0.47426226649296438 -0.26883688314045567 0 0.45867357026917482 -0.26750260605831883 0 0.47311276962135179 -0.28508457281551508 0 0.45867357026917482 -0.26750260605831883 0 0.45341190072698129 -0.28456089864454431 0 0.47311276962135179 -0.28508457281551508 0 0.45867357026917482 -0.26750260605831883 0 0.44699314029513348 -0.27052543302498011 0 0.44833932421064931 -0.25939718794918609 0 0.45867357026917482 -0.26750260605831883 0 0.44699314029513348 -0.27052543302498011 0 0.45341190072698129 -0.28456089864454431 0 0.44699314029513348 -0.27052543302498011 0 0.43919222284155002 -0.27830080619971909 0 0.45341190072698129 -0.28456089864454431 0 0.44699314029513348 -0.27052543302498011 0 0.4385944452063526 -0.26988256164274432 0 0.44171549930134968 -0.26335377754900008 0 0.44699314029513348 -0.27052543302498011 0 0.43919222284155002 -0.27830080619971909 0 0.4385944452063526 -0.26988256164274432 0 0.4385944452063526 -0.26988256164274432 0 0.44171549930134968 -0.26335377754900008 0 0.43505770238402619 -0.26461992241763038 0 0.44171549930134968 -0.26335377754900008 0 0.43505770238402619 -0.26461992241763038 0 0.43648606404966428 -0.25753784968455939 0 0.44171549930134968 -0.26335377754900008 0 0.4419947323052219 -0.25760620957214742 0 0.44833932421064931 -0.25939718794918609 0 0.44171549930134968 -0.26335377754900008 0 0.4419947323052219 -0.25760620957214742 0 0.43648606404966428 -0.25753784968455939 0 0.43871762778532231 -0.25212208882244802 0 0.4419947323052219 -0.25760620957214742 0 0.43648606404966428 -0.25753784968455939 0 0.43917511256413022 -0.2466480151322302 0 0.43871762778532231 -0.25212208882244802 0 0.44412948591815982 -0.25166394159908168 0 0.43871762778532231 -0.25212208882244802 0 0.44412948591815982 -0.25166394159908168 0 0.4419947323052219 -0.25760620957214742 0 0.44412948591815982 -0.25166394159908168 0 0.4419947323052219 -0.25760620957214742 0 0.44833932421064931 -0.25939718794918609 0 0.44552755473851618 -0.24512414212957201 0 0.45465358778727077 -0.25333862908624999 0 0.44816248816364901 -0.25238097519102243 0 0.44412948591815982 -0.25166394159908168 0 0.44816248816364901 -0.25238097519102243 0 0.44833932421064931 -0.25939718794918609 0 0.45465358778727077 -0.25333862908624999 0 0.44816248816364901 -0.25238097519102243 0 0.44833932421064931 -0.25939718794918609 0 0.44699314029513348 -0.27052543302498011 0 0.44171549930134968 -0.26335377754900008 0 0.44833932421064931 -0.25939718794918609 0 0.44647667656812801 -0.29965112561783208 0 0.45137615954030103 -0.31548320476916308 0 0.43444005925229529 -0.31032905382020182 0 0.44647667656812801 -0.29965112561783208 0 0.43234265414258233 -0.29853995875229639 0 0.43444005925229529 -0.31032905382020182 0 0.44647667656812801 -0.29965112561783208 0 0.43824437449043008 -0.28966145028223478 0 0.43234265414258233 -0.29853995875229639 0 0.43919222284155002 -0.27830080619971909 0 0.43824437449043008 -0.28966145028223478 0 0.45341190072698129 -0.28456089864454431 0 0.44647667656812801 -0.29965112561783208 0 0.43824437449043008 -0.28966145028223478 0 0.45341190072698129 -0.28456089864454431 0 0.45341190072698129 -0.28456089864454431 0 0.47034393466362562 -0.30113581313555698 0 0.47311276962135179 -0.28508457281551508 0 0.44647667656812801 -0.29965112561783208 0 0.45341190072698129 -0.28456089864454431 0 0.47034393466362562 -0.30113581313555698 0 0.44647667656812801 -0.29965112561783208 0 0.47034393466362562 -0.30113581313555698 0 0.45137615954030103 -0.31548320476916308 0 0.47034393466362562 -0.30113581313555698 0 0.45137615954030103 -0.31548320476916308 0 0.47034393466362562 -0.30113581313555698 0 0.48609801829406513 -0.30033747069297151 0 0.48569838996659448 -0.31355153071673758 0 0.47034393466362562 -0.30113581313555698 0 0.48931170978694949 -0.28678842150195 0 0.47034393466362562 -0.30113581313555698 0 0.48931170978694949 -0.28678842150195 0 0.48609801829406513 -0.30033747069297151 0 0.47034393466362562 -0.30113581313555698 0 0.47311276962135179 -0.28508457281551508 0 0.48931170978694949 -0.28678842150195 0 0.50000000000000022 -0.27870370494541058 0 0.48931170978694949 -0.28678842150195 0 0.50000000000000078 -0.29953781349142472 0 0.48931170978694949 -0.28678842150195 0 0.48609801829406513 -0.30033747069297151 0 0.50000000000000078 -0.29953781349142472 0 0.48931170978694949 -0.28678842150195 0 0.50000000000000078 -0.29953781349142472 0 0.50000000000000022 -0.27870370494541058 0 0.48931170978694949 -0.28678842150195 0 0.48609801829406513 -0.30033747069297151 0 0.50000000000000078 -0.29953781349142472 0 0.48569838996659448 -0.31355153071673758 0 0.50000000000000078 -0.29953781349142472 0 0.48569838996659448 -0.31355153071673758 0 0.5 -0.32898483254094879 0 0.48569838996659448 -0.31355153071673758 0 0.5 -0.32898483254094879 0 0.4688689480981888 -0.32767699473222389 0 0.5 -0.32898483254094879 0 0.4688689480981888 -0.32767699473222389 0 0.47786930722932619 -0.34789692042963721 0 0.47034393466362562 -0.30113581313555698 0 0.48569838996659448 -0.31355153071673758 0 0.4688689480981888 -0.32767699473222389 0 0.5 -0.35843185159047292 0 0.47350757658922271 -0.36952329647287657 0 0.48620898030354948 -0.37918006028240092 0 0.5 -0.32898483254094879 0 0.5 -0.35843185159047292 0 0.47786930722932619 -0.34789692042963721 0 0.47786930722932619 -0.34789692042963721 0 0.47350757658922271 -0.36952329647287657 0 0.4655023448943818 -0.35719392053603988 0 0.5 -0.35843185159047292 0 0.47786930722932619 -0.34789692042963721 0 0.47350757658922271 -0.36952329647287657 0 0.45861777817450511 -0.36868509019449441 0 0.46271268513135372 -0.37747780338012438 0 0.45189505467726382 -0.37680202485208381 0 0.45861777817450511 -0.36868509019449441 0 0.44976491938063418 -0.36654981963533051 0 0.45189505467726382 -0.37680202485208381 0 0.47350757658922271 -0.36952329647287657 0 0.45861777817450511 -0.36868509019449441 0 0.46271268513135372 -0.37747780338012438 0 0.47350757658922271 -0.36952329647287657 0 0.45861777817450511 -0.36868509019449441 0 0.4655023448943818 -0.35719392053603988 0 0.45861777817450511 -0.36868509019449441 0 0.45601593140111862 -0.35990106862703092 0 0.44976491938063418 -0.36654981963533051 0 0.45861777817450511 -0.36868509019449441 0 0.45601593140111862 -0.35990106862703092 0 0.4655023448943818 -0.35719392053603988 0 0.47786930722932619 -0.34789692042963721 0 0.4655023448943818 -0.35719392053603988 0 0.45483150576365328 -0.34688844598146529 0 0.45601593140111862 -0.35990106862703092 0 0.4655023448943818 -0.35719392053603988 0 0.45483150576365328 -0.34688844598146529 0 0.45483150576365328 -0.34688844598146529 0 0.44020278747438729 -0.34510251360014332 0 0.44674619010751909 -0.35809924702175239 0 0.44020278747438729 -0.34510251360014332 0 0.43833245073232718 -0.35667994920926999 0 0.44674619010751909 -0.35809924702175239 0 0.45601593140111862 -0.35990106862703092 0 0.45483150576365328 -0.34688844598146529 0 0.44674619010751909 -0.35809924702175239 0 0.44674619010751909 -0.35809924702175239 0 0.44976491938063418 -0.36654981963533051 0 0.4432564460600979 -0.36443112509465042 0 0.45601593140111862 -0.35990106862703092 0 0.44674619010751909 -0.35809924702175239 0 0.44976491938063418 -0.36654981963533051 0 0.43833245073232718 -0.35667994920926999 0 0.44674619010751909 -0.35809924702175239 0 0.4432564460600979 -0.36443112509465042 0 0.43833245073232718 -0.35667994920926999 0 0.4432564460600979 -0.36443112509465042 0 0.43792231759094602 -0.36891862507496959 0 0.44976491938063418 -0.36654981963533051 0 0.4432564460600979 -0.36443112509465042 0 0.44173316381622191 -0.37123334486501253 0 0.4432564460600979 -0.36443112509465042 0 0.43792231759094602 -0.36891862507496959 0 0.44173316381622191 -0.37123334486501253 0 0.44976491938063418 -0.36654981963533051 0 0.44173316381622191 -0.37123334486501253 0 0.45189505467726382 -0.37680202485208381 0 0.4688689480981888 -0.32767699473222389 0 0.44744827938524201 -0.33285238680196422 0 0.45137615954030103 -0.31548320476916308 0 0.47034393466362562 -0.30113581313555698 0 0.4688689480981888 -0.32767699473222389 0 0.45137615954030103 -0.31548320476916308 0 0.4688689480981888 -0.32767699473222389 0 0.45483150576365328 -0.34688844598146529 0 0.44744827938524201 -0.33285238680196422 0 0.4688689480981888 -0.32767699473222389 0 0.47786930722932619 -0.34789692042963721 0 0.45483150576365328 -0.34688844598146529 0 0.45483150576365328 -0.34688844598146529 0 0.44020278747438729 -0.34510251360014332 0 0.44744827938524201 -0.33285238680196422 0 0.44020278747438729 -0.34510251360014332 0 0.44744827938524201 -0.33285238680196422 0 0.43240838441697632 -0.3298305964027694 0 0.45137615954030103 -0.31548320476916308 0 0.43240838441697632 -0.3298305964027694 0 0.43444005925229529 -0.31032905382020182 0 0.44744827938524201 -0.33285238680196422 0 0.45137615954030103 -0.31548320476916308 0 0.43240838441697632 -0.3298305964027694 0 0.45137615954030103 -0.31548320476916308 0 0.43240838441697632 -0.3298305964027694 0 0.42213808355103849 -0.31598854483820238 0 0.43240838441697632 -0.3298305964027694 0 0.43444005925229529 -0.31032905382020182 0 0.42213808355103849 -0.31598854483820238 0 0.43240838441697632 -0.3298305964027694 0 0.42063894984562838 -0.32794228428963068 0 0.43240838441697632 -0.3298305964027694 0 0.42063894984562838 -0.32794228428963068 0 0.42353451242868528 -0.3468482352548341 0 0.44020278747438729 -0.34510251360014332 0 0.43240838441697632 -0.3298305964027694 0 0.42353451242868528 -0.3468482352548341 0 0.4091467072664246 -0.32477784543469868 0 0.42353451242868528 -0.3468482352548341 0 0.4091467072664246 -0.32477784543469868 0 0.42063894984562838 -0.32794228428963068 0 0.42353451242868528 -0.3468482352548341 0 0.41089111725139721 -0.34269856142925859 0 0.4091467072664246 -0.32477784543469868 0 0.42353451242868528 -0.3468482352548341 0 0.41089111725139721 -0.34269856142925859 0 0.4091467072664246 -0.32477784543469868 0 0.40425152475925441 -0.33267251048098129 0 0.4091467072664246 -0.32477784543469868 0 0.41500843607520332 -0.31765864762852652 0 0.40782856937156858 -0.30992265774813338 0 0.42213808355103849 -0.31598854483820238 0 0.41500843607520332 -0.31765864762852652 0 0.41528987034135628 -0.30966190583196729 0 0.4091467072664246 -0.32477784543469868 0 0.41500843607520332 -0.31765864762852652 0 0.42063894984562838 -0.32794228428963068 0 0.42213808355103849 -0.31598854483820238 0 0.41500843607520332 -0.31765864762852652 0 0.42063894984562838 -0.32794228428963068 0 0.43792231759094602 -0.36891862507496959 0 0.42718561209050382 -0.36319872422350041 0 0.42353451242868528 -0.3468482352548341 0 0.43792231759094602 -0.36891862507496959 0 0.44173316381622191 -0.37123334486501253 0 0.43018656974337233 -0.3834847830435818 0 0.43792231759094602 -0.36891862507496959 0 0.42661372489006832 -0.37330916830292271 0 0.42718561209050382 -0.36319872422350041 0 0.42661372489006832 -0.37330916830292271 0 0.42718561209050382 -0.36319872422350041 0 0.42067189345231581 -0.36371886826127509 0 0.43792231759094602 -0.36891862507496959 0 0.42353451242868528 -0.3468482352548341 0 0.42718561209050382 -0.36319872422350041 0 0.42353451242868528 -0.3468482352548341 0 0.42067189345231581 -0.36371886826127509 0 0.43833245073232718 -0.35667994920926999 0 0.43792231759094602 -0.36891862507496959 0 0.42353451242868528 -0.3468482352548341 0 0.44020278747438729 -0.34510251360014332 0 0.43833245073232718 -0.35667994920926999 0 0.42353451242868528 -0.3468482352548341 0 0.42353451242868528 -0.3468482352548341 0 0.41118608239640281 -0.35773278074769221 0 0.42067189345231581 -0.36371886826127509 0 0.41089111725139721 -0.34269856142925859 0 0.42353451242868528 -0.3468482352548341 0 0.41118608239640281 -0.35773278074769221 0 0.41089111725139721 -0.34269856142925859 0 0.41118608239640281 -0.35773278074769221 0 0.40345194384414051 -0.35159281539693271 0 0.42661372489006832 -0.37330916830292271 0 0.42067189345231581 -0.36371886826127509 0 0.40978735765452701 -0.3715350174533486 0 0.41118608239640281 -0.35773278074769221 0 0.42067189345231581 -0.36371886826127509 0 0.40978735765452701 -0.3715350174533486 0 0.39634156242657448 -0.36307978873527152 0 0.40109715774397792 -0.38275058451944882 0 0.38240798480570892 -0.37852010314408679 0 0.40978735765452701 -0.3715350174533486 0 0.39634156242657448 -0.36307978873527152 0 0.40109715774397792 -0.38275058451944882 0 0.41118608239640281 -0.35773278074769221 0 0.40978735765452701 -0.3715350174533486 0 0.39634156242657448 -0.36307978873527152 0 0.39634156242657448 -0.36307978873527152 0 0.40345194384414051 -0.35159281539693271 0 0.39209624447111568 -0.34275609473116092 0 0.41118608239640281 -0.35773278074769221 0 0.39634156242657448 -0.36307978873527152 0 0.40345194384414051 -0.35159281539693271 0 0.40345194384414051 -0.35159281539693271 0 0.40267270758147689 -0.34242999550958342 0 0.39209624447111568 -0.34275609473116092 0 0.41089111725139721 -0.34269856142925859 0 0.40345194384414051 -0.35159281539693271 0 0.40267270758147689 -0.34242999550958342 0 0.39634156242657448 -0.36307978873527152 0 0.37618485313497191 -0.35303141813195599 0 0.39209624447111568 -0.34275609473116092 0 0.39634156242657448 -0.36307978873527152 0 0.37618485313497191 -0.35303141813195599 0 0.38240798480570892 -0.37852010314408679 0 0.37618485313497191 -0.35303141813195599 0 0.38240798480570892 -0.37852010314408679 0 0.40425152475925441 -0.33267251048098129 0 0.39300241843570249 -0.3110378002903586 0 0.4091467072664246 -0.32477784543469868 0 0.39300241843570249 -0.3110378002903586 0 0.39475890210416392 -0.30270745561456308 0 0.4091467072664246 -0.32477784543469868 0 0.39475890210416392 -0.30270745561456308 0 0.4091467072664246 -0.32477784543469868 0 0.40425152475925441 -0.33267251048098129 0 0.39300241843570249 -0.3110378002903586 0 0.40425152475925441 -0.33267251048098129 0 0.38822804294015112 -0.3261114208869455 0 0.39300241843570249 -0.3110378002903586 0 0.40425152475925441 -0.33267251048098129 0 0.39209624447111568 -0.34275609473116092 0 0.38822804294015112 -0.3261114208869455 0 0.40425152475925441 -0.33267251048098129 0 0.40267270758147689 -0.34242999550958342 0 0.39209624447111568 -0.34275609473116092 0 0.41089111725139721 -0.34269856142925859 0 0.40425152475925441 -0.33267251048098129 0 0.40267270758147689 -0.34242999550958342 0 0.37618485313497191 -0.35303141813195599 0 0.39209624447111568 -0.34275609473116092 0 0.36996172146423478 -0.32754273311982529 0 0.39209624447111568 -0.34275609473116092 0 0.38822804294015112 -0.3261114208869455 0 0.36996172146423478 -0.32754273311982529 0 0.38822804294015112 -0.3261114208869455 0 0.38164260336710232 -0.31615744579396521 0 0.36996172146423478 -0.32754273311982529 0 0.38822804294015112 -0.3261114208869455 0 0.38164260336710232 -0.31615744579396521 0 0.39300241843570249 -0.3110378002903586 0 0.38177106400017391 -0.30862132669022929 0 0.38029466251644028 -0.29986647237510811 0 0.37214457168145071 -0.30742358830148531 0 0.39300241843570249 -0.3110378002903586 0 0.38175331211215058 -0.28940309009973592 0 0.38164260336710232 -0.31615744579396521 0 0.38177106400017391 -0.30862132669022929 0 0.37214457168145071 -0.30742358830148531 0 0.39300241843570249 -0.3110378002903586 0 0.39475890210416392 -0.30270745561456308 0 0.38175331211215058 -0.28940309009973592 0 0.38029466251644028 -0.29986647237510811 0 0.39300241843570249 -0.3110378002903586 0 0.38175331211215058 -0.28940309009973592 0 0.38164260336710232 -0.31615744579396521 0 0.38177106400017391 -0.30862132669022929 0 0.39300241843570249 -0.3110378002903586 0 0.38177106400017391 -0.30862132669022929 0 0.38029466251644028 -0.29986647237510811 0 0.39300241843570249 -0.3110378002903586 0 0.4091467072664246 -0.32477784543469868 0 0.39475890210416392 -0.30270745561456308 0 0.40782856937156858 -0.30992265774813338 0 0.39475890210416392 -0.30270745561456308 0 0.40429755200803852 -0.3015310211561289 0 0.40149673409666831 -0.29605944040816118 0 0.40429755200803852 -0.3015310211561289 0 0.40149673409666831 -0.29605944040816118 0 0.40808526015628949 -0.29523915444325732 0 0.39475890210416392 -0.30270745561456308 0 0.40429755200803852 -0.3015310211561289 0 0.40782856937156858 -0.30992265774813338 0 0.39475890210416392 -0.30270745561456308 0 0.39730188346755718 -0.29161135963752222 0 0.39142402894447709 -0.286435042888317 0 0.40304007274729231 -0.28920821118933449 0 0.39763996789025002 -0.28367275964584732 0 0.40506285170047662 -0.28083922749534462 0 0.40304007274729231 -0.28920821118933449 0 0.39730188346755718 -0.29161135963752222 0 0.39763996789025002 -0.28367275964584732 0 0.40304007274729231 -0.28920821118933449 0 0.40149673409666831 -0.29605944040816118 0 0.40808526015628949 -0.29523915444325732 0 0.40304007274729231 -0.28920821118933449 0 0.40149673409666831 -0.29605944040816118 0 0.39730188346755718 -0.29161135963752222 0 0.39475890210416392 -0.30270745561456308 0 0.40149673409666831 -0.29605944040816118 0 0.39730188346755718 -0.29161135963752222 0 0.39763996789025002 -0.28367275964584732 0 0.39142402894447709 -0.286435042888317 0 0.39195529533629442 -0.27806131115557092 0 0.39730188346755718 -0.29161135963752222 0 0.39763996789025002 -0.28367275964584732 0 0.39142402894447709 -0.286435042888317 0 0.39475890210416392 -0.30270745561456308 0 0.38037109694190308 -0.28063706579442749 0 0.39475890210416392 -0.30270745561456308 0 0.38175331211215058 -0.28940309009973592 0 0.38037109694190308 -0.28063706579442749 0 0.39142402894447709 -0.286435042888317 0 0.38037109694190308 -0.28063706579442749 0 0.38713910380081668 -0.27916368249890622 0 0.39475890210416392 -0.30270745561456308 0 0.39142402894447709 -0.286435042888317 0 0.38037109694190308 -0.28063706579442749 0 0.38029466251644028 -0.29986647237510811 0 0.38175331211215058 -0.28940309009973592 0 0.37093408616543422 -0.29499190654120538 0 0.38175331211215058 -0.28940309009973592 0 0.37050420578859872 -0.26776837990911312 0 0.38175331211215058 -0.28940309009973592 0 0.38037109694190308 -0.28063706579442749 0 0.37050420578859872 -0.26776837990911312 0 0.38037109694190308 -0.28063706579442749 0 0.38480599398059251 -0.27152131015730951 0 0.37050420578859872 -0.26776837990911312 0 0.38480599398059251 -0.27152131015730951 0 0.39244458987216091 -0.26161417174629581 0 0.39261010037049587 -0.27136451795379868 0 0.38037109694190308 -0.28063706579442749 0 0.38480599398059251 -0.27152131015730951 0 0.38713910380081668 -0.27916368249890622 0 0.38480599398059251 -0.27152131015730951 0 0.38713910380081668 -0.27916368249890622 0 0.39195529533629442 -0.27806131115557092 0 0.39142402894447709 -0.286435042888317 0 0.38713910380081668 -0.27916368249890622 0 0.39195529533629442 -0.27806131115557092 0 0.38480599398059251 -0.27152131015730951 0 0.39195529533629442 -0.27806131115557092 0 0.39261010037049587 -0.27136451795379868 0 0.38480599398059251 -0.27152131015730951 0 0.37962897743813367 -0.25651992395937562 0 0.37050420578859872 -0.26776837990911312 0 0.38480599398059251 -0.27152131015730951 0 0.37962897743813367 -0.25651992395937562 0 0.39244458987216091 -0.26161417174629581 0 0.39078422201957003 -0.24969070593678949 0 0.37962897743813367 -0.25651992395937562 0 0.39244458987216091 -0.26161417174629581 0 0.39078422201957003 -0.24969070593678949 0 0.39244458987216091 -0.26161417174629581 0 0.40410575785193181 -0.25828851936103481 0 0.39244458987216091 -0.26161417174629581 0 0.40410575785193181 -0.25828851936103481 0 0.39822211595326279 -0.26692182407365989 0 0.40410575785193181 -0.25828851936103481 0 0.39822211595326279 -0.26692182407365989 0 0.40492140044583741 -0.26790783212078467 0 0.40410575785193181 -0.25828851936103481 0 0.40492140044583741 -0.26790783212078467 0 0.40945290732670331 -0.26396052327947239 0 0.39078422201957003 -0.24969070593678949 0 0.40271577749504128 -0.24808950568319249 0 0.40410575785193181 -0.25828851936103481 0 0.40271577749504128 -0.24808950568319249 0 0.40410575785193181 -0.25828851936103481 0 0.41170531542548788 -0.25126417515390992 0 0.39763996789025002 -0.28367275964584732 0 0.39195529533629442 -0.27806131115557092 0 0.39894115351181969 -0.27424944313259708 0 0.39195529533629442 -0.27806131115557092 0 0.39261010037049587 -0.27136451795379868 0 0.39894115351181969 -0.27424944313259708 0 0.39244458987216091 -0.26161417174629581 0 0.39261010037049587 -0.27136451795379868 0 0.39822211595326279 -0.26692182407365989 0 0.39261010037049587 -0.27136451795379868 0 0.39822211595326279 -0.26692182407365989 0 0.39894115351181969 -0.27424944313259708 0 0.39822211595326279 -0.26692182407365989 0 0.40492140044583741 -0.26790783212078467 0 0.39894115351181969 -0.27424944313259708 0 0.40492140044583741 -0.26790783212078467 0 0.39894115351181969 -0.27424944313259708 0 0.40712920685057652 -0.27420612675110112 0 0.39763996789025002 -0.28367275964584732 0 0.39894115351181969 -0.27424944313259708 0 0.40506285170047662 -0.28083922749534462 0 0.39894115351181969 -0.27424944313259708 0 0.40506285170047662 -0.28083922749534462 0 0.40712920685057652 -0.27420612675110112 0 0.40506285170047662 -0.28083922749534462 0 0.41284697370079432 -0.2782971556212297 0 0.40712920685057652 -0.27420612675110112 0 0.41284697370079432 -0.2782971556212297 0 0.40712920685057652 -0.27420612675110112 0 0.41387365489395472 -0.26973697538554919 0 0.40492140044583741 -0.26790783212078467 0 0.41387365489395472 -0.26973697538554919 0 0.40945290732670331 -0.26396052327947239 0 0.40492140044583741 -0.26790783212078467 0 0.40712920685057652 -0.27420612675110112 0 0.41387365489395472 -0.26973697538554919 0 0.41387365489395472 -0.26973697538554919 0 0.42135307316749521 -0.27487684751024949 0 0.42100146315739412 -0.26552033609670711 0 0.41284697370079432 -0.2782971556212297 0 0.41387365489395472 -0.26973697538554919 0 0.42135307316749521 -0.27487684751024949 0 0.41284697370079432 -0.2782971556212297 0 0.42135307316749521 -0.27487684751024949 0 0.41975251852593748 -0.28445801958006911 0 0.40410575785193181 -0.25828851936103481 0 0.41170531542548788 -0.25126417515390992 0 0.41491081611508918 -0.25990876625052101 0 0.40410575785193181 -0.25828851936103481 0 0.40945290732670331 -0.26396052327947239 0 0.41491081611508918 -0.25990876625052101 0 0.41387365489395472 -0.26973697538554919 0 0.40945290732670331 -0.26396052327947239 0 0.41491081611508918 -0.25990876625052101 0 0.41387365489395472 -0.26973697538554919 0 0.42100146315739412 -0.26552033609670711 0 0.41491081611508918 -0.25990876625052101 0 0.42100146315739412 -0.26552033609670711 0 0.42163465399116667 -0.25872199059074641 0 0.41491081611508918 -0.25990876625052101 0 0.41170531542548788 -0.25126417515390992 0 0.41491081611508918 -0.25990876625052101 0 0.41853295725520467 -0.25391274615775578 0 0.42163465399116667 -0.25872199059074641 0 0.41491081611508918 -0.25990876625052101 0 0.41853295725520467 -0.25391274615775578 0 0.42163465399116667 -0.25872199059074641 0 0.41853295725520467 -0.25391274615775578 0 0.42541254610488072 -0.25270056741268049 0 0.4190014546393992 -0.24696823138092139 0 0.41853295725520467 -0.25391274615775578 0 0.42541254610488072 -0.25270056741268049 0 0.4190014546393992 -0.24696823138092139 0 0.41170531542548788 -0.25126417515390992 0 0.41853295725520467 -0.25391274615775578 0 0.42163465399116667 -0.25872199059074641 0 0.42541254610488072 -0.25270056741268049 0 0.42845093672784768 -0.26136295507116752 0 0.42541254610488072 -0.25270056741268049 0 0.42845093672784768 -0.26136295507116752 0 0.43126889086453951 -0.25455984543500237 0 0.42100146315739412 -0.26552033609670711 0 0.42163465399116667 -0.25872199059074641 0 0.42845093672784768 -0.26136295507116752 0 0.42845093672784768 -0.26136295507116752 0 0.43505770238402619 -0.26461992241763038 0 0.43648606404966428 -0.25753784968455939 0 0.42845093672784768 -0.26136295507116752 0 0.43505770238402619 -0.26461992241763038 0 0.43027170394141367 -0.27054512142908671 0 0.42845093672784768 -0.26136295507116752 0 0.43126889086453951 -0.25455984543500237 0 0.43648606404966428 -0.25753784968455939 0 0.43871762778532231 -0.25212208882244802 0 0.43126889086453951 -0.25455984543500237 0 0.43648606404966428 -0.25753784968455939 0 0.43292967301130941 -0.2488540036824014 0 0.43871762778532231 -0.25212208882244802 0 0.43126889086453951 -0.25455984543500237 0 0.43292967301130941 -0.2488540036824014 0 0.42541254610488072 -0.25270056741268049 0 0.43126889086453951 -0.25455984543500237 0 0.42135307316749521 -0.27487684751024949 0 0.42956799811030638 -0.28148515248710693 0 0.41975251852593748 -0.28445801958006911 0 0.42135307316749521 -0.27487684751024949 0 0.43027170394141367 -0.27054512142908671 0 0.42956799811030638 -0.28148515248710693 0 0.42135307316749521 -0.27487684751024949 0 0.42100146315739412 -0.26552033609670711 0 0.43027170394141367 -0.27054512142908671 0 0.42100146315739412 -0.26552033609670711 0 0.42845093672784768 -0.26136295507116752 0 0.43027170394141367 -0.27054512142908671 0 0.43919222284155002 -0.27830080619971909 0 0.4385944452063526 -0.26988256164274432 0 0.43027170394141367 -0.27054512142908671 0 0.4385944452063526 -0.26988256164274432 0 0.43505770238402619 -0.26461992241763038 0 0.43027170394141367 -0.27054512142908671 0 0.43919222284155002 -0.27830080619971909 0 0.43027170394141367 -0.27054512142908671 0 0.42956799811030638 -0.28148515248710693 0 0.43824437449043008 -0.28966145028223478 0 0.42956799811030638 -0.28148515248710693 0 0.42651213435721103 -0.29151489344350012 0 0.43919222284155002 -0.27830080619971909 0 0.43824437449043008 -0.28966145028223478 0 0.42956799811030638 -0.28148515248710693 0 0.42956799811030638 -0.28148515248710693 0 0.42651213435721103 -0.29151489344350012 0 0.41975251852593748 -0.28445801958006911 0 0.42651213435721103 -0.29151489344350012 0 0.42265725367426682 -0.30260234616053761 0 0.41710028749217543 -0.29373719746223742 0 0.43824437449043008 -0.28966145028223478 0 0.42651213435721103 -0.29151489344350012 0 0.43234265414258233 -0.29853995875229639 0 0.43234265414258233 -0.29853995875229639 0 0.43444005925229529 -0.31032905382020182 0 0.42265725367426682 -0.30260234616053761 0 0.42213808355103849 -0.31598854483820238 0 0.43444005925229529 -0.31032905382020182 0 0.42265725367426682 -0.30260234616053761 0 0.42651213435721103 -0.29151489344350012 0 0.43234265414258233 -0.29853995875229639 0 0.42265725367426682 -0.30260234616053761 0 0.42265725367426682 -0.30260234616053761 0 0.41237795257390419 -0.3022181237121867 0 0.41710028749217543 -0.29373719746223742 0 0.42213808355103849 -0.31598854483820238 0 0.42265725367426682 -0.30260234616053761 0 0.41528987034135628 -0.30966190583196729 0 0.42265725367426682 -0.30260234616053761 0 0.41528987034135628 -0.30966190583196729 0 0.41237795257390419 -0.3022181237121867 0 0.41500843607520332 -0.31765864762852652 0 0.41528987034135628 -0.30966190583196729 0 0.40782856937156858 -0.30992265774813338 0 0.41528987034135628 -0.30966190583196729 0 0.40782856937156858 -0.30992265774813338 0 0.41237795257390419 -0.3022181237121867 0 0.40429755200803852 -0.3015310211561289 0 0.41237795257390419 -0.3022181237121867 0 0.40808526015628949 -0.29523915444325732 0 0.41237795257390419 -0.3022181237121867 0 0.40808526015628949 -0.29523915444325732 0 0.41710028749217543 -0.29373719746223742 0 0.40429755200803852 -0.3015310211561289 0 0.40782856937156858 -0.30992265774813338 0 0.41237795257390419 -0.3022181237121867 0 0.40808526015628949 -0.29523915444325732 0 0.41113464432764291 -0.28683687095609128 0 0.41710028749217543 -0.29373719746223742 0 0.40304007274729231 -0.28920821118933449 0 0.40808526015628949 -0.29523915444325732 0 0.41113464432764291 -0.28683687095609128 0 0.40304007274729231 -0.28920821118933449 0 0.40506285170047662 -0.28083922749534462 0 0.41113464432764291 -0.28683687095609128 0 0.40506285170047662 -0.28083922749534462 0 0.41284697370079432 -0.2782971556212297 0 0.41113464432764291 -0.28683687095609128 0 0.41284697370079432 -0.2782971556212297 0 0.41113464432764291 -0.28683687095609128 0 0.41975251852593748 -0.28445801958006911 0 0.41113464432764291 -0.28683687095609128 0 0.41975251852593748 -0.28445801958006911 0 0.41710028749217543 -0.29373719746223742 0 0.42651213435721103 -0.29151489344350012 0 0.41975251852593748 -0.28445801958006911 0 0.41710028749217543 -0.29373719746223742 0 0.44904225237101492 -0.50000000000000033 0 0.45004401508161579 -0.4787570704506926 0 0.43421240961939139 -0.49999999999999972 0 0.44904225237101492 -0.50000000000000033 0 0.45004401508161579 -0.4787570704506926 0 0.45004401508161579 -0.4787570704506926 0 0.43065669488015018 -0.48070599894378141 0 0.43421240961939139 -0.49999999999999972 0 0.45004401508161579 -0.4787570704506926 0 0.43566071353235342 -0.46355264343579089 0 0.43065669488015018 -0.48070599894378141 0 0.45004401508161579 -0.4787570704506926 0 0.47115653038696198 -0.47458122981084161 0 0.46628057992027361 -0.46016057875321997 0 0.44904225237101492 -0.50000000000000033 0 0.45004401508161579 -0.4787570704506926 0 0.47115653038696198 -0.47458122981084161 0 0.5 -0.5 0 0.47115653038696198 -0.47458122981084161 0 0.5 -0.45186915055015731 0 0.44904225237101492 -0.50000000000000033 0 0.5 -0.5 0 0.47115653038696198 -0.47458122981084161 0 0.47115653038696198 -0.47458122981084161 0 0.48077102025797452 -0.45549611643706822 0 0.46628057992027361 -0.46016057875321997 0 0.47115653038696198 -0.47458122981084161 0 0.48077102025797452 -0.45549611643706822 0 0.47115653038696198 -0.47458122981084161 0 0.48077102025797452 -0.45549611643706822 0 0.5 -0.45186915055015731 0 0.48077102025797452 -0.45549611643706822 0 0.47047881694724669 -0.44903457528364688 0 0.46628057992027361 -0.46016057875321997 0 0.48077102025797452 -0.45549611643706822 0 0.49038551012898701 -0.43641100306329461 0 0.48077102025797452 -0.45549611643706822 0 0.5 -0.45186915055015731 0 0.49038551012898701 -0.43641100306329461 0 0.48077102025797452 -0.45549611643706822 0 0.47754833864438551 -0.44218946840133899 0 0.49038551012898701 -0.43641100306329461 0 0.48077102025797452 -0.45549611643706822 0 0.47754833864438551 -0.44218946840133899 0 0.47047881694724669 -0.44903457528364688 0 0.47754833864438551 -0.44218946840133899 0 0.47047881694724669 -0.44903457528364688 0 0.46852552080992549 -0.44048839695443598 0 0.45926862510367472 -0.44683831587217138 0 0.45104577779221661 -0.45751414090138481 0 0.45204754050281742 -0.43627121135207708 0 0.46852552080992549 -0.44048839695443598 0 0.45926862510367472 -0.44683831587217138 0 0.46246741514551631 -0.43660855176593799 0 0.45926862510367472 -0.44683831587217138 0 0.45204754050281742 -0.43627121135207708 0 0.46246741514551631 -0.43660855176593799 0 0.47047881694724669 -0.44903457528364688 0 0.46852552080992549 -0.44048839695443598 0 0.45926862510367472 -0.44683831587217138 0 0.47047881694724669 -0.44903457528364688 0 0.45926862510367472 -0.44683831587217138 0 0.46628057992027361 -0.46016057875321997 0 0.45004401508161579 -0.4787570704506926 0 0.46628057992027361 -0.46016057875321997 0 0.45104577779221661 -0.45751414090138481 0 0.45926862510367472 -0.44683831587217138 0 0.46628057992027361 -0.46016057875321997 0 0.45104577779221661 -0.45751414090138481 0 0.45004401508161579 -0.4787570704506926 0 0.45104577779221661 -0.45751414090138481 0 0.43566071353235342 -0.46355264343579089 0 0.45004401508161579 -0.4787570704506926 0 0.45104577779221661 -0.45751414090138481 0 0.45104577779221661 -0.45751414090138481 0 0.43823690162582152 -0.442656551615 0 0.43566071353235342 -0.46355264343579089 0 0.45104577779221661 -0.45751414090138481 0 0.45204754050281742 -0.43627121135207708 0 0.45104577779221661 -0.45751414090138481 0 0.43823690162582152 -0.442656551615 0 0.45204754050281742 -0.43627121135207708 0 0.45430136434918972 -0.42968477721519488 0 0.43040870373640522 -0.42960949699457918 0 0.4445886017928069 -0.41946726592624312 0 0.45430136434918972 -0.42968477721519488 0 0.43040870373640522 -0.42960949699457918 0 0.43823690162582152 -0.442656551615 0 0.45204754050281742 -0.43627121135207708 0 0.43040870373640522 -0.42960949699457918 0 0.45204754050281742 -0.43627121135207708 0 0.45430136434918972 -0.42968477721519488 0 0.43040870373640522 -0.42960949699457918 0 0.4445886017928069 -0.41946726592624312 0 0.45626400488001012 -0.41852232274223139 0 0.45430136434918972 -0.42968477721519488 0 0.4445886017928069 -0.41946726592624312 0 0.45030067759957459 -0.40920304056939583 0 0.43607093377631329 -0.40042142092979582 0 0.4445886017928069 -0.41946726592624312 0 0.45030067759957459 -0.40920304056939583 0 0.45626400488001012 -0.41852232274223139 0 0.45030067759957459 -0.40920304056939583 0 0.45626400488001012 -0.41852232274223139 0 0.46461227738567717 -0.40399461877989912 0 0.45626400488001012 -0.41852232274223139 0 0.46727733630446061 -0.4192115361233813 0 0.46461227738567717 -0.40399461877989912 0 0.45430136434918972 -0.42968477721519488 0 0.47819402496197411 -0.42976005743581058 0 0.46727733630446061 -0.4192115361233813 0 0.45430136434918972 -0.42968477721519488 0 0.47819402496197411 -0.42976005743581058 0 0.45430136434918972 -0.42968477721519488 0 0.46246741514551631 -0.43660855176593799 0 0.47819402496197411 -0.42976005743581058 0 0.45626400488001012 -0.41852232274223139 0 0.46727733630446061 -0.4192115361233813 0 0.45430136434918972 -0.42968477721519488 0 0.45204754050281742 -0.43627121135207708 0 0.45430136434918972 -0.42968477721519488 0 0.46246741514551631 -0.43660855176593799 0 0.5 -0.45186915055015731 0 0.49038551012898701 -0.43641100306329461 0 0.49999999999999978 -0.41732588968952122 0 0.47754833864438551 -0.44218946840133899 0 0.46852552080992549 -0.44048839695443598 0 0.47819402496197411 -0.42976005743581058 0 0.46852552080992549 -0.44048839695443598 0 0.46246741514551631 -0.43660855176593799 0 0.47819402496197411 -0.42976005743581058 0 0.47754833864438551 -0.44218946840133899 0 0.47819402496197411 -0.42976005743581058 0 0.49038551012898701 -0.43641100306329461 0 0.47819402496197411 -0.42976005743581058 0 0.49038551012898701 -0.43641100306329461 0 0.49999999999999978 -0.41732588968952122 0 0.49038551012898701 -0.43641100306329461 0 0.49999999999999978 -0.41732588968952122 0 0.49999999999999978 -0.41732588968952122 0 0.47803026485536992 -0.41388491951904732 0 0.48349128744616809 -0.3981477611786608 0 0.47819402496197411 -0.42976005743581058 0 0.49999999999999978 -0.41732588968952122 0 0.47803026485536992 -0.41388491951904732 0 0.46727733630446061 -0.4192115361233813 0 0.47819402496197411 -0.42976005743581058 0 0.47803026485536992 -0.41388491951904732 0 0.46727733630446061 -0.4192115361233813 0 0.47803026485536992 -0.41388491951904732 0 0.46461227738567717 -0.40399461877989912 0 0.47803026485536992 -0.41388491951904732 0 0.48349128744616809 -0.3981477611786608 0 0.46461227738567717 -0.40399461877989912 0 0.48349128744616809 -0.3981477611786608 0 0.47209620213241288 -0.38662220816109938 0 0.46461227738567717 -0.40399461877989912 0 0.49999999999999978 -0.41732588968952122 0 0.48349128744616809 -0.3981477611786608 0 0.5 -0.38787887063999699 0 0.48349128744616809 -0.3981477611786608 0 0.48620898030354948 -0.37918006028240092 0 0.5 -0.38787887063999699 0 0.5 -0.35843185159047292 0 0.48620898030354948 -0.37918006028240092 0 0.5 -0.38787887063999699 0 0.47350757658922271 -0.36952329647287657 0 0.47209620213241288 -0.38662220816109938 0 0.46271268513135372 -0.37747780338012438 0 0.48349128744616809 -0.3981477611786608 0 0.48620898030354948 -0.37918006028240092 0 0.47209620213241288 -0.38662220816109938 0 0.47350757658922271 -0.36952329647287657 0 0.48620898030354948 -0.37918006028240092 0 0.47209620213241288 -0.38662220816109938 0 0.46271268513135372 -0.37747780338012438 0 0.45744681408336407 -0.38575639722006821 0 0.45189505467726382 -0.37680202485208381 0 0.47209620213241288 -0.38662220816109938 0 0.46271268513135372 -0.37747780338012438 0 0.45744681408336407 -0.38575639722006821 0 0.47209620213241288 -0.38662220816109938 0 0.45744681408336407 -0.38575639722006821 0 0.46461227738567717 -0.40399461877989912 0 0.45744681408336407 -0.38575639722006821 0 0.46461227738567717 -0.40399461877989912 0 0.45184219469928433 -0.39789486874989249 0 0.45030067759957459 -0.40920304056939583 0 0.46461227738567717 -0.40399461877989912 0 0.45184219469928433 -0.39789486874989249 0 0.45030067759957459 -0.40920304056939583 0 0.45184219469928433 -0.39789486874989249 0 0.43607093377631329 -0.40042142092979582 0 0.45184219469928433 -0.39789486874989249 0 0.44708058619903079 -0.38729405048447457 0 0.43607093377631329 -0.40042142092979582 0 0.44173316381622191 -0.37123334486501253 0 0.45189505467726382 -0.37680202485208381 0 0.44708058619903079 -0.38729405048447457 0 0.44173316381622191 -0.37123334486501253 0 0.44708058619903079 -0.38729405048447457 0 0.43607093377631329 -0.40042142092979582 0 0.44173316381622191 -0.37123334486501253 0 0.43607093377631329 -0.40042142092979582 0 0.45744681408336407 -0.38575639722006821 0 0.45189505467726382 -0.37680202485208381 0 0.44708058619903079 -0.38729405048447457 0 0.45744681408336407 -0.38575639722006821 0 0.45184219469928433 -0.39789486874989249 0 0.44708058619903079 -0.38729405048447457 0 0.44173316381622191 -0.37123334486501253 0 0.43018656974337233 -0.3834847830435818 0 0.43607093377631329 -0.40042142092979582 0 0.42661372489006832 -0.37330916830292271 0 0.43018656974337233 -0.3834847830435818 0 0.41571052833623512 -0.38186572013688852 0 0.43792231759094602 -0.36891862507496959 0 0.42661372489006832 -0.37330916830292271 0 0.43018656974337233 -0.3834847830435818 0 0.43607093377631329 -0.40042142092979582 0 0.41370439676437609 -0.3974940894908795 0 0.41981869584763148 -0.41440516100429259 0 0.43018656974337233 -0.3834847830435818 0 0.43607093377631329 -0.40042142092979582 0 0.41370439676437609 -0.3974940894908795 0 0.43018656974337233 -0.3834847830435818 0 0.41370439676437609 -0.3974940894908795 0 0.41571052833623512 -0.38186572013688852 0 0.41370439676437609 -0.3974940894908795 0 0.41571052833623512 -0.38186572013688852 0 0.40109715774397792 -0.38275058451944882 0 0.42661372489006832 -0.37330916830292271 0 0.40978735765452701 -0.3715350174533486 0 0.41571052833623512 -0.38186572013688852 0 0.40978735765452701 -0.3715350174533486 0 0.41571052833623512 -0.38186572013688852 0 0.40109715774397792 -0.38275058451944882 0 0.40109715774397792 -0.38275058451944882 0 0.38240798480570892 -0.37852010314408679 0 0.38863111647644599 -0.40400878815621749 0 0.38240798480570892 -0.37852010314408679 0 0.38863111647644599 -0.40400878815621749 0 0.38863111647644599 -0.40400878815621749 0 0.37176003243497441 -0.40998872043702711 0 0.36795612070160122 -0.3943037227883871 0 0.38240798480570892 -0.37852010314408679 0 0.38863111647644599 -0.40400878815621749 0 0.36795612070160122 -0.3943037227883871 0 0.41370439676437609 -0.3974940894908795 0 0.38863111647644599 -0.40400878815621749 0 0.4062779690192711 -0.41494731252474337 0 0.41370439676437609 -0.3974940894908795 0 0.40109715774397792 -0.38275058451944882 0 0.38863111647644599 -0.40400878815621749 0 0.38863111647644599 -0.40400878815621749 0 0.39485424814717818 -0.42949747316834941 0 0.4062779690192711 -0.41494731252474337 0 0.38863111647644599 -0.40400878815621749 0 0.39485424814717818 -0.42949747316834941 0 0.38863111647644599 -0.40400878815621749 0 0.38208767645140901 -0.41911042656524472 0 0.37176003243497441 -0.40998872043702711 0 0.38863111647644599 -0.40400878815621749 0 0.38208767645140901 -0.41911042656524472 0 0.39485424814717818 -0.42949747316834941 0 0.39485424814717818 -0.42949747316834941 0 0.36925590453949608 -0.42941681873704168 0 0.37665443888321409 -0.43729346785436302 0 0.3856757983069049 -0.43577025519560952 0 0.36925590453949608 -0.42941681873704168 0 0.3856757983069049 -0.43577025519560952 0 0.39485424814717818 -0.42949747316834941 0 0.36925590453949608 -0.42941681873704168 0 0.38208767645140901 -0.41911042656524472 0 0.39485424814717818 -0.42949747316834941 0 0.36925590453949608 -0.42941681873704168 0 0.39485424814717818 -0.42949747316834941 0 0.41263147594179173 -0.42955348508146501 0 0.3970599418841867 -0.43853154730823468 0 0.39485424814717818 -0.42949747316834941 0 0.41263147594179173 -0.42955348508146501 0 0.39485424814717818 -0.42949747316834941 0 0.3970599418841867 -0.43853154730823468 0 0.3856757983069049 -0.43577025519560952 0 0.39485424814717818 -0.42949747316834941 0 0.3970599418841867 -0.43853154730823468 0 0.39485424814717818 -0.42949747316834941 0 0.41263147594179173 -0.42955348508146501 0 0.4062779690192711 -0.41494731252474337 0 0.41263147594179173 -0.42955348508146501 0 0.43040870373640522 -0.42960949699457918 0 0.41263147594179173 -0.42955348508146501 0 0.43040870373640522 -0.42960949699457918 0 0.4105733347589578 -0.4439764995731092 0 0.41263147594179173 -0.42955348508146501 0 0.4105733347589578 -0.4439764995731092 0 0.3970599418841867 -0.43853154730823468 0 0.41263147594179173 -0.42955348508146501 0 0.41981869584763148 -0.41440516100429259 0 0.43040870373640522 -0.42960949699457918 0 0.41370439676437609 -0.3974940894908795 0 0.4062779690192711 -0.41494731252474337 0 0.41981869584763148 -0.41440516100429259 0 0.41263147594179173 -0.42955348508146501 0 0.4062779690192711 -0.41494731252474337 0 0.41981869584763148 -0.41440516100429259 0 0.43607093377631329 -0.40042142092979582 0 0.41981869584763148 -0.41440516100429259 0 0.43040870373640522 -0.42960949699457918 0 0.4445886017928069 -0.41946726592624312 0 0.43607093377631329 -0.40042142092979582 0 0.43040870373640522 -0.42960949699457918 0 0.43607093377631329 -0.40042142092979582 0 0.43040870373640522 -0.42960949699457918 0 0.43040870373640522 -0.42960949699457918 0 0.42609808641601882 -0.45183018130920338 0 0.43823690162582152 -0.442656551615 0 0.43040870373640522 -0.42960949699457918 0 0.42609808641601882 -0.45183018130920338 0 0.43040870373640522 -0.42960949699457918 0 0.42609808641601882 -0.45183018130920338 0 0.4105733347589578 -0.4439764995731092 0 0.43823690162582152 -0.442656551615 0 0.42609808641601882 -0.45183018130920338 0 0.43566071353235342 -0.46355264343579089 0 0.42609808641601882 -0.45183018130920338 0 0.43566071353235342 -0.46355264343579089 0 0.41788280539829797 -0.46985191739468413 0 0.42609808641601882 -0.45183018130920338 0 0.40695414576950523 -0.45771744581404522 0 0.41788280539829797 -0.46985191739468413 0 0.42609808641601882 -0.45183018130920338 0 0.40695414576950523 -0.45771744581404522 0 0.4105733347589578 -0.4439764995731092 0 0.4105733347589578 -0.4439764995731092 0 0.39721761528731692 -0.45119552741579683 0 0.3970599418841867 -0.43853154730823468 0 0.40695414576950523 -0.45771744581404522 0 0.4105733347589578 -0.4439764995731092 0 0.39721761528731692 -0.45119552741579683 0 0.39721761528731692 -0.45119552741579683 0 0.3970599418841867 -0.43853154730823468 0 0.3848034700195111 -0.44451211479328562 0 0.3856757983069049 -0.43577025519560952 0 0.3970599418841867 -0.43853154730823468 0 0.3848034700195111 -0.44451211479328562 0 0.37665443888321409 -0.43729346785436302 0 0.3856757983069049 -0.43577025519560952 0 0.3848034700195111 -0.44451211479328562 0 0.3848034700195111 -0.44451211479328562 0 0.39015981315766812 -0.47191920641734841 0 0.36813351492680652 -0.4578788096260229 0 0.39015981315766812 -0.47191920641734841 0 0.36813351492680652 -0.4578788096260229 0 0.39721761528731692 -0.45119552741579683 0 0.3848034700195111 -0.44451211479328562 0 0.39015981315766812 -0.47191920641734841 0 0.40695414576950523 -0.45771744581404522 0 0.39721761528731692 -0.45119552741579683 0 0.39015981315766812 -0.47191920641734841 0 0.40695414576950523 -0.45771744581404522 0 0.39015981315766812 -0.47191920641734841 0 0.41788280539829797 -0.46985191739468413 0 0.39015981315766812 -0.47191920641734841 0 0.39617150827203812 -0.48844435240108153 0 0.41218611138852979 -0.48595960320867387 0 0.39015981315766812 -0.47191920641734841 0 0.41218611138852979 -0.48595960320867387 0 0.39015981315766812 -0.47191920641734841 0 0.37999710445162738 -0.5 0 0.36111942344273912 -0.48004186837267743 0 0.39015981315766812 -0.47191920641734841 0 0.37999710445162738 -0.5 0 0.39617150827203812 -0.48844435240108153 0 0.37999710445162738 -0.5 0 0.39617150827203812 -0.48844435240108153 0 0.40710475703550941 -0.5 0 0.39617150827203812 -0.48844435240108153 0 0.40710475703550941 -0.5 0 0.41218611138852979 -0.48595960320867387 0 0.40710475703550941 -0.5 0 0.41218611138852979 -0.48595960320867387 0 0.43421240961939139 -0.49999999999999972 0 0.41218611138852979 -0.48595960320867387 0 0.41788280539829797 -0.46985191739468413 0 0.43065669488015018 -0.48070599894378141 0 0.39015981315766812 -0.47191920641734841 0 0.41218611138852979 -0.48595960320867387 0 0.41788280539829797 -0.46985191739468413 0 0.43566071353235342 -0.46355264343579089 0 0.41788280539829797 -0.46985191739468413 0 0.43065669488015018 -0.48070599894378141 0 0.41218611138852979 -0.48595960320867387 0 0.43421240961939139 -0.49999999999999972 0 0.41218611138852979 -0.48595960320867387 0 0.43065669488015018 -0.48070599894378141 0 0.43421240961939139 -0.49999999999999972 0 0.32562102085959999 -0.49962517918909338 0 0.3188650930646052 -0.49384015059516778 0 0.30906313459206908 -0.49999999999999822 0 0.3188650930646052 -0.49384015059516778 0 0.31537357137569311 -0.47573542319158041 0 0.30906313459206908 -0.49999999999999822 0 0.32562102085959999 -0.49962517918909338 0 0.3188650930646052 -0.49384015059516778 0 0.31537357137569311 -0.47573542319158041 0 0.32562102085959999 -0.49962517918909338 0 0.31537357137569311 -0.47573542319158041 0 0.32562102085959999 -0.49962517918909338 0 0.32705189356582531 -0.47758756671950892 0 0.31537357137569311 -0.47573542319158041 0 0.32705189356582531 -0.47758756671950892 0 0.31537357137569311 -0.47573542319158041 0 0.32731070687432662 -0.45987691031431599 0 0.32705189356582531 -0.47758756671950892 0 0.33990227515368221 -0.47511275418304622 0 0.32731070687432662 -0.45987691031431599 0 0.32562102085959999 -0.49962517918909338 0 0.32705189356582531 -0.47758756671950892 0 0.33990227515368221 -0.47511275418304622 0 0.32562102085959999 -0.49962517918909338 0 0.33990227515368221 -0.47511275418304622 0 0.32562102085959999 -0.49962517918909338 0 0.33990227515368221 -0.47511275418304622 0 0.33937333261091801 -0.49122101923177458 0 0.32562102085959999 -0.49962517918909338 0 0.33937333261091801 -0.49122101923177458 0 0.35288945186774517 -0.5 0 0.33937333261091801 -0.49122101923177458 0 0.35288945186774517 -0.5 0 0.36111942344273912 -0.48004186837267743 0 0.37999710445162738 -0.5 0 0.35288945186774517 -0.5 0 0.36111942344273912 -0.48004186837267743 0 0.39015981315766812 -0.47191920641734841 0 0.36111942344273912 -0.48004186837267743 0 0.36813351492680652 -0.4578788096260229 0 0.33990227515368221 -0.47511275418304622 0 0.33937333261091801 -0.49122101923177458 0 0.36111942344273912 -0.48004186837267743 0 0.33990227515368221 -0.47511275418304622 0 0.36111942344273912 -0.48004186837267743 0 0.35583468574274812 -0.46590844033968648 0 0.33990227515368221 -0.47511275418304622 0 0.35418352944776488 -0.45060032917699938 0 0.33990227515368221 -0.47511275418304622 0 0.35418352944776488 -0.45060032917699938 0 0.340093026771697 -0.45737760876331679 0 0.33990227515368221 -0.47511275418304622 0 0.35583468574274812 -0.46590844033968648 0 0.35418352944776488 -0.45060032917699938 0 0.36111942344273912 -0.48004186837267743 0 0.35583468574274812 -0.46590844033968648 0 0.36813351492680652 -0.4578788096260229 0 0.35583468574274812 -0.46590844033968648 0 0.36813351492680652 -0.4578788096260229 0 0.35418352944776488 -0.45060032917699938 0 0.3848034700195111 -0.44451211479328562 0 0.36813351492680652 -0.4578788096260229 0 0.36188953281526259 -0.44421627808609571 0 0.3848034700195111 -0.44451211479328562 0 0.36188953281526259 -0.44421627808609571 0 0.37665443888321409 -0.43729346785436302 0 0.3848034700195111 -0.44451211479328562 0 0.36188953281526259 -0.44421627808609571 0 0.36813351492680652 -0.4578788096260229 0 0.36188953281526259 -0.44421627808609571 0 0.35418352944776488 -0.45060032917699938 0 0.36188953281526259 -0.44421627808609571 0 0.33897559561101431 -0.44392044137890579 0 0.34365756093181399 -0.42933616430573279 0 0.36188953281526259 -0.44421627808609571 0 0.33897559561101431 -0.44392044137890579 0 0.36188953281526259 -0.44421627808609571 0 0.35418352944776488 -0.45060032917699938 0 0.33897559561101431 -0.44392044137890579 0 0.35418352944776488 -0.45060032917699938 0 0.33897559561101431 -0.44392044137890579 0 0.340093026771697 -0.45737760876331679 0 0.33990227515368221 -0.47511275418304622 0 0.340093026771697 -0.45737760876331679 0 0.32731070687432662 -0.45987691031431599 0 0.33897559561101431 -0.44392044137890579 0 0.340093026771697 -0.45737760876331679 0 0.32731070687432662 -0.45987691031431599 0 0.31537357137569311 -0.47573542319158041 0 0.32731070687432662 -0.45987691031431599 0 0.31637589709399738 -0.45542627657340667 0 0.33897559561101431 -0.44392044137890579 0 0.31606165840676581 -0.44362460467171588 0 0.31637589709399738 -0.45542627657340667 0 0.31606165840676581 -0.44362460467171588 0 0.30512612189178517 -0.45184566719406782 0 0.33897559561101431 -0.44392044137890579 0 0.32731070687432662 -0.45987691031431599 0 0.31606165840676581 -0.44362460467171588 0 0.33897559561101431 -0.44392044137890579 0 0.31606165840676581 -0.44362460467171588 0 0.32817533568345891 -0.437405088827024 0 0.32731070687432662 -0.45987691031431599 0 0.31637589709399738 -0.45542627657340667 0 0.31606165840676581 -0.44362460467171588 0 0.31606165840676581 -0.44362460467171588 0 0.31805921732413212 -0.42925550987442379 0 0.32817533568345891 -0.437405088827024 0 0.31606165840676581 -0.44362460467171588 0 0.31805921732413212 -0.42925550987442379 0 0.30493236766246812 -0.436345934488445 0 0.31985940292529941 -0.41295447671329732 0 0.31075796009052831 -0.39572085063997808 0 0.30888278388740348 -0.41521004381282178 0 0.31805921732413212 -0.42925550987442379 0 0.31985940292529941 -0.41295447671329732 0 0.33113555781690102 -0.41904522338276579 0 0.31805921732413212 -0.42925550987442379 0 0.31985940292529941 -0.41295447671329732 0 0.30888278388740348 -0.41521004381282178 0 0.31985940292529941 -0.41295447671329732 0 0.33113555781690102 -0.41904522338276579 0 0.33046149550753229 -0.40554075585649679 0 0.33113555781690102 -0.41904522338276579 0 0.34241547994114269 -0.41362446478144221 0 0.34365756093181399 -0.42933616430573279 0 0.33113555781690102 -0.41904522338276579 0 0.34241547994114269 -0.41362446478144221 0 0.33046149550753229 -0.40554075585649679 0 0.31805921732413212 -0.42925550987442379 0 0.34365756093181399 -0.42933616430573279 0 0.32817533568345891 -0.437405088827024 0 0.31805921732413212 -0.42925550987442379 0 0.33113555781690102 -0.41904522338276579 0 0.34365756093181399 -0.42933616430573279 0 0.31805921732413212 -0.42925550987442379 0 0.34365756093181399 -0.42933616430573279 0 0.33897559561101431 -0.44392044137890579 0 0.34365756093181399 -0.42933616430573279 0 0.32817533568345891 -0.437405088827024 0 0.34365756093181399 -0.42933616430573279 0 0.36925590453949608 -0.42941681873704168 0 0.35674230937501078 -0.41217086121041902 0 0.34365756093181399 -0.42933616430573279 0 0.36925590453949608 -0.42941681873704168 0 0.36188953281526259 -0.44421627808609571 0 0.34365756093181399 -0.42933616430573279 0 0.36925590453949608 -0.42941681873704168 0 0.37665443888321409 -0.43729346785436302 0 0.36188953281526259 -0.44421627808609571 0 0.36925590453949608 -0.42941681873704168 0 0.38208767645140901 -0.41911042656524472 0 0.36925590453949608 -0.42941681873704168 0 0.37176003243497441 -0.40998872043702711 0 0.36925590453949608 -0.42941681873704168 0 0.37176003243497441 -0.40998872043702711 0 0.35674230937501078 -0.41217086121041902 0 0.34241547994114269 -0.41362446478144221 0 0.35674230937501078 -0.41217086121041902 0 0.34647936393220441 -0.39402114553103817 0 0.34241547994114269 -0.41362446478144221 0 0.34365756093181399 -0.42933616430573279 0 0.35674230937501078 -0.41217086121041902 0 0.35674230937501078 -0.41217086121041902 0 0.34647936393220441 -0.39402114553103817 0 0.36795612070160122 -0.3943037227883871 0 0.37176003243497441 -0.40998872043702711 0 0.35674230937501078 -0.41217086121041902 0 0.36795612070160122 -0.3943037227883871 0 0.38240798480570892 -0.37852010314408679 0 0.36795612070160122 -0.3943037227883871 0 0.3567457423339877 -0.37092962175819427 0 0.34647936393220441 -0.39402114553103817 0 0.33846966771265258 -0.37695460337982112 0 0.3567457423339877 -0.37092962175819427 0 0.34647936393220441 -0.39402114553103817 0 0.36795612070160122 -0.3943037227883871 0 0.3567457423339877 -0.37092962175819427 0 0.34647936393220441 -0.39402114553103817 0 0.33846966771265258 -0.37695460337982112 0 0.3263508617172054 -0.38750488125084709 0 0.34241547994114269 -0.41362446478144221 0 0.34647936393220441 -0.39402114553103817 0 0.33046149550753229 -0.40554075585649679 0 0.34647936393220441 -0.39402114553103817 0 0.33046149550753229 -0.40554075585649679 0 0.3263508617172054 -0.38750488125084709 0 0.33046149550753229 -0.40554075585649679 0 0.3263508617172054 -0.38750488125084709 0 0.31075796009052831 -0.39572085063997808 0 0.31985940292529941 -0.41295447671329732 0 0.33046149550753229 -0.40554075585649679 0 0.31075796009052831 -0.39572085063997808 0 0.3263508617172054 -0.38750488125084709 0 0.3096773386499212 -0.3813243078888065 0 0.31075796009052831 -0.39572085063997808 0 0.33846966771265258 -0.37695460337982112 0 0.3263508617172054 -0.38750488125084709 0 0.31915821050206972 -0.37043664262910392 0 0.3263508617172054 -0.38750488125084709 0 0.3096773386499212 -0.3813243078888065 0 0.31915821050206972 -0.37043664262910392 0 0.3096773386499212 -0.3813243078888065 0 0.29526372343335222 -0.38214642848390951 0 0.29938815419514908 -0.36235191135060729 0 0.3096773386499212 -0.3813243078888065 0 0.31075796009052831 -0.39572085063997808 0 0.29526372343335222 -0.38214642848390951 0 0.31075796009052831 -0.39572085063997808 0 0.29178274806564442 -0.41520067436951369 0 0.31075796009052831 -0.39572085063997808 0 0.29113929267155558 -0.40194094561721161 0 0.29526372343335222 -0.38214642848390951 0 0.31075796009052831 -0.39572085063997808 0 0.29113929267155558 -0.40194094561721161 0 0.29178274806564442 -0.41520067436951369 0 0.29113929267155558 -0.40194094561721161 0 0.29526372343335222 -0.38214642848390951 0 0.29096903481361719 -0.39843243044280019 0 0.28318981538834798 -0.39262896962206201 0 0.29526372343335222 -0.38214642848390951 0 0.29096903481361719 -0.39843243044280019 0 0.29113929267155558 -0.40194094561721161 0 0.29526372343335222 -0.38214642848390951 0 0.29096903481361719 -0.39843243044280019 0 0.29113929267155558 -0.40194094561721161 0 0.28502919674291388 -0.40062006331372729 0 0.27798512017272892 -0.40082089003652099 0 0.28264635626051132 -0.40952105626625152 0 0.29113929267155558 -0.40194094561721161 0 0.28502919674291388 -0.40062006331372729 0 0.28264635626051132 -0.40952105626625152 0 0.29096903481361719 -0.39843243044280019 0 0.29113929267155558 -0.40194094561721161 0 0.28502919674291388 -0.40062006331372729 0 0.28502919674291388 -0.40062006331372729 0 0.28318981538834798 -0.39262896962206201 0 0.27798512017272892 -0.40082089003652099 0 0.29096903481361719 -0.39843243044280019 0 0.28502919674291388 -0.40062006331372729 0 0.28318981538834798 -0.39262896962206201 0 0.28318981538834798 -0.39262896962206201 0 0.29526372343335222 -0.38214642848390951 0 0.27569670368188232 -0.38326726020642471 0 0.29526372343335222 -0.38214642848390951 0 0.27569670368188232 -0.38326726020642471 0 0.2822483272805178 -0.36575990941074382 0 0.28318981538834798 -0.39262896962206201 0 0.27569670368188232 -0.38326726020642471 0 0.27140133813572248 -0.39438652514112071 0 0.27569670368188232 -0.38326726020642471 0 0.26161541147981399 -0.38825456187999341 0 0.27140133813572248 -0.39438652514112071 0 0.27569670368188232 -0.38326726020642471 0 0.26161541147981399 -0.38825456187999341 0 0.26273855981799532 -0.37402085189451678 0 0.26161541147981399 -0.38825456187999341 0 0.26273855981799532 -0.37402085189451678 0 0.2462658744323834 -0.38197959250061342 0 0.26161541147981399 -0.38825456187999341 0 0.25113336278303172 -0.39639034007073559 0 0.2462658744323834 -0.38197959250061342 0 0.25113336278303172 -0.39639034007073559 0 0.25834465052961392 -0.41196496969487773 0 0.2415255849161019 -0.40609463635975013 0 0.25113336278303172 -0.39639034007073559 0 0.26281084462470111 -0.3998352336856334 0 0.25834465052961392 -0.41196496969487773 0 0.26161541147981399 -0.38825456187999341 0 0.25113336278303172 -0.39639034007073559 0 0.26281084462470111 -0.3998352336856334 0 0.26161541147981399 -0.38825456187999341 0 0.26281084462470111 -0.3998352336856334 0 0.27140133813572248 -0.39438652514112071 0 0.26281084462470111 -0.3998352336856334 0 0.27081663500811198 -0.40520008615658132 0 0.25834465052961392 -0.41196496969487773 0 0.27081663500811198 -0.40520008615658132 0 0.27140133813572248 -0.39438652514112071 0 0.27798512017272892 -0.40082089003652099 0 0.26281084462470111 -0.3998352336856334 0 0.27081663500811198 -0.40520008615658132 0 0.27140133813572248 -0.39438652514112071 0 0.28318981538834798 -0.39262896962206201 0 0.27140133813572248 -0.39438652514112071 0 0.27798512017272892 -0.40082089003652099 0 0.27081663500811198 -0.40520008615658132 0 0.27798512017272892 -0.40082089003652099 0 0.28264635626051132 -0.40952105626625152 0 0.27081663500811198 -0.40520008615658132 0 0.27206571492222681 -0.41502427433416672 0 0.28264635626051132 -0.40952105626625152 0 0.27844475086434628 -0.42008249968918893 0 0.27206571492222681 -0.41502427433416672 0 0.28264635626051132 -0.40952105626625152 0 0.26660164492473198 -0.42150218520744809 0 0.27206571492222681 -0.41502427433416672 0 0.25834465052961392 -0.41196496969487773 0 0.27844475086434628 -0.42008249968918893 0 0.26660164492473198 -0.42150218520744809 0 0.27206571492222681 -0.41502427433416672 0 0.27081663500811198 -0.40520008615658132 0 0.27206571492222681 -0.41502427433416672 0 0.25834465052961392 -0.41196496969487773 0 0.25834465052961392 -0.41196496969487773 0 0.25675938249820729 -0.42906236834179229 0 0.24471655788437549 -0.41836465708289111 0 0.26660164492473198 -0.42150218520744809 0 0.25834465052961392 -0.41196496969487773 0 0.25675938249820729 -0.42906236834179229 0 0.25675938249820729 -0.42906236834179229 0 0.26225826081895931 -0.43553163761717179 0 0.24937758952868769 -0.43582476186075059 0 0.25675938249820729 -0.42906236834179229 0 0.26225826081895931 -0.43553163761717179 0 0.26930167735914629 -0.4333880303452663 0 0.25675938249820729 -0.42906236834179229 0 0.27821428364315981 -0.42912996774889278 0 0.26930167735914629 -0.4333880303452663 0 0.27111210296809168 -0.43642101817110968 0 0.27821428364315981 -0.42912996774889278 0 0.25675938249820729 -0.42906236834179229 0 0.26930167735914629 -0.4333880303452663 0 0.27821428364315981 -0.42912996774889278 0 0.26660164492473198 -0.42150218520744809 0 0.25675938249820729 -0.42906236834179229 0 0.27821428364315981 -0.42912996774889278 0 0.26225826081895931 -0.43553163761717179 0 0.26930167735914629 -0.4333880303452663 0 0.27111210296809168 -0.43642101817110968 0 0.26930167735914629 -0.4333880303452663 0 0.27111210296809168 -0.43642101817110968 0 0.27844475086434628 -0.42008249968918893 0 0.26660164492473198 -0.42150218520744809 0 0.27821428364315981 -0.42912996774889278 0 0.27111210296809168 -0.43642101817110968 0 0.27821428364315981 -0.42912996774889278 0 0.27851784514164207 -0.43605140350369348 0 0.27111210296809168 -0.43642101817110968 0 0.27821428364315981 -0.42912996774889278 0 0.27821428364315981 -0.42912996774889278 0 0.27851784514164207 -0.43605140350369348 0 0.28546936300596981 -0.42915282681778749 0 0.28546936300596981 -0.42915282681778749 0 0.28269717206150108 -0.44245749461713091 0 0.27851784514164207 -0.43605140350369348 0 0.28546936300596981 -0.42915282681778749 0 0.28269717206150108 -0.44245749461713091 0 0.28844378249660962 -0.43602848621063972 0 0.28546936300596981 -0.42915282681778749 0 0.28269717206150108 -0.44245749461713091 0 0.28844378249660962 -0.43602848621063972 0 0.29246087371645019 -0.42917485544311462 0 0.28546936300596981 -0.42915282681778749 0 0.28844378249660962 -0.43602848621063972 0 0.29246087371645019 -0.42917485544311462 0 0.29314772120251731 -0.44332876796452603 0 0.29246087371645019 -0.42917485544311462 0 0.29314772120251731 -0.44332876796452603 0 0.29246087371645019 -0.42917485544311462 0 0.30493236766246812 -0.436345934488445 0 0.29314772120251731 -0.44332876796452603 0 0.29246087371645019 -0.42917485544311462 0 0.29178274806564442 -0.41520067436951369 0 0.29246087371645019 -0.42917485544311462 0 0.29178274806564442 -0.41520067436951369 0 0.30279640574840933 -0.42221027087496837 0 0.27821428364315981 -0.42912996774889278 0 0.28546936300596981 -0.42915282681778749 0 0.28744958810085658 -0.4196490669458563 0 0.28546936300596981 -0.42915282681778749 0 0.28744958810085658 -0.4196490669458563 0 0.29246087371645019 -0.42917485544311462 0 0.28546936300596981 -0.42915282681778749 0 0.28744958810085658 -0.4196490669458563 0 0.27821428364315981 -0.42912996774889278 0 0.28744958810085658 -0.4196490669458563 0 0.27844475086434628 -0.42008249968918893 0 0.27821428364315981 -0.42912996774889278 0 0.28744958810085658 -0.4196490669458563 0 0.29246087371645019 -0.42917485544311462 0 0.28546936300596981 -0.42915282681778749 0 0.27821428364315981 -0.42912996774889278 0 0.28546936300596981 -0.42915282681778749 0 0.29113929267155558 -0.40194094561721161 0 0.28744958810085658 -0.4196490669458563 0 0.28264635626051132 -0.40952105626625152 0 0.27844475086434628 -0.42008249968918893 0 0.28744958810085658 -0.4196490669458563 0 0.28264635626051132 -0.40952105626625152 0 0.29113929267155558 -0.40194094561721161 0 0.28744958810085658 -0.4196490669458563 0 0.29113929267155558 -0.40194094561721161 0 0.28744958810085658 -0.4196490669458563 0 0.29178274806564442 -0.41520067436951369 0 0.29113929267155558 -0.40194094561721161 0 0.29178274806564442 -0.41520067436951369 0 0.29246087371645019 -0.42917485544311462 0 0.28744958810085658 -0.4196490669458563 0 0.29178274806564442 -0.41520067436951369 0 0.28744958810085658 -0.4196490669458563 0 0.29178274806564442 -0.41520067436951369 0 0.29178274806564442 -0.41520067436951369 0 0.30888278388740348 -0.41521004381282178 0 0.30279640574840933 -0.42221027087496837 0 0.31075796009052831 -0.39572085063997808 0 0.29178274806564442 -0.41520067436951369 0 0.30888278388740348 -0.41521004381282178 0 0.31805921732413212 -0.42925550987442379 0 0.29246087371645019 -0.42917485544311462 0 0.31805921732413212 -0.42925550987442379 0 0.29246087371645019 -0.42917485544311462 0 0.30279640574840933 -0.42221027087496837 0 0.31805921732413212 -0.42925550987442379 0 0.29246087371645019 -0.42917485544311462 0 0.30493236766246812 -0.436345934488445 0 0.31805921732413212 -0.42925550987442379 0 0.30888278388740348 -0.41521004381282178 0 0.30279640574840933 -0.42221027087496837 0 0.31606165840676581 -0.44362460467171588 0 0.30512612189178517 -0.45184566719406782 0 0.29314772120251731 -0.44332876796452603 0 0.31606165840676581 -0.44362460467171588 0 0.30493236766246812 -0.436345934488445 0 0.29314772120251731 -0.44332876796452603 0 0.30512612189178517 -0.45184566719406782 0 0.29394025903575932 -0.45966064860657702 0 0.29314772120251731 -0.44332876796452603 0 0.31606165840676581 -0.44362460467171588 0 0.29314772120251731 -0.44332876796452603 0 0.31537357137569311 -0.47573542319158041 0 0.31637589709399738 -0.45542627657340667 0 0.30512612189178517 -0.45184566719406782 0 0.31537357137569311 -0.47573542319158041 0 0.30512612189178517 -0.45184566719406782 0 0.31537357137569311 -0.47573542319158041 0 0.30512612189178517 -0.45184566719406782 0 0.29394025903575932 -0.45966064860657702 0 0.29394025903575932 -0.45966064860657702 0 0.28491455044924457 -0.45954411970608688 0 0.29473279686900039 -0.47599252924862812 0 0.29394025903575932 -0.45966064860657702 0 0.29473279686900039 -0.47599252924862812 0 0.28491455044924457 -0.45954411970608688 0 0.29473279686900039 -0.47599252924862812 0 0.29394025903575932 -0.45966064860657702 0 0.28491455044924457 -0.45954411970608688 0 0.29314772120251731 -0.44332876796452603 0 0.29314772120251731 -0.44332876796452603 0 0.28269717206150108 -0.44245749461713091 0 0.27509630402948781 -0.44309571016354632 0 0.29314772120251731 -0.44332876796452603 0 0.27509630402948781 -0.44309571016354632 0 0.28491455044924457 -0.45954411970608688 0 0.29314772120251731 -0.44332876796452603 0 0.27509630402948781 -0.44309571016354632 0 0.29394025903575932 -0.45966064860657702 0 0.29314772120251731 -0.44332876796452603 0 0.28844378249660962 -0.43602848621063972 0 0.29314772120251731 -0.44332876796452603 0 0.28269717206150108 -0.44245749461713091 0 0.27851784514164207 -0.43605140350369348 0 0.28269717206150108 -0.44245749461713091 0 0.27509630402948781 -0.44309571016354632 0 0.28491455044924457 -0.45954411970608688 0 0.27509630402948781 -0.44309571016354632 0 0.27111210296809168 -0.43642101817110968 0 0.27851784514164207 -0.43605140350369348 0 0.27509630402948781 -0.44309571016354632 0 0.27509630402948781 -0.44309571016354632 0 0.2647405517406643 -0.44296200936694391 0 0.26894138168338477 -0.45835658674643581 0 0.27509630402948781 -0.44309571016354632 0 0.2647405517406643 -0.44296200936694391 0 0.27111210296809168 -0.43642101817110968 0 0.27509630402948781 -0.44309571016354632 0 0.2647405517406643 -0.44296200936694391 0 0.26225826081895931 -0.43553163761717179 0 0.27111210296809168 -0.43642101817110968 0 0.2647405517406643 -0.44296200936694391 0 0.27111210296809168 -0.43642101817110968 0 0.27509630402948781 -0.44309571016354632 0 0.27111210296809168 -0.43642101817110968 0 0.2647405517406643 -0.44296200936694391 0 0.2647405517406643 -0.44296200936694391 0 0.23528251899697711 -0.44258168330907049 0 0.26225826081895931 -0.43553163761717179 0 0.2647405517406643 -0.44296200936694391 0 0.24937758952868769 -0.43582476186075059 0 0.2647405517406643 -0.44296200936694391 0 0.24642569303344669 -0.46176391886762419 0 0.2647405517406643 -0.44296200936694391 0 0.26894138168338477 -0.45835658674643581 0 0.24642569303344669 -0.46176391886762419 0 0.26894138168338477 -0.45835658674643581 0 0.25460761733926612 -0.48077428153223201 0 0.24642569303344669 -0.46176391886762419 0 0.28491455044924457 -0.45954411970608688 0 0.26894138168338477 -0.45835658674643581 0 0.27481125637505999 -0.47672941046381351 0 0.28491455044924457 -0.45954411970608688 0 0.27509630402948781 -0.44309571016354632 0 0.26894138168338477 -0.45835658674643581 0 0.26894138168338477 -0.45835658674643581 0 0.27481125637505999 -0.47672941046381351 0 0.25460761733926612 -0.48077428153223201 0 0.25460761733926612 -0.48077428153223201 0 0.26992155257213829 -0.5 0 0.24394529676999099 -0.5 0 0.27481125637505999 -0.47672941046381351 0 0.25460761733926612 -0.48077428153223201 0 0.26992155257213829 -0.5 0 0.27481125637505999 -0.47672941046381351 0 0.26992155257213829 -0.5 0 0.28423504578222791 -0.48826781330302371 0 0.2958978083742857 -0.500000000000002 0 0.29473279686900039 -0.47599252924862812 0 0.28423504578222791 -0.48826781330302371 0 0.2958978083742857 -0.500000000000002 0 0.29473279686900039 -0.47599252924862812 0 0.26992155257213829 -0.5 0 0.28423504578222791 -0.48826781330302371 0 0.2958978083742857 -0.500000000000002 0 0.27481125637505999 -0.47672941046381351 0 0.28423504578222791 -0.48826781330302371 0 0.29473279686900039 -0.47599252924862812 0 0.28491455044924457 -0.45954411970608688 0 0.27481125637505999 -0.47672941046381351 0 0.29473279686900039 -0.47599252924862812 0 0.31537357137569311 -0.47573542319158041 0 0.29473279686900039 -0.47599252924862812 0 0.30906313459206908 -0.49999999999999822 0 0.31537357137569311 -0.47573542319158041 0 0.29394025903575932 -0.45966064860657702 0 0.29473279686900039 -0.47599252924862812 0 0.2958978083742857 -0.500000000000002 0 0.29473279686900039 -0.47599252924862812 0 0.30906313459206908 -0.49999999999999822 0 0.29473279686900039 -0.47599252924862812 0 0.30906313459206908 -0.49999999999999822 0 0.32957540708980337 -0.28233484169300721 0 0.33350720058453531 -0.3067582988720306 0 0.34777854009225467 -0.29092059718385621 0 0.33350720058453531 -0.3067582988720306 0 0.31940688812320073 -0.32114172553523779 0 0.31236919290445669 -0.30090688950199113 0 0.32957540708980337 -0.28233484169300721 0 0.33350720058453531 -0.3067582988720306 0 0.31236919290445669 -0.30090688950199113 0 0.32957540708980337 -0.28233484169300721 0 0.31236919290445669 -0.30090688950199113 0 0.31219288969015102 -0.27103532748113379 0 0.32957540708980337 -0.28233484169300721 0 0.32740146312166057 -0.2615598439342075 0 0.31219288969015102 -0.27103532748113379 0 0.30987088180634448 -0.24125362874219619 0 0.32740146312166057 -0.2615598439342075 0 0.31219288969015102 -0.27103532748113379 0 0.33627474799740559 -0.24529035195854479 0 0.32740146312166057 -0.2615598439342075 0 0.34280143854843398 -0.26651154424247869 0 0.32957540708980337 -0.28233484169300721 0 0.32740146312166057 -0.2615598439342075 0 0.34280143854843398 -0.26651154424247869 0 0.32957540708980337 -0.28233484169300721 0 0.34280143854843398 -0.26651154424247869 0 0.34777854009225467 -0.29092059718385621 0 0.34280143854843398 -0.26651154424247869 0 0.35666834061529479 -0.27123260863895199 0 0.34777854009225467 -0.29092059718385621 0 0.3592550994650468 -0.24613366971849041 0 0.34280143854843398 -0.26651154424247869 0 0.35666834061529479 -0.27123260863895199 0 0.33627474799740559 -0.24529035195854479 0 0.3592550994650468 -0.24613366971849041 0 0.34280143854843398 -0.26651154424247869 0 0.3592550994650468 -0.24613366971849041 0 0.37962897743813367 -0.25651992395937562 0 0.37050420578859872 -0.26776837990911312 0 0.3592550994650468 -0.24613366971849041 0 0.35666834061529479 -0.27123260863895199 0 0.37050420578859872 -0.26776837990911312 0 0.3592550994650468 -0.24613366971849041 0 0.37050420578859872 -0.26776837990911312 0 0.35666834061529479 -0.27123260863895199 0 0.37050420578859872 -0.26776837990911312 0 0.36300241918213971 -0.28482885214082171 0 0.37050420578859872 -0.26776837990911312 0 0.37154850581208082 -0.284248057172719 0 0.36300241918213971 -0.28482885214082171 0 0.38175331211215058 -0.28940309009973592 0 0.37050420578859872 -0.26776837990911312 0 0.37154850581208082 -0.284248057172719 0 0.37154850581208082 -0.284248057172719 0 0.37093408616543422 -0.29499190654120538 0 0.36300241918213971 -0.28482885214082171 0 0.38175331211215058 -0.28940309009973592 0 0.37154850581208082 -0.284248057172719 0 0.37093408616543422 -0.29499190654120538 0 0.37093408616543422 -0.29499190654120538 0 0.36300241918213971 -0.28482885214082171 0 0.36107539554114298 -0.29693991331551067 0 0.35666834061529479 -0.27123260863895199 0 0.36300241918213971 -0.28482885214082171 0 0.34777854009225467 -0.29092059718385621 0 0.36300241918213971 -0.28482885214082171 0 0.34777854009225467 -0.29092059718385621 0 0.36107539554114298 -0.29693991331551067 0 0.33350720058453531 -0.3067582988720306 0 0.35617419542099171 -0.30797258542327188 0 0.3434221482530771 -0.31898036386437462 0 0.33350720058453531 -0.3067582988720306 0 0.34777854009225467 -0.29092059718385621 0 0.35617419542099171 -0.30797258542327188 0 0.34777854009225467 -0.29092059718385621 0 0.35617419542099171 -0.30797258542327188 0 0.36107539554114298 -0.29693991331551067 0 0.35617419542099171 -0.30797258542327188 0 0.36107539554114298 -0.29693991331551067 0 0.37214457168145071 -0.30742358830148531 0 0.38029466251644028 -0.29986647237510811 0 0.37093408616543422 -0.29499190654120538 0 0.37214457168145071 -0.30742358830148531 0 0.37093408616543422 -0.29499190654120538 0 0.36107539554114298 -0.29693991331551067 0 0.37214457168145071 -0.30742358830148531 0 0.35617419542099171 -0.30797258542327188 0 0.37214457168145071 -0.30742358830148531 0 0.36996172146423478 -0.32754273311982529 0 0.35617419542099171 -0.30797258542327188 0 0.36996172146423478 -0.32754273311982529 0 0.35306648032504262 -0.33228776260873261 0 0.38164260336710232 -0.31615744579396521 0 0.37214457168145071 -0.30742358830148531 0 0.36996172146423478 -0.32754273311982529 0 0.36996172146423478 -0.32754273311982529 0 0.35306648032504262 -0.33228776260873261 0 0.35731430246447682 -0.34983201697113597 0 0.37618485313497191 -0.35303141813195599 0 0.36996172146423478 -0.32754273311982529 0 0.35731430246447682 -0.34983201697113597 0 0.37618485313497191 -0.35303141813195599 0 0.36996172146423478 -0.32754273311982529 0 0.35306648032504262 -0.33228776260873261 0 0.35731430246447682 -0.34983201697113597 0 0.34168414680625769 -0.34452156241349458 0 0.35617419542099171 -0.30797258542327188 0 0.35306648032504262 -0.33228776260873261 0 0.3434221482530771 -0.31898036386437462 0 0.37618485313497191 -0.35303141813195599 0 0.38240798480570892 -0.37852010314408679 0 0.3567457423339877 -0.37092962175819427 0 0.37618485313497191 -0.35303141813195599 0 0.35731430246447682 -0.34983201697113597 0 0.3567457423339877 -0.37092962175819427 0 0.35731430246447682 -0.34983201697113597 0 0.33741189226114721 -0.35981876257024509 0 0.34168414680625769 -0.34452156241349458 0 0.35731430246447682 -0.34983201697113597 0 0.3567457423339877 -0.37092962175819427 0 0.33741189226114721 -0.35981876257024509 0 0.33846966771265258 -0.37695460337982112 0 0.3567457423339877 -0.37092962175819427 0 0.33741189226114721 -0.35981876257024509 0 0.33846966771265258 -0.37695460337982112 0 0.33741189226114721 -0.35981876257024509 0 0.31915821050206972 -0.37043664262910392 0 0.33741189226114721 -0.35981876257024509 0 0.34168414680625769 -0.34452156241349458 0 0.32813074893442251 -0.34418371868588848 0 0.33741189226114721 -0.35981876257024509 0 0.32813074893442251 -0.34418371868588848 0 0.32201112636252999 -0.3528096981888329 0 0.32201112636252999 -0.3528096981888329 0 0.31915821050206972 -0.37043664262910392 0 0.30987318817222509 -0.34571298684785262 0 0.32813074893442251 -0.34418371868588848 0 0.32201112636252999 -0.3528096981888329 0 0.31771908807833588 -0.34170101098267841 0 0.32201112636252999 -0.3528096981888329 0 0.31771908807833588 -0.34170101098267841 0 0.30987318817222509 -0.34571298684785262 0 0.33741189226114721 -0.35981876257024509 0 0.32201112636252999 -0.3528096981888329 0 0.31915821050206972 -0.37043664262910392 0 0.35306648032504262 -0.33228776260873261 0 0.3434221482530771 -0.31898036386437462 0 0.33232496317177118 -0.32984298873849771 0 0.33350720058453531 -0.3067582988720306 0 0.3434221482530771 -0.31898036386437462 0 0.33232496317177118 -0.32984298873849771 0 0.33350720058453531 -0.3067582988720306 0 0.33232496317177118 -0.32984298873849771 0 0.31940688812320073 -0.32114172553523779 0 0.35306648032504262 -0.33228776260873261 0 0.34168414680625769 -0.34452156241349458 0 0.33232496317177118 -0.32984298873849771 0 0.34168414680625769 -0.34452156241349458 0 0.32813074893442251 -0.34418371868588848 0 0.33232496317177118 -0.32984298873849771 0 0.32813074893442251 -0.34418371868588848 0 0.33232496317177118 -0.32984298873849771 0 0.32267668596175481 -0.33341785867055518 0 0.33232496317177118 -0.32984298873849771 0 0.32267668596175481 -0.33341785867055518 0 0.31940688812320073 -0.32114172553523779 0 0.32813074893442251 -0.34418371868588848 0 0.32267668596175481 -0.33341785867055518 0 0.31771908807833588 -0.34170101098267841 0 0.32267668596175481 -0.33341785867055518 0 0.31771908807833588 -0.34170101098267841 0 0.31294298630122958 -0.33429540854302747 0 0.31771908807833588 -0.34170101098267841 0 0.31168118685013108 -0.34100175600761939 0 0.30987318817222509 -0.34571298684785262 0 0.31771908807833588 -0.34170101098267841 0 0.31294298630122958 -0.33429540854302747 0 0.31168118685013108 -0.34100175600761939 0 0.32267668596175481 -0.33341785867055518 0 0.31294298630122958 -0.33429540854302747 0 0.31940688812320073 -0.32114172553523779 0 0.31294298630122958 -0.33429540854302747 0 0.31940688812320073 -0.32114172553523779 0 0.30601167809918312 -0.32095610648709572 0 0.31940688812320073 -0.32114172553523779 0 0.30601167809918312 -0.32095610648709572 0 0.31236919290445669 -0.30090688950199113 0 0.30601167809918312 -0.32095610648709572 0 0.29267099061500118 -0.31767693215293968 0 0.29602111265001879 -0.30165816726207401 0 0.30601167809918312 -0.32095610648709572 0 0.30423517195087751 -0.34071154513897461 0 0.29267099061500118 -0.31767693215293968 0 0.31294298630122958 -0.33429540854302747 0 0.30601167809918312 -0.32095610648709572 0 0.30570887717953288 -0.34364700841230278 0 0.30423517195087751 -0.34071154513897461 0 0.29267099061500118 -0.31767693215293968 0 0.30601167809918312 -0.32095610648709572 0 0.30570887717953288 -0.34364700841230278 0 0.30423517195087751 -0.34071154513897461 0 0.31294298630122958 -0.33429540854302747 0 0.31168118685013108 -0.34100175600761939 0 0.30570887717953288 -0.34364700841230278 0 0.31168118685013108 -0.34100175600761939 0 0.30570887717953288 -0.34364700841230278 0 0.30987318817222509 -0.34571298684785262 0 0.30570887717953288 -0.34364700841230278 0 0.30423517195087751 -0.34071154513897461 0 0.30570887717953288 -0.34364700841230278 0 0.30351258495694688 -0.34255739421730541 0 0.30423517195087751 -0.34071154513897461 0 0.30570887717953288 -0.34364700841230278 0 0.30351258495694688 -0.34255739421730541 0 0.30351258495694688 -0.34255739421730541 0 0.30423517195087751 -0.34071154513897461 0 0.30423517195087751 -0.34071154513897461 0 0.29267099061500118 -0.31767693215293968 0 0.27697346549350221 -0.32939093076003212 0 0.30351258495694688 -0.34255739421730541 0 0.27697346549350221 -0.32939093076003212 0 0.30351258495694688 -0.34255739421730541 0 0.30423517195087751 -0.34071154513897461 0 0.27697346549350221 -0.32939093076003212 0 0.30351258495694688 -0.34255739421730541 0 0.28388279232808111 -0.34879423229863538 0 0.27697346549350221 -0.32939093076003212 0 0.3096773386499212 -0.3813243078888065 0 0.31915821050206972 -0.37043664262910392 0 0.29938815419514908 -0.36235191135060729 0 0.29526372343335222 -0.38214642848390951 0 0.29938815419514908 -0.36235191135060729 0 0.30570887717953288 -0.34364700841230278 0 0.30351258495694688 -0.34255739421730541 0 0.29938815419514908 -0.36235191135060729 0 0.31915821050206972 -0.37043664262910392 0 0.30570887717953288 -0.34364700841230278 0 0.30987318817222509 -0.34571298684785262 0 0.30351258495694688 -0.34255739421730541 0 0.29938815419514908 -0.36235191135060729 0 0.29225796469017368 -0.35486586181932289 0 0.31915821050206972 -0.37043664262910392 0 0.30570887717953288 -0.34364700841230278 0 0.29938815419514908 -0.36235191135060729 0 0.31915821050206972 -0.37043664262910392 0 0.30570887717953288 -0.34364700841230278 0 0.30351258495694688 -0.34255739421730541 0 0.29938815419514908 -0.36235191135060729 0 0.30570887717953288 -0.34364700841230278 0 0.30987318817222509 -0.34571298684785262 0 0.29225796469017368 -0.35486586181932289 0 0.28388279232808111 -0.34879423229863538 0 0.2822483272805178 -0.36575990941074382 0 0.30351258495694688 -0.34255739421730541 0 0.29225796469017368 -0.35486586181932289 0 0.28388279232808111 -0.34879423229863538 0 0.29526372343335222 -0.38214642848390951 0 0.29938815419514908 -0.36235191135060729 0 0.2822483272805178 -0.36575990941074382 0 0.29938815419514908 -0.36235191135060729 0 0.29225796469017368 -0.35486586181932289 0 0.2822483272805178 -0.36575990941074382 0 0.27569670368188232 -0.38326726020642471 0 0.2822483272805178 -0.36575990941074382 0 0.26273855981799532 -0.37402085189451678 0 0.2822483272805178 -0.36575990941074382 0 0.26391134377156378 -0.35745418407105078 0 0.26273855981799532 -0.37402085189451678 0 0.28388279232808111 -0.34879423229863538 0 0.2690396956517056 -0.34420120372419399 0 0.26391134377156378 -0.35745418407105078 0 0.28388279232808111 -0.34879423229863538 0 0.2822483272805178 -0.36575990941074382 0 0.26391134377156378 -0.35745418407105078 0 0.26391134377156378 -0.35745418407105078 0 0.25139118101367519 -0.34116546776705792 0 0.24725496166677341 -0.36469484034826838 0 0.2690396956517056 -0.34420120372419399 0 0.26391134377156378 -0.35745418407105078 0 0.25139118101367519 -0.34116546776705792 0 0.26391134377156378 -0.35745418407105078 0 0.26273855981799532 -0.37402085189451678 0 0.24725496166677341 -0.36469484034826838 0 0.26273855981799532 -0.37402085189451678 0 0.24725496166677341 -0.36469484034826838 0 0.2462658744323834 -0.38197959250061342 0 0.27697346549350221 -0.32939093076003212 0 0.2504343460300561 -0.31622446730276171 0 0.27399568940133018 -0.31084845435951231 0 0.29267099061500118 -0.31767693215293968 0 0.27697346549350221 -0.32939093076003212 0 0.27399568940133018 -0.31084845435951231 0 0.2690396956517056 -0.34420120372419399 0 0.27697346549350221 -0.32939093076003212 0 0.25139118101367519 -0.34116546776705792 0 0.28388279232808111 -0.34879423229863538 0 0.2690396956517056 -0.34420120372419399 0 0.27697346549350221 -0.32939093076003212 0 0.27697346549350221 -0.32939093076003212 0 0.25139118101367519 -0.34116546776705792 0 0.2504343460300561 -0.31622446730276171 0 0.27697346549350221 -0.32939093076003212 0 0.2504343460300561 -0.31622446730276171 0 0.2504343460300561 -0.31622446730276171 0 0.25790403393649142 -0.29221016043342007 0 0.26868825863076801 -0.29933442507853231 0 0.2504343460300561 -0.31622446730276171 0 0.27399568940133018 -0.31084845435951231 0 0.26868825863076801 -0.29933442507853231 0 0.25790403393649142 -0.29221016043342007 0 0.26247779924518422 -0.27455948017448001 0 0.23862998452346509 -0.28454510211497241 0 0.25790403393649142 -0.29221016043342007 0 0.27122533838754692 -0.28910882128364879 0 0.26247779924518422 -0.27455948017448001 0 0.27122533838754692 -0.28910882128364879 0 0.28742349607482037 -0.28773318483823551 0 0.26247779924518422 -0.27455948017448001 0 0.27122533838754692 -0.28910882128364879 0 0.27963310405047059 -0.29170685589357598 0 0.28742349607482037 -0.28773318483823551 0 0.25790403393649142 -0.29221016043342007 0 0.27122533838754692 -0.28910882128364879 0 0.26868825863076801 -0.29933442507853231 0 0.27122533838754692 -0.28910882128364879 0 0.27963310405047059 -0.29170685589357598 0 0.26868825863076801 -0.29933442507853231 0 0.27963310405047059 -0.29170685589357598 0 0.27399568940133018 -0.31084845435951231 0 0.26868825863076801 -0.29933442507853231 0 0.29267099061500118 -0.31767693215293968 0 0.27963310405047059 -0.29170685589357598 0 0.29267099061500118 -0.31767693215293968 0 0.27963310405047059 -0.29170685589357598 0 0.27399568940133018 -0.31084845435951231 0 0.29267099061500118 -0.31767693215293968 0 0.27963310405047059 -0.29170685589357598 0 0.29602111265001879 -0.30165816726207401 0 0.27963310405047059 -0.29170685589357598 0 0.29602111265001879 -0.30165816726207401 0 0.28742349607482037 -0.28773318483823551 0 0.28742349607482037 -0.28773318483823551 0 0.31236919290445669 -0.30090688950199113 0 0.29602111265001879 -0.30165816726207401 0 0.28742349607482037 -0.28773318483823551 0 0.31236919290445669 -0.30090688950199113 0 0.28742349607482037 -0.28773318483823551 0 0.31236919290445669 -0.30090688950199113 0 0.2973859747586714 -0.27579116796592118 0 0.31236919290445669 -0.30090688950199113 0 0.31219288969015102 -0.27103532748113379 0 0.2973859747586714 -0.27579116796592118 0 0.30601167809918312 -0.32095610648709572 0 0.29602111265001879 -0.30165816726207401 0 0.31236919290445669 -0.30090688950199113 0 0.30987088180634448 -0.24125362874219619 0 0.29250997527574701 -0.24677647679701359 0 0.31219288969015102 -0.27103532748113379 0 0.29250997527574701 -0.24677647679701359 0 0.31219288969015102 -0.27103532748113379 0 0.2896735531526361 -0.26412531454105981 0 0.31219288969015102 -0.27103532748113379 0 0.2973859747586714 -0.27579116796592118 0 0.2896735531526361 -0.26412531454105981 0 0.2973859747586714 -0.27579116796592118 0 0.28192096152604101 -0.27231994505035018 0 0.2896735531526361 -0.26412531454105981 0 0.28742349607482037 -0.28773318483823551 0 0.2973859747586714 -0.27579116796592118 0 0.28192096152604101 -0.27231994505035018 0 0.29250997527574701 -0.24677647679701359 0 0.2896735531526361 -0.26412531454105981 0 0.27534065318434953 -0.25880162201512719 0 0.28192096152604101 -0.27231994505035018 0 0.2896735531526361 -0.26412531454105981 0 0.27534065318434953 -0.25880162201512719 0 0.27462122614518292 -0.24127539045551061 0 0.27534065318434953 -0.25880162201512719 0 0.25726365536858148 -0.25362034743760148 0 0.28742349607482037 -0.28773318483823551 0 0.26247779924518422 -0.27455948017448001 0 0.28192096152604101 -0.27231994505035018 0 0.27534065318434953 -0.25880162201512719 0 0.26247779924518422 -0.27455948017448001 0 0.28742349607482037 -0.28773318483823551 0 0.28192096152604101 -0.27231994505035018 0 0.26247779924518422 -0.27455948017448001 0 0.26247779924518422 -0.27455948017448001 0 0.23753210241554801 -0.26138577551072451 0 0.26247779924518422 -0.27455948017448001 0 0.25726365536858148 -0.25362034743760148 0 0.23753210241554801 -0.26138577551072451 0 0.27534065318434953 -0.25880162201512719 0 0.26247779924518422 -0.27455948017448001 0 0.25726365536858148 -0.25362034743760148 0 0.23753210241554801 -0.26138577551072451 0 0.24146341680214309 -0.24448521489457861 0 0.2264227451730553 -0.24971222362376699 0 0.25726365536858148 -0.25362034743760148 0 0.23753210241554801 -0.26138577551072451 0 0.24146341680214309 -0.24448521489457861 0 0.26247779924518422 -0.27455948017448001 0 0.23753210241554801 -0.26138577551072451 0 0.23862998452346509 -0.28454510211497241 0 0.23753210241554801 -0.26138577551072451 0 0.2162589501465873 -0.27468266641732147 0 0.23862998452346509 -0.28454510211497241 0 0.23753210241554801 -0.26138577551072451 0 0.2162589501465873 -0.27468266641732147 0 0.2264227451730553 -0.24971222362376699 0 0.21040399342164171 -0.25176681621351038 0 0.2162589501465873 -0.27468266641732147 0 0.2264227451730553 -0.24971222362376699 0 0.21040399342164171 -0.25176681621351038 0 0.2162589501465873 -0.27468266641732147 0 0.1934777637386868 -0.26196852324515157 0 0.2162589501465873 -0.27468266641732147 0 0.1966688692062398 -0.27921476679881868 0 0.1934777637386868 -0.26196852324515157 0 0.1966688692062398 -0.27921476679881868 0 0.1934777637386868 -0.26196852324515157 0 0.177394147168592 -0.28445233252858981 0 0.21040399342164171 -0.25176681621351038 0 0.1934777637386868 -0.26196852324515157 0 0.19936230214102421 -0.2479946931896729 0 0.1934777637386868 -0.26196852324515157 0 0.18957958600208469 -0.24548130840959781 0 0.18140855909891221 -0.24875385404173869 0 0.1934777637386868 -0.26196852324515157 0 0.18957958600208469 -0.24548130840959781 0 0.19936230214102421 -0.2479946931896729 0 0.19954461577109309 -0.29575554500421197 0 0.1961972522999722 -0.32216937387389732 0 0.17947015261898311 -0.31043279954087621 0 0.1966688692062398 -0.27921476679881868 0 0.19954461577109309 -0.29575554500421197 0 0.177394147168592 -0.28445233252858981 0 0.2162589501465873 -0.27468266641732147 0 0.19954461577109309 -0.29575554500421197 0 0.22389522656661021 -0.30305800384549131 0 0.2162589501465873 -0.27468266641732147 0 0.1966688692062398 -0.27921476679881868 0 0.19954461577109309 -0.29575554500421197 0 0.19954461577109309 -0.29575554500421197 0 0.22389522656661021 -0.30305800384549131 0 0.1961972522999722 -0.32216937387389732 0 0.2504343460300561 -0.31622446730276171 0 0.25790403393649142 -0.29221016043342007 0 0.23862998452346509 -0.28454510211497241 0 0.2504343460300561 -0.31622446730276171 0 0.22389522656661021 -0.30305800384549131 0 0.23862998452346509 -0.28454510211497241 0 0.2162589501465873 -0.27468266641732147 0 0.22389522656661021 -0.30305800384549131 0 0.23862998452346509 -0.28454510211497241 0 0.2504343460300561 -0.31622446730276171 0 0.22389522656661021 -0.30305800384549131 0 0.22389522656661021 -0.30305800384549131 0 0.23204811719291779 -0.33532479601063409 0 0.2125404456115573 -0.3333426100015644 0 0.2504343460300561 -0.31622446730276171 0 0.22389522656661021 -0.30305800384549131 0 0.23204811719291779 -0.33532479601063409 0 0.25139118101367519 -0.34116546776705792 0 0.2504343460300561 -0.31622446730276171 0 0.23204811719291779 -0.33532479601063409 0 0.25139118101367519 -0.34116546776705792 0 0.23204811719291779 -0.33532479601063409 0 0.23339586826354061 -0.3539524211851004 0 0.23204811719291779 -0.33532479601063409 0 0.2148142246021956 -0.35440494078226209 0 0.2125404456115573 -0.3333426100015644 0 0.24725496166677341 -0.36469484034826838 0 0.23339586826354061 -0.3539524211851004 0 0.22607167799098421 -0.37270743793131111 0 0.24725496166677341 -0.36469484034826838 0 0.22607167799098421 -0.37270743793131111 0 0.2462658744323834 -0.38197959250061342 0 0.25139118101367519 -0.34116546776705792 0 0.24725496166677341 -0.36469484034826838 0 0.23339586826354061 -0.3539524211851004 0 0.23204811719291779 -0.33532479601063409 0 0.23339586826354061 -0.3539524211851004 0 0.2148142246021956 -0.35440494078226209 0 0.23339586826354061 -0.3539524211851004 0 0.22607167799098421 -0.37270743793131111 0 0.2148142246021956 -0.35440494078226209 0 0.22607167799098421 -0.37270743793131111 0 0.2148142246021956 -0.35440494078226209 0 0.20089624558916569 -0.37097766955135358 0 0.2148142246021956 -0.35440494078226209 0 0.196995760569282 -0.35087166092684791 0 0.2125404456115573 -0.3333426100015644 0 0.2148142246021956 -0.35440494078226209 0 0.196995760569282 -0.35087166092684791 0 0.20089624558916569 -0.37097766955135358 0 0.196995760569282 -0.35087166092684791 0 0.20089624558916569 -0.37097766955135358 0 0.1768321188753432 -0.36690628541415632 0 0.22389522656661021 -0.30305800384549131 0 0.2125404456115573 -0.3333426100015644 0 0.1961972522999722 -0.32216937387389732 0 0.196995760569282 -0.35087166092684791 0 0.2125404456115573 -0.3333426100015644 0 0.1961972522999722 -0.32216937387389732 0 0.196995760569282 -0.35087166092684791 0 0.1961972522999722 -0.32216937387389732 0 0.1815461580693743 -0.3364132665531625 0 0.1815461580693743 -0.3364132665531625 0 0.1643579081553766 -0.3243843153562348 0 0.17947015261898311 -0.31043279954087621 0 0.1815461580693743 -0.3364132665531625 0 0.17947015261898311 -0.31043279954087621 0 0.1961972522999722 -0.32216937387389732 0 0.1815461580693743 -0.3364132665531625 0 0.17947015261898311 -0.31043279954087621 0 0.1815461580693743 -0.3364132665531625 0 0.16209568629271459 -0.34050931120228572 0 0.17381591925058279 -0.35045305017024581 0 0.16209568629271459 -0.34050931120228572 0 0.1643579081553766 -0.3243843153562348 0 0.1490492594086629 -0.33054926329457512 0 0.1815461580693743 -0.3364132665531625 0 0.16209568629271459 -0.34050931120228572 0 0.1643579081553766 -0.3243843153562348 0 0.1643579081553766 -0.3243843153562348 0 0.14785798951182749 -0.31747381703923983 0 0.15879613053988581 -0.31078255386998788 0 0.1643579081553766 -0.3243843153562348 0 0.17947015261898311 -0.31043279954087621 0 0.15879613053988581 -0.31078255386998788 0 0.196995760569282 -0.35087166092684791 0 0.1815461580693743 -0.3364132665531625 0 0.17381591925058279 -0.35045305017024581 0 0.196995760569282 -0.35087166092684791 0 0.1768321188753432 -0.36690628541415632 0 0.196995760569282 -0.35087166092684791 0 0.1768321188753432 -0.36690628541415632 0 0.17381591925058279 -0.35045305017024581 0 0.16209568629271459 -0.34050931120228572 0 0.17381591925058279 -0.35045305017024581 0 0.15160987244619981 -0.35756472675477641 0 0.1768321188753432 -0.36690628541415632 0 0.17381591925058279 -0.35045305017024581 0 0.15160987244619981 -0.35756472675477641 0 0.1768321188753432 -0.36690628541415632 0 0.15160987244619981 -0.35756472675477641 0 0.15666847718140431 -0.38294090990146468 0 0.1768321188753432 -0.36690628541415632 0 0.15666847718140431 -0.38294090990146468 0 0.15160987244619981 -0.35756472675477641 0 0.13564640110034021 -0.35912784543918008 0 0.13554014667972011 -0.37371994475541209 0 0.15160987244619981 -0.35756472675477641 0 0.13554014667972011 -0.37371994475541209 0 0.15666847718140431 -0.38294090990146468 0 0.16209568629271459 -0.34050931120228572 0 0.15160987244619981 -0.35756472675477641 0 0.1475882597035684 -0.34306743954738478 0 0.15160987244619981 -0.35756472675477641 0 0.1343114121946197 -0.3455365503022883 0 0.1475882597035684 -0.34306743954738478 0 0.15160987244619981 -0.35756472675477641 0 0.1343114121946197 -0.3455365503022883 0 0.13564640110034021 -0.35912784543918008 0 0.1343114121946197 -0.3455365503022883 0 0.1218367566819203 -0.34066885685305681 0 0.1211241730808211 -0.35969015994424403 0 0.1343114121946197 -0.3455365503022883 0 0.13564640110034021 -0.35912784543918008 0 0.1211241730808211 -0.35969015994424403 0 0.13564640110034021 -0.35912784543918008 0 0.13554014667972011 -0.37371994475541209 0 0.1211241730808211 -0.35969015994424403 0 0.1643579081553766 -0.3243843153562348 0 0.14785798951182749 -0.31747381703923983 0 0.1490492594086629 -0.33054926329457512 0 0.14785798951182749 -0.31747381703923983 0 0.1490492594086629 -0.33054926329457512 0 0.13601489266483169 -0.3229904494785929 0 0.16209568629271459 -0.34050931120228572 0 0.1490492594086629 -0.33054926329457512 0 0.1475882597035684 -0.34306743954738478 0 0.1490492594086629 -0.33054926329457512 0 0.1475882597035684 -0.34306743954738478 0 0.1353950678134421 -0.33468762657073647 0 0.1490492594086629 -0.33054926329457512 0 0.1353950678134421 -0.33468762657073647 0 0.13601489266483169 -0.3229904494785929 0 0.1343114121946197 -0.3455365503022883 0 0.1475882597035684 -0.34306743954738478 0 0.1353950678134421 -0.33468762657073647 0 0.1343114121946197 -0.3455365503022883 0 0.1353950678134421 -0.33468762657073647 0 0.1218367566819203 -0.34066885685305681 0 0.1353950678134421 -0.33468762657073647 0 0.12646864396445259 -0.32771949481933838 0 0.13601489266483169 -0.3229904494785929 0 0.1353950678134421 -0.33468762657073647 0 0.12646864396445259 -0.32771949481933838 0 0.1218367566819203 -0.34066885685305681 0 0.12646864396445259 -0.32771949481933838 0 0.13601489266483169 -0.3229904494785929 0 0.1236403595102975 -0.31726182602291142 0 0.14785798951182749 -0.31747381703923983 0 0.13601489266483169 -0.3229904494785929 0 0.13602289492267541 -0.31130305695836602 0 0.13601489266483169 -0.3229904494785929 0 0.13602289492267541 -0.31130305695836602 0 0.1236403595102975 -0.31726182602291142 0 0.127428615210958 -0.30550107704066293 0 0.13602289492267541 -0.31130305695836602 0 0.1236403595102975 -0.31726182602291142 0 0.127428615210958 -0.30550107704066293 0 0.13551093200295419 -0.30168473438614679 0 0.1256525224322369 -0.29448257816376899 0 0.127428615210958 -0.30550107704066293 0 0.13551093200295419 -0.30168473438614679 0 0.13602289492267541 -0.31130305695836602 0 0.13551093200295419 -0.30168473438614679 0 0.13602289492267541 -0.31130305695836602 0 0.14563569558381231 -0.30495269920752849 0 0.14563569558381231 -0.30495269920752849 0 0.1436119925904093 -0.29293491915627751 0 0.1604468518829657 -0.29816604611383052 0 0.14785798951182749 -0.31747381703923983 0 0.13602289492267541 -0.31130305695836602 0 0.14563569558381231 -0.30495269920752849 0 0.13551093200295419 -0.30168473438614679 0 0.14563569558381231 -0.30495269920752849 0 0.1436119925904093 -0.29293491915627751 0 0.14563569558381231 -0.30495269920752849 0 0.15879613053988581 -0.31078255386998788 0 0.1604468518829657 -0.29816604611383052 0 0.14785798951182749 -0.31747381703923983 0 0.14563569558381231 -0.30495269920752849 0 0.15879613053988581 -0.31078255386998788 0 0.1436119925904093 -0.29293491915627751 0 0.1604468518829657 -0.29816604611383052 0 0.15777299279611159 -0.28544097237972332 0 0.1436119925904093 -0.29293491915627751 0 0.15114809845108379 -0.28013278059363872 0 0.15777299279611159 -0.28544097237972332 0 0.1436119925904093 -0.29293491915627751 0 0.1436168584679525 -0.2836209543501686 0 0.1357133019824012 -0.28986653681351437 0 0.1436119925904093 -0.29293491915627751 0 0.1436168584679525 -0.2836209543501686 0 0.15114809845108379 -0.28013278059363872 0 0.1436168584679525 -0.2836209543501686 0 0.12997183443900701 -0.2884276955838429 0 0.14612074404546729 -0.27464986070998659 0 0.1436168584679525 -0.2836209543501686 0 0.1357133019824012 -0.28986653681351437 0 0.12997183443900701 -0.2884276955838429 0 0.1436119925904093 -0.29293491915627751 0 0.1256525224322369 -0.29448257816376899 0 0.12997183443900701 -0.2884276955838429 0 0.14612074404546729 -0.27464986070998659 0 0.1436119925904093 -0.29293491915627751 0 0.1357133019824012 -0.28986653681351437 0 0.1256525224322369 -0.29448257816376899 0 0.13551093200295419 -0.30168473438614679 0 0.1436119925904093 -0.29293491915627751 0 0.1256525224322369 -0.29448257816376899 0 0.1357133019824012 -0.28986653681351437 0 0.1256525224322369 -0.29448257816376899 0 0.12997183443900701 -0.2884276955838429 0 0.1256525224322369 -0.29448257816376899 0 0.12997183443900701 -0.2884276955838429 0 0.1225628758501054 -0.2947488287446996 0 0.1256525224322369 -0.29448257816376899 0 0.12997183443900701 -0.2884276955838429 0 0.12997183443900701 -0.2884276955838429 0 0.1233634239504731 -0.2874855776093414 0 0.1225628758501054 -0.2947488287446996 0 0.12997183443900701 -0.2884276955838429 0 0.1225628758501054 -0.2947488287446996 0 0.12997183443900701 -0.2884276955838429 0 0.1275993617664036 -0.28112518425861122 0 0.1233634239504731 -0.2874855776093414 0 0.12997183443900701 -0.2884276955838429 0 0.1275993617664036 -0.28112518425861122 0 0.13485463758425459 -0.27391652201106309 0 0.1275993617664036 -0.28112518425861122 0 0.1280966355330338 -0.27434446718476552 0 0.12144198577599689 -0.28043819023602667 0 0.12997183443900701 -0.2884276955838429 0 0.14612074404546729 -0.27464986070998659 0 0.1420233446603141 -0.27153369043062148 0 0.12997183443900701 -0.2884276955838429 0 0.13485463758425459 -0.27391652201106309 0 0.1420233446603141 -0.27153369043062148 0 0.12997183443900701 -0.2884276955838429 0 0.1420233446603141 -0.27153369043062148 0 0.1275993617664036 -0.28112518425861122 0 0.1280966355330338 -0.27434446718476552 0 0.13485463758425459 -0.27391652201106309 0 0.1280966355330338 -0.27434446718476552 0 0.13485463758425459 -0.27391652201106309 0 0.13350735252106491 -0.26509119559065258 0 0.1280966355330338 -0.27434446718476552 0 0.13350735252106491 -0.26509119559065258 0 0.123327112510175 -0.26381005316279871 0 0.13811143923488059 -0.26777882680588339 0 0.13485463758425459 -0.27391652201106309 0 0.13350735252106491 -0.26509119559065258 0 0.13811143923488059 -0.26777882680588339 0 0.13485463758425459 -0.27391652201106309 0 0.1420233446603141 -0.27153369043062148 0 0.13350735252106491 -0.26509119559065258 0 0.1338120645475761 -0.25178135897747889 0 0.123327112510175 -0.26381005316279871 0 0.13350735252106491 -0.26509119559065258 0 0.1338120645475761 -0.25178135897747889 0 0.1420604221738889 -0.26057389919119672 0 0.13811143923488059 -0.26777882680588339 0 0.13350735252106491 -0.26509119559065258 0 0.1420604221738889 -0.26057389919119672 0 0.15407485488162029 -0.25463968527739939 0 0.1420233446603141 -0.27153369043062148 0 0.1338120645475761 -0.25178135897747889 0 0.15081333679343489 -0.24957271686280691 0 0.1504037114514421 -0.26476637401943331 0 0.15407485488162029 -0.25463968527739939 0 0.1420233446603141 -0.27153369043062148 0 0.1420604221738889 -0.26057389919119672 0 0.15407485488162029 -0.25463968527739939 0 0.1420233446603141 -0.27153369043062148 0 0.1338120645475761 -0.25178135897747889 0 0.14898820642875321 -0.25263106074458241 0 0.15081333679343489 -0.24957271686280691 0 0.1420604221738889 -0.26057389919119672 0 0.14898820642875321 -0.25263106074458241 0 0.15407485488162029 -0.25463968527739939 0 0.1338120645475761 -0.25178135897747889 0 0.14898820642875321 -0.25263106074458241 0 0.1338120645475761 -0.25178135897747889 0 0.1420604221738889 -0.26057389919119672 0 0.14898820642875321 -0.25263106074458241 0 0.1504037114514421 -0.26476637401943331 0 0.15407485488162029 -0.25463968527739939 0 0.15854298516514259 -0.2623064548534918 0 0.1504037114514421 -0.26476637401943331 0 0.15545765769127859 -0.26765705275147811 0 0.15854298516514259 -0.2623064548534918 0 0.14898820642875321 -0.25263106074458241 0 0.15407485488162029 -0.25463968527739939 0 0.16416434830993021 -0.25348076251168611 0 0.14898820642875321 -0.25263106074458241 0 0.16416434830993021 -0.25348076251168611 0 0.15081333679343489 -0.24957271686280691 0 0.1436168584679525 -0.2836209543501686 0 0.14612074404546729 -0.27464986070998659 0 0.15114809845108379 -0.28013278059363872 0 0.13811143923488059 -0.26777882680588339 0 0.1420604221738889 -0.26057389919119672 0 0.1420233446603141 -0.27153369043062148 0 0.1504037114514421 -0.26476637401943331 0 0.1420233446603141 -0.27153369043062148 0 0.14774651714261711 -0.27061417123897102 0 0.14612074404546729 -0.27464986070998659 0 0.1420233446603141 -0.27153369043062148 0 0.14774651714261711 -0.27061417123897102 0 0.15545765769127859 -0.26765705275147811 0 0.1524382684132447 -0.27150675979584271 0 0.16044566573528521 -0.27204862233714472 0 0.14612074404546729 -0.27464986070998659 0 0.14774651714261711 -0.27061417123897102 0 0.1524382684132447 -0.27150675979584271 0 0.1504037114514421 -0.26476637401943331 0 0.14774651714261711 -0.27061417123897102 0 0.1524382684132447 -0.27150675979584271 0 0.1504037114514421 -0.26476637401943331 0 0.15545765769127859 -0.26765705275147811 0 0.1524382684132447 -0.27150675979584271 0 0.1524382684132447 -0.27150675979584271 0 0.15114809845108379 -0.28013278059363872 0 0.16044566573528521 -0.27204862233714472 0 0.14612074404546729 -0.27464986070998659 0 0.1524382684132447 -0.27150675979584271 0 0.15114809845108379 -0.28013278059363872 0 0.16044566573528521 -0.27204862233714472 0 0.16717305761943019 -0.26615200754944318 0 0.177394147168592 -0.28445233252858981 0 0.16044566573528521 -0.27204862233714472 0 0.177394147168592 -0.28445233252858981 0 0.15777299279611159 -0.28544097237972332 0 0.15114809845108379 -0.28013278059363872 0 0.16044566573528521 -0.27204862233714472 0 0.15777299279611159 -0.28544097237972332 0 0.15545765769127859 -0.26765705275147811 0 0.16044566573528521 -0.27204862233714472 0 0.15854298516514259 -0.2623064548534918 0 0.16044566573528521 -0.27204862233714472 0 0.16717305761943019 -0.26615200754944318 0 0.15854298516514259 -0.2623064548534918 0 0.15407485488162029 -0.25463968527739939 0 0.15854298516514259 -0.2623064548534918 0 0.16416434830993021 -0.25348076251168611 0 0.14898820642875321 -0.25263106074458241 0 0.16416434830993021 -0.25348076251168611 0 0.16416434830993021 -0.25348076251168611 0 0.15746623258843939 -0.24717962177743169 0 0.15081333679343489 -0.24957271686280691 0 0.16717305761943019 -0.26615200754944318 0 0.15854298516514259 -0.2623064548534918 0 0.16416434830993021 -0.25348076251168611 0 0.16717305761943019 -0.26615200754944318 0 0.16416434830993021 -0.25348076251168611 0 0.17531814171820079 -0.25847186551630352 0 0.1934777637386868 -0.26196852324515157 0 0.17531814171820079 -0.25847186551630352 0 0.18140855909891221 -0.24875385404173869 0 0.16717305761943019 -0.26615200754944318 0 0.17531814171820079 -0.25847186551630352 0 0.177394147168592 -0.28445233252858981 0 0.1934777637386868 -0.26196852324515157 0 0.17531814171820079 -0.25847186551630352 0 0.177394147168592 -0.28445233252858981 0 0.17531814171820079 -0.25847186551630352 0 0.177394147168592 -0.28445233252858981 0 0.177394147168592 -0.28445233252858981 0 0.17947015261898311 -0.31043279954087621 0 0.1604468518829657 -0.29816604611383052 0 0.19954461577109309 -0.29575554500421197 0 0.177394147168592 -0.28445233252858981 0 0.17947015261898311 -0.31043279954087621 0 0.177394147168592 -0.28445233252858981 0 0.17947015261898311 -0.31043279954087621 0 0.17947015261898311 -0.31043279954087621 0 0.15879613053988581 -0.31078255386998788 0 0.1604468518829657 -0.29816604611383052 0 0.177394147168592 -0.28445233252858981 0 0.1604468518829657 -0.29816604611383052 0 0.15777299279611159 -0.28544097237972332 0 0.19199278516569629 -0.5 0 0.1900164382224285 -0.48271496941050879 0 0.20545646434069309 -0.4787017342280358 0 0.1900164382224285 -0.48271496941050879 0 0.20545646434069309 -0.4787017342280358 0 0.18613842771148381 -0.46787851807202258 0 0.20545646434069309 -0.4787017342280358 0 0.2281108343262262 -0.48056582836830158 0 0.21973600360042431 -0.45949417383294189 0 0.20545646434069309 -0.4787017342280358 0 0.21796904096784361 -0.5 0 0.2281108343262262 -0.48056582836830158 0 0.19199278516569629 -0.5 0 0.20545646434069309 -0.4787017342280358 0 0.21796904096784361 -0.5 0 0.21796904096784361 -0.5 0 0.24394529676999099 -0.5 0 0.2281108343262262 -0.48056582836830158 0 0.25460761733926612 -0.48077428153223201 0 0.24394529676999099 -0.5 0 0.2281108343262262 -0.48056582836830158 0 0.2281108343262262 -0.48056582836830158 0 0.24642569303344669 -0.46176391886762419 0 0.25460761733926612 -0.48077428153223201 0 0.2281108343262262 -0.48056582836830158 0 0.24642569303344669 -0.46176391886762419 0 0.2281108343262262 -0.48056582836830158 0 0.21973600360042431 -0.45949417383294189 0 0.2323887624892686 -0.4611014010944845 0 0.21973600360042431 -0.45949417383294189 0 0.2323887624892686 -0.4611014010944845 0 0.23528251899697711 -0.44258168330907049 0 0.2281108343262262 -0.48056582836830158 0 0.2323887624892686 -0.4611014010944845 0 0.24642569303344669 -0.46176391886762419 0 0.2323887624892686 -0.4611014010944845 0 0.24642569303344669 -0.46176391886762419 0 0.23528251899697711 -0.44258168330907049 0 0.2647405517406643 -0.44296200936694391 0 0.23528251899697711 -0.44258168330907049 0 0.24937758952868769 -0.43582476186075059 0 0.2647405517406643 -0.44296200936694391 0 0.24642569303344669 -0.46176391886762419 0 0.23528251899697711 -0.44258168330907049 0 0.21973600360042431 -0.45949417383294189 0 0.23528251899697711 -0.44258168330907049 0 0.20582448625328989 -0.44220135725120002 0 0.23528251899697711 -0.44258168330907049 0 0.20582448625328989 -0.44220135725120002 0 0.23528251899697711 -0.44258168330907049 0 0.20582448625328989 -0.44220135725120002 0 0.22256526670295609 -0.43567624475563838 0 0.20545646434069309 -0.4787017342280358 0 0.21973600360042431 -0.45949417383294189 0 0.202602484605724 -0.45942999972385479 0 0.21973600360042431 -0.45949417383294189 0 0.20582448625328989 -0.44220135725120002 0 0.202602484605724 -0.45942999972385479 0 0.202602484605724 -0.45942999972385479 0 0.19228485390892139 -0.44832807257495588 0 0.18613842771148381 -0.46787851807202258 0 0.20545646434069309 -0.4787017342280358 0 0.202602484605724 -0.45942999972385479 0 0.18613842771148381 -0.46787851807202258 0 0.20582448625328989 -0.44220135725120002 0 0.202602484605724 -0.45942999972385479 0 0.19228485390892139 -0.44832807257495588 0 0.20582448625328989 -0.44220135725120002 0 0.19228485390892139 -0.44832807257495588 0 0.1986877949313606 -0.42882383702638299 0 0.19228485390892139 -0.44832807257495588 0 0.1986877949313606 -0.42882383702638299 0 0.183200271073473 -0.43641073338783498 0 0.1986877949313606 -0.42882383702638299 0 0.1816281482625339 -0.41415137017959991 0 0.183200271073473 -0.43641073338783498 0 0.20582455939560251 -0.41258395769508027 0 0.1950935246886642 -0.40110820421824778 0 0.1816281482625339 -0.41415137017959991 0 0.1986877949313606 -0.42882383702638299 0 0.20582455939560251 -0.41258395769508027 0 0.1816281482625339 -0.41415137017959991 0 0.20582455939560251 -0.41258395769508027 0 0.21384958020830239 -0.42892716952759119 0 0.2218345854540221 -0.41854111548045619 0 0.20582455939560251 -0.41258395769508027 0 0.2218345854540221 -0.41854111548045619 0 0.2220903860499629 -0.40641314768071007 0 0.1986877949313606 -0.42882383702638299 0 0.20582455939560251 -0.41258395769508027 0 0.21384958020830239 -0.42892716952759119 0 0.20582448625328989 -0.44220135725120002 0 0.21384958020830239 -0.42892716952759119 0 0.22256526670295609 -0.43567624475563838 0 0.20582448625328989 -0.44220135725120002 0 0.1986877949313606 -0.42882383702638299 0 0.21384958020830239 -0.42892716952759119 0 0.21384958020830239 -0.42892716952759119 0 0.22256526670295609 -0.43567624475563838 0 0.23530448135325491 -0.42899476893469179 0 0.21384958020830239 -0.42892716952759119 0 0.23530448135325491 -0.42899476893469179 0 0.21384958020830239 -0.42892716952759119 0 0.23530448135325491 -0.42899476893469179 0 0.2218345854540221 -0.41854111548045619 0 0.23528251899697711 -0.44258168330907049 0 0.22256526670295609 -0.43567624475563838 0 0.23530448135325491 -0.42899476893469179 0 0.25675938249820729 -0.42906236834179229 0 0.23530448135325491 -0.42899476893469179 0 0.23528251899697711 -0.44258168330907049 0 0.23530448135325491 -0.42899476893469179 0 0.24937758952868769 -0.43582476186075059 0 0.25675938249820729 -0.42906236834179229 0 0.23530448135325491 -0.42899476893469179 0 0.24471655788437549 -0.41836465708289111 0 0.25675938249820729 -0.42906236834179229 0 0.23530448135325491 -0.42899476893469179 0 0.24937758952868769 -0.43582476186075059 0 0.25834465052961392 -0.41196496969487773 0 0.24471655788437549 -0.41836465708289111 0 0.2415255849161019 -0.40609463635975013 0 0.23530448135325491 -0.42899476893469179 0 0.24471655788437549 -0.41836465708289111 0 0.23210392026298771 -0.41578653356420769 0 0.24471655788437549 -0.41836465708289111 0 0.23210392026298771 -0.41578653356420769 0 0.2415255849161019 -0.40609463635975013 0 0.23210392026298771 -0.41578653356420769 0 0.2220903860499629 -0.40641314768071007 0 0.2415255849161019 -0.40609463635975013 0 0.23530448135325491 -0.42899476893469179 0 0.23210392026298771 -0.41578653356420769 0 0.2218345854540221 -0.41854111548045619 0 0.23210392026298771 -0.41578653356420769 0 0.2218345854540221 -0.41854111548045619 0 0.2220903860499629 -0.40641314768071007 0 0.2220903860499629 -0.40641314768071007 0 0.2325848323457651 -0.39226733923237422 0 0.2415255849161019 -0.40609463635975013 0 0.2220903860499629 -0.40641314768071007 0 0.2325848323457651 -0.39226733923237422 0 0.20793944219493879 -0.39039719718598698 0 0.25113336278303172 -0.39639034007073559 0 0.2325848323457651 -0.39226733923237422 0 0.2415255849161019 -0.40609463635975013 0 0.25113336278303172 -0.39639034007073559 0 0.2325848323457651 -0.39226733923237422 0 0.2462658744323834 -0.38197959250061342 0 0.22607167799098421 -0.37270743793131111 0 0.2325848323457651 -0.39226733923237422 0 0.2462658744323834 -0.38197959250061342 0 0.22607167799098421 -0.37270743793131111 0 0.2325848323457651 -0.39226733923237422 0 0.20793944219493879 -0.39039719718598698 0 0.22607167799098421 -0.37270743793131111 0 0.20089624558916569 -0.37097766955135358 0 0.20793944219493879 -0.39039719718598698 0 0.20582455939560251 -0.41258395769508027 0 0.2220903860499629 -0.40641314768071007 0 0.20793944219493879 -0.39039719718598698 0 0.20793944219493879 -0.39039719718598698 0 0.1950935246886642 -0.40110820421824778 0 0.18397260247544159 -0.38969422049886882 0 0.20582455939560251 -0.41258395769508027 0 0.20793944219493879 -0.39039719718598698 0 0.1950935246886642 -0.40110820421824778 0 0.20089624558916569 -0.37097766955135358 0 0.20793944219493879 -0.39039719718598698 0 0.18397260247544159 -0.38969422049886882 0 0.20089624558916569 -0.37097766955135358 0 0.1768321188753432 -0.36690628541415632 0 0.18397260247544159 -0.38969422049886882 0 0.1768321188753432 -0.36690628541415632 0 0.18397260247544159 -0.38969422049886882 0 0.15666847718140431 -0.38294090990146468 0 0.1950935246886642 -0.40110820421824778 0 0.18397260247544159 -0.38969422049886882 0 0.1816281482625339 -0.41415137017959991 0 0.18397260247544159 -0.38969422049886882 0 0.16282522567504601 -0.40076461101477862 0 0.1816281482625339 -0.41415137017959991 0 0.18397260247544159 -0.38969422049886882 0 0.16282522567504601 -0.40076461101477862 0 0.15666847718140431 -0.38294090990146468 0 0.13554014667972011 -0.37371994475541209 0 0.15666847718140431 -0.38294090990146468 0 0.13650483548746539 -0.39897553438877298 0 0.13554014667972011 -0.37371994475541209 0 0.13650483548746539 -0.39897553438877298 0 0.11257503074115451 -0.38498649823446041 0 0.16282522567504601 -0.40076461101477862 0 0.13650483548746539 -0.39897553438877298 0 0.15535206496838491 -0.41806102010518609 0 0.16282522567504601 -0.40076461101477862 0 0.15666847718140431 -0.38294090990146468 0 0.13650483548746539 -0.39897553438877298 0 0.15666847718140431 -0.38294090990146468 0 0.13650483548746539 -0.39897553438877298 0 0.13650483548746539 -0.39897553438877298 0 0.15535206496838491 -0.41806102010518609 0 0.13513029091253781 -0.42041342615249999 0 0.13650483548746539 -0.39897553438877298 0 0.1163411937935266 -0.41501015887608139 0 0.13650483548746539 -0.39897553438877298 0 0.13513029091253781 -0.42041342615249999 0 0.1163411937935266 -0.41501015887608139 0 0.13513029091253781 -0.42041342615249999 0 0.15032059054535499 -0.43467939270726969 0 0.13254635452133279 -0.44085243440563188 0 0.13513029091253781 -0.42041342615249999 0 0.13254635452133279 -0.44085243440563188 0 0.1143868512917591 -0.43285467588419202 0 0.15535206496838491 -0.41806102010518609 0 0.13513029091253781 -0.42041342615249999 0 0.15032059054535499 -0.43467939270726969 0 0.15535206496838491 -0.41806102010518609 0 0.15032059054535499 -0.43467939270726969 0 0.16908223299646141 -0.42841704329178959 0 0.15032059054535499 -0.43467939270726969 0 0.16908223299646141 -0.42841704329178959 0 0.16335318746445779 -0.4445252196366028 0 0.16282522567504601 -0.40076461101477862 0 0.15535206496838491 -0.41806102010518609 0 0.1816281482625339 -0.41415137017959991 0 0.15535206496838491 -0.41806102010518609 0 0.16908223299646141 -0.42841704329178959 0 0.1816281482625339 -0.41415137017959991 0 0.16908223299646141 -0.42841704329178959 0 0.183200271073473 -0.43641073338783498 0 0.16335318746445779 -0.4445252196366028 0 0.16908223299646141 -0.42841704329178959 0 0.1816281482625339 -0.41415137017959991 0 0.183200271073473 -0.43641073338783498 0 0.183200271073473 -0.43641073338783498 0 0.1772803827575771 -0.45352317498248768 0 0.16335318746445779 -0.4445252196366028 0 0.19228485390892139 -0.44832807257495588 0 0.183200271073473 -0.43641073338783498 0 0.1772803827575771 -0.45352317498248768 0 0.19228485390892139 -0.44832807257495588 0 0.1772803827575771 -0.45352317498248768 0 0.18613842771148381 -0.46787851807202258 0 0.1772803827575771 -0.45352317498248768 0 0.18613842771148381 -0.46787851807202258 0 0.16548752239589951 -0.46480458862744461 0 0.16548752239589951 -0.46480458862744461 0 0.16335318746445779 -0.4445252196366028 0 0.1464594124089553 -0.4558072126519076 0 0.1772803827575771 -0.45352317498248768 0 0.16548752239589951 -0.46480458862744461 0 0.16335318746445779 -0.4445252196366028 0 0.15032059054535499 -0.43467939270726969 0 0.16335318746445779 -0.4445252196366028 0 0.1464594124089553 -0.4558072126519076 0 0.15032059054535499 -0.43467939270726969 0 0.13254635452133279 -0.44085243440563188 0 0.1464594124089553 -0.4558072126519076 0 0.13254635452133279 -0.44085243440563188 0 0.1274715551183096 -0.46736641087901343 0 0.1464594124089553 -0.4558072126519076 0 0.16548752239589951 -0.46480458862744461 0 0.1464594124089553 -0.4558072126519076 0 0.1467440422409298 -0.48368320543950499 0 0.1274715551183096 -0.46736641087901343 0 0.1467440422409298 -0.48368320543950499 0 0.12445287299781339 -0.48580957524003149 0 0.1274715551183096 -0.46736641087901343 0 0.1464594124089553 -0.4558072126519076 0 0.1467440422409298 -0.48368320543950499 0 0.1274715551183096 -0.46736641087901343 0 0.1467440422409298 -0.48368320543950499 0 0.1467440422409298 -0.48368320543950499 0 0.13861342094189541 -0.5 0 0.12445287299781339 -0.48580957524003149 0 0.1467440422409298 -0.48368320543950499 0 0.13861342094189541 -0.5 0 0.16601652936354891 -0.49999999999999789 0 0.1467440422409298 -0.48368320543950499 0 0.16601652936354891 -0.49999999999999789 0 0.1742528725293658 -0.48296598532830509 0 0.1467440422409298 -0.48368320543950499 0 0.16601652936354891 -0.49999999999999789 0 0.16548752239589951 -0.46480458862744461 0 0.1467440422409298 -0.48368320543950499 0 0.1742528725293658 -0.48296598532830509 0 0.18613842771148381 -0.46787851807202258 0 0.16548752239589951 -0.46480458862744461 0 0.1742528725293658 -0.48296598532830509 0 0.1900164382224285 -0.48271496941050879 0 0.18613842771148381 -0.46787851807202258 0 0.1742528725293658 -0.48296598532830509 0 0.19199278516569629 -0.5 0 0.16601652936354891 -0.49999999999999789 0 0.1742528725293658 -0.48296598532830509 0 0.19199278516569629 -0.5 0 0.1900164382224285 -0.48271496941050879 0 0.1742528725293658 -0.48296598532830509 0 0.067672963152933252 -0.5 0 0.070479040632291823 -0.48264211959480191 0 0.053020152767299072 -0.48801933676575959 0 0.067672963152933252 -0.5 0 0.070479040632291823 -0.48264211959480191 0 0.080327064833409109 -0.49320164294834518 0 0.064630060102032719 -0.47456076603106118 0 0.075246676549625066 -0.47305272083988897 0 0.070479040632291823 -0.48264211959480191 0 0.064630060102032719 -0.47456076603106118 0 0.075246676549625066 -0.47305272083988897 0 0.061795930812101732 -0.46820781613902701 0 0.075246676549625066 -0.47305272083988897 0 0.092517011764567517 -0.47378197497117353 0 0.089959488850471461 -0.49094383163907668 0 0.075246676549625066 -0.47305272083988897 0 0.070479040632291823 -0.48264211959480191 0 0.089959488850471461 -0.49094383163907668 0 0.075246676549625066 -0.47305272083988897 0 0.092517011764567517 -0.47378197497117353 0 0.083633368414380696 -0.46621164320728742 0 0.075246676549625066 -0.47305272083988897 0 0.089959488850471461 -0.49094383163907668 0 0.067672963152933252 -0.5 0 0.080327064833409109 -0.49320164294834518 0 0.097406857924120502 -0.499999999999999 0 0.080327064833409109 -0.49320164294834518 0 0.089959488850471461 -0.49094383163907668 0 0.097406857924120502 -0.499999999999999 0 0.070479040632291823 -0.48264211959480191 0 0.080327064833409109 -0.49320164294834518 0 0.089959488850471461 -0.49094383163907668 0 0.070479040632291823 -0.48264211959480191 0 0.089959488850471461 -0.49094383163907668 0 0.089959488850471461 -0.49094383163907668 0 0.097406857924120502 -0.499999999999999 0 0.089959488850471461 -0.49094383163907668 0 0.097406857924120502 -0.499999999999999 0 0.1112103125202419 -0.50000000000000022 0 0.089959488850471461 -0.49094383163907668 0 0.1052052932537345 -0.48462989700511527 0 0.1112103125202419 -0.50000000000000022 0 0.089959488850471461 -0.49094383163907668 0 0.1112103125202419 -0.50000000000000022 0 0.1052052932537345 -0.48462989700511527 0 0.1112103125202419 -0.50000000000000022 0 0.12445287299781339 -0.48580957524003149 0 0.13861342094189541 -0.5 0 0.1112103125202419 -0.50000000000000022 0 0.12445287299781339 -0.48580957524003149 0 0.1052052932537345 -0.48462989700511527 0 0.12445287299781339 -0.48580957524003149 0 0.10908141417361709 -0.46883823252096812 0 0.1274715551183096 -0.46736641087901343 0 0.12445287299781339 -0.48580957524003149 0 0.10908141417361709 -0.46883823252096812 0 0.092517011764567517 -0.47378197497117353 0 0.089959488850471461 -0.49094383163907668 0 0.1052052932537345 -0.48462989700511527 0 0.092517011764567517 -0.47378197497117353 0 0.1052052932537345 -0.48462989700511527 0 0.10908141417361709 -0.46883823252096812 0 0.092517011764567517 -0.47378197497117353 0 0.10908141417361709 -0.46883823252096812 0 0.090724871429903375 -0.45809280890615561 0 0.10908141417361709 -0.46883823252096812 0 0.1081990679956894 -0.4510496163185217 0 0.090724871429903375 -0.45809280890615561 0 0.1274715551183096 -0.46736641087901343 0 0.10908141417361709 -0.46883823252096812 0 0.1081990679956894 -0.4510496163185217 0 0.1274715551183096 -0.46736641087901343 0 0.1081990679956894 -0.4510496163185217 0 0.13254635452133279 -0.44085243440563188 0 0.1274715551183096 -0.46736641087901343 0 0.1081990679956894 -0.4510496163185217 0 0.13254635452133279 -0.44085243440563188 0 0.1081990679956894 -0.4510496163185217 0 0.1143868512917591 -0.43285467588419202 0 0.1081990679956894 -0.4510496163185217 0 0.09424645164530171 -0.44210268425789312 0 0.090724871429903375 -0.45809280890615561 0 0.1081990679956894 -0.4510496163185217 0 0.09424645164530171 -0.44210268425789312 0 0.1143868512917591 -0.43285467588419202 0 0.09424645164530171 -0.44210268425789312 0 0.078924008128618786 -0.44927425917818692 0 0.090724871429903375 -0.45809280890615561 0 0.09424645164530171 -0.44210268425789312 0 0.078924008128618786 -0.44927425917818692 0 0.079815715379254276 -0.43713965414436617 0 0.092517011764567517 -0.47378197497117353 0 0.090724871429903375 -0.45809280890615561 0 0.083633368414380696 -0.46621164320728742 0 0.075246676549625066 -0.47305272083988897 0 0.083633368414380696 -0.46621164320728742 0 0.07604491391342684 -0.45991906811193117 0 0.090724871429903375 -0.45809280890615561 0 0.083633368414380696 -0.46621164320728742 0 0.07604491391342684 -0.45991906811193117 0 0.078924008128618786 -0.44927425917818692 0 0.090724871429903375 -0.45809280890615561 0 0.07604491391342684 -0.45991906811193117 0 0.075246676549625066 -0.47305272083988897 0 0.07604491391342684 -0.45991906811193117 0 0.060533864248779268 -0.45516161004070088 0 0.075246676549625066 -0.47305272083988897 0 0.060533864248779268 -0.45516161004070088 0 0.061795930812101732 -0.46820781613902701 0 0.078924008128618786 -0.44927425917818692 0 0.07604491391342684 -0.45991906811193117 0 0.066742638013750744 -0.45361708446569943 0 0.075246676549625066 -0.47305272083988897 0 0.060533864248779268 -0.45516161004070088 0 0.07604491391342684 -0.45991906811193117 0 0.066742638013750744 -0.45361708446569943 0 0.060533864248779268 -0.45516161004070088 0 0.066742638013750744 -0.45361708446569943 0 0.060533864248779268 -0.45516161004070088 0 0.066742638013750744 -0.45361708446569943 0 0.070851891070507364 -0.4429924727175758 0 0.060604784186928162 -0.44219524034701829 0 0.066742638013750744 -0.45361708446569943 0 0.060604784186928162 -0.44219524034701829 0 0.060533864248779268 -0.45516161004070088 0 0.070851891070507364 -0.4429924727175758 0 0.068700271916894928 -0.43290455926873739 0 0.060604784186928162 -0.44219524034701829 0 0.078924008128618786 -0.44927425917818692 0 0.070851891070507364 -0.4429924727175758 0 0.079815715379254276 -0.43713965414436617 0 0.070851891070507364 -0.4429924727175758 0 0.068700271916894928 -0.43290455926873739 0 0.079815715379254276 -0.43713965414436617 0 0.078924008128618786 -0.44927425917818692 0 0.066742638013750744 -0.45361708446569943 0 0.070851891070507364 -0.4429924727175758 0 0.068700271916894928 -0.43290455926873739 0 0.078113452497016317 -0.41994308157894578 0 0.079815715379254276 -0.43713965414436617 0 0.068700271916894928 -0.43290455926873739 0 0.078113452497016317 -0.41994308157894578 0 0.058719347470543831 -0.42372109043242612 0 0.068700271916894928 -0.43290455926873739 0 0.058719347470543831 -0.42372109043242612 0 0.060604784186928162 -0.44219524034701829 0 0.078113452497016317 -0.41994308157894578 0 0.070468827029821934 -0.40290810194725279 0 0.058719347470543831 -0.42372109043242612 0 0.078113452497016317 -0.41994308157894578 0 0.093810327587010828 -0.40408349715757252 0 0.070468827029821934 -0.40290810194725279 0 0.078113452497016317 -0.41994308157894578 0 0.096321857990668808 -0.42533267408736197 0 0.093810327587010828 -0.40408349715757252 0 0.078113452497016317 -0.41994308157894578 0 0.079815715379254276 -0.43713965414436617 0 0.096321857990668808 -0.42533267408736197 0 0.09424645164530171 -0.44210268425789312 0 0.079815715379254276 -0.43713965414436617 0 0.096321857990668808 -0.42533267408736197 0 0.09424645164530171 -0.44210268425789312 0 0.096321857990668808 -0.42533267408736197 0 0.1143868512917591 -0.43285467588419202 0 0.096321857990668808 -0.42533267408736197 0 0.1143868512917591 -0.43285467588419202 0 0.1163411937935266 -0.41501015887608139 0 0.13513029091253781 -0.42041342615249999 0 0.1143868512917591 -0.43285467588419202 0 0.1163411937935266 -0.41501015887608139 0 0.096321857990668808 -0.42533267408736197 0 0.1163411937935266 -0.41501015887608139 0 0.093810327587010828 -0.40408349715757252 0 0.1163411937935266 -0.41501015887608139 0 0.093810327587010828 -0.40408349715757252 0 0.11257503074115451 -0.38498649823446041 0 0.13650483548746539 -0.39897553438877298 0 0.1163411937935266 -0.41501015887608139 0 0.11257503074115451 -0.38498649823446041 0 0.11257503074115451 -0.38498649823446041 0 0.085185771917526548 -0.37977283474271561 0 0.10079201747098269 -0.36412242239479142 0 0.093810327587010828 -0.40408349715757252 0 0.11257503074115451 -0.38498649823446041 0 0.085185771917526548 -0.37977283474271561 0 0.093810327587010828 -0.40408349715757252 0 0.085185771917526548 -0.37977283474271561 0 0.070468827029821934 -0.40290810194725279 0 0.085185771917526548 -0.37977283474271561 0 0.070468827029821934 -0.40290810194725279 0 0.057841008155207027 -0.38245658693310142 0 0.070468827029821934 -0.40290810194725279 0 0.057841008155207027 -0.38245658693310142 0 0.049143054551627013 -0.40747152083875582 0 0.057841008155207027 -0.38245658693310142 0 0.043656632087297011 -0.39232656597616861 0 0.049143054551627013 -0.40747152083875582 0 0.043656632087297011 -0.39232656597616861 0 0.028999000949789959 -0.40147898970888801 0 0.049143054551627013 -0.40747152083875582 0 0.043656632087297011 -0.39232656597616861 0 0.028999000949789959 -0.40147898970888801 0 0.032111139506758431 -0.37191992684122582 0 0.057841008155207027 -0.38245658693310142 0 0.043656632087297011 -0.39232656597616861 0 0.032111139506758431 -0.37191992684122582 0 0.011472045166716269 -0.38952867199447438 0 0.032111139506758431 -0.37191992684122582 0 0.011472045166716269 -0.38952867199447438 0 0.028999000949789959 -0.40147898970888801 0 0.032111139506758431 -0.37191992684122582 0 0.011472045166716269 -0.38952867199447438 0 0.032111139506758431 -0.37191992684122582 0 0.0095024714850780283 -0.37458082262515818 0 -0.0042332821090469977 -0.36931681778231101 0 -0.0014384839491562609 -0.38294108750953337 0 0.0095024714850780283 -0.37458082262515818 0 -0.0014384839491562609 -0.38294108750953337 0 0.011472045166716269 -0.38952867199447438 0 0.0095024714850780283 -0.37458082262515818 0 -0.0091670491733258502 -0.407137417147723 0 0.011472045166716269 -0.38952867199447438 0 0.005108664055598287 -0.40528738143041459 0 0.011472045166716269 -0.38952867199447438 0 0.005108664055598287 -0.40528738143041459 0 0.01434864661312045 -0.40656634948070969 0 -0.0091670491733258502 -0.407137417147723 0 0.011472045166716269 -0.38952867199447438 0 0.011472045166716269 -0.38952867199447438 0 0.028999000949789959 -0.40147898970888801 0 0.01434864661312045 -0.40656634948070969 0 0.028999000949789959 -0.40147898970888801 0 0.01434864661312045 -0.40656634948070969 0 0.016816745003192791 -0.42357542462247538 0 0.028999000949789959 -0.40147898970888801 0 0.016816745003192791 -0.42357542462247538 0 0.038035624732997701 -0.42318917072202022 0 0.01434864661312045 -0.40656634948070969 0 0.0037810136158822729 -0.41791708709875131 0 0.016816745003192791 -0.42357542462247538 0 0.005108664055598287 -0.40528738143041459 0 0.01434864661312045 -0.40656634948070969 0 0.0037810136158822729 -0.41791708709875131 0 0.00079488181500260609 -0.42987501851034571 0 0.016816745003192791 -0.42357542462247538 0 0.0068165806591294316 -0.44348526320397952 0 0.0037810136158822729 -0.41791708709875131 0 0.00079488181500260609 -0.42987501851034571 0 0.016816745003192791 -0.42357542462247538 0 0.016816745003192791 -0.42357542462247538 0 0.038035624732997701 -0.42318917072202022 0 0.02666676983233552 -0.44312735458325581 0 0.016816745003192791 -0.42357542462247538 0 0.02666676983233552 -0.44312735458325581 0 0.0068165806591294316 -0.44348526320397952 0 0.038035624732997701 -0.42318917072202022 0 0.047868830590497097 -0.43976064414632088 0 0.02666676983233552 -0.44312735458325581 0 0.028999000949789959 -0.40147898970888801 0 0.038035624732997701 -0.42318917072202022 0 0.049143054551627013 -0.40747152083875582 0 0.070468827029821934 -0.40290810194725279 0 0.049143054551627013 -0.40747152083875582 0 0.058719347470543831 -0.42372109043242612 0 0.038035624732997701 -0.42318917072202022 0 0.049143054551627013 -0.40747152083875582 0 0.058719347470543831 -0.42372109043242612 0 0.058719347470543831 -0.42372109043242612 0 0.047868830590497097 -0.43976064414632088 0 0.060604784186928162 -0.44219524034701829 0 0.038035624732997701 -0.42318917072202022 0 0.058719347470543831 -0.42372109043242612 0 0.047868830590497097 -0.43976064414632088 0 0.047868830590497097 -0.43976064414632088 0 0.060533864248779268 -0.45516161004070088 0 0.03684497090434212 -0.46105457747661138 0 0.047868830590497097 -0.43976064414632088 0 0.060533864248779268 -0.45516161004070088 0 0.047868830590497097 -0.43976064414632088 0 0.060604784186928162 -0.44219524034701829 0 0.060533864248779268 -0.45516161004070088 0 0.060533864248779268 -0.45516161004070088 0 0.03684497090434212 -0.46105457747661138 0 0.060533864248779268 -0.45516161004070088 0 0.052543339594833843 -0.46469110280171649 0 0.03684497090434212 -0.46105457747661138 0 0.060533864248779268 -0.45516161004070088 0 0.061795930812101732 -0.46820781613902701 0 0.052543339594833843 -0.46469110280171649 0 0.052543339594833843 -0.46469110280171649 0 0.03684497090434212 -0.46105457747661138 0 0.050998592414112261 -0.47434040755052698 0 0.047868830590497097 -0.43976064414632088 0 0.03684497090434212 -0.46105457747661138 0 0.02666676983233552 -0.44312735458325581 0 0.02666676983233552 -0.44312735458325581 0 0.0068165806591294316 -0.44348526320397952 0 0.013156077559905371 -0.46694754491252372 0 -0.0057475739345891896 -0.4549207533069245 0 0.0068165806591294316 -0.44348526320397952 0 0.013156077559905371 -0.46694754491252372 0 0.03684497090434212 -0.46105457747661138 0 0.02666676983233552 -0.44312735458325581 0 0.013156077559905371 -0.46694754491252372 0 0.03684497090434212 -0.46105457747661138 0 0.013156077559905371 -0.46694754491252372 0 0.03684497090434212 -0.46105457747661138 0 0.013156077559905371 -0.46694754491252372 0 0.032323810821201983 -0.4810656019103603 0 0.013156077559905371 -0.46694754491252372 0 0.0082051736105589468 -0.5 0 0.032323810821201983 -0.4810656019103603 0 -0.01053281578453142 -0.47284051234843588 0 0.013156077559905371 -0.46694754491252372 0 0.0082051736105589468 -0.5 0 -0.01053281578453142 -0.47284051234843588 0 0.013156077559905371 -0.46694754491252372 0 0.0082051736105589468 -0.5 0 0.037939068381746099 -0.5 0 0.032323810821201983 -0.4810656019103603 0 0.037939068381746099 -0.5 0 0.032323810821201983 -0.4810656019103603 0 0.053020152767299072 -0.48801933676575959 0 0.032323810821201983 -0.4810656019103603 0 0.050998592414112261 -0.47434040755052698 0 0.053020152767299072 -0.48801933676575959 0 0.03684497090434212 -0.46105457747661138 0 0.032323810821201983 -0.4810656019103603 0 0.050998592414112261 -0.47434040755052698 0 0.070479040632291823 -0.48264211959480191 0 0.050998592414112261 -0.47434040755052698 0 0.064630060102032719 -0.47456076603106118 0 0.070479040632291823 -0.48264211959480191 0 0.050998592414112261 -0.47434040755052698 0 0.070479040632291823 -0.48264211959480191 0 0.050998592414112261 -0.47434040755052698 0 0.053020152767299072 -0.48801933676575959 0 0.064630060102032719 -0.47456076603106118 0 0.061795930812101732 -0.46820781613902701 0 0.050998592414112261 -0.47434040755052698 0 0.061795930812101732 -0.46820781613902701 0 0.052543339594833843 -0.46469110280171649 0 0.050998592414112261 -0.47434040755052698 0 0.067672963152933252 -0.5 0 0.037939068381746099 -0.5 0 0.053020152767299072 -0.48801933676575959 0 0.087473163936891085 -0.29777268792509082 0 0.081564451789839787 -0.2785545792295161 0 0.1018918429625556 -0.28221661660282987 0 0.087473163936891085 -0.29777268792509082 0 0.081564451789839787 -0.2785545792295161 0 0.087473163936891085 -0.29777268792509082 0 0.067853695646582016 -0.28620356249784679 0 0.081564451789839787 -0.2785545792295161 0 0.087473163936891085 -0.29777268792509082 0 0.071339674350402019 -0.30608447369461589 0 0.075597518235181557 -0.31257595346091949 0 0.087473163936891085 -0.29777268792509082 0 0.098187962191818287 -0.30489187491565878 0 0.094028422526884897 -0.31909369138147992 0 0.087473163936891085 -0.29777268792509082 0 0.094028422526884897 -0.31909369138147992 0 0.075597518235181557 -0.31257595346091949 0 0.087473163936891085 -0.29777268792509082 0 0.094028422526884897 -0.31909369138147992 0 0.087473163936891085 -0.29777268792509082 0 0.071339674350402019 -0.30608447369461589 0 0.060560524715249003 -0.30009188710746898 0 0.087473163936891085 -0.29777268792509082 0 0.060560524715249003 -0.30009188710746898 0 0.071339674350402019 -0.30608447369461589 0 0.075597518235181557 -0.31257595346091949 0 0.061727490514286158 -0.31389736628498438 0 0.071339674350402019 -0.30608447369461589 0 0.061727490514286158 -0.31389736628498438 0 0.060560524715249003 -0.30009188710746898 0 0.067853695646582016 -0.28620356249784679 0 0.059116804960237683 -0.29062940211096661 0 0.060560524715249003 -0.30009188710746898 0 0.087473163936891085 -0.29777268792509082 0 0.067853695646582016 -0.28620356249784679 0 0.060560524715249003 -0.30009188710746898 0 0.066214989649419603 -0.27316028682740479 0 0.075655739642787975 -0.2593364705339416 0 0.081564451789839787 -0.2785545792295161 0 0.067853695646582016 -0.28620356249784679 0 0.066214989649419603 -0.27316028682740479 0 0.081564451789839787 -0.2785545792295161 0 0.066214989649419603 -0.27316028682740479 0 0.075655739642787975 -0.2593364705339416 0 0.05341834128670471 -0.26222533989734959 0 0.075655739642787975 -0.2593364705339416 0 0.05341834128670471 -0.26222533989734959 0 0.071841433176306951 -0.24693042426755701 0 0.075655739642787975 -0.2593364705339416 0 0.05341834128670471 -0.26222533989734959 0 0.075655739642787975 -0.2593364705339416 0 0.071841433176306951 -0.24693042426755701 0 0.075655739642787975 -0.2593364705339416 0 0.097033033634931737 -0.25655933767435479 0 0.087503871482331325 -0.24918859503345439 0 0.075655739642787975 -0.2593364705339416 0 0.087704679779763817 -0.26614109232216421 0 0.097033033634931737 -0.25655933767435479 0 0.075655739642787975 -0.2593364705339416 0 0.071841433176306951 -0.24693042426755701 0 0.087503871482331325 -0.24918859503345439 0 0.075655739642787975 -0.2593364705339416 0 0.097033033634931737 -0.25655933767435479 0 0.075655739642787975 -0.2593364705339416 0 0.081564451789839787 -0.2785545792295161 0 0.081564451789839787 -0.2785545792295161 0 0.096565494051495782 -0.27011398185084429 0 0.1018918429625556 -0.28221661660282987 0 0.075655739642787975 -0.2593364705339416 0 0.081564451789839787 -0.2785545792295161 0 0.087704679779763817 -0.26614109232216421 0 0.081564451789839787 -0.2785545792295161 0 0.087704679779763817 -0.26614109232216421 0 0.096565494051495782 -0.27011398185084429 0 0.11343381581407461 -0.27807896693227868 0 0.1097056353048949 -0.26812745810770261 0 0.1018918429625556 -0.28221661660282987 0 0.096565494051495782 -0.27011398185084429 0 0.1097056353048949 -0.26812745810770261 0 0.1018918429625556 -0.28221661660282987 0 0.097033033634931737 -0.25655933767435479 0 0.11542254909125391 -0.25417034832591701 0 0.09726841460880753 -0.24973530510077291 0 0.097033033634931737 -0.25655933767435479 0 0.11542254909125391 -0.25417034832591701 0 0.1097056353048949 -0.26812745810770261 0 0.097033033634931737 -0.25655933767435479 0 0.11542254909125391 -0.25417034832591701 0 0.1155402395781918 -0.2507583320391269 0 0.09726841460880753 -0.24973530510077291 0 0.097033033634931737 -0.25655933767435479 0 0.087503871482331325 -0.24918859503345439 0 0.09726841460880753 -0.24973530510077291 0 0.097033033634931737 -0.25655933767435479 0 0.09726841460880753 -0.24973530510077291 0 0.096565494051495782 -0.27011398185084429 0 0.097033033634931737 -0.25655933767435479 0 0.087704679779763817 -0.26614109232216421 0 0.096565494051495782 -0.27011398185084429 0 0.097033033634931737 -0.25655933767435479 0 0.096565494051495782 -0.27011398185084429 0 0.097033033634931737 -0.25655933767435479 0 0.1097056353048949 -0.26812745810770261 0 0.1338120645475761 -0.25178135897747889 0 0.1155402395781918 -0.2507583320391269 0 0.11542254909125391 -0.25417034832591701 0 0.1155402395781918 -0.2507583320391269 0 0.11542254909125391 -0.25417034832591701 0 0.09726841460880753 -0.24973530510077291 0 0.1338120645475761 -0.25178135897747889 0 0.1155402395781918 -0.2507583320391269 0 0.1338120645475761 -0.25178135897747889 0 0.11542254909125391 -0.25417034832591701 0 0.123327112510175 -0.26381005316279871 0 0.1338120645475761 -0.25178135897747889 0 0.11542254909125391 -0.25417034832591701 0 0.11542254909125391 -0.25417034832591701 0 0.123327112510175 -0.26381005316279871 0 0.1097056353048949 -0.26812745810770261 0 0.11343381581407461 -0.27807896693227868 0 0.1097056353048949 -0.26812745810770261 0 0.119201036987635 -0.27295982712471439 0 0.1280966355330338 -0.27434446718476552 0 0.123327112510175 -0.26381005316279871 0 0.119201036987635 -0.27295982712471439 0 0.123327112510175 -0.26381005316279871 0 0.1097056353048949 -0.26812745810770261 0 0.119201036987635 -0.27295982712471439 0 0.11343381581407461 -0.27807896693227868 0 0.119201036987635 -0.27295982712471439 0 0.12144198577599689 -0.28043819023602667 0 0.1280966355330338 -0.27434446718476552 0 0.119201036987635 -0.27295982712471439 0 0.12144198577599689 -0.28043819023602667 0 0.1225628758501054 -0.2947488287446996 0 0.10501801989349829 -0.29626075833489562 0 0.12144198577599689 -0.28043819023602667 0 0.1233634239504731 -0.2874855776093414 0 0.1139532624844367 -0.28782333961704598 0 0.1275993617664036 -0.28112518425861122 0 0.12144198577599689 -0.28043819023602667 0 0.1233634239504731 -0.2874855776093414 0 0.1225628758501054 -0.2947488287446996 0 0.1139532624844367 -0.28782333961704598 0 0.10501801989349829 -0.29626075833489562 0 0.1233634239504731 -0.2874855776093414 0 0.1225628758501054 -0.2947488287446996 0 0.1139532624844367 -0.28782333961704598 0 0.1256525224322369 -0.29448257816376899 0 0.1225628758501054 -0.2947488287446996 0 0.11343381581407461 -0.27807896693227868 0 0.12144198577599689 -0.28043819023602667 0 0.1139532624844367 -0.28782333961704598 0 0.11343381581407461 -0.27807896693227868 0 0.1139532624844367 -0.28782333961704598 0 0.1018918429625556 -0.28221661660282987 0 0.1139532624844367 -0.28782333961704598 0 0.1018918429625556 -0.28221661660282987 0 0.10501801989349829 -0.29626075833489562 0 0.087473163936891085 -0.29777268792509082 0 0.1018918429625556 -0.28221661660282987 0 0.10501801989349829 -0.29626075833489562 0 0.087473163936891085 -0.29777268792509082 0 0.10501801989349829 -0.29626075833489562 0 0.087473163936891085 -0.29777268792509082 0 0.10501801989349829 -0.29626075833489562 0 0.098187962191818287 -0.30489187491565878 0 0.098187962191818287 -0.30489187491565878 0 0.10829564918849539 -0.30692126006309001 0 0.094028422526884897 -0.31909369138147992 0 0.10501801989349829 -0.29626075833489562 0 0.098187962191818287 -0.30489187491565878 0 0.10829564918849539 -0.30692126006309001 0 0.10829564918849539 -0.30692126006309001 0 0.11665503897845669 -0.30709539838653632 0 0.10765755552467721 -0.31970821860930398 0 0.1225628758501054 -0.2947488287446996 0 0.10501801989349829 -0.29626075833489562 0 0.10829564918849539 -0.30692126006309001 0 0.1225628758501054 -0.2947488287446996 0 0.10829564918849539 -0.30692126006309001 0 0.1225628758501054 -0.2947488287446996 0 0.10829564918849539 -0.30692126006309001 0 0.11665503897845669 -0.30709539838653632 0 0.127428615210958 -0.30550107704066293 0 0.1256525224322369 -0.29448257816376899 0 0.11665503897845669 -0.30709539838653632 0 0.1256525224322369 -0.29448257816376899 0 0.11665503897845669 -0.30709539838653632 0 0.1256525224322369 -0.29448257816376899 0 0.1225628758501054 -0.2947488287446996 0 0.11665503897845669 -0.30709539838653632 0 0.127428615210958 -0.30550107704066293 0 0.11665503897845669 -0.30709539838653632 0 0.1236403595102975 -0.31726182602291142 0 0.1236403595102975 -0.31726182602291142 0 0.1156667707943719 -0.32879233033577338 0 0.10765755552467721 -0.31970821860930398 0 0.11665503897845669 -0.30709539838653632 0 0.1236403595102975 -0.31726182602291142 0 0.10765755552467721 -0.31970821860930398 0 0.11665503897845669 -0.30709539838653632 0 0.10765755552467721 -0.31970821860930398 0 0.1156667707943719 -0.32879233033577338 0 0.1048460875680276 -0.32950050860128433 0 0.10765755552467721 -0.31970821860930398 0 0.12646864396445259 -0.32771949481933838 0 0.1236403595102975 -0.31726182602291142 0 0.1156667707943719 -0.32879233033577338 0 0.12646864396445259 -0.32771949481933838 0 0.1218367566819203 -0.34066885685305681 0 0.1156667707943719 -0.32879233033577338 0 0.1218367566819203 -0.34066885685305681 0 0.1156667707943719 -0.32879233033577338 0 0.1082494064665878 -0.33928340961487857 0 0.1156667707943719 -0.32879233033577338 0 0.1048460875680276 -0.32950050860128433 0 0.1082494064665878 -0.33928340961487857 0 0.1048460875680276 -0.32950050860128433 0 0.1082494064665878 -0.33928340961487857 0 0.097004582427965266 -0.33631516769786107 0 0.1082494064665878 -0.33928340961487857 0 0.097004582427965266 -0.33631516769786107 0 0.093814972832634291 -0.34820918954221819 0 0.1048460875680276 -0.32950050860128433 0 0.097004582427965266 -0.33631516769786107 0 0.096073069581201237 -0.32574391368982941 0 0.096073069581201237 -0.32574391368982941 0 0.094028422526884897 -0.31909369138147992 0 0.10765755552467721 -0.31970821860930398 0 0.096073069581201237 -0.32574391368982941 0 0.094028422526884897 -0.31909369138147992 0 0.10829564918849539 -0.30692126006309001 0 0.094028422526884897 -0.31909369138147992 0 0.10829564918849539 -0.30692126006309001 0 0.094028422526884897 -0.31909369138147992 0 0.10765755552467721 -0.31970821860930398 0 0.1048460875680276 -0.32950050860128433 0 0.096073069581201237 -0.32574391368982941 0 0.10765755552467721 -0.31970821860930398 0 0.13554014667972011 -0.37371994475541209 0 0.11257503074115451 -0.38498649823446041 0 0.1211241730808211 -0.35969015994424403 0 0.11257503074115451 -0.38498649823446041 0 0.1211241730808211 -0.35969015994424403 0 0.10079201747098269 -0.36412242239479142 0 0.1211241730808211 -0.35969015994424403 0 0.1091752126596531 -0.3513855426967849 0 0.10079201747098269 -0.36412242239479142 0 0.1218367566819203 -0.34066885685305681 0 0.1211241730808211 -0.35969015994424403 0 0.1091752126596531 -0.3513855426967849 0 0.1218367566819203 -0.34066885685305681 0 0.1082494064665878 -0.33928340961487857 0 0.1091752126596531 -0.3513855426967849 0 0.1091752126596531 -0.3513855426967849 0 0.093814972832634291 -0.34820918954221819 0 0.10079201747098269 -0.36412242239479142 0 0.1082494064665878 -0.33928340961487857 0 0.1091752126596531 -0.3513855426967849 0 0.093814972832634291 -0.34820918954221819 0 0.085185771917526548 -0.37977283474271561 0 0.10079201747098269 -0.36412242239479142 0 0.076425374258651049 -0.36036916924143869 0 0.093814972832634291 -0.34820918954221819 0 0.076425374258651049 -0.36036916924143869 0 0.073389328186842753 -0.33670243653472848 0 0.093814972832634291 -0.34820918954221819 0 0.10079201747098269 -0.36412242239479142 0 0.076425374258651049 -0.36036916924143869 0 0.076425374258651049 -0.36036916924143869 0 0.073389328186842753 -0.33670243653472848 0 0.052750233846800589 -0.35431118168797721 0 0.073389328186842753 -0.33670243653472848 0 0.052750233846800589 -0.35431118168797721 0 0.085185771917526548 -0.37977283474271561 0 0.057841008155207027 -0.38245658693310142 0 0.076425374258651049 -0.36036916924143869 0 0.094028422526884897 -0.31909369138147992 0 0.073389328186842753 -0.33670243653472848 0 0.096073069581201237 -0.32574391368982941 0 0.094028422526884897 -0.31909369138147992 0 0.073389328186842753 -0.33670243653472848 0 0.094028422526884897 -0.31909369138147992 0 0.073389328186842753 -0.33670243653472848 0 0.072651274237206992 -0.32234881883649769 0 0.094028422526884897 -0.31909369138147992 0 0.072651274237206992 -0.32234881883649769 0 0.075597518235181557 -0.31257595346091949 0 0.097004582427965266 -0.33631516769786107 0 0.096073069581201237 -0.32574391368982941 0 0.073389328186842753 -0.33670243653472848 0 0.097004582427965266 -0.33631516769786107 0 0.093814972832634291 -0.34820918954221819 0 0.073389328186842753 -0.33670243653472848 0 0.073389328186842753 -0.33670243653472848 0 0.072651274237206992 -0.32234881883649769 0 0.058513611722839573 -0.32947464652037622 0 0.072651274237206992 -0.32234881883649769 0 0.061727490514286158 -0.31389736628498438 0 0.058513611722839573 -0.32947464652037622 0 0.072651274237206992 -0.32234881883649769 0 0.075597518235181557 -0.31257595346091949 0 0.061727490514286158 -0.31389736628498438 0 0.061727490514286158 -0.31389736628498438 0 0.048871722081095123 -0.31851038162196682 0 0.053524671366835877 -0.30640407556079952 0 0.048871722081095123 -0.31851038162196682 0 0.058513611722839573 -0.32947464652037622 0 0.042608717461976538 -0.3312298768594002 0 0.061727490514286158 -0.31389736628498438 0 0.048871722081095123 -0.31851038162196682 0 0.058513611722839573 -0.32947464652037622 0 0.073389328186842753 -0.33670243653472848 0 0.058513611722839573 -0.32947464652037622 0 0.052750233846800589 -0.35431118168797721 0 0.058513611722839573 -0.32947464652037622 0 0.042608717461976538 -0.3312298768594002 0 0.052750233846800589 -0.35431118168797721 0 0.042608717461976538 -0.3312298768594002 0 0.032201100374313327 -0.3403185580786573 0 0.052750233846800589 -0.35431118168797721 0 0.042608717461976538 -0.3312298768594002 0 0.032201100374313327 -0.3403185580786573 0 0.02803274898307424 -0.32856413603580631 0 0.042608717461976538 -0.3312298768594002 0 0.035004108339948901 -0.31633090919971779 0 0.02803274898307424 -0.32856413603580631 0 0.048871722081095123 -0.31851038162196682 0 0.035004108339948901 -0.31633090919971779 0 0.042659306472636778 -0.3047174731171407 0 0.048871722081095123 -0.31851038162196682 0 0.042608717461976538 -0.3312298768594002 0 0.035004108339948901 -0.31633090919971779 0 0.057841008155207027 -0.38245658693310142 0 0.052750233846800589 -0.35431118168797721 0 0.032111139506758431 -0.37191992684122582 0 0.057841008155207027 -0.38245658693310142 0 0.076425374258651049 -0.36036916924143869 0 0.052750233846800589 -0.35431118168797721 0 0.032201100374313327 -0.3403185580786573 0 0.052750233846800589 -0.35431118168797721 0 0.023184557849655049 -0.35200766470484768 0 0.052750233846800589 -0.35431118168797721 0 0.032111139506758431 -0.37191992684122582 0 0.052750233846800589 -0.35431118168797721 0 0.032111139506758431 -0.37191992684122582 0 0.023184557849655049 -0.35200766470484768 0 0.032111139506758431 -0.37191992684122582 0 0.023184557849655049 -0.35200766470484768 0 0.010345294108568969 -0.36081801354288939 0 0.032111139506758431 -0.37191992684122582 0 0.010345294108568969 -0.36081801354288939 0 0.0095024714850780283 -0.37458082262515818 0 -0.0019921573348008 -0.35014241775074068 0 0.023184557849655049 -0.35200766470484768 0 0.014429243730060239 -0.33547993110525531 0 -0.0019921573348008 -0.35014241775074068 0 0.023184557849655049 -0.35200766470484768 0 0.010345294108568969 -0.36081801354288939 0 -0.0019921573348008 -0.35014241775074068 0 -0.0042332821090469977 -0.36931681778231101 0 0.010345294108568969 -0.36081801354288939 0 -0.0042332821090469977 -0.36931681778231101 0 0.010345294108568969 -0.36081801354288939 0 0.0095024714850780283 -0.37458082262515818 0 0.035004108339948901 -0.31633090919971779 0 0.02803274898307424 -0.32856413603580631 0 0.015526697491276621 -0.31392901685578528 0 0.02803274898307424 -0.32856413603580631 0 0.014429243730060239 -0.33547993110525531 0 0.015526697491276621 -0.31392901685578528 0 0.032201100374313327 -0.3403185580786573 0 0.023184557849655049 -0.35200766470484768 0 0.014429243730060239 -0.33547993110525531 0 0.032201100374313327 -0.3403185580786573 0 0.02803274898307424 -0.32856413603580631 0 0.014429243730060239 -0.33547993110525531 0 -0.008605873932596356 -0.33624452634938418 0 -0.0019921573348008 -0.35014241775074068 0 0.014429243730060239 -0.33547993110525531 0 -0.008605873932596356 -0.33624452634938418 0 0.014429243730060239 -0.33547993110525531 0 0.0035141492887302548 -0.32519051246028208 0 0.014429243730060239 -0.33547993110525531 0 0.0035141492887302548 -0.32519051246028208 0 0.015526697491276621 -0.31392901685578528 0 -0.0093546214437348063 -0.3154421594820554 0 0.0035141492887302548 -0.32519051246028208 0 0.015526697491276621 -0.31392901685578528 0 -0.0093546214437348063 -0.3154421594820554 0 0.015526697491276621 -0.31392901685578528 0 0.0025702240157044749 -0.30194718224499639 0 0.015526697491276621 -0.31392901685578528 0 0.0025702240157044749 -0.30194718224499639 0 0.018894421690538499 -0.29417828297256371 0 0.0025702240157044749 -0.30194718224499639 0 0.001953977901653102 -0.28749824366549498 0 0.018894421690538499 -0.29417828297256371 0 0.001953977901653102 -0.28749824366549498 0 0.018894421690538499 -0.29417828297256371 0 0.015670532879786751 -0.2762907948651831 0 0.018894421690538499 -0.29417828297256371 0 0.030268242974381541 -0.30296892509516138 0 0.036539995597899583 -0.28735292316580879 0 0.018894421690538499 -0.29417828297256371 0 0.036539995597899583 -0.28735292316580879 0 0.015670532879786751 -0.2762907948651831 0 0.015526697491276621 -0.31392901685578528 0 0.018894421690538499 -0.29417828297256371 0 0.030268242974381541 -0.30296892509516138 0 0.035004108339948901 -0.31633090919971779 0 0.015526697491276621 -0.31392901685578528 0 0.030268242974381541 -0.30296892509516138 0 0.030268242974381541 -0.30296892509516138 0 0.042659306472636778 -0.3047174731171407 0 0.036539995597899583 -0.28735292316580879 0 0.035004108339948901 -0.31633090919971779 0 0.030268242974381541 -0.30296892509516138 0 0.042659306472636778 -0.3047174731171407 0 0.042659306472636778 -0.3047174731171407 0 0.036539995597899583 -0.28735292316580879 0 0.051747098475659753 -0.29673762405939008 0 0.051747098475659753 -0.29673762405939008 0 0.052582719881183543 -0.27948148197836992 0 0.051747098475659753 -0.29673762405939008 0 0.059116804960237683 -0.29062940211096661 0 0.052582719881183543 -0.27948148197836992 0 0.036539995597899583 -0.28735292316580879 0 0.051747098475659753 -0.29673762405939008 0 0.052582719881183543 -0.27948148197836992 0 0.067853695646582016 -0.28620356249784679 0 0.059116804960237683 -0.29062940211096661 0 0.052582719881183543 -0.27948148197836992 0 0.051747098475659753 -0.29673762405939008 0 0.059116804960237683 -0.29062940211096661 0 0.060560524715249003 -0.30009188710746898 0 0.051747098475659753 -0.29673762405939008 0 0.060560524715249003 -0.30009188710746898 0 0.053524671366835877 -0.30640407556079952 0 0.061727490514286158 -0.31389736628498438 0 0.060560524715249003 -0.30009188710746898 0 0.053524671366835877 -0.30640407556079952 0 0.048871722081095123 -0.31851038162196682 0 0.042659306472636778 -0.3047174731171407 0 0.053524671366835877 -0.30640407556079952 0 0.042659306472636778 -0.3047174731171407 0 0.051747098475659753 -0.29673762405939008 0 0.053524671366835877 -0.30640407556079952 0 0.05341834128670471 -0.26222533989734959 0 0.054455146400998369 -0.2408146193913096 0 0.05341834128670471 -0.26222533989734959 0 0.041504830166615332 -0.24909079072316551 0 0.054455146400998369 -0.2408146193913096 0 0.05341834128670471 -0.26222533989734959 0 0.052582719881183543 -0.27948148197836992 0 0.066214989649419603 -0.27316028682740479 0 0.05341834128670471 -0.26222533989734959 0 0.052582719881183543 -0.27948148197836992 0 0.067853695646582016 -0.28620356249784679 0 0.066214989649419603 -0.27316028682740479 0 0.052582719881183543 -0.27948148197836992 0 0.05341834128670471 -0.26222533989734959 0 0.052582719881183543 -0.27948148197836992 0 0.028317708997288939 -0.2654861731325095 0 0.036539995597899583 -0.28735292316580879 0 0.052582719881183543 -0.27948148197836992 0 0.028317708997288939 -0.2654861731325095 0 0.028317708997288939 -0.2654861731325095 0 0.026822654761378281 -0.24010580347910071 0 0.041504830166615332 -0.24909079072316551 0 0.05341834128670471 -0.26222533989734959 0 0.028317708997288939 -0.2654861731325095 0 0.041504830166615332 -0.24909079072316551 0 0.05341834128670471 -0.26222533989734959 0 0.028317708997288939 -0.2654861731325095 0 0.028317708997288939 -0.2654861731325095 0 0.01150473642008854 -0.25100487296640661 0 0.026822654761378281 -0.24010580347910071 0 0.028317708997288939 -0.2654861731325095 0 0.015670532879786751 -0.2762907948651831 0 0.0049597396345670026 -0.26452376434945218 0 0.036539995597899583 -0.28735292316580879 0 0.028317708997288939 -0.2654861731325095 0 0.015670532879786751 -0.2762907948651831 0 -0.002131649244152236 -0.27375645946249172 0 0.015670532879786751 -0.2762907948651831 0 0.0049597396345670026 -0.26452376434945218 0 -0.002131649244152236 -0.27375645946249172 0 0.001953977901653102 -0.28749824366549498 0 0.015670532879786751 -0.2762907948651831 0 -0.0050603712554523096 -0.25502580822232418 0 0.01150473642008854 -0.25100487296640661 0 0.0049597396345670026 -0.26452376434945218 0 0.028317708997288939 -0.2654861731325095 0 0.01150473642008854 -0.25100487296640661 0 0.0049597396345670026 -0.26452376434945218 0 -0.0050603712554523096 -0.25502580822232418 0 -0.0012779613340340411 -0.24176494305706761 0 0.01150473642008854 -0.25100487296640661 0 -0.0012779613340340411 -0.24176494305706761 0 0.01150473642008854 -0.25100487296640661 0 0.01227448810303049 -0.23689425083746071 0 -0.0012779613340340411 -0.24176494305706761 0 -0.0016127085748020571 -0.22712480654777251 0 0.01227448810303049 -0.23689425083746071 0 -0.0016127085748020571 -0.22712480654777251 0 0.01227448810303049 -0.23689425083746071 0 0.01698840492239578 -0.2228903554452914 0 -0.0016127085748020571 -0.22712480654777251 0 0.01698840492239578 -0.2228903554452914 0 0.0064561243882930407 -0.21561537692257879 0 0.01227448810303049 -0.23689425083746071 0 0.01698840492239578 -0.2228903554452914 0 0.026822654761378281 -0.24010580347910071 0 0.01698840492239578 -0.2228903554452914 0 0.026822654761378281 -0.24010580347910071 0 0.034262553780134708 -0.21981152268886431 0 0.01150473642008854 -0.25100487296640661 0 0.01227448810303049 -0.23689425083746071 0 0.026822654761378281 -0.24010580347910071 0 -0.0048422933519348798 -0.20657909219758999 0 0.01498437965793468 -0.2009023489100171 0 0.0039750345954989988 -0.18651425943902311 0 0.01498437965793468 -0.2009023489100171 0 0.019555974831457788 -0.18489329081675979 0 0.0039750345954989988 -0.18651425943902311 0 -0.0048422933519348798 -0.20657909219758999 0 0.01498437965793468 -0.2009023489100171 0 0.0064561243882930407 -0.21561537692257879 0 0.01498437965793468 -0.2009023489100171 0 0.0064561243882930407 -0.21561537692257879 0 0.022166629418003729 -0.2118345471400416 0 0.01698840492239578 -0.2228903554452914 0 0.0064561243882930407 -0.21561537692257879 0 0.022166629418003729 -0.2118345471400416 0 -0.0016127085748020571 -0.22712480654777251 0 -0.0048422933519348798 -0.20657909219758999 0 0.0064561243882930407 -0.21561537692257879 0 0.01698840492239578 -0.2228903554452914 0 0.022166629418003729 -0.2118345471400416 0 0.034262553780134708 -0.21981152268886431 0 0.01498437965793468 -0.2009023489100171 0 0.022166629418003729 -0.2118345471400416 0 0.031897636722889637 -0.2043381853445167 0 0.022166629418003729 -0.2118345471400416 0 0.031897636722889637 -0.2043381853445167 0 0.034262553780134708 -0.21981152268886431 0 0.01498437965793468 -0.2009023489100171 0 0.027972004457906641 -0.19290593557317351 0 0.019555974831457788 -0.18489329081675979 0 0.01498437965793468 -0.2009023489100171 0 0.027972004457906641 -0.19290593557317351 0 0.031897636722889637 -0.2043381853445167 0 0.056528756629579638 -0.1979931783792292 0 0.033889281643562412 -0.17857272488157999 0 0.027972004457906641 -0.19290593557317351 0 0.03953274943368866 -0.19582312791299369 0 0.033889281643562412 -0.17857272488157999 0 0.03953274943368866 -0.19582312791299369 0 0.044202360045936313 -0.20737869318372881 0 0.056528756629579638 -0.1979931783792292 0 0.03953274943368866 -0.19582312791299369 0 0.056528756629579638 -0.1979931783792292 0 0.033889281643562412 -0.17857272488157999 0 0.027972004457906641 -0.19290593557317351 0 0.03953274943368866 -0.19582312791299369 0 0.031897636722889637 -0.2043381853445167 0 0.03953274943368866 -0.19582312791299369 0 0.044202360045936313 -0.20737869318372881 0 0.031897636722889637 -0.2043381853445167 0 0.044202360045936313 -0.20737869318372881 0 0.034262553780134708 -0.21981152268886431 0 0.055491951515289413 -0.2194038988852694 0 0.044202360045936313 -0.20737869318372881 0 0.031897636722889637 -0.2043381853445167 0 0.034262553780134708 -0.21981152268886431 0 0.058246448850680657 -0.19946663842738771 0 0.055491951515289413 -0.2194038988852694 0 0.066041136181110544 -0.21386160323267189 0 0.056528756629579638 -0.1979931783792292 0 0.055491951515289413 -0.2194038988852694 0 0.058246448850680657 -0.19946663842738771 0 0.056528756629579638 -0.1979931783792292 0 0.055491951515289413 -0.2194038988852694 0 0.044202360045936313 -0.20737869318372881 0 0.056528756629579638 -0.1979931783792292 0 0.055491951515289413 -0.2194038988852694 0 0.056528756629579638 -0.1979931783792292 0 0.057329549479635908 -0.18145626931170691 0 0.056528756629579638 -0.1979931783792292 0 0.065123946871468164 -0.19127238357693871 0 0.057329549479635908 -0.18145626931170691 0 0.058246448850680657 -0.19946663842738771 0 0.056528756629579638 -0.1979931783792292 0 0.065123946871468164 -0.19127238357693871 0 0.058246448850680657 -0.19946663842738771 0 0.056528756629579638 -0.1979931783792292 0 0.041504830166615332 -0.24909079072316551 0 0.041828765002810943 -0.233037808058844 0 0.054455146400998369 -0.2408146193913096 0 0.026822654761378281 -0.24010580347910071 0 0.041504830166615332 -0.24909079072316551 0 0.041828765002810943 -0.233037808058844 0 0.041828765002810943 -0.233037808058844 0 0.034262553780134708 -0.21981152268886431 0 0.055491951515289413 -0.2194038988852694 0 0.026822654761378281 -0.24010580347910071 0 0.041828765002810943 -0.233037808058844 0 0.034262553780134708 -0.21981152268886431 0 0.055491951515289413 -0.2194038988852694 0 0.054455146400998369 -0.2408146193913096 0 0.070056056729074334 -0.23044917593339351 0 0.055491951515289413 -0.2194038988852694 0 0.054455146400998369 -0.2408146193913096 0 0.041828765002810943 -0.233037808058844 0 0.055491951515289413 -0.2194038988852694 0 0.054455146400998369 -0.2408146193913096 0 0.05341834128670471 -0.26222533989734959 0 0.054455146400998369 -0.2408146193913096 0 0.071841433176306951 -0.24693042426755701 0 0.071841433176306951 -0.24693042426755701 0 0.078351655706027534 -0.24017870186704479 0 0.070056056729074334 -0.23044917593339351 0 0.054455146400998369 -0.2408146193913096 0 0.071841433176306951 -0.24693042426755701 0 0.070056056729074334 -0.23044917593339351 0 0.078351655706027534 -0.24017870186704479 0 0.084005261436397555 -0.23414661223377431 0 0.070056056729074334 -0.23044917593339351 0 0.071841433176306951 -0.24693042426755701 0 0.078351655706027534 -0.24017870186704479 0 0.087503871482331325 -0.24918859503345439 0 0.084005261436397555 -0.23414661223377431 0 0.09726841460880753 -0.24973530510077291 0 0.098224276789357245 -0.22202348732504129 0 0.078351655706027534 -0.24017870186704479 0 0.087503871482331325 -0.24918859503345439 0 0.084005261436397555 -0.23414661223377431 0 0.087503871482331325 -0.24918859503345439 0 0.084005261436397555 -0.23414661223377431 0 0.09726841460880753 -0.24973530510077291 0 0.087503871482331325 -0.24918859503345439 0 0.09726841460880753 -0.24973530510077291 0 0.084005261436397555 -0.23414661223377431 0 0.077944909524616218 -0.21644665818138251 0 0.098224276789357245 -0.22202348732504129 0 0.084005261436397555 -0.23414661223377431 0 0.070056056729074334 -0.23044917593339351 0 0.077944909524616218 -0.21644665818138251 0 0.070056056729074334 -0.23044917593339351 0 0.066041136181110544 -0.21386160323267189 0 0.077944909524616218 -0.21644665818138251 0 0.055491951515289413 -0.2194038988852694 0 0.070056056729074334 -0.23044917593339351 0 0.066041136181110544 -0.21386160323267189 0 0.058246448850680657 -0.19946663842738771 0 0.066041136181110544 -0.21386160323267189 0 0.071428190199665467 -0.20133585635874521 0 0.066041136181110544 -0.21386160323267189 0 0.077944909524616218 -0.21644665818138251 0 0.071428190199665467 -0.20133585635874521 0 0.058246448850680657 -0.19946663842738771 0 0.065123946871468164 -0.19127238357693871 0 0.071428190199665467 -0.20133585635874521 0 0.065123946871468164 -0.19127238357693871 0 0.071428190199665467 -0.20133585635874521 0 0.077775677467109644 -0.1894438906232867 0 0.077775677467109644 -0.1894438906232867 0 0.085264727641627694 -0.2009309552866074 0 0.087035172899110766 -0.18202416968187909 0 0.085264727641627694 -0.2009309552866074 0 0.099180138969906934 -0.19431166954930951 0 0.087035172899110766 -0.18202416968187909 0 0.071428190199665467 -0.20133585635874521 0 0.077775677467109644 -0.1894438906232867 0 0.085264727641627694 -0.2009309552866074 0 0.077944909524616218 -0.21644665818138251 0 0.085264727641627694 -0.2009309552866074 0 0.098224276789357245 -0.22202348732504129 0 0.077944909524616218 -0.21644665818138251 0 0.071428190199665467 -0.20133585635874521 0 0.085264727641627694 -0.2009309552866074 0 0.085264727641627694 -0.2009309552866074 0 0.099180138969906934 -0.19431166954930951 0 0.098224276789357245 -0.22202348732504129 0 0.099180138969906934 -0.19431166954930951 0 0.11354412200005309 -0.20878294345574169 0 0.098224276789357245 -0.22202348732504129 0 0.099180138969906934 -0.19431166954930951 0 0.098224276789357245 -0.22202348732504129 0 0.099180138969906934 -0.19431166954930951 0 0.1232396379011078 -0.1927549034493776 0 0.1116878195257827 -0.17967737761147759 0 0.099180138969906934 -0.19431166954930951 0 0.1232396379011078 -0.1927549034493776 0 0.11354412200005309 -0.20878294345574169 0 0.1232396379011078 -0.1927549034493776 0 0.11354412200005309 -0.20878294345574169 0 0.1296813367821156 -0.2112782106774091 0 0.11354412200005309 -0.20878294345574169 0 0.11925867152865099 -0.22395178641925401 0 0.1296813367821156 -0.2112782106774091 0 0.11354412200005309 -0.20878294345574169 0 0.11925867152865099 -0.22395178641925401 0 0.098224276789357245 -0.22202348732504129 0 0.11925867152865099 -0.22395178641925401 0 0.1115141746540584 -0.23685798868452451 0 0.098224276789357245 -0.22202348732504129 0 0.11925867152865099 -0.22395178641925401 0 0.1115141746540584 -0.23685798868452451 0 0.12727927076528461 -0.2378210325384271 0 0.1155402395781918 -0.2507583320391269 0 0.1115141746540584 -0.23685798868452451 0 0.12727927076528461 -0.2378210325384271 0 0.09726841460880753 -0.24973530510077291 0 0.098224276789357245 -0.22202348732504129 0 0.1115141746540584 -0.23685798868452451 0 0.09726841460880753 -0.24973530510077291 0 0.098224276789357245 -0.22202348732504129 0 0.1155402395781918 -0.2507583320391269 0 0.1115141746540584 -0.23685798868452451 0 0.09726841460880753 -0.24973530510077291 0 0.1006234008225292 -0.15246943509712671 0 0.1001360011504572 -0.16659985177357781 0 0.083956960864695562 -0.1482839632705675 0 0.093837558922739497 -0.14264619108299431 0 0.1006234008225292 -0.15246943509712671 0 0.1028307954559992 -0.13579239345953559 0 0.1006234008225292 -0.15246943509712671 0 0.1028307954559992 -0.13579239345953559 0 0.1133439292462652 -0.14669813101470161 0 0.1006234008225292 -0.15246943509712671 0 0.1133439292462652 -0.14669813101470161 0 0.1122920085546638 -0.16227381202107721 0 0.093837558922739497 -0.14264619108299431 0 0.1028307954559992 -0.13579239345953559 0 0.086025777066828416 -0.13071312073542821 0 0.1028307954559992 -0.13579239345953559 0 0.086025777066828416 -0.13071312073542821 0 0.1003755091591467 -0.120365047089626 0 0.1028307954559992 -0.13579239345953559 0 0.1110772144577262 -0.12607447494648069 0 0.1003755091591467 -0.120365047089626 0 0.1028307954559992 -0.13579239345953559 0 0.1110772144577262 -0.12607447494648069 0 0.1195920268695274 -0.13435801890873961 0 0.1028307954559992 -0.13579239345953559 0 0.1195920268695274 -0.13435801890873961 0 0.1133439292462652 -0.14669813101470161 0 0.1110772144577262 -0.12607447494648069 0 0.1195920268695274 -0.13435801890873961 0 0.125059882544757 -0.1243050716586782 0 0.1195920268695274 -0.13435801890873961 0 0.1133439292462652 -0.14669813101470161 0 0.12550759679471971 -0.14428239988351421 0 0.1133439292462652 -0.14669813101470161 0 0.1238726331408222 -0.15597973401630799 0 0.1122920085546638 -0.16227381202107721 0 0.1133439292462652 -0.14669813101470161 0 0.1238726331408222 -0.15597973401630799 0 0.12550759679471971 -0.14428239988351421 0 0.1122920085546638 -0.16227381202107721 0 0.1240882674421261 -0.17221834261327171 0 0.1116878195257827 -0.17967737761147759 0 0.1238726331408222 -0.15597973401630799 0 0.1122920085546638 -0.16227381202107721 0 0.1240882674421261 -0.17221834261327171 0 0.1232396379011078 -0.1927549034493776 0 0.1240882674421261 -0.17221834261327171 0 0.1116878195257827 -0.17967737761147759 0 0.1232396379011078 -0.1927549034493776 0 0.1116878195257827 -0.17967737761147759 0 0.099180138969906934 -0.19431166954930951 0 0.1116878195257827 -0.17967737761147759 0 0.1001360011504572 -0.16659985177357781 0 0.099180138969906934 -0.19431166954930951 0 0.1001360011504572 -0.16659985177357781 0 0.099180138969906934 -0.19431166954930951 0 0.1001360011504572 -0.16659985177357781 0 0.087035172899110766 -0.18202416968187909 0 0.1116878195257827 -0.17967737761147759 0 0.1001360011504572 -0.16659985177357781 0 0.1122920085546638 -0.16227381202107721 0 0.1116878195257827 -0.17967737761147759 0 0.1001360011504572 -0.16659985177357781 0 0.1006234008225292 -0.15246943509712671 0 0.1122920085546638 -0.16227381202107721 0 0.1001360011504572 -0.16659985177357781 0 0.1006234008225292 -0.15246943509712671 0 0.1001360011504572 -0.16659985177357781 0 0.1001360011504572 -0.16659985177357781 0 0.083956960864695562 -0.1482839632705675 0 0.1001360011504572 -0.16659985177357781 0 0.079225084705666013 -0.1675683830972868 0 0.083956960864695562 -0.1482839632705675 0 0.077775677467109644 -0.1894438906232867 0 0.087035172899110766 -0.18202416968187909 0 0.070769962292113645 -0.17944740942254711 0 0.079225084705666013 -0.1675683830972868 0 0.087035172899110766 -0.18202416968187909 0 0.070769962292113645 -0.17944740942254711 0 0.1001360011504572 -0.16659985177357781 0 0.079225084705666013 -0.1675683830972868 0 0.087035172899110766 -0.18202416968187909 0 0.065123946871468164 -0.19127238357693871 0 0.077775677467109644 -0.1894438906232867 0 0.070769962292113645 -0.17944740942254711 0 0.065123946871468164 -0.19127238357693871 0 0.070769962292113645 -0.17944740942254711 0 0.057329549479635908 -0.18145626931170691 0 0.079225084705666013 -0.1675683830972868 0 0.069844290743162202 -0.15572535069481899 0 0.058130342329691373 -0.1649193602441846 0 0.079225084705666013 -0.1675683830972868 0 0.069844290743162202 -0.15572535069481899 0 0.083956960864695562 -0.1482839632705675 0 0.079225084705666013 -0.1675683830972868 0 0.070769962292113645 -0.17944740942254711 0 0.058130342329691373 -0.1649193602441846 0 0.069844290743162202 -0.15572535069481899 0 0.065690713085214791 -0.1421362209973312 0 0.083956960864695562 -0.1482839632705675 0 0.069844290743162202 -0.15572535069481899 0 0.065690713085214791 -0.1421362209973312 0 0.055338914955394031 -0.1557955185274518 0 0.093837558922739497 -0.14264619108299431 0 0.1006234008225292 -0.15246943509712671 0 0.083956960864695562 -0.1482839632705675 0 0.083956960864695562 -0.1482839632705675 0 0.086025777066828416 -0.13071312073542821 0 0.067777920578933518 -0.1299680747675574 0 0.093837558922739497 -0.14264619108299431 0 0.083956960864695562 -0.1482839632705675 0 0.086025777066828416 -0.13071312073542821 0 0.083956960864695562 -0.1482839632705675 0 0.067777920578933518 -0.1299680747675574 0 0.065690713085214791 -0.1421362209973312 0 0.083956960864695562 -0.1482839632705675 0 0.067777920578933518 -0.1299680747675574 0 0.086025777066828416 -0.13071312073542821 0 0.067777920578933518 -0.1299680747675574 0 0.076734835755005087 -0.11970758577673089 0 0.067777920578933518 -0.1299680747675574 0 0.053441304474890289 -0.13464385441717969 0 0.05399936433302991 -0.12122894057442581 0 0.053441304474890289 -0.13464385441717969 0 0.041268264505893618 -0.12924178955595211 0 0.05399936433302991 -0.12122894057442581 0 0.065690713085214791 -0.1421362209973312 0 0.067777920578933518 -0.1299680747675574 0 0.053441304474890289 -0.13464385441717969 0 0.065690713085214791 -0.1421362209973312 0 0.055338914955394031 -0.1557955185274518 0 0.0384702598713796 -0.15064424619063199 0 0.065690713085214791 -0.1421362209973312 0 0.0384702598713796 -0.15064424619063199 0 0.065690713085214791 -0.1421362209973312 0 0.053441304474890289 -0.13464385441717969 0 0.0384702598713796 -0.15064424619063199 0 0.053441304474890289 -0.13464385441717969 0 0.0384702598713796 -0.15064424619063199 0 0.041268264505893618 -0.12924178955595211 0 0.0384702598713796 -0.15064424619063199 0 0.041268264505893618 -0.12924178955595211 0 0.015842377588640461 -0.12995768139491151 0 0.057329549479635908 -0.18145626931170691 0 0.058130342329691373 -0.1649193602441846 0 0.056528756629579638 -0.1979931783792292 0 0.057329549479635908 -0.18145626931170691 0 0.033889281643562412 -0.17857272488157999 0 0.070769962292113645 -0.17944740942254711 0 0.057329549479635908 -0.18145626931170691 0 0.058130342329691373 -0.1649193602441846 0 0.057329549479635908 -0.18145626931170691 0 0.058130342329691373 -0.1649193602441846 0 0.04455896874752216 -0.16555241451029229 0 0.069844290743162202 -0.15572535069481899 0 0.055338914955394031 -0.1557955185274518 0 0.058130342329691373 -0.1649193602441846 0 0.055338914955394031 -0.1557955185274518 0 0.058130342329691373 -0.1649193602441846 0 0.04455896874752216 -0.16555241451029229 0 0.055338914955394031 -0.1557955185274518 0 0.0384702598713796 -0.15064424619063199 0 0.04455896874752216 -0.16555241451029229 0 0.0384702598713796 -0.15064424619063199 0 0.031574010555557599 -0.1635538019881777 0 0.04455896874752216 -0.16555241451029229 0 0.031574010555557599 -0.1635538019881777 0 0.04455896874752216 -0.16555241451029229 0 0.033889281643562412 -0.17857272488157999 0 0.057329549479635908 -0.18145626931170691 0 0.04455896874752216 -0.16555241451029229 0 0.033889281643562412 -0.17857272488157999 0 0.033889281643562412 -0.17857272488157999 0 0.019555974831457788 -0.18489329081675979 0 0.017860935761059481 -0.17540941327727391 0 0.033889281643562412 -0.17857272488157999 0 0.017860935761059481 -0.17540941327727391 0 0.018922444694438611 -0.16573396598117041 0 0.027972004457906641 -0.19290593557317351 0 0.033889281643562412 -0.17857272488157999 0 0.019555974831457788 -0.18489329081675979 0 0.033889281643562412 -0.17857272488157999 0 0.018922444694438611 -0.16573396598117041 0 0.0384702598713796 -0.15064424619063199 0 0.031574010555557599 -0.1635538019881777 0 0.011249806657544249 -0.1591522713839319 0 0.031574010555557599 -0.1635538019881777 0 0.018922444694438611 -0.16573396598117041 0 0.011249806657544249 -0.1591522713839319 0 0.031574010555557599 -0.1635538019881777 0 0.033889281643562412 -0.17857272488157999 0 0.018922444694438611 -0.16573396598117041 0 0.018922444694438611 -0.16573396598117041 0 0.011249806657544249 -0.1591522713839319 0 0.0051361497124387812 -0.16106315607433669 0 0.018922444694438611 -0.16573396598117041 0 0.0051361497124387812 -0.16106315607433669 0 0.018922444694438611 -0.16573396598117041 0 0.011249806657544249 -0.1591522713839319 0 0.011249806657544249 -0.1591522713839319 0 0.0051361497124387812 -0.16106315607433669 0 0.011249806657544249 -0.1591522713839319 0 0.0051361497124387812 -0.16106315607433669 0 0.00014451492137988051 -0.1496259991592768 0 -0.001198061652550745 -0.17280609881212911 0 0.0051361497124387812 -0.16106315607433669 0 0.0083362452288298274 -0.17396118646513589 0 0.018922444694438611 -0.16573396598117041 0 0.0051361497124387812 -0.16106315607433669 0 0.0083362452288298274 -0.17396118646513589 0 0.017860935761059481 -0.17540941327727391 0 0.018922444694438611 -0.16573396598117041 0 0.0083362452288298274 -0.17396118646513589 0 0.019555974831457788 -0.18489329081675979 0 0.017860935761059481 -0.17540941327727391 0 0.0083362452288298274 -0.17396118646513589 0 -0.001198061652550745 -0.17280609881212911 0 0.0083362452288298274 -0.17396118646513589 0 0.0039750345954989988 -0.18651425943902311 0 0.019555974831457788 -0.18489329081675979 0 0.0083362452288298274 -0.17396118646513589 0 0.0039750345954989988 -0.18651425943902311 0 0.041268264505893618 -0.12924178955595211 0 0.015842377588640461 -0.12995768139491151 0 0.0384702598713796 -0.15064424619063199 0 0.015842377588640461 -0.12995768139491151 0 0.011224689942066299 -0.1440107542725246 0 0.0384702598713796 -0.15064424619063199 0 0.011249806657544249 -0.1591522713839319 0 0.011224689942066299 -0.1440107542725246 0 0.0384702598713796 -0.15064424619063199 0 0.011249806657544249 -0.1591522713839319 0 -0.0095835093286126792 -0.13067357323387099 0 0.011224689942066299 -0.1440107542725246 0 0.00014451492137988051 -0.1496259991592768 0 0.011249806657544249 -0.1591522713839319 0 0.00014451492137988051 -0.1496259991592768 0 0.011249806657544249 -0.1591522713839319 0 0.011224689942066299 -0.1440107542725246 0 0.00014451492137988051 -0.1496259991592768 0 -0.0095835093286126792 -0.13067357323387099 0 0.015842377588640461 -0.12995768139491151 0 -0.0095835093286126792 -0.13067357323387099 0 0.015842377588640461 -0.12995768139491151 0 0.011224689942066299 -0.1440107542725246 0 -0.004447001458793981 -0.1103644265276268 0 -0.0095835093286126792 -0.13067357323387099 0 0.015842377588640461 -0.12995768139491151 0 -0.004447001458793981 -0.1103644265276268 0 0.015842377588640461 -0.12995768139491151 0 0.019064047731892519 -0.1027428983621612 0 0.015842377588640461 -0.12995768139491151 0 0.019064047731892519 -0.1027428983621612 0 0.037106240101941267 -0.1127949235512794 0 0.019064047731892519 -0.1027428983621612 0 0.037234516137291472 -0.08975442686183864 0 0.037106240101941267 -0.1127949235512794 0 -0.004447001458793981 -0.1103644265276268 0 0.019064047731892519 -0.1027428983621612 0 -0.0041979068999104599 -0.092692987180200151 0 -0.004447001458793981 -0.1103644265276268 0 0.019064047731892519 -0.1027428983621612 0 -0.0041979068999104599 -0.092692987180200151 0 0.003886405537072308 -0.074985287574065307 0 0.019828086476746741 -0.084468472620665633 0 -0.0041979068999104599 -0.092692987180200151 0 0.019064047731892519 -0.1027428983621612 0 0.019828086476746741 -0.084468472620665633 0 0.003886405537072308 -0.074985287574065307 0 0.028295076817156449 -0.069568801619081161 0 0.019828086476746741 -0.084468472620665633 0 0.003886405537072308 -0.074985287574065307 0 0.028295076817156449 -0.069568801619081161 0 0.01833358543460277 -0.05641701057889667 0 0.019064047731892519 -0.1027428983621612 0 0.019828086476746741 -0.084468472620665633 0 0.037234516137291472 -0.08975442686183864 0 0.028295076817156449 -0.069568801619081161 0 0.019828086476746741 -0.084468472620665633 0 0.037234516137291472 -0.08975442686183864 0 0.028295076817156449 -0.069568801619081161 0 0.037234516137291472 -0.08975442686183864 0 0.056852127489792813 -0.07490730178705754 0 0.028295076817156449 -0.069568801619081161 0 0.056852127489792813 -0.07490730178705754 0 0.043412112850471737 -0.054930671915401803 0 0.056852127489792813 -0.07490730178705754 0 0.043412112850471737 -0.054930671915401803 0 0.062505798999464707 -0.060826586793076412 0 0.056852127489792813 -0.07490730178705754 0 0.055228870314899682 -0.103843804558387 0 0.070281085843191191 -0.093817275438188408 0 0.037234516137291472 -0.08975442686183864 0 0.056852127489792813 -0.07490730178705754 0 0.055228870314899682 -0.103843804558387 0 0.055228870314899682 -0.103843804558387 0 0.05399936433302991 -0.12122894057442581 0 0.037106240101941267 -0.1127949235512794 0 0.055228870314899682 -0.103843804558387 0 0.05399936433302991 -0.12122894057442581 0 0.065906963652981487 -0.1182248878619804 0 0.041268264505893618 -0.12924178955595211 0 0.05399936433302991 -0.12122894057442581 0 0.037106240101941267 -0.1127949235512794 0 0.041268264505893618 -0.12924178955595211 0 0.015842377588640461 -0.12995768139491151 0 0.037106240101941267 -0.1127949235512794 0 0.037234516137291472 -0.08975442686183864 0 0.055228870314899682 -0.103843804558387 0 0.037106240101941267 -0.1127949235512794 0 0.030110906951190688 -0.01173386609504996 0 0.0045774522161646097 -0.0093144947699853528 0 0.019230231732056138 -0.023667566818530359 0 0.018044735406519189 -0.0027914786915071068 0 0.030110906951190688 -0.01173386609504996 0 0.0045774522161646097 -0.0093144947699853528 0 0.035622497167505339 0.0063925700628825917 0 0.018044735406519189 -0.0027914786915071068 0 0.030110906951190688 -0.01173386609504996 0 0.030110906951190688 -0.01173386609504996 0 0.0045774522161646097 -0.0093144947699853528 0 0.018044735406519189 -0.0027914786915071068 0 0.002394805847480138 -0.0071764921779012506 0 0.0045774522161646097 -0.0093144947699853528 0 0.0006213327713558641 -0.0089396406014967747 0 0.0045774522161646097 -0.0093144947699853528 0 0.0014199230119024339 -0.021574900853890581 0 0.002394805847480138 -0.0071764921779012506 0 0.0006213327713558641 -0.0089396406014967747 0 0.0045774522161646097 -0.0093144947699853528 0 0.0006213327713558641 -0.0089396406014967747 0 0.0045774522161646097 -0.0093144947699853528 0 -0.001488115343110989 -0.0087397640735148233 0 0.002394805847480138 -0.0071764921779012506 0 0.0006213327713558641 -0.0089396406014967747 0 0.002394805847480138 -0.0071764921779012506 0 0.0006213327713558641 -0.0089396406014967747 0 0.002394805847480138 -0.0071764921779012506 0 0.0045774522161646097 -0.0093144947699853528 0 0.0045774522161646097 -0.0093144947699853528 0 0.019230231732056138 -0.023667566818530359 0 0.0045774522161646097 -0.0093144947699853528 0 0.0014199230119024339 -0.021574900853890581 0 0.019230231732056138 -0.023667566818530359 0 0.0014199230119024339 -0.021574900853890581 0 0.0083973707027768379 -0.030855929703784798 0 0.019230231732056138 -0.023667566818530359 0 -0.003476286599935095 -0.036271506326322138 0 0.0014199230119024339 -0.021574900853890581 0 0.0083973707027768379 -0.030855929703784798 0 0.030110906951190688 -0.01173386609504996 0 0.019230231732056138 -0.023667566818530359 0 0.031518170358815163 -0.024102367719011381 0 0.019230231732056138 -0.023667566818530359 0 0.033883011247947889 -0.038020638867075192 0 0.031518170358815163 -0.024102367719011381 0 0.019230231732056138 -0.023667566818530359 0 0.033883011247947889 -0.038020638867075192 0 0.01494251690265052 -0.041372340822573933 0 0.01833358543460277 -0.05641701057889667 0 0.033883011247947889 -0.038020638867075192 0 0.019230231732056138 -0.023667566818530359 0 0.01494251690265052 -0.041372340822573933 0 0.033883011247947889 -0.038020638867075192 0 -0.003476286599935095 -0.036271506326322138 0 -0.00022463716734756899 -0.054496453091326037 0 0.01494251690265052 -0.041372340822573933 0 -0.003476286599935095 -0.036271506326322138 0 0.0083973707027768379 -0.030855929703784798 0 0.01494251690265052 -0.041372340822573933 0 0.0083973707027768379 -0.030855929703784798 0 0.019230231732056138 -0.023667566818530359 0 0.01494251690265052 -0.041372340822573933 0 -0.00022463716734756899 -0.054496453091326037 0 0.003886405537072308 -0.074985287574065307 0 0.01833358543460277 -0.05641701057889667 0 -0.00022463716734756899 -0.054496453091326037 0 0.01494251690265052 -0.041372340822573933 0 0.01833358543460277 -0.05641701057889667 0 0.028295076817156449 -0.069568801619081161 0 0.01833358543460277 -0.05641701057889667 0 0.043412112850471737 -0.054930671915401803 0 0.01833358543460277 -0.05641701057889667 0 0.043412112850471737 -0.054930671915401803 0 0.033883011247947889 -0.038020638867075192 0 0.043412112850471737 -0.054930671915401803 0 0.059769218069649313 -0.045902054602901338 0 0.062505798999464707 -0.060826586793076412 0 0.043412112850471737 -0.054930671915401803 0 0.059769218069649313 -0.045902054602901338 0 0.051344651808144813 -0.03456126235542302 0 0.051344651808144813 -0.03456126235542302 0 0.056061594203691133 -0.025076371103657479 0 0.065665228365204262 -0.034364577790676212 0 0.059769218069649313 -0.045902054602901338 0 0.051344651808144813 -0.03456126235542302 0 0.065665228365204262 -0.034364577790676212 0 0.043412112850471737 -0.054930671915401803 0 0.051344651808144813 -0.03456126235542302 0 0.033883011247947889 -0.038020638867075192 0 0.051344651808144813 -0.03456126235542302 0 0.033883011247947889 -0.038020638867075192 0 0.042848531504065902 -0.022987399095390042 0 0.030110906951190688 -0.01173386609504996 0 0.042848531504065902 -0.022987399095390042 0 0.055644361686216767 -0.014153237420114781 0 0.033883011247947889 -0.038020638867075192 0 0.031518170358815163 -0.024102367719011381 0 0.042848531504065902 -0.022987399095390042 0 0.030110906951190688 -0.01173386609504996 0 0.031518170358815163 -0.024102367719011381 0 0.042848531504065902 -0.022987399095390042 0 0.051344651808144813 -0.03456126235542302 0 0.042848531504065902 -0.022987399095390042 0 0.056061594203691133 -0.025076371103657479 0 0.056061594203691133 -0.025076371103657479 0 0.064805197654823885 -0.019315378856683371 0 0.065665228365204262 -0.034364577790676212 0 0.056061594203691133 -0.025076371103657479 0 0.055644361686216767 -0.014153237420114781 0 0.064805197654823885 -0.019315378856683371 0 0.042848531504065902 -0.022987399095390042 0 0.056061594203691133 -0.025076371103657479 0 0.055644361686216767 -0.014153237420114781 0 0.055644361686216767 -0.014153237420114781 0 0.058196269712748661 -0.0010094984802769141 0 0.069352637037845374 -0.0058266927155855106 0 0.055644361686216767 -0.014153237420114781 0 0.058196269712748661 -0.0010094984802769141 0 0.045210290485040869 -0.0034719151203993228 0 0.030110906951190688 -0.01173386609504996 0 0.055644361686216767 -0.014153237420114781 0 0.045210290485040869 -0.0034719151203993228 0 0.035622497167505339 0.0063925700628825917 0 0.030110906951190688 -0.01173386609504996 0 0.045210290485040869 -0.0034719151203993228 0 0.030110906951190688 -0.01173386609504996 0 0.055644361686216767 -0.014153237420114781 0 0.096167504599054904 0.0042442054759202954 0 0.081717153665888317 -0.0025063239881197622 0 0.095472413630543998 -0.0072730453323191883 0 0.081717153665888317 -0.0025063239881197622 0 0.081177816421242804 -0.016572608745179591 0 0.095472413630543998 -0.0072730453323191883 0 0.055644361686216767 -0.014153237420114781 0 0.081177816421242804 -0.016572608745179591 0 0.055644361686216767 -0.014153237420114781 0 0.069352637037845374 -0.0058266927155855106 0 0.081177816421242804 -0.016572608745179591 0 0.070381517258247442 0.0054324954822656396 0 0.081717153665888317 -0.0025063239881197622 0 0.069352637037845374 -0.0058266927155855106 0 0.070381517258247442 0.0054324954822656396 0 0.058196269712748661 -0.0010094984802769141 0 0.069352637037845374 -0.0058266927155855106 0 0.081717153665888317 -0.0025063239881197622 0 0.069352637037845374 -0.0058266927155855106 0 0.081177816421242804 -0.016572608745179591 0 0.064805197654823885 -0.019315378856683371 0 0.085712771491518958 -0.038211511484016539 0 0.065665228365204262 -0.034364577790676212 0 0.064805197654823885 -0.019315378856683371 0 0.076287907678157074 -0.023986159701047009 0 0.081177816421242804 -0.016572608745179591 0 0.055644361686216767 -0.014153237420114781 0 0.064805197654823885 -0.019315378856683371 0 0.081177816421242804 -0.016572608745179591 0 0.064805197654823885 -0.019315378856683371 0 0.076287907678157074 -0.023986159701047009 0 0.085712771491518958 -0.038211511484016539 0 0.064805197654823885 -0.019315378856683371 0 0.085712771491518958 -0.038211511484016539 0 0.076287907678157074 -0.023986159701047009 0 0.090532384742726735 -0.027505059676875141 0 0.085712771491518958 -0.038211511484016539 0 0.076287907678157074 -0.023986159701047009 0 0.085712771491518958 -0.038211511484016539 0 0.081177816421242804 -0.016572608745179591 0 0.090532384742726735 -0.027505059676875141 0 0.1067112711562688 -0.01899198007024441 0 0.076287907678157074 -0.023986159701047009 0 0.081177816421242804 -0.016572608745179591 0 0.090532384742726735 -0.027505059676875141 0 0.090532384742726735 -0.027505059676875141 0 0.085712771491518958 -0.038211511484016539 0 0.102772156966446 -0.039763038383888151 0 0.085712771491518958 -0.038211511484016539 0 0.07267749436203183 -0.048188407729665747 0 0.085132366133298415 -0.052458296335176707 0 0.085712771491518958 -0.038211511484016539 0 0.065665228365204262 -0.034364577790676212 0 0.07267749436203183 -0.048188407729665747 0 0.059769218069649313 -0.045902054602901338 0 0.065665228365204262 -0.034364577790676212 0 0.07267749436203183 -0.048188407729665747 0 0.059769218069649313 -0.045902054602901338 0 0.07267749436203183 -0.048188407729665747 0 0.062505798999464707 -0.060826586793076412 0 0.07267749436203183 -0.048188407729665747 0 0.062505798999464707 -0.060826586793076412 0 0.07727958311305537 -0.057367419372147309 0 0.085712771491518958 -0.038211511484016539 0 0.098207536939253007 -0.057070397666300149 0 0.07727958311305537 -0.057367419372147309 0 0.085132366133298415 -0.052458296335176707 0 0.088807886296056321 -0.06442462200908719 0 0.085712771491518958 -0.038211511484016539 0 0.085132366133298415 -0.052458296335176707 0 0.098207536939253007 -0.057070397666300149 0 0.07267749436203183 -0.048188407729665747 0 0.07727958311305537 -0.057367419372147309 0 0.085132366133298415 -0.052458296335176707 0 0.085132366133298415 -0.052458296335176707 0 0.098207536939253007 -0.057070397666300149 0 0.088807886296056321 -0.06442462200908719 0 0.085712771491518958 -0.038211511484016539 0 0.1060355466537841 -0.056579106778484822 0 0.085712771491518958 -0.038211511484016539 0 0.098207536939253007 -0.057070397666300149 0 0.1060355466537841 -0.056579106778484822 0 0.098207536939253007 -0.057070397666300149 0 0.1060355466537841 -0.056579106778484822 0 0.1035330678577871 -0.060408744014543561 0 0.1060355466537841 -0.056579106778484822 0 0.1035330678577871 -0.060408744014543561 0 0.1060355466537841 -0.056579106778484822 0 0.12407046944405239 -0.056682210957894767 0 0.1194833752947594 -0.035999389823432593 0 0.1060355466537841 -0.056579106778484822 0 0.1194833752947594 -0.035999389823432593 0 0.102772156966446 -0.039763038383888151 0 0.1060355466537841 -0.056579106778484822 0 0.1194833752947594 -0.035999389823432593 0 0.1194833752947594 -0.035999389823432593 0 0.102772156966446 -0.039763038383888151 0 0.1067112711562688 -0.01899198007024441 0 0.085712771491518958 -0.038211511484016539 0 0.1060355466537841 -0.056579106778484822 0 0.102772156966446 -0.039763038383888151 0 0.090532384742726735 -0.027505059676875141 0 0.102772156966446 -0.039763038383888151 0 0.1067112711562688 -0.01899198007024441 0 0.081177816421242804 -0.016572608745179591 0 0.1067112711562688 -0.01899198007024441 0 0.1194833752947594 -0.035999389823432593 0 0.119688443476294 -0.020419382492060888 0 0.13293120393573529 -0.01541967286838083 0 0.1194833752947594 -0.035999389823432593 0 0.1067112711562688 -0.01899198007024441 0 0.119688443476294 -0.020419382492060888 0 0.119688443476294 -0.020419382492060888 0 0.1196279235184127 -0.011266487206185741 0 0.13293120393573529 -0.01541967286838083 0 0.1067112711562688 -0.01899198007024441 0 0.119688443476294 -0.020419382492060888 0 0.1196279235184127 -0.011266487206185741 0 0.1067112711562688 -0.01899198007024441 0 0.1196279235184127 -0.011266487206185741 0 0.11158832231026521 -0.002538519333972472 0 0.12681727907172599 0.0028609529651058472 0 0.1196279235184127 -0.011266487206185741 0 0.11158832231026521 -0.002538519333972472 0 0.081177816421242804 -0.016572608745179591 0 0.1067112711562688 -0.01899198007024441 0 0.095472413630543998 -0.0072730453323191883 0 0.1067112711562688 -0.01899198007024441 0 0.11158832231026521 -0.002538519333972472 0 0.095472413630543998 -0.0072730453323191883 0 0.096167504599054904 0.0042442054759202954 0 0.11158832231026521 -0.002538519333972472 0 0.095472413630543998 -0.0072730453323191883 0 0.088205186756687592 -0.098499163401079406 0 0.088306584707542421 -0.11364295246223539 0 0.1041297467101449 -0.10443009357677931 0 0.088205186756687592 -0.098499163401079406 0 0.088306584707542421 -0.11364295246223539 0 0.074368452797441906 -0.1081427041937684 0 0.086025777066828416 -0.13071312073542821 0 0.088306584707542421 -0.11364295246223539 0 0.1003755091591467 -0.120365047089626 0 0.086025777066828416 -0.13071312073542821 0 0.088306584707542421 -0.11364295246223539 0 0.076734835755005087 -0.11970758577673089 0 0.088306584707542421 -0.11364295246223539 0 0.076734835755005087 -0.11970758577673089 0 0.074368452797441906 -0.1081427041937684 0 0.076734835755005087 -0.11970758577673089 0 0.065906963652981487 -0.1182248878619804 0 0.074368452797441906 -0.1081427041937684 0 0.055228870314899682 -0.103843804558387 0 0.065906963652981487 -0.1182248878619804 0 0.074368452797441906 -0.1081427041937684 0 0.067777920578933518 -0.1299680747675574 0 0.076734835755005087 -0.11970758577673089 0 0.065906963652981487 -0.1182248878619804 0 0.067777920578933518 -0.1299680747675574 0 0.05399936433302991 -0.12122894057442581 0 0.065906963652981487 -0.1182248878619804 0 0.088205186756687592 -0.098499163401079406 0 0.070281085843191191 -0.093817275438188408 0 0.074368452797441906 -0.1081427041937684 0 0.055228870314899682 -0.103843804558387 0 0.070281085843191191 -0.093817275438188408 0 0.074368452797441906 -0.1081427041937684 0 0.056852127489792813 -0.07490730178705754 0 0.078967107604769243 -0.081534257868326937 0 0.056852127489792813 -0.07490730178705754 0 0.070281085843191191 -0.093817275438188408 0 0.078967107604769243 -0.081534257868326937 0 0.062505798999464707 -0.060826586793076412 0 0.07727958311305537 -0.057367419372147309 0 0.078967107604769243 -0.081534257868326937 0 0.056852127489792813 -0.07490730178705754 0 0.062505798999464707 -0.060826586793076412 0 0.078967107604769243 -0.081534257868326937 0 0.07727958311305537 -0.057367419372147309 0 0.088807886296056321 -0.06442462200908719 0 0.078967107604769243 -0.081534257868326937 0 0.088807886296056321 -0.06442462200908719 0 0.078967107604769243 -0.081534257868326937 0 0.094886380824945021 -0.074739832907536372 0 0.088205186756687592 -0.098499163401079406 0 0.078967107604769243 -0.081534257868326937 0 0.10108208771974569 -0.088161213949596334 0 0.078967107604769243 -0.081534257868326937 0 0.10108208771974569 -0.088161213949596334 0 0.088205186756687592 -0.098499163401079406 0 0.070281085843191191 -0.093817275438188408 0 0.078967107604769243 -0.081534257868326937 0 0.078967107604769243 -0.081534257868326937 0 0.10108208771974569 -0.088161213949596334 0 0.094886380824945021 -0.074739832907536372 0 0.10108208771974569 -0.088161213949596334 0 0.094886380824945021 -0.074739832907536372 0 0.1107023023869871 -0.07592928384858362 0 0.1060355466537841 -0.056579106778484822 0 0.1035330678577871 -0.060408744014543561 0 0.1107023023869871 -0.07592928384858362 0 0.098151026611810355 -0.068041034107876819 0 0.094886380824945021 -0.074739832907536372 0 0.1107023023869871 -0.07592928384858362 0 0.098207536939253007 -0.057070397666300149 0 0.1107023023869871 -0.07592928384858362 0 0.098207536939253007 -0.057070397666300149 0 0.098151026611810355 -0.068041034107876819 0 0.1107023023869871 -0.07592928384858362 0 0.098207536939253007 -0.057070397666300149 0 0.1035330678577871 -0.060408744014543561 0 0.1107023023869871 -0.07592928384858362 0 0.088807886296056321 -0.06442462200908719 0 0.098151026611810355 -0.068041034107876819 0 0.094886380824945021 -0.074739832907536372 0 0.098207536939253007 -0.057070397666300149 0 0.088807886296056321 -0.06442462200908719 0 0.098151026611810355 -0.068041034107876819 0 0.1060355466537841 -0.056579106778484822 0 0.1107023023869871 -0.07592928384858362 0 0.12599115970317629 -0.074614863284063901 0 0.1060355466537841 -0.056579106778484822 0 0.12599115970317629 -0.074614863284063901 0 0.1060355466537841 -0.056579106778484822 0 0.12407046944405239 -0.056682210957894767 0 0.12599115970317629 -0.074614863284063901 0 0.1107023023869871 -0.07592928384858362 0 0.1231970678347219 -0.094788170030866675 0 0.10108208771974569 -0.088161213949596334 0 0.1231970678347219 -0.094788170030866675 0 0.10108208771974569 -0.088161213949596334 0 0.1107023023869871 -0.07592928384858362 0 0.1231970678347219 -0.094788170030866675 0 0.1107023023869871 -0.07592928384858362 0 0.1231970678347219 -0.094788170030866675 0 0.12599115970317629 -0.074614863284063901 0 0.1231970678347219 -0.094788170030866675 0 0.1041297467101449 -0.10443009357677931 0 0.1165495357793246 -0.11537146045311671 0 0.10108208771974569 -0.088161213949596334 0 0.1231970678347219 -0.094788170030866675 0 0.1041297467101449 -0.10443009357677931 0 0.088205186756687592 -0.098499163401079406 0 0.10108208771974569 -0.088161213949596334 0 0.1041297467101449 -0.10443009357677931 0 0.1110772144577262 -0.12607447494648069 0 0.1003755091591467 -0.120365047089626 0 0.1165495357793246 -0.11537146045311671 0 0.088306584707542421 -0.11364295246223539 0 0.1041297467101449 -0.10443009357677931 0 0.1003755091591467 -0.120365047089626 0 0.1041297467101449 -0.10443009357677931 0 0.1003755091591467 -0.120365047089626 0 0.1165495357793246 -0.11537146045311671 0 0.1110772144577262 -0.12607447494648069 0 0.1165495357793246 -0.11537146045311671 0 0.125059882544757 -0.1243050716586782 0 0.1165495357793246 -0.11537146045311671 0 0.125059882544757 -0.1243050716586782 0 0.13570225296767791 -0.1136627830916173 0 0.125059882544757 -0.1243050716586782 0 0.13570225296767791 -0.1136627830916173 0 0.13351042007077771 -0.13535464583232679 0 0.13570225296767791 -0.1136627830916173 0 0.14916210969568239 -0.1144869233999513 0 0.14820743810063461 -0.13253739615236759 0 0.13570225296767791 -0.1136627830916173 0 0.14820743810063461 -0.13253739615236759 0 0.14916210969568239 -0.1144869233999513 0 0.1659023858019596 -0.11068637629522381 0 0.14820743810063461 -0.13253739615236759 0 0.13570225296767791 -0.1136627830916173 0 0.14916210969568239 -0.1144869233999513 0 0.1438387705826743 -0.1009736450727655 0 0.14916210969568239 -0.1144869233999513 0 0.1438387705826743 -0.1009736450727655 0 0.1659023858019596 -0.11068637629522381 0 0.1438387705826743 -0.1009736450727655 0 0.14594677275256851 -0.092650619789643215 0 0.1659023858019596 -0.11068637629522381 0 0.14594677275256851 -0.092650619789643215 0 0.1659023858019596 -0.11068637629522381 0 0.1231970678347219 -0.094788170030866675 0 0.1438387705826743 -0.1009736450727655 0 0.14594677275256851 -0.092650619789643215 0 0.1231970678347219 -0.094788170030866675 0 0.1438387705826743 -0.1009736450727655 0 0.1231970678347219 -0.094788170030866675 0 0.13570225296767791 -0.1136627830916173 0 0.1231970678347219 -0.094788170030866675 0 0.13570225296767791 -0.1136627830916173 0 0.1438387705826743 -0.1009736450727655 0 0.1231970678347219 -0.094788170030866675 0 0.1165495357793246 -0.11537146045311671 0 0.13570225296767791 -0.1136627830916173 0 0.12599115970317629 -0.074614863284063901 0 0.14324551520284479 -0.074303388514748908 0 0.14594677275256851 -0.092650619789643215 0 0.12599115970317629 -0.074614863284063901 0 0.14594677275256851 -0.092650619789643215 0 0.1231970678347219 -0.094788170030866675 0 0.12599115970317629 -0.074614863284063901 0 0.14594677275256851 -0.092650619789643215 0 0.13274812921261911 -0.06482196831319062 0 0.14324551520284479 -0.074303388514748908 0 0.14208920836164879 -0.057453001683217583 0 0.12407046944405239 -0.056682210957894767 0 0.13274812921261911 -0.06482196831319062 0 0.12599115970317629 -0.074614863284063901 0 0.13274812921261911 -0.06482196831319062 0 0.12599115970317629 -0.074614863284063901 0 0.14324551520284479 -0.074303388514748908 0 0.14324551520284479 -0.074303388514748908 0 0.1577676676713505 -0.070958881179004327 0 0.14208920836164879 -0.057453001683217583 0 0.14324551520284479 -0.074303388514748908 0 0.15552700132703259 -0.084480842179265062 0 0.1577676676713505 -0.070958881179004327 0 0.14594677275256851 -0.092650619789643215 0 0.15552700132703259 -0.084480842179265062 0 0.16270751108717671 -0.093919671838121624 0 0.14324551520284479 -0.074303388514748908 0 0.14594677275256851 -0.092650619789643215 0 0.15552700132703259 -0.084480842179265062 0 0.15552700132703259 -0.084480842179265062 0 0.1577676676713505 -0.070958881179004327 0 0.17317205283599571 -0.083245500938658068 0 0.15552700132703259 -0.084480842179265062 0 0.17317205283599571 -0.083245500938658068 0 0.16270751108717671 -0.093919671838121624 0 0.17317205283599571 -0.083245500938658068 0 0.1732436498299591 -0.098484742462365965 0 0.16270751108717671 -0.093919671838121624 0 0.1577676676713505 -0.070958881179004327 0 0.17329006297225849 -0.067144545014819187 0 0.17317205283599571 -0.083245500938658068 0 0.1577676676713505 -0.070958881179004327 0 0.17329006297225849 -0.067144545014819187 0 0.16114266970546481 -0.055348584155622209 0 0.17329006297225849 -0.067144545014819187 0 0.18660459660722059 -0.07121356670435669 0 0.17317205283599571 -0.083245500938658068 0 0.17329006297225849 -0.067144545014819187 0 0.18660459660722059 -0.07121356670435669 0 0.18383722960737159 -0.053734604093409272 0 0.18660459660722059 -0.07121356670435669 0 0.17317205283599571 -0.083245500938658068 0 0.19163234817905089 -0.084272585639399919 0 0.17317205283599571 -0.083245500938658068 0 0.18448732685510821 -0.096160788283265797 0 0.19163234817905089 -0.084272585639399919 0 0.17317205283599571 -0.083245500938658068 0 0.18448732685510821 -0.096160788283265797 0 0.1732436498299591 -0.098484742462365965 0 0.18448732685510821 -0.096160788283265797 0 0.1732436498299591 -0.098484742462365965 0 0.1799489725695555 -0.1084113749565605 0 0.1732436498299591 -0.098484742462365965 0 0.1799489725695555 -0.1084113749565605 0 0.1659023858019596 -0.11068637629522381 0 0.18448732685510821 -0.096160788283265797 0 0.1799489725695555 -0.1084113749565605 0 0.19189947738255089 -0.11079770296415201 0 0.1799489725695555 -0.1084113749565605 0 0.1659023858019596 -0.11068637629522381 0 0.18392927920566929 -0.12697896821793581 0 0.1659023858019596 -0.11068637629522381 0 0.18392927920566929 -0.12697896821793581 0 0.1799489725695555 -0.1084113749565605 0 0.19189947738255089 -0.11079770296415201 0 0.18392927920566929 -0.12697896821793581 0 0.1659023858019596 -0.11068637629522381 0 0.17135699408012309 -0.1393121638749876 0 0.1732436498299591 -0.098484742462365965 0 0.1659023858019596 -0.11068637629522381 0 0.16270751108717671 -0.093919671838121624 0 0.14594677275256851 -0.092650619789643215 0 0.1659023858019596 -0.11068637629522381 0 0.16270751108717671 -0.093919671838121624 0 0.1659023858019596 -0.11068637629522381 0 0.16270751108717671 -0.093919671838121624 0 0.1463790325767105 0.0051600440866713393 0 0.13293120393573529 -0.01541967286838083 0 0.14494909117168939 -0.01571097116995826 0 0.1463790325767105 0.0051600440866713393 0 0.15462421245165581 -0.0058893527151400796 0 0.14494909117168939 -0.01571097116995826 0 0.1463790325767105 0.0051600440866713393 0 0.14494909117168939 -0.01571097116995826 0 0.15462421245165581 -0.0058893527151400796 0 0.14494909117168939 -0.01571097116995826 0 0.1598580582920249 -0.020425916519869049 0 0.1463790325767105 0.0051600440866713393 0 0.12681727907172599 0.0028609529651058472 0 0.13293120393573529 -0.01541967286838083 0 0.1463790325767105 0.0051600440866713393 0 0.13293120393573529 -0.01541967286838083 0 0.12681727907172599 0.0028609529651058472 0 0.1196279235184127 -0.011266487206185741 0 0.13293120393573529 -0.01541967286838083 0 0.13293120393573529 -0.01541967286838083 0 0.14494909117168939 -0.01571097116995826 0 0.1435191497666691 -0.036581986426587887 0 0.1194833752947594 -0.035999389823432593 0 0.13293120393573529 -0.01541967286838083 0 0.1435191497666691 -0.036581986426587887 0 0.1194833752947594 -0.035999389823432593 0 0.13293120393573529 -0.01541967286838083 0 0.14494909117168939 -0.01571097116995826 0 0.1435191497666691 -0.036581986426587887 0 0.14494909117168939 -0.01571097116995826 0 0.1435191497666691 -0.036581986426587887 0 0.1598580582920249 -0.020425916519869049 0 0.1194833752947594 -0.035999389823432593 0 0.1435191497666691 -0.036581986426587887 0 0.13229055071678239 -0.046679147222783213 0 0.12407046944405239 -0.056682210957894767 0 0.1194833752947594 -0.035999389823432593 0 0.13229055071678239 -0.046679147222783213 0 0.1435191497666691 -0.036581986426587887 0 0.13229055071678239 -0.046679147222783213 0 0.14208920836164879 -0.057453001683217583 0 0.12407046944405239 -0.056682210957894767 0 0.13229055071678239 -0.046679147222783213 0 0.14208920836164879 -0.057453001683217583 0 0.12407046944405239 -0.056682210957894767 0 0.13274812921261911 -0.06482196831319062 0 0.14208920836164879 -0.057453001683217583 0 0.1577676676713505 -0.070958881179004327 0 0.14208920836164879 -0.057453001683217583 0 0.16114266970546481 -0.055348584155622209 0 0.1435191497666691 -0.036581986426587887 0 0.14208920836164879 -0.057453001683217583 0 0.1435191497666691 -0.036581986426587887 0 0.14208920836164879 -0.057453001683217583 0 0.16114266970546481 -0.055348584155622209 0 0.16114266970546481 -0.055348584155622209 0 0.18383722960737159 -0.053734604093409272 0 0.16867226584066319 -0.036111154955617203 0 0.17329006297225849 -0.067144545014819187 0 0.16114266970546481 -0.055348584155622209 0 0.18383722960737159 -0.053734604093409272 0 0.18383722960737159 -0.053734604093409272 0 0.16867226584066319 -0.036111154955617203 0 0.1895671539671433 -0.037285104408639982 0 0.1435191497666691 -0.036581986426587887 0 0.16114266970546481 -0.055348584155622209 0 0.16867226584066319 -0.036111154955617203 0 0.1435191497666691 -0.036581986426587887 0 0.16867226584066319 -0.036111154955617203 0 0.1598580582920249 -0.020425916519869049 0 0.16867226584066319 -0.036111154955617203 0 0.1598580582920249 -0.020425916519869049 0 0.17626464034529979 -0.01218273843611789 0 0.16867226584066319 -0.036111154955617203 0 0.17626464034529979 -0.01218273843611789 0 0.19288185645158881 -0.018686415508600542 0 0.16867226584066319 -0.036111154955617203 0 0.19288185645158881 -0.018686415508600542 0 0.16867226584066319 -0.036111154955617203 0 0.19288185645158881 -0.018686415508600542 0 0.1895671539671433 -0.037285104408639982 0 0.1913914811785945 0.0015479160267864781 0 0.177795833794237 0.0058736288592868176 0 0.17626464034529979 -0.01218273843611789 0 0.177795833794237 0.0058736288592868176 0 0.17626464034529979 -0.01218273843611789 0 0.16638725000284621 -0.0041024332455818144 0 0.1913914811785945 0.0015479160267864781 0 0.17626464034529979 -0.01218273843611789 0 0.19288185645158881 -0.018686415508600542 0 0.15462421245165581 -0.0058893527151400796 0 0.1598580582920249 -0.020425916519869049 0 0.16638725000284621 -0.0041024332455818144 0 0.1598580582920249 -0.020425916519869049 0 0.17626464034529979 -0.01218273843611789 0 0.16638725000284621 -0.0041024332455818144 0 0.15628357420278671 0.003810722324721363 0 0.15462421245165581 -0.0058893527151400796 0 0.16638725000284621 -0.0041024332455818144 0 0.21709144706251299 -0.0012616760615819459 0 0.19288185645158881 -0.018686415508600542 0 0.21709144706251299 -0.0012616760615819459 0 0.19288185645158881 -0.018686415508600542 0 0.21106230177929311 -0.016930390785221641 0 0.21709144706251299 -0.0012616760615819459 0 0.21106230177929311 -0.016930390785221641 0 0.21880732635032871 -0.001449260780306197 0 0.21106230177929311 -0.016930390785221641 0 0.22385231661827831 -0.017244899007901549 0 0.21880732635032871 -0.001449260780306197 0 0.21991949691130641 0.00077379957079282309 0 0.21709144706251299 -0.0012616760615819459 0 0.21991949691130641 0.00077379957079282309 0 0.21709144706251299 -0.0012616760615819459 0 0.21880732635032871 -0.001449260780306197 0 0.21709144706251299 -0.0012616760615819459 0 0.21880732635032871 -0.001449260780306197 0 0.21106230177929311 -0.016930390785221641 0 0.21880732635032871 -0.001449260780306197 0 0.1913914811785945 0.0015479160267864781 0 0.21709144706251299 -0.0012616760615819459 0 0.19288185645158881 -0.018686415508600542 0 0.19288185645158881 -0.018686415508600542 0 0.21106230177929311 -0.016930390785221641 0 0.2033172772082579 -0.032411520790137288 0 0.19288185645158881 -0.018686415508600542 0 0.2033172772082579 -0.032411520790137288 0 0.1895671539671433 -0.037285104408639982 0 0.21106230177929311 -0.016930390785221641 0 0.2033172772082579 -0.032411520790137288 0 0.21106230177929311 -0.016930390785221641 0 0.21701755041282189 -0.032304719396535099 0 0.2033172772082579 -0.032411520790137288 0 0.21106230177929311 -0.016930390785221641 0 0.21701755041282189 -0.032304719396535099 0 0.22385231661827831 -0.017244899007901549 0 0.21701755041282189 -0.032304719396535099 0 0.21047104707744299 -0.044055030933792823 0 0.21970932447173591 -0.041885045690610363 0 0.21047104707744299 -0.044055030933792823 0 0.2163169812201669 -0.048151654183774213 0 0.21970932447173591 -0.041885045690610363 0 0.21047104707744299 -0.044055030933792823 0 0.2033172772082579 -0.032411520790137288 0 0.19912714072783499 -0.045481826695435601 0 0.21701755041282189 -0.032304719396535099 0 0.21047104707744299 -0.044055030933792823 0 0.2033172772082579 -0.032411520790137288 0 0.2033172772082579 -0.032411520790137288 0 0.1895671539671433 -0.037285104408639982 0 0.19912714072783499 -0.045481826695435601 0 0.18383722960737159 -0.053734604093409272 0 0.1895671539671433 -0.037285104408639982 0 0.19912714072783499 -0.045481826695435601 0 0.18383722960737159 -0.053734604093409272 0 0.19912714072783499 -0.045481826695435601 0 0.20031667673944939 -0.057421141152823332 0 0.18383722960737159 -0.053734604093409272 0 0.20031667673944939 -0.057421141152823332 0 0.19584992287481651 -0.066326971565447423 0 0.19912714072783499 -0.045481826695435601 0 0.20031667673944939 -0.057421141152823332 0 0.20701231567461709 -0.051722697756719387 0 0.20031667673944939 -0.057421141152823332 0 0.21110366793748389 -0.058962871247726333 0 0.20754781500579161 -0.067167929918243774 0 0.20031667673944939 -0.057421141152823332 0 0.20701231567461709 -0.051722697756719387 0 0.21110366793748389 -0.058962871247726333 0 0.21047104707744299 -0.044055030933792823 0 0.19912714072783499 -0.045481826695435601 0 0.20701231567461709 -0.051722697756719387 0 0.21047104707744299 -0.044055030933792823 0 0.20701231567461709 -0.051722697756719387 0 0.21404304589087411 -0.052692618753818851 0 0.20701231567461709 -0.051722697756719387 0 0.21404304589087411 -0.052692618753818851 0 0.21110366793748389 -0.058962871247726333 0 0.21047104707744299 -0.044055030933792823 0 0.21404304589087411 -0.052692618753818851 0 0.2163169812201669 -0.048151654183774213 0 0.21404304589087411 -0.052692618753818851 0 0.2163169812201669 -0.048151654183774213 0 0.22104450744061471 -0.053973921356874788 0 0.21404304589087411 -0.052692618753818851 0 0.21720125996139161 -0.057407354338342383 0 0.22104450744061471 -0.053973921356874788 0 0.21720125996139161 -0.057407354338342383 0 0.21110366793748389 -0.058962871247726333 0 0.2190710203991128 -0.066761103999133015 0 0.21404304589087411 -0.052692618753818851 0 0.21720125996139161 -0.057407354338342383 0 0.21110366793748389 -0.058962871247726333 0 0.22259109842381891 -0.056331752972584533 0 0.24466000719816181 -0.052572806154117767 0 0.23359814963938669 -0.073112384460560717 0 0.22259109842381891 -0.056331752972584533 0 0.2190710203991128 -0.066761103999133015 0 0.21720125996139161 -0.057407354338342383 0 0.22259109842381891 -0.056331752972584533 0 0.2190710203991128 -0.066761103999133015 0 0.21720125996139161 -0.057407354338342383 0 0.22259109842381891 -0.056331752972584533 0 0.22104450744061471 -0.053973921356874788 0 0.22259109842381891 -0.056331752972584533 0 0.22104450744061471 -0.053973921356874788 0 0.2163169812201669 -0.048151654183774213 0 0.22104450744061471 -0.053973921356874788 0 0.21970932447173591 -0.041885045690610363 0 0.25572186475693609 -0.032033227847674262 0 0.24466000719816181 -0.052572806154117767 0 0.2314560627619717 -0.030066475819188941 0 0.22259109842381891 -0.056331752972584533 0 0.24466000719816181 -0.052572806154117767 0 0.2314560627619717 -0.030066475819188941 0 0.22259109842381891 -0.056331752972584533 0 0.2314560627619717 -0.030066475819188941 0 0.22259109842381891 -0.056331752972584533 0 0.22104450744061471 -0.053973921356874788 0 0.2314560627619717 -0.030066475819188941 0 0.22104450744061471 -0.053973921356874788 0 0.21970932447173591 -0.041885045690610363 0 0.2314560627619717 -0.030066475819188941 0 0.21701755041282189 -0.032304719396535099 0 0.21970932447173591 -0.041885045690610363 0 0.2314560627619717 -0.030066475819188941 0 0.22385231661827831 -0.017244899007901549 0 0.2314560627619717 -0.030066475819188941 0 0.2403210271001277 -0.0038011986657945939 0 0.21701755041282189 -0.032304719396535099 0 0.22385231661827831 -0.017244899007901549 0 0.2314560627619717 -0.030066475819188941 0 0.25159771702699008 -0.014371615300676641 0 0.2314560627619717 -0.030066475819188941 0 0.2403210271001277 -0.0038011986657945939 0 0.25572186475693609 -0.032033227847674262 0 0.25159771702699008 -0.014371615300676641 0 0.2314560627619717 -0.030066475819188941 0 0.2314560627619717 -0.030066475819188941 0 0.2403210271001277 -0.0038011986657945939 0 0.2403210271001277 -0.0038011986657945939 0 0.21880732635032871 -0.001449260780306197 0 0.21991949691130641 0.00077379957079282309 0 0.2403210271001277 -0.0038011986657945939 0 0.21880732635032871 -0.001449260780306197 0 0.22385231661827831 -0.017244899007901549 0 0.2403210271001277 -0.0038011986657945939 0 0.21880732635032871 -0.001449260780306197 0 0.21991949691130641 0.00077379957079282309 0 0.21880732635032871 -0.001449260780306197 0 0.20659325823048899 -0.099029874252906047 0 0.21655448612892231 -0.108466948295262 0 0.2034485844213379 -0.1104083252764293 0 0.20659325823048899 -0.099029874252906047 0 0.21858698215692479 -0.095058636804357027 0 0.21655448612892231 -0.108466948295262 0 0.20659325823048899 -0.099029874252906047 0 0.21858698215692479 -0.095058636804357027 0 0.21076223576946701 -0.091385441013354662 0 0.21237619803781799 -0.123978557377612 0 0.2034485844213379 -0.1104083252764293 0 0.19857579603009881 -0.123745354966356 0 0.21655448612892231 -0.108466948295262 0 0.21237619803781799 -0.123978557377612 0 0.2034485844213379 -0.1104083252764293 0 0.19857579603009881 -0.123745354966356 0 0.19189947738255089 -0.11079770296415201 0 0.18392927920566929 -0.12697896821793581 0 0.2034485844213379 -0.1104083252764293 0 0.19857579603009881 -0.123745354966356 0 0.19189947738255089 -0.11079770296415201 0 0.18448732685510821 -0.096160788283265797 0 0.19189947738255089 -0.11079770296415201 0 0.19704440529688971 -0.097808096169463843 0 0.2034485844213379 -0.1104083252764293 0 0.19189947738255089 -0.11079770296415201 0 0.19704440529688971 -0.097808096169463843 0 0.20659325823048899 -0.099029874252906047 0 0.2034485844213379 -0.1104083252764293 0 0.19704440529688971 -0.097808096169463843 0 0.20659325823048899 -0.099029874252906047 0 0.19704440529688971 -0.097808096169463843 0 0.20377507451519661 -0.086639367611932153 0 0.18448732685510821 -0.096160788283265797 0 0.19704440529688971 -0.097808096169463843 0 0.19163234817905089 -0.084272585639399919 0 0.19163234817905089 -0.084272585639399919 0 0.20020732292815921 -0.075382335334988601 0 0.20377507451519661 -0.086639367611932153 0 0.19704440529688971 -0.097808096169463843 0 0.19163234817905089 -0.084272585639399919 0 0.20377507451519661 -0.086639367611932153 0 0.18660459660722059 -0.07121356670435669 0 0.18383722960737159 -0.053734604093409272 0 0.19584992287481651 -0.066326971565447423 0 0.18660459660722059 -0.07121356670435669 0 0.20020732292815921 -0.075382335334988601 0 0.19584992287481651 -0.066326971565447423 0 0.18660459660722059 -0.07121356670435669 0 0.19163234817905089 -0.084272585639399919 0 0.20020732292815921 -0.075382335334988601 0 0.20031667673944939 -0.057421141152823332 0 0.19584992287481651 -0.066326971565447423 0 0.20754781500579161 -0.067167929918243774 0 0.20020732292815921 -0.075382335334988601 0 0.19584992287481651 -0.066326971565447423 0 0.20754781500579161 -0.067167929918243774 0 0.20020732292815921 -0.075382335334988601 0 0.20754781500579161 -0.067167929918243774 0 0.21182278070176411 -0.07642901816315241 0 0.21182278070176411 -0.07642901816315241 0 0.2190710203991128 -0.066761103999133015 0 0.22185546860341471 -0.076890537193463129 0 0.21110366793748389 -0.058962871247726333 0 0.20754781500579161 -0.067167929918243774 0 0.2190710203991128 -0.066761103999133015 0 0.20754781500579161 -0.067167929918243774 0 0.21182278070176411 -0.07642901816315241 0 0.2190710203991128 -0.066761103999133015 0 0.20377507451519661 -0.086639367611932153 0 0.21076223576946701 -0.091385441013354662 0 0.2156201083762905 -0.085211377739258853 0 0.20659325823048899 -0.099029874252906047 0 0.20377507451519661 -0.086639367611932153 0 0.21076223576946701 -0.091385441013354662 0 0.21182278070176411 -0.07642901816315241 0 0.20377507451519661 -0.086639367611932153 0 0.2156201083762905 -0.085211377739258853 0 0.20020732292815921 -0.075382335334988601 0 0.21182278070176411 -0.07642901816315241 0 0.20377507451519661 -0.086639367611932153 0 0.21182278070176411 -0.07642901816315241 0 0.2156201083762905 -0.085211377739258853 0 0.22185546860341471 -0.076890537193463129 0 0.21858698215692479 -0.095058636804357027 0 0.21076223576946701 -0.091385441013354662 0 0.2156201083762905 -0.085211377739258853 0 0.21858698215692479 -0.095058636804357027 0 0.22254221780738029 -0.08612048538839856 0 0.22945301150852729 -0.089618177888440453 0 0.21858698215692479 -0.095058636804357027 0 0.2156201083762905 -0.085211377739258853 0 0.22254221780738029 -0.08612048538839856 0 0.22254221780738029 -0.08612048538839856 0 0.22667762447946821 -0.081336379644961862 0 0.22945301150852729 -0.089618177888440453 0 0.2156201083762905 -0.085211377739258853 0 0.22254221780738029 -0.08612048538839856 0 0.22185546860341471 -0.076890537193463129 0 0.22254221780738029 -0.08612048538839856 0 0.22667762447946821 -0.081336379644961862 0 0.22185546860341471 -0.076890537193463129 0 0.22667762447946821 -0.081336379644961862 0 0.22945301150852729 -0.089618177888440453 0 0.232130230341555 -0.075838006554786702 0 0.22259109842381891 -0.056331752972584533 0 0.23359814963938669 -0.073112384460560717 0 0.22259109842381891 -0.056331752972584533 0 0.22559767577824291 -0.070341033318702742 0 0.23359814963938669 -0.073112384460560717 0 0.22259109842381891 -0.056331752972584533 0 0.2190710203991128 -0.066761103999133015 0 0.22559767577824291 -0.070341033318702742 0 0.2190710203991128 -0.066761103999133015 0 0.22559767577824291 -0.070341033318702742 0 0.22185546860341471 -0.076890537193463129 0 0.22559767577824291 -0.070341033318702742 0 0.22185546860341471 -0.076890537193463129 0 0.226513327956856 -0.076031742247647013 0 0.22667762447946821 -0.081336379644961862 0 0.22185546860341471 -0.076890537193463129 0 0.226513327956856 -0.076031742247647013 0 0.22559767577824291 -0.070341033318702742 0 0.232130230341555 -0.075838006554786702 0 0.23359814963938669 -0.073112384460560717 0 0.22667762447946821 -0.081336379644961862 0 0.226513327956856 -0.076031742247647013 0 0.232130230341555 -0.075838006554786702 0 0.232130230341555 -0.075838006554786702 0 0.23359814963938669 -0.073112384460560717 0 0.22559767577824291 -0.070341033318702742 0 0.226513327956856 -0.076031742247647013 0 0.232130230341555 -0.075838006554786702 0 0.25578894406637898 -0.071814983055159112 0 0.24466000719816181 -0.052572806154117767 0 0.23359814963938669 -0.073112384460560717 0 0.24466000719816181 -0.052572806154117767 0 0.23359814963938669 -0.073112384460560717 0 0.232130230341555 -0.075838006554786702 0 0.23359814963938669 -0.073112384460560717 0 0.248052431344363 -0.095148438437639593 0 0.25578894406637898 -0.071814983055159112 0 0.23359814963938669 -0.073112384460560717 0 0.248052431344363 -0.095148438437639593 0 0.23359814963938669 -0.073112384460560717 0 0.248052431344363 -0.095148438437639593 0 0.22945301150852729 -0.089618177888440453 0 0.232130230341555 -0.075838006554786702 0 0.248052431344363 -0.095148438437639593 0 0.22945301150852729 -0.089618177888440453 0 0.248052431344363 -0.095148438437639593 0 0.23028066412444251 -0.1035134914659659 0 0.248052431344363 -0.095148438437639593 0 0.23028066412444251 -0.1035134914659659 0 0.24260121657943401 -0.11258968035378961 0 0.21858698215692479 -0.095058636804357027 0 0.21655448612892231 -0.108466948295262 0 0.23028066412444251 -0.1035134914659659 0 0.21858698215692479 -0.095058636804357027 0 0.22945301150852729 -0.089618177888440453 0 0.23028066412444251 -0.1035134914659659 0 0.21655448612892231 -0.108466948295262 0 0.21237619803781799 -0.123978557377612 0 0.22804122980252159 -0.1188128045943018 0 0.21655448612892231 -0.108466948295262 0 0.23028066412444251 -0.1035134914659659 0 0.22804122980252159 -0.1188128045943018 0 0.23028066412444251 -0.1035134914659659 0 0.22804122980252159 -0.1188128045943018 0 0.24260121657943401 -0.11258968035378961 0 0.26250671304934198 -0.1171844924147165 0 0.24260121657943401 -0.11258968035378961 0 0.2441250445765018 -0.1282891748563233 0 0.22804122980252159 -0.1188128045943018 0 0.24260121657943401 -0.11258968035378961 0 0.2441250445765018 -0.1282891748563233 0 0.2441250445765018 -0.1282891748563233 0 0.23903729808979979 -0.1497956366535709 0 0.2244889389359962 -0.13749465980780429 0 0.26140577643439422 -0.14332992145424359 0 0.2441250445765018 -0.1282891748563233 0 0.23903729808979979 -0.1497956366535709 0 0.26140577643439422 -0.14332992145424359 0 0.23903729808979979 -0.1497956366535709 0 0.24727016264961249 -0.1692414738038848 0 0.23903729808979979 -0.1497956366535709 0 0.2244889389359962 -0.13749465980780429 0 0.2199830660130864 -0.1595641520633625 0 0.22804122980252159 -0.1188128045943018 0 0.2441250445765018 -0.1282891748563233 0 0.2244889389359962 -0.13749465980780429 0 0.21237619803781799 -0.123978557377612 0 0.22804122980252159 -0.1188128045943018 0 0.2244889389359962 -0.13749465980780429 0 0.21237619803781799 -0.123978557377612 0 0.2244889389359962 -0.13749465980780429 0 0.2019561726093779 -0.14327156014064921 0 0.21237619803781799 -0.123978557377612 0 0.19857579603009881 -0.123745354966356 0 0.2019561726093779 -0.14327156014064921 0 0.2244889389359962 -0.13749465980780429 0 0.2019561726093779 -0.14327156014064921 0 0.2199830660130864 -0.1595641520633625 0 0.2019561726093779 -0.14327156014064921 0 0.2199830660130864 -0.1595641520633625 0 0.2019561726093779 -0.14327156014064921 0 0.2047419039749544 -0.16383627848553101 0 0.2199830660130864 -0.1595641520633625 0 0.2019561726093779 -0.14327156014064921 0 0.1858442134446858 -0.1403981851473228 0 0.18613440788357311 -0.15203004835571851 0 0.2019561726093779 -0.14327156014064921 0 0.2047419039749544 -0.16383627848553101 0 0.18613440788357311 -0.15203004835571851 0 0.19857579603009881 -0.123745354966356 0 0.2019561726093779 -0.14327156014064921 0 0.18392927920566929 -0.12697896821793581 0 0.2019561726093779 -0.14327156014064921 0 0.18392927920566929 -0.12697896821793581 0 0.2019561726093779 -0.14327156014064921 0 0.1858442134446858 -0.1403981851473228 0 0.18392927920566929 -0.12697896821793581 0 0.20143056513873611 -0.17998665641699849 0 0.18945430304214239 -0.18113699365130109 0 0.1956775580667883 -0.19315745649050381 0 0.20143056513873611 -0.17998665641699849 0 0.18945430304214239 -0.18113699365130109 0 0.19108557901044451 -0.16803916485973749 0 0.19108557901044451 -0.16803916485973749 0 0.2047419039749544 -0.16383627848553101 0 0.18613440788357311 -0.15203004835571851 0 0.20143056513873611 -0.17998665641699849 0 0.19108557901044451 -0.16803916485973749 0 0.2047419039749544 -0.16383627848553101 0 0.2047419039749544 -0.16383627848553101 0 0.21987806867346529 -0.181539582491408 0 0.2199830660130864 -0.1595641520633625 0 0.20143056513873611 -0.17998665641699849 0 0.2047419039749544 -0.16383627848553101 0 0.21987806867346529 -0.181539582491408 0 0.20143056513873611 -0.17998665641699849 0 0.21987806867346529 -0.181539582491408 0 0.21026993533039931 -0.19452922539566581 0 0.21987806867346529 -0.181539582491408 0 0.2199830660130864 -0.1595641520633625 0 0.23800995941679501 -0.17585674398607579 0 0.21987806867346529 -0.181539582491408 0 0.23800995941679501 -0.17585674398607579 0 0.2331345488648309 -0.19515302615352589 0 0.2199830660130864 -0.1595641520633625 0 0.23800995941679501 -0.17585674398607579 0 0.23903729808979979 -0.1497956366535709 0 0.2199830660130864 -0.1595641520633625 0 0.23506515458377289 -0.16194558534122611 0 0.2199830660130864 -0.1595641520633625 0 0.23506515458377289 -0.16194558534122611 0 0.23800995941679501 -0.17585674398607579 0 0.23903729808979979 -0.1497956366535709 0 0.23506515458377289 -0.16194558534122611 0 0.24727016264961249 -0.1692414738038848 0 0.23506515458377289 -0.16194558534122611 0 0.24727016264961249 -0.1692414738038848 0 0.23800995941679501 -0.17585674398607579 0 0.24727016264961249 -0.1692414738038848 0 0.2331345488648309 -0.19515302615352589 0 0.24727016264961249 -0.1692414738038848 0 0.23800995941679501 -0.17585674398607579 0 0.2331345488648309 -0.19515302615352589 0 0.25115080808597218 -0.18349252771031549 0 0.24727016264961249 -0.1692414738038848 0 0.2331345488648309 -0.19515302615352589 0 0.25294493867930001 -0.1971512634910503 0 0.25115080808597218 -0.18349252771031549 0 0.2331345488648309 -0.19515302615352589 0 0.25294493867930001 -0.1971512634910503 0 0.23924146656863479 -0.21600942233651971 0 0.2331345488648309 -0.19515302615352589 0 0.25948399805722178 -0.21095426616987389 0 0.23924146656863479 -0.21600942233651971 0 0.23924146656863479 -0.21600942233651971 0 0.218998935080048 -0.22106457850316641 0 0.21946760776481619 -0.20450875509018021 0 0.2331345488648309 -0.19515302615352589 0 0.218998935080048 -0.22106457850316641 0 0.2331345488648309 -0.19515302615352589 0 0.218998935080048 -0.22106457850316641 0 0.23924146656863479 -0.21600942233651971 0 0.2331345488648309 -0.19515302615352589 0 0.218998935080048 -0.22106457850316641 0 0.21946760776481619 -0.20450875509018021 0 0.22068754015837791 -0.19393264728269499 0 0.2331345488648309 -0.19515302615352589 0 0.21987806867346529 -0.181539582491408 0 0.22068754015837791 -0.19393264728269499 0 0.2331345488648309 -0.19515302615352589 0 0.25406429941061343 -0.23112732810889039 0 0.24146341680214309 -0.24448521489457861 0 0.23197262628044979 -0.22995906340082059 0 0.25406429941061343 -0.23112732810889039 0 0.23924146656863479 -0.21600942233651971 0 0.23197262628044979 -0.22995906340082059 0 0.23924146656863479 -0.21600942233651971 0 0.218998935080048 -0.22106457850316641 0 0.23197262628044979 -0.22995906340082059 0 0.218998935080048 -0.22106457850316641 0 0.23197262628044979 -0.22995906340082059 0 0.2174712270181591 -0.22386497246011361 0 0.23197262628044979 -0.22995906340082059 0 0.22090538197196211 -0.23599380530564679 0 0.2174712270181591 -0.22386497246011361 0 0.23197262628044979 -0.22995906340082059 0 0.2264227451730553 -0.24971222362376699 0 0.22090538197196211 -0.23599380530564679 0 0.24146341680214309 -0.24448521489457861 0 0.23197262628044979 -0.22995906340082059 0 0.2264227451730553 -0.24971222362376699 0 0.21040399342164171 -0.25176681621351038 0 0.2264227451730553 -0.24971222362376699 0 0.22090538197196211 -0.23599380530564679 0 0.21040399342164171 -0.25176681621351038 0 0.22090538197196211 -0.23599380530564679 0 0.20830595876386901 -0.23638945826593061 0 0.21040399342164171 -0.25176681621351038 0 0.20830595876386901 -0.23638945826593061 0 0.19936230214102421 -0.2479946931896729 0 0.22090538197196211 -0.23599380530564679 0 0.20830595876386901 -0.23638945826593061 0 0.2144511399868903 -0.2312706685566866 0 0.218998935080048 -0.22106457850316641 0 0.19612053567392879 -0.2267779885035914 0 0.218998935080048 -0.22106457850316641 0 0.19612053567392879 -0.2267779885035914 0 0.2105383011147646 -0.21819048542197941 0 0.218998935080048 -0.22106457850316641 0 0.20576090592389351 -0.2270860010417686 0 0.19612053567392879 -0.2267779885035914 0 0.20830595876386901 -0.23638945826593061 0 0.20576090592389351 -0.2270860010417686 0 0.20182830522270101 -0.2319599292687276 0 0.20830595876386901 -0.23638945826593061 0 0.20576090592389351 -0.2270860010417686 0 0.2144511399868903 -0.2312706685566866 0 0.22090538197196211 -0.23599380530564679 0 0.2144511399868903 -0.2312706685566866 0 0.2174712270181591 -0.22386497246011361 0 0.20576090592389351 -0.2270860010417686 0 0.2144511399868903 -0.2312706685566866 0 0.21346905720863779 -0.2258257771414271 0 0.2144511399868903 -0.2312706685566866 0 0.21346905720863779 -0.2258257771414271 0 0.2174712270181591 -0.22386497246011361 0 0.218998935080048 -0.22106457850316641 0 0.20576090592389351 -0.2270860010417686 0 0.21346905720863779 -0.2258257771414271 0 0.218998935080048 -0.22106457850316641 0 0.21346905720863779 -0.2258257771414271 0 0.2174712270181591 -0.22386497246011361 0 0.218998935080048 -0.22106457850316641 0 0.2174712270181591 -0.22386497246011361 0 0.19612053567392879 -0.2267779885035914 0 0.2105383011147646 -0.21819048542197941 0 0.20425053182178279 -0.21841625855527369 0 0.19777000223886329 -0.21875233346220549 0 0.19612053567392879 -0.2267779885035914 0 0.20425053182178279 -0.21841625855527369 0 0.19777000223886329 -0.21875233346220549 0 0.19393270034329779 -0.22126915535208849 0 0.19612053567392879 -0.2267779885035914 0 0.19393270034329779 -0.22126915535208849 0 0.18772081891462031 -0.22518952661427791 0 0.19612053567392879 -0.2267779885035914 0 0.19393270034329779 -0.22126915535208849 0 0.18772081891462031 -0.22518952661427791 0 0.19411944454577909 -0.214356772828279 0 0.19612053567392879 -0.2267779885035914 0 0.19712582052911259 -0.23758626926361981 0 0.1871717184338115 -0.23640941086597769 0 0.19612053567392879 -0.2267779885035914 0 0.20182830522270101 -0.2319599292687276 0 0.19712582052911259 -0.23758626926361981 0 0.20576090592389351 -0.2270860010417686 0 0.19612053567392879 -0.2267779885035914 0 0.20182830522270101 -0.2319599292687276 0 0.20830595876386901 -0.23638945826593061 0 0.19712582052911259 -0.23758626926361981 0 0.19936230214102421 -0.2479946931896729 0 0.20830595876386901 -0.23638945826593061 0 0.20182830522270101 -0.2319599292687276 0 0.19712582052911259 -0.23758626926361981 0 0.19712582052911259 -0.23758626926361981 0 0.18957958600208469 -0.24548130840959781 0 0.1871717184338115 -0.23640941086597769 0 0.19712582052911259 -0.23758626926361981 0 0.18957958600208469 -0.24548130840959781 0 0.19936230214102421 -0.2479946931896729 0 0.21026993533039931 -0.19452922539566581 0 0.2106024981415649 -0.2056222994823437 0 0.20186537415214451 -0.20478020160934601 0 0.21987806867346529 -0.181539582491408 0 0.22068754015837791 -0.19393264728269499 0 0.21026993533039931 -0.19452922539566581 0 0.21946760776481619 -0.20450875509018021 0 0.22068754015837791 -0.19393264728269499 0 0.21026993533039931 -0.19452922539566581 0 0.21946760776481619 -0.20450875509018021 0 0.21026993533039931 -0.19452922539566581 0 0.2106024981415649 -0.2056222994823437 0 0.21946760776481619 -0.20450875509018021 0 0.218998935080048 -0.22106457850316641 0 0.21566385185952111 -0.2138241496878262 0 0.21946760776481619 -0.20450875509018021 0 0.21566385185952111 -0.2138241496878262 0 0.21365056347845579 -0.2115327797359787 0 0.21946760776481619 -0.20450875509018021 0 0.21365056347845579 -0.2115327797359787 0 0.2106024981415649 -0.2056222994823437 0 0.218998935080048 -0.22106457850316641 0 0.21566385185952111 -0.2138241496878262 0 0.2105383011147646 -0.21819048542197941 0 0.21566385185952111 -0.2138241496878262 0 0.21365056347845579 -0.2115327797359787 0 0.2105383011147646 -0.21819048542197941 0 0.2105383011147646 -0.21819048542197941 0 0.20775900998200869 -0.21276053558054769 0 0.20425053182178279 -0.21841625855527369 0 0.21365056347845579 -0.2115327797359787 0 0.2105383011147646 -0.21819048542197941 0 0.20775900998200869 -0.21276053558054769 0 0.20775900998200869 -0.21276053558054769 0 0.20425053182178279 -0.21841625855527369 0 0.20156851284219721 -0.21282904574896491 0 0.20775900998200869 -0.21276053558054769 0 0.20186537415214451 -0.20478020160934601 0 0.20156851284219721 -0.21282904574896491 0 0.20775900998200869 -0.21276053558054769 0 0.2106024981415649 -0.2056222994823437 0 0.20186537415214451 -0.20478020160934601 0 0.21365056347845579 -0.2115327797359787 0 0.20775900998200869 -0.21276053558054769 0 0.2106024981415649 -0.2056222994823437 0 0.20186537415214451 -0.20478020160934601 0 0.19411944454577909 -0.214356772828279 0 0.19348214685029161 -0.20221454249066079 0 0.18772081891462031 -0.22518952661427791 0 0.19411944454577909 -0.214356772828279 0 0.18226621063645451 -0.19656373903451449 0 0.20186537415214451 -0.20478020160934601 0 0.20156851284219721 -0.21282904574896491 0 0.19411944454577909 -0.214356772828279 0 0.19411944454577909 -0.214356772828279 0 0.19348214685029161 -0.20221454249066079 0 0.18226621063645451 -0.19656373903451449 0 0.19777000223886329 -0.21875233346220549 0 0.20425053182178279 -0.21841625855527369 0 0.20156851284219721 -0.21282904574896491 0 0.19777000223886329 -0.21875233346220549 0 0.20156851284219721 -0.21282904574896491 0 0.19411944454577909 -0.214356772828279 0 0.19777000223886329 -0.21875233346220549 0 0.19393270034329779 -0.22126915535208849 0 0.19411944454577909 -0.214356772828279 0 0.19348214685029161 -0.20221454249066079 0 0.1956775580667883 -0.19315745649050381 0 0.18226621063645451 -0.19656373903451449 0 0.20186537415214451 -0.20478020160934601 0 0.19348214685029161 -0.20221454249066079 0 0.1956775580667883 -0.19315745649050381 0 0.21026993533039931 -0.19452922539566581 0 0.20186537415214451 -0.20478020160934601 0 0.1956775580667883 -0.19315745649050381 0 0.20143056513873611 -0.17998665641699849 0 0.21026993533039931 -0.19452922539566581 0 0.1956775580667883 -0.19315745649050381 0 0.18945430304214239 -0.18113699365130109 0 0.1956775580667883 -0.19315745649050381 0 0.18226621063645451 -0.19656373903451449 0 0.18226621063645451 -0.19656373903451449 0 0.1715432114556068 -0.21122996104898861 0 0.16984428664340401 -0.18996852359395999 0 0.18772081891462031 -0.22518952661427791 0 0.18226621063645451 -0.19656373903451449 0 0.1715432114556068 -0.21122996104898861 0 0.18772081891462031 -0.22518952661427791 0 0.18226621063645451 -0.19656373903451449 0 0.1715432114556068 -0.21122996104898861 0 0.1573322870795833 -0.20789039819694149 0 0.1623168744573055 -0.22287573648660611 0 0.1573322870795833 -0.20789039819694149 0 0.1623168744573055 -0.22287573648660611 0 0.1522967848894444 -0.22083493224417339 0 0.1715432114556068 -0.21122996104898861 0 0.1573322870795833 -0.20789039819694149 0 0.16984428664340401 -0.18996852359395999 0 0.1573322870795833 -0.20789039819694149 0 0.16984428664340401 -0.18996852359395999 0 0.15597410852767299 -0.19239463322910441 0 0.1715432114556068 -0.21122996104898861 0 0.16984428664340401 -0.18996852359395999 0 0.16984428664340401 -0.18996852359395999 0 0.15597410852767299 -0.19239463322910441 0 0.1614518955362341 -0.18261220584938501 0 0.17531814171820079 -0.25847186551630352 0 0.18140855909891221 -0.24875385404173869 0 0.17324213626780979 -0.23249139850401729 0 0.17531814171820079 -0.25847186551630352 0 0.17324213626780979 -0.23249139850401729 0 0.18140855909891221 -0.24875385404173869 0 0.182482909248532 -0.24101033857802051 0 0.17324213626780979 -0.23249139850401729 0 0.18957958600208469 -0.24548130840959781 0 0.18140855909891221 -0.24875385404173869 0 0.182482909248532 -0.24101033857802051 0 0.18957958600208469 -0.24548130840959781 0 0.182482909248532 -0.24101033857802051 0 0.1871717184338115 -0.23640941086597769 0 0.182482909248532 -0.24101033857802051 0 0.1871717184338115 -0.23640941086597769 0 0.17324213626780979 -0.23249139850401729 0 0.18772081891462031 -0.22518952661427791 0 0.19612053567392879 -0.2267779885035914 0 0.17324213626780979 -0.23249139850401729 0 0.19612053567392879 -0.2267779885035914 0 0.1871717184338115 -0.23640941086597769 0 0.17324213626780979 -0.23249139850401729 0 0.1715432114556068 -0.21122996104898861 0 0.17324213626780979 -0.23249139850401729 0 0.19612053567392879 -0.2267779885035914 0 0.17324213626780979 -0.23249139850401729 0 0.18772081891462031 -0.22518952661427791 0 0.1715432114556068 -0.21122996104898861 0 0.17324213626780979 -0.23249139850401729 0 0.1715432114556068 -0.21122996104898861 0 0.17324213626780979 -0.23249139850401729 0 0.1623168744573055 -0.22287573648660611 0 0.1623168744573055 -0.22287573648660611 0 0.15535209141549861 -0.22942801887575409 0 0.1522967848894444 -0.22083493224417339 0 0.1623168744573055 -0.22287573648660611 0 0.16254320702155209 -0.2351632361734422 0 0.15535209141549861 -0.22942801887575409 0 0.17324213626780979 -0.23249139850401729 0 0.16254320702155209 -0.2351632361734422 0 0.17324213626780979 -0.23249139850401729 0 0.1623168744573055 -0.22287573648660611 0 0.16254320702155209 -0.2351632361734422 0 0.16416434830993021 -0.25348076251168611 0 0.17531814171820079 -0.25847186551630352 0 0.17324213626780979 -0.23249139850401729 0 0.16416434830993021 -0.25348076251168611 0 0.17324213626780979 -0.23249139850401729 0 0.16097870724125449 -0.24292032119762011 0 0.17324213626780979 -0.23249139850401729 0 0.16254320702155209 -0.2351632361734422 0 0.16097870724125449 -0.24292032119762011 0 0.16254320702155209 -0.2351632361734422 0 0.16097870724125449 -0.24292032119762011 0 0.15390853800913809 -0.24274468653761391 0 0.16416434830993021 -0.25348076251168611 0 0.16097870724125449 -0.24292032119762011 0 0.15746623258843939 -0.24717962177743169 0 0.16097870724125449 -0.24292032119762011 0 0.15746623258843939 -0.24717962177743169 0 0.15390853800913809 -0.24274468653761391 0 0.1338120645475761 -0.25178135897747889 0 0.14143480209138451 -0.24391931440815429 0 0.15081333679343489 -0.24957271686280691 0 0.14143480209138451 -0.24391931440815429 0 0.14954523601732381 -0.23656141158161401 0 0.13965007243053049 -0.2272862619181428 0 0.14143480209138451 -0.24391931440815429 0 0.15081333679343489 -0.24957271686280691 0 0.14892547822782029 -0.24319953234754729 0 0.15746623258843939 -0.24717962177743169 0 0.15081333679343489 -0.24957271686280691 0 0.15390853800913809 -0.24274468653761391 0 0.15081333679343489 -0.24957271686280691 0 0.15390853800913809 -0.24274468653761391 0 0.14892547822782029 -0.24319953234754729 0 0.16254320702155209 -0.2351632361734422 0 0.15390853800913809 -0.24274468653761391 0 0.14954523601732381 -0.23656141158161401 0 0.15390853800913809 -0.24274468653761391 0 0.14892547822782029 -0.24319953234754729 0 0.14954523601732381 -0.23656141158161401 0 0.14143480209138451 -0.24391931440815429 0 0.14892547822782029 -0.24319953234754729 0 0.14954523601732381 -0.23656141158161401 0 0.14954523601732381 -0.23656141158161401 0 0.15535209141549861 -0.22942801887575409 0 0.13965007243053049 -0.2272862619181428 0 0.15535209141549861 -0.22942801887575409 0 0.1522967848894444 -0.22083493224417339 0 0.13965007243053049 -0.2272862619181428 0 0.16254320702155209 -0.2351632361734422 0 0.14954523601732381 -0.23656141158161401 0 0.15535209141549861 -0.22942801887575409 0 0.1522967848894444 -0.22083493224417339 0 0.13965007243053049 -0.2272862619181428 0 0.14214428324753289 -0.2154529738929884 0 0.11925867152865099 -0.22395178641925401 0 0.13965007243053049 -0.2272862619181428 0 0.12727927076528461 -0.2378210325384271 0 0.11925867152865099 -0.22395178641925401 0 0.13965007243053049 -0.2272862619181428 0 0.1296813367821156 -0.2112782106774091 0 0.14143480209138451 -0.24391931440815429 0 0.13965007243053049 -0.2272862619181428 0 0.12727927076528461 -0.2378210325384271 0 0.1338120645475761 -0.25178135897747889 0 0.1155402395781918 -0.2507583320391269 0 0.12727927076528461 -0.2378210325384271 0 0.1338120645475761 -0.25178135897747889 0 0.14143480209138451 -0.24391931440815429 0 0.12727927076528461 -0.2378210325384271 0 0.1472064603361167 -0.20247602688276969 0 0.14541013119376039 -0.19094925991957609 0 0.13560729147637779 -0.19666813964102769 0 0.1472064603361167 -0.20247602688276969 0 0.14541013119376039 -0.19094925991957609 0 0.15597410852767299 -0.19239463322910441 0 0.14541013119376039 -0.19094925991957609 0 0.15597410852767299 -0.19239463322910441 0 0.15149562072024261 -0.18002206604153331 0 0.1573322870795833 -0.20789039819694149 0 0.1472064603361167 -0.20247602688276969 0 0.15597410852767299 -0.19239463322910441 0 0.1573322870795833 -0.20789039819694149 0 0.1472064603361167 -0.20247602688276969 0 0.14214428324753289 -0.2154529738929884 0 0.1573322870795833 -0.20789039819694149 0 0.1522967848894444 -0.22083493224417339 0 0.14214428324753289 -0.2154529738929884 0 0.1472064603361167 -0.20247602688276969 0 0.14214428324753289 -0.2154529738929884 0 0.1296813367821156 -0.2112782106774091 0 0.1472064603361167 -0.20247602688276969 0 0.1296813367821156 -0.2112782106774091 0 0.13560729147637779 -0.19666813964102769 0 0.13965007243053049 -0.2272862619181428 0 0.14214428324753289 -0.2154529738929884 0 0.1296813367821156 -0.2112782106774091 0 0.1232396379011078 -0.1927549034493776 0 0.1296813367821156 -0.2112782106774091 0 0.13560729147637779 -0.19666813964102769 0 0.14541013119376039 -0.19094925991957609 0 0.13560729147637779 -0.19666813964102769 0 0.1367671749083921 -0.18318543380344571 0 0.1232396379011078 -0.1927549034493776 0 0.13560729147637779 -0.19666813964102769 0 0.1367671749083921 -0.18318543380344571 0 0.1232396379011078 -0.1927549034493776 0 0.1240882674421261 -0.17221834261327171 0 0.1367671749083921 -0.18318543380344571 0 0.1240882674421261 -0.17221834261327171 0 0.1367671749083921 -0.18318543380344571 0 0.13968624526684381 -0.1663096509244866 0 0.14541013119376039 -0.19094925991957609 0 0.1367671749083921 -0.18318543380344571 0 0.15149562072024261 -0.18002206604153331 0 0.1367671749083921 -0.18318543380344571 0 0.15149562072024261 -0.18002206604153331 0 0.13968624526684381 -0.1663096509244866 0 0.15149562072024261 -0.18002206604153331 0 0.15438358984087761 -0.16681526513507461 0 0.15901421514929279 -0.17490695601163531 0 0.13968624526684381 -0.1663096509244866 0 0.137218974646206 -0.14902146964549531 0 0.15110583492258711 -0.15411329859263981 0 0.15438358984087761 -0.16681526513507461 0 0.15110583492258711 -0.15411329859263981 0 0.16298457853711951 -0.16119870976526179 0 0.15149562072024261 -0.18002206604153331 0 0.15438358984087761 -0.16681526513507461 0 0.13968624526684381 -0.1663096509244866 0 0.15438358984087761 -0.16681526513507461 0 0.13968624526684381 -0.1663096509244866 0 0.15110583492258711 -0.15411329859263981 0 0.1238726331408222 -0.15597973401630799 0 0.13968624526684381 -0.1663096509244866 0 0.137218974646206 -0.14902146964549531 0 0.1238726331408222 -0.15597973401630799 0 0.1240882674421261 -0.17221834261327171 0 0.13968624526684381 -0.1663096509244866 0 0.1238726331408222 -0.15597973401630799 0 0.12550759679471971 -0.14428239988351421 0 0.137218974646206 -0.14902146964549531 0 0.12550759679471971 -0.14428239988351421 0 0.137218974646206 -0.14902146964549531 0 0.13351042007077771 -0.13535464583232679 0 0.13570225296767791 -0.1136627830916173 0 0.13351042007077771 -0.13535464583232679 0 0.14820743810063461 -0.13253739615236759 0 0.137218974646206 -0.14902146964549531 0 0.13351042007077771 -0.13535464583232679 0 0.14820743810063461 -0.13253739615236759 0 0.1195920268695274 -0.13435801890873961 0 0.125059882544757 -0.1243050716586782 0 0.13351042007077771 -0.13535464583232679 0 0.1195920268695274 -0.13435801890873961 0 0.12550759679471971 -0.14428239988351421 0 0.13351042007077771 -0.13535464583232679 0 0.14820743810063461 -0.13253739615236759 0 0.15110583492258711 -0.15411329859263981 0 0.1632605781546366 -0.14974645590444771 0 0.137218974646206 -0.14902146964549531 0 0.14820743810063461 -0.13253739615236759 0 0.15110583492258711 -0.15411329859263981 0 0.1632605781546366 -0.14974645590444771 0 0.17135699408012309 -0.1393121638749876 0 0.1768116023582888 -0.16793795145475099 0 0.15110583492258711 -0.15411329859263981 0 0.1632605781546366 -0.14974645590444771 0 0.16298457853711951 -0.16119870976526179 0 0.14820743810063461 -0.13253739615236759 0 0.1632605781546366 -0.14974645590444771 0 0.17135699408012309 -0.1393121638749876 0 0.1659023858019596 -0.11068637629522381 0 0.14820743810063461 -0.13253739615236759 0 0.17135699408012309 -0.1393121638749876 0 0.1659023858019596 -0.11068637629522381 0 0.17135699408012309 -0.1393121638749876 0 0.18392927920566929 -0.12697896821793581 0 0.17135699408012309 -0.1393121638749876 0 0.1858442134446858 -0.1403981851473228 0 0.18392927920566929 -0.12697896821793581 0 0.17135699408012309 -0.1393121638749876 0 0.1768116023582888 -0.16793795145475099 0 0.17135699408012309 -0.1393121638749876 0 0.18613440788357311 -0.15203004835571851 0 0.1768116023582888 -0.16793795145475099 0 0.17135699408012309 -0.1393121638749876 0 0.1858442134446858 -0.1403981851473228 0 0.18613440788357311 -0.15203004835571851 0 0.19108557901044451 -0.16803916485973749 0 0.18613440788357311 -0.15203004835571851 0 0.1768116023582888 -0.16793795145475099 0 0.18226621063645451 -0.19656373903451449 0 0.16984428664340401 -0.18996852359395999 0 0.1768116023582888 -0.16793795145475099 0 0.18945430304214239 -0.18113699365130109 0 0.19108557901044451 -0.16803916485973749 0 0.1768116023582888 -0.16793795145475099 0 0.18226621063645451 -0.19656373903451449 0 0.1768116023582888 -0.16793795145475099 0 0.18945430304214239 -0.18113699365130109 0 0.18226621063645451 -0.19656373903451449 0 0.1768116023582888 -0.16793795145475099 0 0.16984428664340401 -0.18996852359395999 0 0.1681453618312011 -0.16870708613893129 0 0.16984428664340401 -0.18996852359395999 0 0.1768116023582888 -0.16793795145475099 0 0.1681453618312011 -0.16870708613893129 0 0.16984428664340401 -0.18996852359395999 0 0.1614518955362341 -0.18261220584938501 0 0.1681453618312011 -0.16870708613893129 0 0.15597410852767299 -0.19239463322910441 0 0.15149562072024261 -0.18002206604153331 0 0.1614518955362341 -0.18261220584938501 0 0.1614518955362341 -0.18261220584938501 0 0.15901421514929279 -0.17490695601163531 0 0.1681453618312011 -0.16870708613893129 0 0.15149562072024261 -0.18002206604153331 0 0.1614518955362341 -0.18261220584938501 0 0.15901421514929279 -0.17490695601163531 0 0.15438358984087761 -0.16681526513507461 0 0.16298457853711951 -0.16119870976526179 0 0.1681453618312011 -0.16870708613893129 0 0.15438358984087761 -0.16681526513507461 0 0.15901421514929279 -0.17490695601163531 0 0.1681453618312011 -0.16870708613893129 0 0.1632605781546366 -0.14974645590444771 0 0.1768116023582888 -0.16793795145475099 0 0.16298457853711951 -0.16119870976526179 0 0.1768116023582888 -0.16793795145475099 0 0.16298457853711951 -0.16119870976526179 0 0.1681453618312011 -0.16870708613893129 0 
</DataArray>
</Points>
<Cells>
<DataArray type="UInt32" Name="connectivity" format="ascii">
0 1 2 3 4 5 6 7 8 9 10 11 12 13 14 15 16 17 18 19 20 21 22 23 24 25 26 27 28 29 30 31 32 33 34 35 36 37 38 39 40 41 42 43 44 45 46 47 48 49 50 51 52 53 54 55 56 57 58 59 60 61 62 63 64 65 66 67 68 69 70 71 72 73 74 75 76 77 78 79 80 81 82 83 84 85 86 87 88 89 90 91 92 93 94 95 96 97 98 99 100 101 102 103 104 105 106 107 108 109 110 111 112 113 114 115 116 117 118 119 120 121 122 123 124 125 126 127 128 129 130 131 132 133 134 135 136 137 138 139 140 141 142 143 144 145 146 147 148 149 150 151 152 153 154 155 156 157 158 159 160 161 162 163 164 165 166 167 168 169 170 171 172 173 174 175 176 177 178 179 180 181 182 183 184 185 186 187 188 189 190 191 192 193 194 195 196 197 198 199 200 201 202 203 204 205 206 207 208 209 210 211 212 213 214 215 216 217 218 219 220 221 222 223 224 225 226 227 228 229 230 231 232 233 234 235 236 237 238 239 240 241 242 243 244 245 246 247 248 249 250 251 252 253 254 255 256 257 258 259 260 261 262 263 264 265 266 267 268 269 270 271 272 273 274 275 276 277 278 279 280 281 282 283 284 285 286 287 288 289 290 291 292 293 294 295 296 297 298 299 300 301 302 303 304 305 306 307 308 309 310 311 312 313 314 315 316 317 318 319 320 321 322 323 324 325 326 327 328 329 330 331 332 333 334 335 336 337 338 339 340 341 342 343 344 345 346 347 348 349 350 351 352 353 354 355 356 357 358 359 360 361 362 363 364 365 366 367 368 369 370 371 372 373 374 375 376 377 378 379 380 381 382 383 384 385 386 387 388 389 390 391 392 393 394 395 396 397 398 399 400 401 402 403 404 405 406 407 408 409 410 411 412 413 414 415 416 417 418 419 420 421 422 423 424 425 426 427 428 429 430 431 432 433 434 435 436 437 438 439 440 441 442 443 444 445 446 447 448 449 450 451 452 453 454 455 456 457 458 459 460 461 462 463 464 465 466 467 468 469 470 471 472 473 474 475 476 477 478 479 480 481 482 483 484 485 486 487 488 489 490 491 492 493 494 495 496 497 498 499 500 501 502 503 504 505 506 507 508 509 510 511 512 513 514 515 516 517 518 519 520 521 522 523 524 525 526 527 528 529 530 531 532 533 534 535 536 537 538 539 540 541 542 543 544 545 546 547 548 549 550 551 552 553 554 555 556 557 558 559 560 561 562 563 564 565 566 567 568 569 570 571 572 573 574 575 576 577 578 579 580 581 582 583 584 585 586 587 588 589 590 591 592 593 594 595 596 597 598 599 600 601 602 603 604 605 606 607 608 609 610 611 612 613 614 615 616 617 618 619 620 621 622 623 624 625 626 627 628 629 630 631 632 633 634 635 636 637 638 639 640 641 642 643 644 645 646 647 648 649 650 651 652 653 654 655 656 657 658 659 660 661 662 663 664 665 666 667 668 669 670 671 672 673 674 675 676 677 678 679 680 681 682 683 684 685 686 687 688 689 690 691 692 693 694 695 696 697 698 699 700 701 702 703 704 705 706 707 708 709 710 711 712 713 714 715 716 717 718 719 720 721 722 723 724 725 726 727 728 729 730 731 732 733 734 735 736 737 738 739 740 741 742 743 744 745 746 747 748 749 750 751 752 753 754 755 756 757 758 759 760 761 762 763 764 765 766 767 768 769 770 771 772 773 774 775 776 777 778 779 780 781 782 783 784 785 786 787 788 789 790 791 792 793 794 795 796 797 798 799 800 801 802 803 804 805 806 807 808 809 810 811 812 813 814 815 816 817 818 819 820 821 822 823 824 825 826 827 828 829 830 831 832 833 834 835 836 837 838 839 840 841 842 843 844 845 846 847 848 849 850 851 852 853 854 855 856 857 858 859 860 861 862 863 864 865 866 867 868 869 870 871 872 873 874 875 876 877 878 879 880 881 882 883 884 885 886 887 888 889 890 891 892 893 894 895 896 897 898 899 900 901 902 903 904 905 906 907 908 909 910 911 912 913 914 915 916 917 918 919 920 921 922 923 924 925 926 927 928 929 930 931 932 933 934 935 936 937 938 939 940 941 942 943 944 945 946 947 948 949 950 951 952 953 954 955 956 957 958 959 960 961 962 963 964 965 966 967 968 969 970 971 972 973 974 975 976 977 978 979 980 981 982 983 984 985 986 987 988 989 990 991 992 993 994 995 996 997 998 999 1000 1001 1002 1003 1004 1005 1006 1007 1008 1009 1010 1011 1012 1013 1014 1015 1016 1017 1018 1019 1020 1021 1022 1023 1024 1025 1026 1027 1028 1029 1030 1031 1032 1033 1034 1035 1036 1037 1038 1039 1040 1041 1042 1043 1044 1045 1046 1047 1048 1049 1050 1051 1052 1053 1054 1055 1056 1057 1058 1059 1060 1061 1062 1063 1064 1065 1066 1067 1068 1069 1070 1071 1072 1073 1074 1075 1076 1077 1078 1079 1080 1081 1082 1083 1084 1085 1086 1087 1088 1089 1090 1091 1092 1093 1094 1095 1096 1097 1098 1099 1100 1101 1102 1103 1104 1105 1106 1107 1108 1109 1110 1111 1112 1113 1114 1115 1116 1117 1118 1119 1120 1121 1122 1123 1124 1125 1126 1127 1128 1129 1130 1131 1132 1133 1134 1135 1136 1137 1138 1139 1140 1141 1142 1143 1144 1145 1146 1147 1148 1149 1150 1151 1152 1153 1154 1155 1156 1157 1158 1159 1160 1161 1162 1163 1164 1165 1166 1167 1168 1169 1170 1171 1172 1173 1174 1175 1176 1177 1178 1179 1180 1181 1182 1183 1184 1185 1186 1187 1188 1189 1190 1191 1192 1193 1194 1195 1196 1197 1198 1199 1200 1201 1202 1203 1204 1205 1206 1207 1208 1209 1210 1211 1212 1213 1214 1215 1216 1217 1218 1219 1220 1221 1222 1223 1224 1225 1226 1227 1228 1229 1230 1231 1232 1233 1234 1235 1236 1237 1238 1239 1240 1241 1242 1243 1244 1245 1246 1247 1248 1249 1250 1251 1252 1253 1254 1255 1256 1257 1258 1259 1260 1261 1262 1263 1264 1265 1266 1267 1268 1269 1270 1271 1272 1273 1274 1275 1276 1277 1278 1279 1280 1281 1282 1283 1284 1285 1286 1287 1288 1289 1290 1291 1292 1293 1294 1295 1296 1297 1298 1299 1300 1301 1302 1303 1304 1305 1306 1307 1308 1309 1310 1311 1312 1313 1314 1315 1316 1317 1318 1319 1320 1321 1322 1323 1324 1325 1326 1327 1328 1329 1330 1331 1332 1333 1334 1335 1336 1337 1338 1339 1340 1341 1342 1343 1344 1345 1346 1347 1348 1349 1350 1351 1352 1353 1354 1355 1356 1357 1358 1359 1360 1361 1362 1363 1364 1365 1366 1367 1368 1369 1370 1371 1372 1373 1374 1375 1376 1377 1378 1379 1380 1381 1382 1383 1384 1385 1386 1387 1388 1389 1390 1391 1392 1393 1394 1395 1396 1397 1398 1399 1400 1401 1402 1403 1404 1405 1406 1407 1408 1409 1410 1411 1412 1413 1414 1415 1416 1417 1418 1419 1420 1421 1422 1423 1424 1425 1426 1427 1428 1429 1430 1431 1432 1433 1434 1435 1436 1437 1438 1439 1440 1441 1442 1443 1444 1445 1446 1447 1448 1449 1450 1451 1452 1453 1454 1455 1456 1457 1458 1459 1460 1461 1462 1463 1464 1465 1466 1467 1468 1469 1470 1471 1472 1473 1474 1475 1476 1477 1478 1479 1480 1481 1482 1483 1484 1485 1486 1487 1488 1489 1490 1491 1492 1493 1494 1495 1496 1497 1498 1499 1500 1501 1502 1503 1504 1505 1506 1507 1508 1509 1510 1511 1512 1513 1514 1515 1516 1517 1518 1519 1520 1521 1522 1523 1524 1525 1526 1527 1528 1529 1530 1531 1532 1533 1534 1535 1536 1537 1538 1539 1540 1541 1542 1543 1544 1545 1546 1547 1548 1549 1550 1551 1552 1553 1554 1555 1556 1557 1558 1559 1560 1561 1562 1563 1564 1565 1566 1567 1568 1569 1570 1571 1572 1573 1574 1575 1576 1577 1578 1579 1580 1581 1582 1583 1584 1585 1586 1587 1588 1589 1590 1591 1592 1593 1594 1595 1596 1597 1598 1599 1600 1601 1602 1603 1604 1605 1606 1607 1608 1609 1610 1611 1612 1613 1614 1615 1616 1617 1618 1619 1620 1621 1622 1623 1624 1625 1626 1627 1628 1629 1630 1631 1632 1633 1634 1635 1636 1637 1638 1639 1640 1641 1642 1643 1644 1645 1646 1647 1648 1649 1650 1651 1652 1653 1654 1655 1656 1657 1658 1659 1660 1661 1662 1663 1664 1665 1666 1667 1668 1669 1670 1671 1672 1673 1674 1675 1676 1677 1678 1679 1680 1681 1682 1683 1684 1685 1686 1687 1688 1689 1690 1691 1692 1693 1694 1695 1696 1697 1698 1699 1700 1701 1702 1703 1704 1705 1706 1707 1708 1709 1710 1711 1712 1713 1714 1715 1716 1717 1718 1719 1720 1721 1722 1723 1724 1725 1726 1727 1728 1729 1730 1731 1732 1733 1734 1735 1736 1737 1738 1739 1740 1741 1742 1743 1744 1745 1746 1747 1748 1749 1750 1751 1752 1753 1754 1755 1756 1757 1758 1759 1760 1761 1762 1763 1764 1765 1766 1767 1768 1769 1770 1771 1772 1773 1774 1775 1776 1777 1778 1779 1780 1781 1782 1783 1784 1785 1786 1787 1788 1789 1790 1791 1792 1793 1794 1795 1796 1797 1798 1799 1800 1801 1802 1803 1804 1805 1806 1807 1808 1809 1810 1811 1812 1813 1814 1815 1816 1817 1818 1819 1820 1821 1822 1823 1824 1825 1826 1827 1828 1829 1830 1831 1832 1833 1834 1835 1836 1837 1838 1839 1840 1841 1842 1843 1844 1845 1846 1847 1848 1849 1850 1851 1852 1853 1854 1855 1856 1857 1858 1859 1860 1861 1862 1863 1864 1865 1866 1867 1868 1869 1870 1871 1872 1873 1874 1875 1876 1877 1878 1879 1880 1881 1882 1883 1884 1885 1886 1887 1888 1889 1890 1891 1892 1893 1894 1895 1896 1897 1898 1899 1900 1901 1902 1903 1904 1905 1906 1907 1908 1909 1910 1911 1912 1913 1914 1915 1916 1917 1918 1919 1920 1921 1922 1923 1924 1925 1926 1927 1928 1929 1930 1931 1932 1933 1934 1935 1936 1937 1938 1939 1940 1941 1942 1943 1944 1945 1946 1947 1948 1949 1950 1951 1952 1953 1954 1955 1956 1957 1958 1959 1960 1961 1962 1963 1964 1965 1966 1967 1968 1969 1970 1971 1972 1973 1974 1975 1976 1977 1978 1979 1980 1981 1982 1983 1984 1985 1986 1987 1988 1989 1990 1991 1992 1993 1994 1995 1996 1997 1998 1999 2000 2001 2002 2003 2004 2005 2006 2007 2008 2009 2010 2011 2012 2013 2014 2015 2016 2017 2018 2019 2020 2021 2022 2023 2024 2025 2026 2027 2028 2029 2030 2031 2032 2033 2034 2035 2036 2037 2038 2039 2040 2041 2042 2043 2044 2045 2046 2047 2048 2049 2050 2051 2052 2053 2054 2055 2056 2057 2058 2059 2060 2061 2062 2063 2064 2065 2066 2067 2068 2069 2070 2071 2072 2073 2074 2075 2076 2077 2078 2079 2080 2081 2082 2083 2084 2085 2086 2087 2088 2089 2090 2091 2092 2093 2094 2095 2096 2097 2098 2099 2100 2101 2102 2103 2104 2105 2106 2107 2108 2109 2110 2111 2112 2113 2114 2115 2116 2117 2118 2119 2120 2121 2122 2123 2124 2125 2126 2127 2128 2129 2130 2131 2132 2133 2134 2135 2136 2137 2138 2139 2140 2141 2142 2143 2144 2145 2146 2147 2148 2149 2150 2151 2152 2153 2154 2155 2156 2157 2158 2159 2160 2161 2162 2163 2164 2165 2166 2167 2168 2169 2170 2171 2172 2173 2174 2175 2176 2177 2178 2179 2180 2181 2182 2183 2184 2185 2186 2187 2188 2189 2190 2191 2192 2193 2194 2195 2196 2197 2198 2199 2200 2201 2202 2203 2204 2205 2206 2207 2208 2209 2210 2211 2212 2213 2214 2215 2216 2217 2218 2219 2220 2221 2222 2223 2224 2225 2226 2227 2228 2229 2230 2231 2232 2233 2234 2235 2236 2237 2238 2239 2240 2241 2242 2243 2244 2245 2246 2247 2248 2249 2250 2251 2252 2253 2254 2255 2256 2257 2258 2259 2260 2261 2262 2263 2264 2265 2266 2267 2268 2269 2270 2271 2272 2273 2274 2275 2276 2277 2278 2279 2280 2281 2282 2283 2284 2285 2286 2287 2288 2289 2290 2291 2292 2293 2294 2295 2296 2297 2298 2299 2300 2301 2302 2303 2304 2305 2306 2307 2308 2309 2310 2311 2312 2313 2314 2315 2316 2317 2318 2319 2320 2321 2322 2323 2324 2325 2326 2327 2328 2329 2330 2331 2332 2333 2334 2335 2336 2337 2338 2339 2340 2341 2342 2343 2344 2345 2346 2347 2348 2349 2350 2351 2352 2353 2354 2355 2356 2357 2358 2359 2360 2361 2362 2363 2364 2365 2366 2367 2368 2369 2370 2371 2372 2373 2374 2375 2376 2377 2378 2379 2380 2381 2382 2383 2384 2385 2386 2387 2388 2389 2390 2391 2392 2393 2394 2395 2396 2397 2398 2399 2400 2401 2402 2403 2404 2405 2406 2407 2408 2409 2410 2411 2412 2413 2414 2415 2416 2417 2418 2419 2420 2421 2422 2423 2424 2425 2426 2427 2428 2429 2430 2431 2432 2433 2434 2435 2436 2437 2438 2439 2440 2441 2442 2443 2444 2445 2446 2447 2448 2449 2450 2451 2452 2453 2454 2455 2456 2457 2458 2459 2460 2461 2462 2463 2464 2465 2466 2467 2468 2469 2470 2471 2472 2473 2474 2475 2476 2477 2478 2479 2480 2481 2482 2483 2484 2485 2486 2487 2488 2489 2490 2491 2492 2493 2494 2495 2496 2497 2498 2499 2500 2501 2502 2503 2504 2505 2506 2507 2508 2509 2510 2511 2512 2513 2514 2515 2516 2517 2518 2519 2520 2521 2522 2523 2524 2525 2526 2527 2528 2529 2530 2531 2532 2533 2534 2535 2536 2537 2538 2539 2540 2541 2542 2543 2544 2545 2546 2547 2548 2549 2550 2551 2552 2553 2554 2555 2556 2557 2558 2559 2560 2561 2562 2563 2564 2565 2566 2567 2568 2569 2570 2571 2572 2573 2574 2575 2576 2577 2578 2579 2580 2581 2582 2583 2584 2585 2586 2587 2588 2589 2590 2591 2592 2593 2594 2595 2596 2597 2598 2599 2600 2601 2602 2603 2604 2605 2606 2607 2608 2609 2610 2611 2612 2613 2614 2615 2616 2617 2618 2619 2620 2621 2622 2623 2624 2625 2626 2627 2628 2629 2630 2631 2632 2633 2634 2635 2636 2637 2638 2639 2640 2641 2642 2643 2644 2645 2646 2647 2648 2649 2650 2651 2652 2653 2654 2655 2656 2657 2658 2659 2660 2661 2662 2663 2664 2665 2666 2667 2668 2669 2670 2671 2672 2673 2674 2675 2676 2677 2678 2679 2680 2681 2682 2683 2684 2685 2686 2687 2688 2689 2690 2691 2692 2693 2694 2695 2696 2697 2698 2699 2700 2701 2702 2703 2704 2705 2706 2707 2708 2709 2710 2711 2712 2713 2714 2715 2716 2717 2718 2719 2720 2721 2722 2723 2724 2725 2726 2727 2728 2729 2730 2731 2732 2733 2734 2735 2736 2737 2738 2739 2740 2741 2742 2743 2744 2745 2746 2747 2748 2749 2750 2751 2752 2753 2754 2755 2756 2757 2758 2759 2760 2761 2762 2763 2764 2765 2766 2767 2768 2769 2770 2771 2772 2773 2774 2775 2776 2777 2778 2779 2780 2781 2782 2783 2784 2785 2786 2787 2788 2789 2790 2791 2792 2793 2794 2795 2796 2797 2798 2799 2800 2801 2802 2803 2804 2805 2806 2807 2808 2809 2810 2811 2812 2813 2814 2815 2816 2817 2818 2819 2820 2821 2822 2823 2824 2825 2826 2827 2828 2829 2830 2831 2832 2833 2834 2835 2836 2837 2838 2839 2840 2841 2842 2843 2844 2845 2846 2847 2848 2849 2850 2851 2852 2853 2854 2855 2856 2857 2858 2859 2860 2861 2862 2863 2864 2865 2866 2867 2868 2869 2870 2871 2872 2873 2874 2875 2876 2877 2878 2879 2880 2881 2882 2883 2884 2885 2886 2887 2888 2889 2890 2891 2892 2893 2894 2895 2896 2897 2898 2899 2900 2901 2902 2903 2904 2905 2906 2907 2908 2909 2910 2911 2912 2913 2914 2915 2916 2917 2918 2919 2920 2921 2922 2923 2924 2925 2926 2927 2928 2929 2930 2931 2932 2933 2934 2935 2936 2937 2938 2939 2940 2941 2942 2943 2944 2945 2946 2947 2948 2949 2950 2951 2952 2953 2954 2955 2956 2957 2958 2959 2960 2961 2962 2963 2964 2965 2966 2967 2968 2969 2970 2971 2972 2973 2974 2975 2976 2977 2978 2979 2980 2981 2982 2983 2984 2985 2986 2987 2988 2989 2990 2991 2992 2993 2994 2995 2996 2997 2998 2999 3000 3001 3002 3003 3004 3005 3006 3007 3008 3009 3010 3011 3012 3013 3014 3015 3016 3017 3018 3019 3020 3021 3022 3023 3024 3025 3026 3027 3028 3029 3030 3031 3032 3033 3034 3035 3036 3037 3038 3039 3040 3041 3042 3043 3044 3045 3046 3047 3048 3049 3050 3051 3052 3053 3054 3055 3056 3057 3058 3059 3060 3061 3062 3063 3064 3065 3066 3067 3068 3069 3070 3071 3072 3073 3074 3075 3076 3077 3078 3079 3080 3081 3082 3083 3084 3085 3086 3087 3088 3089 3090 3091 3092 3093 3094 3095 3096 3097 3098 3099 3100 3101 3102 3103 3104 3105 3106 3107 3108 3109 3110 3111 3112 3113 3114 3115 3116 3117 3118 3119 3120 3121 3122 3123 3124 3125 3126 3127 3128 3129 3130 3131 3132 3133 3134 3135 3136 3137 3138 3139 3140 3141 3142 3143 3144 3145 3146 3147 3148 3149 3150 3151 3152 3153 3154 3155 3156 3157 3158 3159 3160 3161 3162 3163 3164 3165 3166 3167 3168 3169 3170 3171 3172 3173 3174 3175 3176 3177 3178 3179 3180 3181 3182 3183 3184 3185 3186 3187 3188 3189 3190 3191 3192 3193 3194 3195 3196 3197 3198 3199 3200 3201 3202 3203 3204 3205 3206 3207 3208 3209 3210 3211 3212 3213 3214 3215 3216 3217 3218 3219 3220 3221 3222 3223 3224 3225 3226 3227 3228 3229 3230 3231 3232 3233 3234 3235 3236 3237 3238 3239 3240 3241 3242 3243 3244 3245 3246 3247 3248 3249 3250 3251 3252 3253 3254 3255 3256 3257 3258 3259 3260 3261 3262 3263 3264 3265 3266 3267 3268 3269 3270 3271 3272 3273 3274 3275 3276 3277 3278 3279 3280 3281 3282 3283 3284 3285 3286 3287 3288 3289 3290 3291 3292 3293 3294 3295 3296 3297 3298 3299 3300 3301 3302 3303 3304 3305 3306 3307 3308 3309 3310 3311 3312 3313 3314 3315 3316 3317 3318 3319 3320 3321 3322 3323 3324 3325 3326 3327 3328 3329 3330 3331 3332 3333 3334 3335 3336 3337 3338 3339 3340 3341 3342 3343 3344 3345 3346 3347 3348 3349 3350 3351 3352 3353 3354 3355 3356 3357 3358 3359 3360 3361 3362 3363 3364 3365 3366 3367 3368 3369 3370 3371 3372 3373 3374 3375 3376 3377 3378 3379 3380 3381 3382 3383 3384 3385 3386 3387 3388 3389 3390 3391 3392 3393 3394 3395 3396 3397 3398 3399 3400 3401 3402 3403 3404 3405 3406 3407 3408 3409 3410 3411 3412 3413 3414 3415 3416 3417 3418 3419 3420 3421 3422 3423 3424 3425 3426 3427 3428 3429 3430 3431 3432 3433 3434 3435 3436 3437 3438 3439 3440 3441 3442 3443 3444 3445 3446 3447 3448 3449 3450 3451 3452 3453 3454 3455 3456 3457 3458 3459 3460 3461 3462 3463 3464 3465 3466 3467 3468 3469 3470 3471 3472 3473 3474 3475 3476 3477 3478 3479 3480 3481 3482 3483 3484 3485 3486 3487 3488 3489 3490 3491 3492 3493 3494 3495 3496 3497 3498 3499 3500 3501 3502 3503 3504 3505 3506 3507 3508 3509 3510 3511 3512 3513 3514 3515 3516 3517 3518 3519 3520 3521 3522 3523 3524 3525 3526 3527 3528 3529 3530 3531 3532 3533 3534 3535 3536 3537 3538 3539 3540 3541 3542 3543 3544 3545 3546 3547 3548 3549 3550 3551 3552 3553 3554 3555 3556 3557 3558 3559 3560 3561 3562 3563 3564 3565 3566 3567 3568 3569 3570 3571 3572 3573 3574 3575 3576 3577 3578 3579 3580 3581 3582 3583 3584 3585 3586 3587 3588 3589 3590 3591 3592 3593 3594 3595 3596 3597 3598 3599 3600 3601 3602 3603 3604 3605 3606 3607 3608 3609 3610 3611 3612 3613 3614 3615 3616 3617 3618 3619 3620 3621 3622 3623 3624 3625 3626 3627 3628 3629 3630 3631 3632 3633 3634 3635 3636 3637 3638 3639 3640 3641 3642 3643 3644 3645 3646 3647 3648 3649 3650 3651 3652 3653 3654 3655 3656 3657 3658 3659 3660 3661 3662 3663 3664 3665 3666 3667 3668 3669 3670 3671 3672 3673 3674 3675 3676 3677 3678 3679 3680 3681 3682 3683 3684 3685 3686 3687 3688 3689 3690 3691 3692 3693 3694 3695 3696 3697 3698 3699 3700 3701 3702 3703 3704 3705 3706 3707 3708 3709 3710 3711 3712 3713 3714 3715 3716 3717 3718 3719 3720 3721 3722 3723 3724 3725 3726 3727 3728 3729 3730 3731 3732 3733 3734 3735 3736 3737 3738 3739 3740 3741 3742 3743 3744 3745 3746 3747 3748 3749 3750 3751 3752 3753 3754 3755 3756 3757 3758 3759 3760 3761 3762 3763 3764 3765 3766 3767 3768 3769 3770 3771 3772 3773 3774 3775 3776 3777 3778 3779 3780 3781 3782 3783 3784 3785 3786 3787 3788 3789 3790 3791 3792 3793 3794 3795 3796 3797 3798 3799 3800 3801 3802 3803 3804 3805 3806 3807 3808 3809 3810 3811 3812 3813 3814 3815 3816 3817 3818 3819 3820 3821 3822 3823 3824 3825 3826 3827 3828 3829 3830 3831 3832 3833 3834 3835 3836 3837 3838 3839 3840 3841 3842 3843 3844 3845 3846 3847 3848 3849 3850 3851 3852 3853 3854 3855 3856 3857 3858 3859 3860 3861 3862 3863 3864 3865 3866 3867 3868 3869 3870 3871 3872 3873 3874 3875 3876 3877 3878 3879 3880 3881 3882 3883 3884 3885 3886 3887 3888 3889 3890 3891 3892 3893 3894 3895 3896 3897 3898 3899 3900 3901 3902 3903 3904 3905 3906 3907 3908 3909 3910 3911 3912 3913 3914 3915 3916 3917 3918 3919 3920 3921 3922 3923 3924 3925 3926 3927 3928 3929 3930 3931 3932 3933 3934 3935 3936 3937 3938 3939 3940 3941 3942 3943 3944 3945 3946 3947 3948 3949 3950 3951 3952 3953 3954 3955 3956 3957 3958 3959 3960 3961 3962 3963 3964 3965 3966 3967 3968 3969 3970 3971 3972 3973 3974 3975 3976 3977 3978 3979 3980 3981 3982 3983 3984 3985 3986 3987 3988 3989 3990 3991 3992 3993 3994 3995 3996 3997 3998 3999 4000 4001 4002 4003 4004 4005 4006 4007 4008 4009 4010 4011 4012 4013 4014 4015 4016 4017 4018 4019 4020 4021 4022 4023 4024 4025 4026 4027 4028 4029 4030 4031 4032 4033 4034 4035 4036 4037 4038 4039 4040 4041 4042 4043 4044 4045 4046 4047 4048 4049 4050 4051 4052 4053 4054 4055 4056 4057 4058 4059 4060 4061 4062 4063 4064 4065 4066 4067 4068 4069 4070 4071 4072 4073 4074 4075 4076 4077 4078 4079 4080 4081 4082 4083 4084 4085 4086 4087 4088 4089 4090 4091 4092 4093 4094 4095 4096 4097 4098 4099 4100 4101 4102 4103 4104 4105 4106 4107 4108 4109 4110 4111 4112 4113 4114 4115 4116 4117 4118 4119 4120 4121 4122 4123 4124 4125 4126 4127 4128 4129 4130 4131 4132 4133 4134 4135 4136 4137 4138 4139 4140 4141 4142 4143 4144 4145 4146 4147 4148 4149 4150 4151 4152 4153 4154 4155 4156 4157 4158 4159 4160 4161 4162 4163 4164 4165 4166 4167 4168 4169 4170 4171 4172 4173 4174 4175 4176 4177 4178 4179 4180 4181 4182 4183 4184 4185 4186 4187 4188 4189 4190 4191 4192 4193 4194 4195 4196 4197 4198 4199 4200 4201 4202 4203 4204 4205 4206 4207 4208 4209 4210 4211 4212 4213 4214 4215 4216 4217 4218 4219 4220 4221 4222 4223 4224 4225 4226 4227 4228 4229 4230 4231 4232 4233 4234 4235 4236 4237 4238 4239 4240 4241 4242 4243 4244 4245 4246 4247 4248 4249 4250 4251 4252 4253 4254 4255 4256 4257 4258 4259 4260 4261 4262 4263 4264 4265 4266 4267 4268 4269 4270 4271 4272 4273 4274 4275 4276 4277 4278 4279 4280 4281 4282 4283 4284 4285 4286 4287 4288 4289 4290 4291 4292 4293 4294 4295 4296 4297 4298 4299 4300 4301 4302 4303 4304 4305 4306 4307 4308 4309 4310 4311 4312 4313 4314 4315 4316 4317 4318 4319 4320 4321 4322 4323 4324 4325 4326 4327 4328 4329 4330 4331 4332 4333 4334 4335 4336 4337 4338 4339 4340 4341 4342 4343 4344 4345 4346 4347 4348 4349 4350 4351 4352 4353 4354 4355 4356 4357 4358 4359 4360 4361 4362 4363 4364 4365 4366 4367 4368 4369 4370 4371 4372 4373 4374 4375 4376 4377 4378 4379 4380 4381 4382 4383 4384 4385 4386 4387 4388 4389 4390 4391 4392 4393 4394 4395 4396 4397 4398 4399 4400 4401 4402 4403 4404 4405 4406 4407 4408 4409 4410 4411 4412 4413 4414 4415 4416 4417 4418 4419 4420 4421 4422 4423 4424 4425 4426 4427 4428 4429 4430 4431 4432 4433 4434 4435 4436 4437 4438 4439 4440 4441 4442 4443 4444 4445 4446 4447 4448 4449 4450 4451 4452 4453 4454 4455 4456 4457 4458 4459 4460 4461 4462 4463 4464 4465 4466 4467 4468 4469 4470 4471 4472 4473 4474 4475 4476 4477 4478 4479 4480 4481 4482 4483 4484 4485 4486 4487 4488 4489 4490 4491 4492 4493 4494 4495 4496 4497 4498 4499 4500 4501 4502 4503 4504 4505 4506 4507 4508 4509 4510 4511 4512 4513 4514 4515 4516 4517 4518 4519 4520 4521 4522 4523 4524 4525 4526 4527 4528 4529 4530 4531 4532 4533 4534 4535 4536 4537 4538 4539 4540 4541 4542 4543 4544 4545 4546 4547 4548 4549 4550 4551 4552 4553 4554 4555 4556 4557 4558 4559 4560 4561 4562 4563 4564 4565 4566 4567 4568 4569 4570 4571 4572 4573 4574 4575 4576 4577 4578 4579 4580 4581 4582 4583 4584 4585 4586 4587 4588 4589 4590 4591 4592 4593 4594 4595 4596 4597 4598 4599 4600 4601 4602 4603 4604 4605 4606 4607 4608 4609 4610 4611 4612 4613 4614 4615 4616 4617 4618 4619 4620 4621 4622 4623 4624 4625 4626 4627 4628 4629 4630 4631 4632 4633 4634 4635 4636 4637 4638 4639 4640 4641 4642 4643 4644 4645 4646 4647 4648 4649 4650 4651 4652 4653 4654 4655 4656 4657 4658 4659 4660 4661 4662 4663 4664 4665 4666 4667 4668 4669 4670 4671 4672 4673 4674 4675 4676 4677 4678 4679 4680 4681 4682 4683 4684 4685 4686 4687 4688 4689 4690 4691 4692 4693 4694 4695 4696 4697 4698 4699 4700 4701 4702 4703 4704 4705 4706 4707 4708 4709 4710 4711 4712 4713 4714 4715 4716 4717 4718 4719 4720 4721 4722 4723 4724 4725 4726 4727 4728 4729 4730 4731 4732 4733 4734 4735 4736 4737 4738 4739 4740 4741 4742 4743 4744 4745 4746 4747 4748 4749 4750 4751 4752 4753 4754 4755 4756 4757 4758 4759 4760 4761 4762 4763 4764 4765 4766 4767 4768 4769 4770 4771 4772 4773 4774 4775 4776 4777 4778 4779 4780 4781 4782 4783 4784 4785 4786 4787 4788 4789 4790 4791 4792 4793 4794 4795 4796 4797 4798 4799 4800 4801 4802 4803 4804 4805 4806 4807 4808 4809 4810 4811 4812 4813 4814 4815 4816 4817 4818 4819 4820 4821 4822 4823 4824 4825 4826 4827 4828 4829 4830 4831 4832 4833 4834 4835 4836 4837 4838 4839 4840 4841 4842 4843 4844 4845 4846 4847 4848 4849 4850 4851 4852 4853 4854 4855 4856 4857 4858 4859 4860 4861 4862 4863 4864 4865 4866 4867 4868 4869 4870 4871 4872 4873 4874 4875 4876 4877 4878 4879 4880 4881 4882 4883 4884 4885 4886 4887 4888 4889 4890 4891 4892 4893 4894 4895 4896 4897 4898 4899 4900 4901 4902 4903 4904 4905 4906 4907 4908 4909 4910 4911 4912 4913 4914 4915 4916 4917 4918 4919 4920 4921 4922 4923 4924 4925 4926 4927 4928 4929 4930 4931 4932 4933 4934 4935 4936 4937 4938 4939 4940 4941 4942 4943 4944 4945 4946 4947 4948 4949 4950 4951 4952 4953 4954 4955 4956 4957 4958 4959 4960 4961 4962 4963 4964 4965 4966 4967 4968 4969 4970 4971 4972 4973 4974 4975 4976 4977 4978 4979 4980 4981 4982 4983 4984 4985 4986 4987 4988 4989 4990 4991 4992 4993 4994 4995 4996 4997 4998 4999 5000 5001 5002 5003 5004 5005 5006 5007 5008 5009 5010 5011 5012 5013 5014 5015 5016 5017 5018 5019 5020 5021 5022 5023 5024 5025 5026 5027 5028 5029 5030 5031 5032 5033 5034 5035 5036 5037 5038 5039 5040 5041 5042 5043 5044 5045 5046 5047 5048 5049 5050 5051 5052 5053 5054 5055 5056 5057 5058 5059 5060 5061 5062 5063 5064 5065 5066 5067 5068 5069 5070 5071 5072 5073 5074 5075 5076 5077 5078 5079 5080 5081 5082 5083 5084 5085 5086 5087 5088 5089 5090 5091 5092 5093 5094 5095 5096 5097 5098 5099 5100 5101 5102 5103 5104 5105 5106 5107 5108 5109 5110 5111 5112 5113 5114 5115 5116 5117 5118 5119 5120 5121 5122 5123 5124 5125 5126 5127 5128 5129 5130 5131 5132 5133 5134 5135 5136 5137 5138 5139 5140 5141 5142 5143 5144 5145 5146 5147 5148 5149 5150 5151 5152 5153 5154 5155 5156 5157 5158 5159 5160 5161 5162 5163 5164 5165 5166 5167 5168 5169 5170 5171 5172 5173 5174 5175 5176 5177 5178 5179 5180 5181 5182 5183 5184 5185 5186 5187 5188 5189 5190 5191 5192 5193 5194 5195 5196 5197 5198 5199 5200 5201 5202 5203 5204 5205 5206 5207 5208 5209 5210 5211 5212 5213 5214 5215 5216 5217 5218 5219 5220 5221 5222 5223 5224 5225 5226 5227 5228 5229 5230 5231 5232 5233 5234 5235 5236 5237 5238 5239 5240 5241 5242 5243 5244 5245 5246 5247 5248 5249 5250 5251 5252 5253 5254 5255 5256 5257 5258 5259 5260 5261 5262 5263 5264 5265 5266 5267 5268 5269 5270 5271 5272 5273 5274 5275 5276 5277 5278 5279 5280 5281 5282 5283 5284 5285 5286 5287 5288 5289 5290 5291 5292 5293 5294 5295 5296 5297 5298 5299 5300 5301 5302 5303 5304 5305 5306 5307 5308 5309 5310 5311 5312 5313 5314 5315 5316 5317 5318 5319 5320 5321 5322 5323 5324 5325 5326 5327 5328 5329 5330 5331 5332 5333 5334 5335 5336 5337 5338 5339 5340 5341 5342 5343 5344 5345 5346 5347 5348 5349 5350 5351 5352 5353 5354 5355 5356 5357 5358 5359 5360 5361 5362 5363 5364 5365 5366 5367 5368 5369 5370 5371 5372 5373 5374 5375 5376 5377 5378 5379 5380 5381 5382 5383 5384 5385 5386 5387 5388 5389 5390 5391 5392 5393 5394 5395 5396 5397 5398 5399 5400 5401 5402 5403 5404 5405 5406 5407 5408 5409 5410 5411 5412 5413 5414 5415 5416 5417 5418 5419 5420 5421 5422 5423 5424 5425 5426 5427 5428 5429 5430 5431 5432 5433 5434 5435 5436 5437 5438 5439 5440 5441 5442 5443 5444 5445 5446 5447 5448 5449 5450 5451 5452 5453 5454 5455 5456 5457 5458 5459 5460 5461 5462 5463 5464 5465 5466 5467 5468 5469 5470 5471 5472 5473 5474 5475 5476 5477 5478 5479 5480 5481 5482 5483 5484 5485 5486 5487 5488 5489 5490 5491 5492 5493 5494 5495 5496 5497 5498 5499 5500 5501 5502 5503 5504 5505 5506 5507 5508 5509 5510 5511 5512 5513 5514 5515 5516 5517 5518 5519 5520 5521 5522 5523 5524 5525 5526 5527 5528 5529 5530 5531 5532 5533 5534 5535 5536 5537 5538 5539 5540 5541 5542 5543 5544 5545 5546 5547 5548 5549 5550 5551 5552 5553 5554 5555 5556 5557 5558 5559 5560 5561 5562 5563 5564 5565 5566 5567 5568 5569 5570 5571 5572 5573 5574 5575 5576 5577 5578 5579 5580 5581 5582 5583 5584 5585 5586 5587 5588 5589 5590 5591 5592 5593 5594 5595 5596 5597 5598 5599 5600 5601 5602 5603 5604 5605 5606 5607 5608 5609 5610 5611 5612 5613 5614 5615 5616 5617 5618 5619 5620 5621 5622 5623 5624 5625 5626 5627 5628 5629 5630 5631 5632 5633 5634 5635 5636 5637 5638 5639 5640 5641 5642 5643 5644 5645 5646 5647 5648 5649 5650 5651 5652 5653 5654 5655 5656 5657 5658 5659 5660 5661 5662 5663 5664 5665 5666 5667 5668 5669 5670 5671 5672 5673 5674 5675 5676 5677 5678 5679 5680 5681 5682 5683 5684 5685 5686 5687 5688 5689 5690 5691 5692 5693 5694 5695 5696 5697 5698 5699 5700 5701 5702 5703 5704 5705 5706 5707 5708 5709 5710 5711 5712 5713 5714 5715 5716 5717 5718 5719 5720 5721 5722 5723 5724 5725 5726 5727 5728 5729 5730 5731 5732 5733 5734 5735 5736 5737 5738 5739 5740 5741 5742 5743 5744 5745 5746 5747 5748 5749 5750 5751 5752 5753 5754 5755 5756 5757 5758 5759 5760 5761 5762 5763 5764 5765 5766 5767 5768 5769 5770 5771 5772 5773 5774 5775 5776 5777 5778 5779 5780 5781 5782 5783 5784 5785 5786 5787 5788 5789 5790 5791 5792 5793 5794 5795 5796 5797 5798 5799 5800 5801 5802 5803 5804 5805 5806 5807 5808 5809 5810 5811 5812 5813 5814 5815 5816 5817 5818 5819 5820 5821 5822 5823 5824 5825 5826 5827 5828 5829 5830 5831 5832 5833 5834 5835 5836 5837 5838 5839 5840 5841 5842 5843 5844 5845 5846 5847 5848 5849 5850 5851 5852 5853 5854 5855 5856 5857 5858 5859 5860 5861 5862 5863 5864 5865 5866 5867 5868 5869 5870 5871 5872 5873 5874 5875 5876 5877 5878 5879 5880 5881 5882 5883 5884 5885 5886 5887 5888 5889 5890 5891 5892 5893 5894 5895 5896 5897 5898 5899 5900 5901 5902 5903 5904 5905 5906 5907 5908 5909 5910 5911 5912 5913 5914 5915 5916 5917 5918 5919 5920 5921 5922 5923 5924 5925 5926 5927 5928 5929 5930 5931 5932 5933 5934 5935 5936 5937 5938 5939 5940 5941 5942 5943 5944 5945 5946 5947 5948 5949 5950 5951 5952 5953 5954 5955 5956 5957 5958 5959 5960 5961 5962 5963 5964 5965 5966 5967 5968 5969 5970 5971 5972 5973 5974 5975 5976 5977 5978 5979 5980 5981 5982 5983 5984 5985 5986 5987 5988 5989 5990 5991 5992 5993 5994 5995 5996 5997 5998 5999 6000 6001 6002 6003 6004 6005 6006 6007 6008 6009 6010 6011 6012 6013 6014 6015 6016 6017 6018 6019 6020 6021 6022 6023 6024 6025 6026 6027 6028 6029 6030 6031 6032 6033 6034 6035 6036 6037 6038 6039 6040 6041 6042 6043 6044 6045 6046 6047 6048 6049 6050 6051 6052 6053 6054 6055 6056 6057 6058 6059 6060 6061 6062 6063 6064 6065 6066 6067 6068 6069 6070 6071 6072 6073 6074 6075 6076 6077 6078 6079 6080 6081 6082 6083 6084 6085 6086 6087 6088 6089 6090 6091 6092 6093 6094 6095 6096 6097 6098 6099 6100 6101 6102 6103 6104 6105 6106 6107 6108 6109 6110 6111 6112 6113 6114 6115 6116 6117 6118 6119 6120 6121 6122 6123 6124 6125 6126 6127 6128 6129 6130 6131 6132 6133 6134 6135 6136 6137 6138 6139 6140 6141 6142 6143 6144 6145 6146 6147 6148 6149 6150 6151 6152 6153 6154 6155 6156 6157 6158 6159 6160 6161 6162 6163 6164 6165 6166 6167 6168 6169 6170 6171 6172 6173 6174 6175 6176 6177 6178 6179 6180 6181 6182 6183 6184 6185 6186 6187 6188 6189 6190 6191 6192 6193 6194 6195 6196 6197 6198 6199 6200 6201 6202 6203 6204 6205 6206 6207 6208 6209 6210 6211 6212 6213 6214 6215 6216 6217 6218 6219 6220 6221 6222 6223 6224 6225 6226 6227 6228 6229 6230 6231 6232 6233 6234 6235 6236 6237 6238 6239 6240 6241 6242 6243 6244 6245 6246 6247 6248 6249 6250 6251 6252 6253 6254 6255 6256 6257 6258 6259 6260 6261 6262 6263 6264 6265 6266 6267 6268 6269 6270 6271 6272 6273 6274 6275 6276 6277 6278 6279 6280 6281 6282 6283 6284 6285 6286 6287 6288 6289 6290 6291 6292 6293 6294 6295 6296 6297 6298 6299 6300 6301 6302 6303 6304 6305 6306 6307 6308 6309 6310 6311 6312 6313 6314 6315 6316 6317 6318 6319 6320 6321 6322 6323 6324 6325 6326 6327 6328 6329 6330 6331 6332 6333 6334 6335 6336 6337 6338 6339 6340 6341 6342 6343 6344 6345 6346 6347 6348 6349 6350 6351 6352 6353 6354 6355 6356 6357 6358 6359 6360 6361 6362 6363 6364 6365 6366 6367 6368 6369 6370 6371 6372 6373 6374 6375 6376 6377 6378 6379 6380 6381 6382 6383 6384 6385 6386 6387 6388 6389 6390 6391 6392 6393 6394 6395 6396 6397 6398 6399 6400 6401 6402 6403 6404 6405 6406 6407 6408 6409 6410 6411 6412 6413 6414 6415 6416 6417 6418 6419 6420 6421 6422 6423 6424 6425 6426 6427 6428 6429 6430 6431 6432 6433 6434 6435 6436 6437 6438 6439 6440 6441 6442 6443 6444 6445 6446 6447 6448 6449 6450 6451 6452 6453 6454 6455 6456 6457 6458 6459 6460 6461 6462 6463 6464 6465 6466 6467 6468 6469 6470 6471 6472 6473 6474 6475 6476 6477 6478 6479 6480 6481 6482 6483 6484 6485 6486 6487 6488 6489 6490 6491 6492 6493 6494 6495 6496 6497 6498 6499 6500 6501 6502 6503 6504 6505 6506 6507 6508 6509 6510 6511 6512 6513 6514 6515 6516 6517 6518 6519 6520 6521 6522 6523 6524 6525 6526 6527 6528 6529 6530 6531 6532 6533 6534 6535 6536 6537 6538 6539 6540 6541 6542 6543 6544 6545 6546 6547 6548 6549 6550 6551 6552 6553 6554 6555 6556 6557 6558 6559 6560 6561 6562 6563 6564 6565 6566 6567 6568 6569 6570 6571 6572 6573 6574 6575 6576 6577 6578 6579 6580 6581 6582 6583 6584 6585 6586 6587 6588 6589 6590 6591 6592 6593 6594 6595 6596 6597 6598 6599 6600 6601 6602 6603 6604 6605 6606 6607 6608 6609 6610 6611 6612 6613 6614 6615 6616 6617 6618 6619 6620 6621 6622 6623 6624 6625 6626 6627 6628 6629 6630 6631 6632 6633 6634 6635 6636 6637 6638 6639 6640 6641 6642 6643 6644 6645 6646 6647 6648 6649 6650 6651 6652 6653 6654 6655 6656 6657 6658 6659 6660 6661 6662 6663 6664 6665 6666 6667 6668 6669 6670 6671 6672 6673 6674 6675 6676 6677 6678 6679 6680 6681 6682 6683 6684 6685 6686 6687 6688 6689 6690 6691 6692 6693 6694 6695 6696 6697 6698 6699 6700 6701 6702 6703 6704 6705 6706 6707 6708 6709 6710 6711 6712 6713 6714 6715 6716 6717 6718 6719 6720 6721 6722 6723 6724 6725 6726 6727 6728 6729 6730 6731 6732 6733 6734 6735 6736 6737 6738 6739 6740 6741 6742 6743 6744 6745 6746 6747 6748 6749 6750 6751 6752 6753 6754 6755 6756 6757 6758 6759 6760 6761 6762 6763 6764 6765 6766 6767 6768 6769 6770 6771 6772 6773 6774 6775 6776 6777 6778 6779 6780 6781 6782 6783 6784 6785 6786 6787 6788 6789 6790 6791 6792 6793 6794 6795 6796 6797 6798 6799 6800 6801 6802 6803 6804 6805 6806 6807 6808 6809 6810 6811 6812 6813 6814 6815 6816 6817 6818 6819 6820 6821 6822 6823 6824 6825 6826 6827 6828 6829 6830 6831 6832 6833 6834 6835 6836 6837 6838 6839 6840 6841 6842 6843 6844 6845 6846 6847 6848 6849 6850 6851 6852 6853 6854 6855 6856 6857 6858 6859 6860 6861 6862 6863 6864 6865 6866 6867 6868 6869 6870 6871 6872 6873 6874 6875 6876 6877 6878 6879 6880 6881 6882 6883 6884 6885 6886 6887 6888 6889 6890 6891 6892 6893 6894 6895 6896 6897 6898 6899 6900 6901 6902 6903 6904 6905 6906 6907 6908 6909 6910 6911 6912 6913 6914 6915 6916 6917 6918 6919 6920 6921 6922 6923 6924 6925 6926 6927 6928 6929 6930 6931 6932 6933 6934 6935 6936 6937 6938 6939 6940 6941 6942 6943 6944 6945 6946 6947 6948 6949 6950 6951 6952 6953 6954 6955 6956 6957 6958 6959 6960 6961 6962 6963 6964 6965 6966 6967 6968 6969 6970 6971 6972 6973 6974 6975 6976 6977 6978 6979 6980 6981 6982 6983 6984 6985 6986 6987 6988 6989 6990 6991 6992 6993 6994 6995 6996 6997 6998 6999 7000 7001 7002 7003 7004 7005 7006 7007 7008 7009 7010 7011 7012 7013 7014 7015 7016 7017 7018 7019 7020 7021 7022 7023 7024 7025 7026 7027 7028 7029 7030 7031 7032 7033 7034 7035 7036 7037 7038 7039 7040 7041 7042 7043 7044 7045 7046 7047 7048 7049 7050 7051 7052 7053 7054 7055 7056 7057 7058 7059 7060 7061 7062 7063 7064 7065 7066 7067 7068 7069 7070 7071 7072 7073 7074 7075 7076 7077 7078 7079 7080 7081 7082 7083 7084 7085 7086 7087 7088 7089 7090 7091 7092 7093 7094 7095 7096 7097 7098 7099 7100 7101 7102 7103 7104 7105 7106 7107 7108 7109 7110 7111 7112 7113 7114 7115 7116 7117 7118 7119 7120 7121 7122 7123 7124 7125 7126 7127 7128 7129 7130 7131 7132 7133 7134 7135 7136 7137 7138 7139 7140 7141 7142 7143 7144 7145 7146 7147 7148 7149 7150 7151 7152 7153 7154 7155 7156 7157 7158 7159 7160 7161 7162 7163 7164 7165 7166 7167 7168 7169 7170 7171 7172 7173 7174 7175 7176 7177 7178 7179 7180 7181 7182 7183 7184 7185 7186 7187 7188 7189 7190 7191 7192 7193 7194 7195 7196 7197 7198 7199 7200 7201 7202 7203 7204 7205 7206 7207 7208 7209 7210 7211 7212 7213 7214 7215 7216 7217 7218 7219 7220 7221 7222 7223 7224 7225 7226 7227 7228 7229 7230 7231 7232 7233 7234 7235 7236 7237 7238 7239 7240 7241 7242 7243 7244 7245 7246 7247 7248 7249 7250 7251 7252 7253 7254 7255 7256 7257 7258 7259 7260 7261 7262 7263 7264 7265 7266 7267 7268 7269 7270 7271 7272 7273 7274 7275 7276 7277 7278 7279 7280 7281 7282 7283 7284 7285 7286 7287 7288 7289 7290 7291 7292 7293 7294 7295 7296 7297 7298 7299 7300 7301 7302 7303 7304 7305 7306 7307 7308 7309 7310 7311 7312 7313 7314 7315 7316 7317 7318 7319 7320 7321 7322 7323 7324 7325 7326 7327 7328 7329 7330 7331 7332 7333 7334 7335 7336 7337 7338 7339 7340 7341 7342 7343 7344 7345 7346 7347 7348 7349 7350 7351 7352 7353 7354 7355 7356 7357 7358 7359 7360 7361 7362 7363 7364 7365 7366 7367 7368 7369 7370 7371 7372 7373 7374 7375 7376 7377 7378 7379 7380 7381 7382 7383 7384 7385 7386 7387 7388 7389 7390 7391 7392 7393 7394 7395 7396 7397 7398 7399 7400 7401 7402 7403 7404 7405 7406 7407 7408 7409 7410 7411 7412 7413 7414 7415 7416 7417 7418 7419 7420 7421 7422 7423 7424 7425 7426 7427 7428 7429 7430 7431 7432 7433 7434 7435 7436 7437 7438 7439 7440 7441 7442 7443 7444 7445 7446 7447 7448 7449 7450 7451 7452 7453 7454 7455 7456 7457 7458 7459 7460 7461 7462 7463 7464 7465 7466 7467 7468 7469 7470 7471 7472 7473 7474 7475 7476 7477 7478 7479 7480 7481 7482 7483 7484 7485 7486 7487 7488 7489 7490 7491 7492 7493 7494 7495 7496 7497 7498 7499 7500 7501 7502 7503 7504 7505 7506 7507 7508 7509 7510 7511 7512 7513 7514 7515 7516 7517 7518 7519 7520 7521 7522 7523 7524 7525 7526 7527 7528 7529 7530 7531 7532 7533 7534 7535 7536 7537 7538 7539 7540 7541 7542 7543 7544 7545 7546 7547 7548 7549 7550 7551 7552 7553 7554 7555 7556 7557 7558 7559 7560 7561 7562 7563 7564 7565 7566 7567 7568 7569 7570 7571 7572 7573 7574 7575 7576 7577 7578 7579 7580 7581 7582 7583 7584 7585 7586 7587 7588 7589 7590 7591 7592 7593 7594 7595 7596 7597 7598 7599 7600 7601 7602 7603 7604 7605 7606 7607 7608 7609 7610 7611 7612 7613 7614 7615 7616 7617 7618 7619 7620 7621 7622 7623 7624 7625 7626 7627 7628 7629 7630 7631 7632 7633 7634 7635 7636 7637 7638 7639 7640 7641 7642 7643 7644 7645 7646 7647 7648 7649 7650 7651 7652 7653 7654 7655 7656 7657 7658 7659 7660 7661 7662 7663 7664 7665 7666 7667 7668 7669 7670 7671 7672 7673 7674 7675 7676 7677 7678 7679 7680 7681 7682 7683 7684 7685 7686 7687 7688 7689 7690 7691 7692 7693 7694 7695 7696 7697 7698 7699 7700 7701 7702 7703 7704 7705 7706 7707 7708 7709 7710 7711 7712 7713 7714 7715 7716 7717 7718 7719 7720 7721 7722 7723 7724 7725 7726 7727 7728 7729 7730 7731 7732 7733 7734 7735 7736 7737 7738 7739 7740 7741 7742 7743 7744 7745 7746 7747 7748 7749 7750 7751 7752 7753 7754 7755 7756 7757 7758 7759 7760 7761 7762 7763 7764 7765 7766 7767 7768 7769 7770 7771 7772 7773 7774 7775 7776 7777 7778 7779 7780 7781 7782 7783 7784 7785 7786 7787 7788 7789 7790 7791 7792 7793 7794 7795 7796 7797 7798 7799 7800 7801 7802 7803 7804 7805 7806 7807 7808 7809 7810 7811 7812 7813 7814 7815 7816 7817 7818 7819 7820 7821 7822 7823 7824 7825 7826 7827 7828 7829 7830 7831 7832 7833 7834 7835 7836 7837 7838 7839 7840 7841 7842 7843 7844 7845 7846 7847 7848 7849 7850 7851 7852 7853 7854 7855 7856 7857 7858 7859 7860 7861 7862 7863 7864 7865 7866 7867 7868 7869 7870 7871 7872 7873 7874 7875 7876 7877 7878 7879 7880 7881 7882 7883 7884 7885 7886 7887 7888 7889 7890 7891 7892 7893 7894 7895 7896 7897 7898 7899 7900 7901 7902 7903 7904 7905 7906 7907 7908 7909 7910 7911 7912 7913 7914 7915 7916 7917 7918 7919 7920 7921 7922 7923 7924 7925 7926 7927 7928 7929 7930 7931 7932 7933 7934 7935 7936 7937 7938 7939 7940 7941 7942 7943 7944 7945 7946 7947 7948 7949 7950 7951 7952 7953 7954 7955 7956 7957 7958 7959 7960 7961 7962 7963 7964 7965 7966 7967 7968 7969 7970 7971 7972 7973 7974 7975 7976 7977 7978 7979 7980 7981 7982 7983 7984 7985 7986 7987 7988 7989 7990 7991 7992 7993 7994 7995 7996 7997 7998 7999 8000 8001 8002 8003 8004 8005 8006 8007 8008 8009 8010 8011 8012 8013 8014 8015 8016 8017 8018 8019 8020 8021 8022 8023 8024 8025 8026 8027 8028 8029 8030 8031 8032 8033 8034 8035 8036 8037 8038 8039 8040 8041 8042 8043 8044 8045 8046 8047 8048 8049 8050 8051 8052 8053 8054 8055 8056 8057 8058 8059 8060 8061 8062 8063 8064 8065 8066 8067 8068 8069 8070 8071 8072 8073 8074 8075 8076 8077 8078 8079 8080 8081 8082 8083 8084 8085 8086 8087 8088 8089 8090 8091 8092 8093 8094 8095 8096 8097 8098 8099 8100 8101 8102 8103 8104 8105 8106 8107 8108 8109 8110 8111 8112 8113 8114 8115 8116 8117 8118 8119 8120 8121 8122 8123 8124 8125 8126 8127 8128 8129 8130 8131 8132 8133 8134 8135 8136 8137 8138 8139 8140 8141 8142 8143 8144 8145 8146 8147 8148 8149 8150 8151 8152 8153 8154 8155 8156 8157 8158 8159 8160 8161 8162 8163 8164 8165 8166 8167 8168 8169 8170 8171 8172 8173 8174 8175 8176 8177 8178 8179 8180 8181 8182 8183 8184 8185 8186 8187 8188 8189 8190 8191 8192 8193 8194 8195 8196 8197 8198 8199 8200 8201 8202 8203 8204 8205 8206 8207 8208 8209 8210 8211 8212 8213 8214 8215 8216 8217 8218 8219 8220 8221 8222 8223 8224 8225 8226 8227 8228 8229 8230 8231 8232 8233 8234 8235 8236 8237 8238 8239 8240 8241 8242 8243 8244 8245 8246 8247 8248 8249 8250 8251 8252 8253 8254 8255 8256 8257 8258 8259 8260 8261 8262 8263 8264 8265 8266 8267 8268 8269 8270 8271 8272 8273 8274 8275 8276 8277 8278 8279 8280 8281 8282 8283 8284 8285 8286 8287 8288 8289 8290 8291 8292 8293 8294 8295 8296 8297 8298 8299 8300 8301 8302 8303 8304 8305 8306 8307 8308 8309 8310 8311 8312 8313 8314 8315 8316 8317 8318 8319 8320 8321 8322 8323 8324 8325 8326 8327 8328 8329 8330 8331 8332 8333 8334 8335 8336 8337 8338 8339 8340 8341 8342 8343 8344 8345 8346 8347 8348 8349 8350 8351 8352 8353 8354 8355 8356 8357 8358 8359 8360 8361 8362 8363 8364 8365 8366 8367 8368 8369 8370 8371 8372 8373 8374 8375 8376 8377 8378 8379 8380 8381 8382 8383 8384 8385 8386 8387 8388 8389 8390 8391 8392 8393 8394 8395 8396 8397 8398 8399 8400 8401 8402 8403 8404 8405 8406 8407 8408 8409 8410 8411 8412 8413 8414 8415 8416 8417 8418 8419 8420 8421 8422 8423 8424 8425 8426 8427 8428 8429 8430 8431 8432 8433 8434 8435 8436 8437 8438 8439 8440 8441 8442 8443 8444 8445 8446 8447 8448 8449 8450 8451 8452 8453 8454 8455 8456 8457 8458 8459 8460 8461 8462 8463 8464 8465 8466 8467 8468 8469 8470 8471 8472 8473 8474 8475 8476 8477 8478 8479 8480 8481 8482 8483 8484 8485 8486 8487 8488 8489 8490 8491 8492 8493 8494 8495 8496 8497 8498 8499 8500 8501 8502 8503 8504 8505 8506 8507 8508 8509 8510 8511 8512 8513 8514 8515 8516 8517 8518 8519 8520 8521 8522 8523 8524 8525 8526 8527 8528 8529 8530 8531 8532 8533 8534 8535 8536 8537 8538 8539 8540 8541 8542 8543 8544 8545 8546 8547 8548 8549 8550 8551 8552 8553 8554 8555 8556 8557 8558 8559 8560 8561 8562 8563 8564 8565 8566 8567 8568 8569 8570 8571 8572 8573 8574 8575 8576 8577 8578 8579 8580 8581 8582 8583 8584 8585 8586 8587 8588 8589 8590 8591 8592 8593 8594 8595 8596 8597 8598 8599 8600 8601 8602 8603 8604 8605 8606 8607 8608 8609 8610 8611 8612 8613 8614 8615 8616 8617 8618 8619 8620 8621 8622 8623 8624 8625 8626 8627 8628 8629 8630 8631 8632 8633 8634 8635 8636 8637 8638 8639 8640 8641 8642 8643 8644 8645 8646 8647 8648 8649 8650 8651 8652 8653 8654 8655 8656 8657 8658 8659 8660 8661 8662 8663 8664 8665 8666 8667 8668 8669 8670 8671 8672 8673 8674 8675 8676 8677 8678 8679 8680 8681 8682 8683 8684 8685 8686 8687 8688 8689 8690 8691 8692 8693 8694 8695 8696 8697 8698 8699 8700 8701 8702 8703 8704 8705 8706 8707 8708 8709 8710 8711 8712 8713 8714 8715 8716 8717 8718 8719 8720 8721 8722 8723 8724 8725 8726 8727 8728 8729 8730 8731 8732 8733 8734 8735 8736 8737 8738 8739 8740 8741 8742 8743 8744 8745 8746 8747 8748 8749 8750 8751 8752 8753 8754 8755 8756 8757 8758 8759 8760 8761 8762 8763 8764 8765 8766 8767 8768 8769 8770 8771 8772 8773 8774 8775 8776 8777 8778 8779 8780 8781 8782 8783 8784 8785 8786 8787 8788 8789 8790 8791 8792 8793 8794 8795 8796 8797 8798 8799 8800 8801 8802 8803 8804 8805 8806 8807 8808 8809 8810 8811 8812 8813 8814 8815 8816 8817 8818 8819 8820 8821 8822 8823 8824 8825 8826 8827 8828 8829 8830 8831 8832 8833 8834 8835 8836 8837 8838 8839 8840 8841 8842 8843 8844 8845 8846 8847 8848 8849 8850 8851 8852 8853 8854 8855 8856 8857 8858 8859 8860 8861 8862 8863 8864 8865 8866 8867 8868 8869 8870 8871 8872 8873 8874 8875 8876 8877 8878 8879 8880 8881 8882 8883 8884 8885 8886 8887 8888 8889 8890 8891 8892 8893 8894 8895 8896 8897 8898 8899 8900 8901 8902 8903 8904 8905 8906 8907 8908 8909 8910 8911 8912 8913 8914 8915 8916 8917 8918 8919 8920 8921 8922 8923 8924 8925 8926 8927 8928 8929 8930 8931 8932 8933 8934 8935 8936 8937 8938 8939 8940 8941 8942 8943 8944 8945 8946 8947 8948 8949 8950 8951 8952 8953 8954 8955 8956 8957 8958 8959 8960 8961 8962 8963 8964 8965 8966 8967 8968 8969 8970 8971 8972 8973 8974 8975 8976 8977 8978 8979 8980 8981 8982 8983 8984 8985 8986 8987 8988 8989 8990 8991 8992 8993 8994 8995 8996 8997 8998 8999 9000 9001 9002 9003 9004 9005 9006 9007 9008 9009 9010 9011 9012 9013 9014 9015 9016 9017 9018 9019 9020 9021 9022 9023 9024 9025 9026 9027 9028 9029 9030 9031 9032 9033 9034 9035 9036 9037 9038 9039 9040 9041 9042 9043 9044 9045 9046 9047 9048 9049 9050 9051 9052 9053 9054 9055 9056 9057 9058 9059 9060 9061 9062 9063 9064 9065 9066 9067 9068 9069 9070 9071 9072 9073 9074 9075 9076 9077 9078 9079 9080 9081 9082 9083 9084 9085 9086 9087 9088 9089 9090 9091 9092 9093 9094 9095 9096 9097 9098 9099 9100 9101 9102 9103 9104 9105 9106 9107 9108 9109 9110 9111 9112 9113 9114 9115 9116 9117 9118 9119 9120 9121 9122 9123 9124 9125 9126 9127 9128 9129 9130 9131 9132 9133 9134 9135 9136 9137 9138 9139 9140 9141 9142 9143 9144 9145 9146 9147 9148 9149 9150 9151 9152 9153 9154 9155 9156 9157 9158 9159 9160 9161 9162 9163 9164 9165 9166 9167 9168 9169 9170 9171 9172 9173 9174 9175 9176 9177 9178 9179 9180 9181 9182 9183 9184 9185 9186 9187 9188 9189 9190 9191 9192 9193 9194 9195 9196 9197 9198 9199 9200 9201 9202 9203 9204 9205 9206 9207 9208 9209 9210 9211 9212 9213 9214 9215 9216 9217 9218 9219 9220 9221 9222 9223 9224 9225 9226 9227 9228 9229 9230 9231 9232 9233 9234 9235 9236 9237 9238 9239 9240 9241 9242 9243 9244 9245 9246 9247 9248 9249 9250 9251 9252 9253 9254 9255 9256 9257 9258 9259 9260 9261 9262 9263 9264 9265 9266 9267 9268 9269 9270 9271 9272 9273 9274 9275 9276 9277 9278 9279 9280 9281 9282 9283 9284 9285 9286 9287 9288 9289 9290 9291 9292 9293 9294 9295 9296 9297 9298 9299 9300 9301 9302 9303 9304 9305 9306 9307 9308 9309 9310 9311 9312 9313 9314 9315 9316 9317 9318 9319 9320 9321 9322 9323 9324 9325 9326 9327 9328 9329 9330 9331 9332 9333 9334 9335 9336 9337 9338 9339 9340 9341 9342 9343 9344 9345 9346 9347 9348 9349 9350 9351 9352 9353 9354 9355 9356 9357 9358 9359 9360 9361 9362 9363 9364 9365 9366 9367 9368 9369 9370 9371 9372 9373 9374 9375 9376 9377 9378 9379 9380 9381 9382 9383 9384 9385 9386 9387 9388 9389 9390 9391 9392 9393 9394 9395 9396 9397 9398 9399 9400 9401 9402 9403 9404 9405 9406 9407 9408 9409 9410 9411 9412 9413 9414 9415 9416 9417 9418 9419 9420 9421 9422 9423 9424 9425 9426 9427 9428 9429 9430 9431 9432 9433 9434 9435 9436 9437 9438 9439 9440 9441 9442 9443 9444 9445 9446 9447 9448 9449 9450 9451 9452 9453 9454 9455 9456 9457 9458 9459 9460 9461 9462 9463 9464 9465 9466 9467 9468 9469 9470 9471 9472 9473 9474 9475 9476 9477 9478 9479 9480 9481 9482 9483 9484 9485 9486 9487 9488 9489 9490 9491 9492 9493 9494 9495 9496 9497 9498 9499 9500 9501 9502 9503 9504 9505 9506 9507 9508 9509 9510 9511 9512 9513 9514 9515 9516 9517 9518 9519 9520 9521 9522 9523 9524 9525 9526 9527 9528 9529 9530 9531 9532 9533 9534 9535 9536 9537 9538 9539 9540 9541 9542 9543 9544 9545 9546 9547 9548 9549 9550 9551 9552 9553 9554 9555 9556 9557 9558 9559 9560 9561 9562 9563 9564 9565 9566 9567 9568 9569 9570 9571 9572 9573 9574 9575 9576 9577 9578 9579 9580 9581 9582 9583 9584 9585 9586 9587 9588 9589 9590 9591 9592 9593 9594 9595 9596 9597 9598 9599 9600 9601 9602 9603 9604 9605 9606 9607 9608 9609 9610 9611 9612 9613 9614 9615 9616 9617 9618 9619 9620 9621 9622 9623 9624 9625 9626 9627 9628 9629 9630 9631 9632 9633 9634 9635 9636 9637 9638 9639 9640 9641 9642 9643 9644 9645 9646 9647 9648 9649 9650 9651 9652 9653 9654 9655 9656 9657 9658 9659 9660 9661 9662 9663 9664 9665 9666 9667 9668 9669 9670 9671 9672 9673 9674 9675 9676 9677 9678 9679 9680 9681 9682 9683 9684 9685 9686 9687 9688 9689 9690 9691 9692 9693 9694 9695 9696 9697 9698 9699 9700 9701 9702 9703 9704 9705 9706 9707 9708 9709 9710 9711 9712 9713 9714 9715 9716 9717 9718 9719 9720 9721 9722 9723 9724 9725 9726 9727 9728 9729 9730 9731 9732 9733 9734 9735 9736 9737 9738 9739 9740 9741 9742 9743 9744 9745 9746 9747 9748 9749 9750 9751 9752 9753 9754 9755 9756 9757 9758 9759 9760 9761 9762 9763 9764 9765 9766 9767 9768 9769 9770 9771 9772 9773 9774 9775 9776 9777 9778 9779 9780 9781 9782 9783 9784 9785 9786 9787 9788 9789 9790 9791 9792 9793 9794 9795 9796 9797 9798 9799 9800 9801 9802 9803 9804 9805 9806 9807 9808 9809 9810 9811 9812 9813 9814 9815 9816 9817 9818 9819 9820 9821 9822 9823 9824 9825 9826 9827 9828 9829 9830 9831 9832 9833 9834 9835 9836 9837 9838 9839 9840 9841 9842 9843 9844 9845 9846 9847 9848 9849 9850 9851 9852 9853 9854 9855 9856 9857 9858 9859 9860 9861 9862 9863 9864 9865 9866 9867 9868 9869 9870 9871 9872 9873 9874 9875 9876 9877 9878 9879 9880 9881 9882 9883 9884 9885 9886 9887 9888 9889 9890 9891 9892 9893 9894 9895 9896 9897 9898 9899 9900 9901 9902 9903 9904 9905 9906 9907 9908 9909 9910 9911 9912 9913 9914 9915 9916 9917 9918 9919 9920 9921 9922 9923 9924 9925 9926 9927 9928 9929 9930 9931 9932 9933 9934 9935 9936 9937 9938 9939 9940 9941 9942 9943 9944 9945 9946 9947 9948 9949 9950 9951 9952 9953 9954 9955 9956 9957 9958 9959 9960 9961 9962 9963 9964 9965 9966 9967 9968 9969 9970 9971 9972 9973 9974 9975 9976 9977 9978 9979 9980 9981 9982 9983 9984 9985 9986 9987 9988 9989 9990 9991 9992 9993 9994 9995 9996 9997 9998 9999 10000 10001 10002 10003 10004 10005 10006 10007 10008 10009 10010 10011 10012 10013 10014 10015 10016 10017 10018 10019 10020 10021 10022 10023 10024 10025 10026 10027 10028 10029 10030 10031 10032 10033 10034 10035 10036 10037 10038 10039 10040 10041 10042 10043 10044 10045 10046 10047 10048 10049 10050 10051 10052 10053 10054 10055 10056 10057 10058 10059 10060 10061 10062 10063 10064 10065 10066 10067 10068 10069 10070 10071 10072 10073 10074 10075 10076 10077 10078 10079 10080 10081 10082 10083 10084 10085 10086 10087 10088 10089 10090 10091 10092 10093 10094 10095 10096 10097 10098 10099 10100 10101 10102 10103 10104 10105 10106 10107 10108 10109 10110 10111 10112 10113 10114 10115 10116 10117 10118 10119 10120 10121 10122 10123 10124 10125 10126 10127 10128 10129 10130 10131 10132 10133 10134 10135 10136 10137 10138 10139 10140 10141 10142 10143 10144 10145 10146 10147 10148 10149 10150 10151 10152 10153 10154 10155 10156 10157 10158 10159 10160 10161 10162 10163 10164 10165 10166 10167 10168 10169 10170 10171 10172 10173 10174 10175 10176 10177 10178 10179 10180 10181 10182 10183 10184 10185 10186 10187 10188 10189 10190 10191 10192 10193 10194 10195 10196 10197 10198 10199 10200 10201 10202 10203 10204 10205 10206 10207 10208 10209 10210 10211 10212 10213 10214 10215 10216 10217 10218 10219 10220 10221 10222 10223 10224 10225 10226 10227 10228 10229 10230 10231 10232 10233 10234 10235 10236 10237 10238 10239 10240 10241 10242 10243 10244 10245 10246 10247 10248 10249 10250 10251 10252 10253 10254 10255 10256 10257 10258 10259 10260 10261 10262 10263 10264 10265 10266 10267 10268 10269 10270 10271 10272 10273 10274 10275 10276 10277 10278 10279 10280 10281 10282 10283 10284 10285 10286 10287 10288 10289 10290 10291 10292 10293 10294 10295 10296 10297 10298 10299 10300 10301 10302 10303 10304 10305 10306 10307 10308 10309 10310 10311 10312 10313 10314 10315 10316 10317 10318 10319 10320 10321 10322 10323 10324 10325 10326 10327 10328 10329 10330 10331 10332 10333 10334 10335 10336 10337 10338 10339 10340 10341 10342 10343 10344 10345 10346 10347 10348 10349 10350 10351 10352 10353 10354 10355 10356 10357 10358 10359 10360 10361 10362 10363 10364 10365 10366 10367 10368 10369 10370 10371 10372 10373 10374 10375 10376 10377 10378 10379 10380 10381 10382 10383 10384 10385 10386 10387 10388 10389 10390 10391 10392 10393 10394 10395 10396 10397 10398 10399 10400 10401 10402 10403 10404 10405 10406 10407 10408 10409 10410 10411 10412 10413 10414 10415 10416 10417 10418 10419 10420 10421 10422 10423 10424 10425 10426 10427 10428 10429 10430 10431 10432 10433 10434 10435 10436 10437 10438 10439 10440 10441 10442 10443 10444 10445 10446 10447 10448 10449 10450 10451 10452 10453 10454 10455 10456 10457 10458 10459 10460 10461 10462 10463 10464 10465 10466 10467 10468 10469 10470 10471 10472 10473 10474 10475 10476 10477 10478 10479 10480 10481 10482 10483 10484 10485 10486 10487 10488 10489 10490 10491 10492 10493 10494 10495 10496 10497 10498 10499 10500 10501 10502 10503 10504 10505 10506 10507 10508 10509 10510 10511 10512 10513 10514 10515 10516 10517 10518 10519 10520 10521 10522 10523 10524 10525 10526 10527 10528 10529 10530 10531 10532 10533 10534 10535 10536 10537 10538 10539 10540 10541 10542 10543 10544 10545 10546 10547 10548 10549 10550 10551 10552 10553 10554 10555 10556 10557 10558 10559 10560 10561 10562 10563 10564 10565 10566 10567 10568 10569 10570 10571 10572 10573 10574 10575 10576 10577 10578 10579 10580 10581 10582 10583 10584 10585 10586 10587 10588 10589 10590 10591 10592 10593 10594 10595 10596 10597 10598 10599 10600 10601 10602 10603 10604 10605 10606 10607 10608 10609 10610 10611 10612 10613 10614 10615 10616 10617 10618 10619 10620 10621 10622 10623 10624 10625 10626 10627 10628 10629 10630 10631 10632 10633 10634 10635 10636 10637 10638 10639 10640 10641 10642 10643 10644 10645 10646 10647 10648 10649 10650 10651 10652 10653 10654 10655 10656 10657 10658 10659 10660 10661 10662 10663 10664 10665 10666 10667 10668 10669 10670 10671 10672 10673 10674 10675 10676 10677 10678 10679 10680 10681 10682 10683 10684 10685 10686 10687 10688 10689 10690 10691 10692 10693 10694 10695 10696 10697 10698 10699 10700 10701 10702 10703 10704 10705 10706 10707 10708 10709 10710 10711 10712 10713 10714 10715 10716 10717 10718 10719 10720 10721 10722 10723 10724 10725 10726 10727 10728 10729 10730 10731 10732 10733 10734 10735 10736 10737 10738 10739 10740 10741 10742 10743 10744 10745 10746 10747 10748 10749 10750 10751 10752 10753 10754 10755 10756 10757 10758 10759 10760 10761 10762 10763 10764 10765 10766 10767 10768 10769 10770 10771 10772 10773 10774 10775 10776 10777 10778 10779 10780 10781 10782 10783 10784 10785 10786 10787 10788 10789 10790 10791 10792 10793 10794 10795 10796 10797 10798 10799 10800 10801 10802 10803 10804 10805 10806 10807 10808 10809 10810 10811 10812 10813 10814 10815 10816 10817 10818 10819 10820 10821 10822 10823 10824 10825 10826 10827 10828 10829 10830 10831 10832 10833 10834 10835 10836 10837 10838 10839 10840 10841 10842 10843 10844 10845 10846 10847 10848 10849 10850 10851 10852 10853 10854 10855 10856 10857 10858 10859 10860 10861 10862 10863 10864 10865 10866 10867 10868 10869 10870 10871 10872 10873 10874 10875 10876 10877 10878 10879 10880 10881 10882 10883 10884 10885 10886 10887 10888 10889 10890 10891 10892 10893 10894 10895 10896 10897 10898 10899 10900 10901 10902 10903 10904 10905 10906 10907 10908 10909 10910 10911 10912 10913 10914 10915 10916 10917 10918 10919 10920 10921 10922 10923 10924 10925 10926 10927 10928 10929 10930 10931 10932 10933 10934 10935 10936 10937 10938 10939 10940 10941 10942 10943 10944 10945 10946 10947 10948 10949 10950 10951 10952 10953 10954 10955 10956 10957 10958 10959 10960 10961 10962 10963 10964 10965 10966 10967 10968 10969 10970 10971 10972 10973 10974 10975 10976 10977 10978 10979 10980 10981 10982 10983 10984 10985 10986 10987 10988 10989 10990 10991 10992 10993 10994 10995 10996 10997 10998 10999 11000 11001 11002 11003 11004 11005 11006 11007 11008 11009 11010 11011 11012 11013 11014 11015 11016 11017 11018 11019 11020 11021 11022 11023 11024 11025 11026 11027 11028 11029 11030 11031 11032 11033 11034 11035 11036 11037 11038 11039 11040 11041 11042 11043 11044 11045 11046 11047 11048 11049 11050 11051 11052 11053 11054 11055 11056 11057 11058 11059 11060 11061 11062 11063 11064 11065 11066 11067 11068 11069 11070 11071 11072 11073 11074 11075 11076 11077 11078 11079 11080 11081 11082 11083 11084 11085 11086 11087 11088 11089 11090 11091 11092 11093 11094 11095 11096 11097 11098 11099 11100 11101 11102 11103 11104 11105 11106 11107 11108 11109 11110 11111 11112 11113 11114 11115 11116 11117 11118 11119 11120 11121 11122 11123 11124 11125 11126 11127 11128 11129 11130 11131 11132 11133 11134 11135 11136 11137 11138 11139 11140 11141 11142 11143 11144 11145 11146 11147 11148 11149 11150 11151 11152 11153 11154 11155 11156 11157 11158 11159 11160 11161 11162 11163 11164 11165 11166 11167 11168 11169 11170 11171 11172 11173 11174 11175 11176 11177 11178 11179 11180 11181 11182 11183 11184 11185 11186 11187 11188 11189 11190 11191 11192 11193 11194 11195 11196 11197 11198 11199 11200 11201 11202 11203 11204 11205 11206 11207 11208 11209 11210 11211 11212 11213 11214 11215 11216 11217 11218 11219 11220 11221 11222 11223 11224 11225 11226 11227 11228 11229 11230 11231 11232 11233 11234 11235 11236 11237 11238 11239 11240 11241 11242 11243 11244 11245 11246 11247 11248 11249 11250 11251 11252 11253 11254 11255 11256 11257 11258 11259 11260 11261 11262 11263 11264 11265 11266 11267 11268 11269 11270 11271 11272 11273 11274 11275 11276 11277 11278 11279 11280 11281 11282 11283 11284 11285 11286 11287 11288 11289 11290 11291 11292 11293 11294 11295 11296 11297 11298 11299 11300 11301 11302 11303 11304 11305 11306 11307 11308 11309 11310 11311 11312 11313 11314 11315 11316 11317 11318 11319 11320 11321 11322 11323 11324 11325 11326 11327 11328 11329 11330 11331 11332 11333 11334 11335 11336 11337 11338 11339 11340 11341 11342 11343 11344 11345 11346 11347 11348 11349 11350 11351 11352 11353 11354 11355 11356 11357 11358 11359 11360 11361 11362 11363 11364 11365 11366 11367 11368 11369 11370 11371 11372 11373 11374 11375 11376 11377 11378 11379 11380 11381 11382 11383 11384 11385 11386 11387 11388 11389 11390 11391 11392 11393 11394 11395 11396 11397 11398 11399 11400 11401 11402 11403 11404 11405 11406 11407 11408 11409 11410 11411 11412 11413 11414 11415 11416 11417 11418 11419 11420 11421 11422 11423 11424 11425 11426 11427 11428 11429 11430 11431 11432 11433 11434 11435 11436 11437 11438 11439 11440 11441 11442 11443 11444 11445 11446 11447 11448 11449 11450 11451 11452 11453 11454 11455 11456 11457 11458 11459 11460 11461 11462 11463 11464 11465 11466 11467 11468 11469 11470 11471 11472 11473 11474 11475 11476 11477 11478 11479 11480 11481 11482 11483 11484 11485 11486 11487 11488 11489 11490 11491 11492 11493 11494 11495 11496 11497 11498 11499 11500 11501 11502 11503 11504 11505 11506 11507 11508 11509 11510 11511 11512 11513 11514 11515 11516 11517 11518 11519 11520 11521 11522 11523 11524 11525 11526 11527 11528 11529 11530 11531 11532 11533 11534 11535 11536 11537 11538 11539 11540 11541 11542 11543 11544 11545 11546 11547 11548 11549 11550 11551 11552 11553 11554 11555 11556 11557 11558 11559 11560 11561 11562 11563 11564 11565 11566 11567 11568 11569 11570 11571 11572 11573 11574 11575 11576 11577 11578 11579 11580 11581 11582 11583 11584 11585 11586 11587 11588 11589 11590 11591 11592 11593 11594 11595 11596 11597 11598 11599 11600 11601 11602 11603 11604 11605 11606 11607 11608 11609 11610 11611 11612 11613 11614 11615 11616 11617 11618 11619 11620 11621 11622 11623 11624 11625 11626 11627 11628 11629 11630 11631 11632 11633 11634 11635 11636 11637 11638 11639 11640 11641 11642 11643 11644 11645 11646 11647 11648 11649 11650 11651 11652 11653 11654 11655 11656 11657 11658 11659 11660 11661 11662 11663 11664 11665 11666 11667 11668 11669 11670 11671 11672 11673 11674 11675 11676 11677 11678 11679 11680 11681 11682 11683 11684 11685 11686 11687 11688 11689 11690 11691 11692 11693 11694 11695 11696 11697 11698 11699 11700 11701 11702 11703 11704 11705 11706 11707 11708 11709 11710 11711 11712 11713 11714 11715 11716 11717 11718 11719 11720 11721 11722 11723 11724 11725 11726 11727 11728 11729 11730 11731 11732 11733 11734 11735 11736 11737 11738 11739 11740 11741 11742 11743 11744 11745 11746 11747 11748 11749 11750 11751 11752 11753 11754 11755 11756 11757 11758 11759 11760 11761 11762 11763 11764 11765 11766 11767 11768 11769 11770 11771 11772 11773 11774 11775 11776 11777 11778 11779 11780 11781 11782 11783 11784 11785 11786 11787 11788 11789 11790 11791 11792 11793 11794 11795 11796 11797 11798 11799 11800 11801 11802 11803 11804 11805 11806 11807 11808 11809 11810 11811 11812 11813 11814 11815 11816 11817 11818 11819 11820 11821 11822 11823 11824 11825 11826 11827 11828 11829 11830 11831 11832 11833 11834 11835 11836 11837 11838 11839 11840 11841 11842 11843 11844 11845 11846 11847 11848 11849 11850 11851 11852 11853 11854 11855 11856 11857 11858 11859 11860 11861 11862 11863 11864 11865 11866 11867 11868 11869 11870 11871 11872 11873 11874 11875 11876 11877 11878 11879 11880 11881 11882 11883 11884 11885 11886 11887 11888 11889 11890 11891 11892 11893 11894 11895 11896 11897 11898 11899 11900 11901 11902 11903 11904 11905 11906 11907 11908 11909 11910 11911 11912 11913 11914 11915 11916 11917 11918 11919 11920 11921 11922 11923 11924 11925 11926 11927 11928 11929 11930 11931 11932 11933 11934 11935 11936 11937 11938 11939 11940 11941 11942 11943 11944 11945 11946 11947 11948 11949 11950 11951 11952 11953 11954 11955 11956 11957 11958 11959 11960 11961 11962 11963 11964 11965 11966 11967 11968 11969 11970 11971 11972 11973 11974 11975 11976 11977 11978 11979 11980 11981 11982 11983 11984 11985 11986 11987 11988 11989 11990 11991 11992 11993 11994 11995 11996 11997 11998 11999 12000 12001 12002 12003 12004 12005 12006 12007 12008 12009 12010 12011 12012 12013 12014 12015 12016 12017 12018 12019 12020 12021 12022 12023 12024 12025 12026 12027 12028 12029 12030 12031 12032 12033 12034 12035 12036 12037 12038 12039 12040 12041 12042 12043 12044 12045 12046 12047 12048 12049 12050 12051 12052 12053 12054 12055 12056 12057 12058 12059 12060 12061 12062 12063 12064 12065 12066 12067 12068 12069 12070 12071 12072 12073 12074 12075 12076 12077 12078 12079 12080 12081 12082 12083 12084 12085 12086 12087 12088 12089 12090 12091 12092 12093 12094 12095 12096 12097 12098 12099 12100 12101 12102 12103 12104 12105 12106 12107 12108 12109 12110 12111 12112 12113 12114 12115 12116 12117 12118 12119 12120 12121 12122 12123 12124 12125 12126 12127 12128 12129 12130 12131 12132 12133 12134 12135 12136 12137 12138 12139 12140 12141 12142 12143 12144 12145 12146 12147 12148 12149 12150 12151 12152 12153 12154 12155 12156 12157 12158 12159 12160 12161 12162 12163 12164 12165 12166 12167 12168 12169 12170 12171 12172 12173 12174 12175 12176 12177 12178 12179 12180 12181 12182 12183 12184 12185 12186 12187 12188 12189 12190 12191 12192 12193 12194 12195 12196 12197 12198 12199 12200 12201 12202 12203 12204 12205 12206 12207 12208 12209 12210 12211 12212 12213 12214 12215 12216 12217 12218 12219 12220 12221 12222 12223 12224 12225 12226 12227 12228 12229 12230 12231 12232 12233 12234 12235 12236 12237 12238 12239 12240 12241 12242 12243 12244 12245 12246 12247 12248 12249 12250 12251 12252 12253 12254 12255 12256 12257 12258 12259 12260 12261 12262 12263 12264 12265 12266 12267 12268 12269 12270 12271 12272 12273 12274 12275 12276 12277 12278 12279 12280 12281 12282 12283 12284 12285 12286 12287 12288 12289 12290 12291 12292 12293 12294 12295 12296 12297 12298 12299 12300 12301 12302 12303 12304 12305 12306 12307 12308 12309 12310 12311 12312 12313 12314 12315 12316 12317 12318 12319 12320 12321 12322 12323 12324 12325 12326 12327 12328 12329 12330 12331 12332 12333 12334 12335 12336 12337 12338 12339 12340 12341 12342 12343 12344 12345 12346 12347 12348 12349 12350 12351 12352 12353 12354 12355 12356 12357 12358 12359 12360 12361 12362 12363 12364 12365 12366 12367 12368 12369 12370 12371 12372 12373 12374 12375 12376 12377 12378 12379 12380 12381 12382 12383 12384 12385 12386 12387 12388 12389 12390 12391 12392 12393 12394 12395 12396 12397 12398 12399 12400 12401 12402 12403 12404 12405 12406 12407 12408 12409 12410 12411 12412 12413 12414 12415 12416 12417 12418 12419 12420 12421 12422 12423 12424 12425 12426 12427 12428 12429 12430 12431 12432 12433 12434 12435 12436 12437 12438 12439 12440 12441 12442 12443 12444 12445 12446 12447 12448 12449 12450 12451 12452 12453 12454 12455 12456 12457 12458 12459 12460 12461 12462 12463 12464 12465 12466 12467 12468 12469 12470 12471 12472 12473 12474 12475 12476 12477 12478 12479 12480 12481 12482 12483 12484 12485 12486 12487 12488 12489 12490 12491 12492 12493 12494 12495 12496 12497 12498 12499 12500 12501 12502 12503 12504 12505 12506 12507 12508 12509 12510 12511 12512 12513 12514 12515 12516 12517 12518 12519 12520 12521 12522 12523 12524 12525 12526 12527 12528 12529 12530 12531 12532 12533 12534 12535 12536 12537 12538 12539 12540 12541 12542 12543 12544 12545 12546 12547 12548 12549 12550 12551 12552 12553 12554 12555 12556 12557 12558 12559 12560 12561 12562 12563 12564 12565 12566 12567 12568 12569 12570 12571 12572 12573 12574 12575 12576 12577 12578 12579 12580 12581 12582 12583 12584 12585 12586 12587 12588 12589 12590 12591 12592 12593 12594 12595 12596 12597 12598 12599 12600 12601 12602 12603 12604 12605 12606 12607 12608 12609 12610 12611 12612 12613 12614 12615 12616 12617 12618 12619 12620 12621 12622 12623 12624 12625 12626 12627 12628 12629 12630 12631 12632 12633 12634 12635 12636 12637 12638 12639 12640 12641 12642 12643 12644 12645 12646 12647 12648 12649 12650 12651 12652 12653 12654 12655 12656 12657 12658 12659 12660 12661 12662 12663 12664 12665 12666 12667 12668 12669 12670 12671 12672 12673 12674 12675 12676 12677 12678 12679 12680 12681 12682 12683 12684 12685 12686 12687 12688 12689 12690 12691 12692 12693 12694 12695 12696 12697 12698 12699 12700 12701 12702 12703 12704 12705 12706 12707 12708 12709 12710 12711 12712 12713 12714 12715 12716 12717 12718 12719 12720 12721 12722 12723 12724 12725 12726 12727 12728 12729 12730 12731 12732 12733 12734 12735 12736 12737 12738 12739 12740 12741 12742 12743 12744 12745 12746 12747 12748 12749 12750 12751 12752 12753 12754 12755 12756 12757 12758 12759 12760 12761 12762 12763 12764 12765 12766 12767 12768 12769 12770 12771 12772 12773 12774 12775 12776 12777 12778 12779 12780 12781 12782 12783 12784 12785 12786 12787 12788 12789 12790 12791 12792 12793 12794 12795 12796 12797 12798 12799 12800 12801 12802 12803 12804 12805 12806 12807 12808 12809 12810 12811 12812 12813 12814 12815 12816 12817 12818 12819 12820 12821 12822 12823 12824 12825 12826 12827 12828 12829 12830 12831 12832 12833 12834 12835 12836 12837 12838 12839 12840 12841 12842 12843 12844 12845 12846 12847 12848 12849 12850 12851 12852 12853 12854 12855 12856 12857 12858 12859 12860 12861 12862 12863 12864 12865 12866 12867 12868 12869 12870 12871 12872 12873 12874 12875 12876 12877 12878 12879 12880 12881 12882 12883 12884 12885 12886 12887 12888 12889 12890 12891 12892 12893 12894 12895 12896 12897 12898 12899 12900 12901 12902 12903 12904 12905 12906 12907 12908 12909 12910 12911 12912 12913 12914 12915 12916 12917 12918 12919 12920 12921 12922 12923 12924 12925 12926 12927 12928 12929 12930 12931 12932 12933 12934 12935 12936 12937 12938 12939 12940 12941 12942 12943 12944 12945 12946 12947 12948 12949 12950 12951 12952 12953 12954 12955 12956 12957 12958 12959 12960 12961 12962 12963 12964 12965 12966 12967 12968 12969 12970 12971 12972 12973 12974 12975 12976 12977 12978 12979 12980 12981 12982 12983 12984 12985 12986 12987 12988 12989 12990 12991 12992 12993 12994 12995 12996 12997 12998 12999 13000 13001 13002 13003 13004 13005 13006 13007 13008 13009 13010 13011 13012 13013 13014 13015 13016 13017 13018 13019 13020 13021 13022 13023 13024 13025 13026 13027 13028 13029 13030 13031 13032 13033 13034 13035 13036 13037 13038 13039 13040 13041 13042 13043 13044 13045 13046 13047 13048 13049 13050 13051 13052 13053 13054 13055 13056 13057 13058 13059 13060 13061 13062 13063 13064 13065 13066 13067 13068 13069 13070 13071 13072 13073 13074 13075 13076 13077 13078 13079 13080 13081 13082 13083 13084 13085 13086 13087 13088 13089 13090 13091 13092 13093 13094 13095 13096 13097 13098 13099 13100 13101 13102 13103 13104 13105 13106 13107 13108 13109 13110 13111 13112 13113 13114 13115 13116 13117 13118 13119 13120 13121 13122 13123 13124 13125 13126 13127 13128 13129 13130 13131 13132 13133 13134 13135 13136 13137 13138 13139 13140 13141 13142 13143 13144 13145 13146 13147 13148 13149 13150 13151 13152 13153 13154 13155 13156 13157 13158 13159 13160 13161 13162 13163 13164 13165 13166 13167 13168 13169 13170 13171 13172 13173 13174 13175 13176 13177 13178 13179 13180 13181 13182 13183 13184 13185 13186 13187 13188 13189 13190 13191 13192 13193 13194 13195 13196 13197 13198 13199 13200 13201 13202 13203 13204 13205 13206 13207 13208 13209 13210 13211 13212 13213 13214 13215 13216 13217 13218 13219 13220 13221 13222 13223 13224 13225 13226 13227 13228 13229 13230 13231 13232 13233 13234 13235 13236 13237 13238 13239 13240 13241 13242 13243 13244 13245 13246 13247 13248 13249 13250 13251 13252 13253 13254 13255 13256 13257 13258 13259 13260 13261 13262 13263 13264 13265 13266 13267 13268 13269 13270 13271 13272 13273 13274 13275 13276 13277 13278 13279 13280 13281 13282 13283 13284 13285 13286 13287 13288 13289 13290 13291 13292 13293 13294 13295 13296 13297 13298 13299 13300 13301 13302 13303 13304 13305 13306 13307 13308 13309 13310 13311 13312 13313 13314 13315 13316 13317 13318 13319 13320 13321 13322 13323 13324 13325 13326 13327 13328 13329 13330 13331 13332 13333 13334 13335 13336 13337 13338 13339 13340 13341 13342 13343 13344 13345 13346 13347 13348 13349 13350 13351 13352 13353 13354 13355 13356 13357 13358 13359 13360 13361 13362 13363 13364 13365 13366 13367 13368 13369 13370 13371 13372 13373 13374 13375 13376 13377 13378 13379 13380 13381 13382 13383 13384 13385 13386 13387 13388 13389 13390 13391 13392 13393 13394 13395 13396 13397 13398 13399 13400 13401 13402 13403 13404 13405 13406 13407 13408 13409 13410 13411 13412 13413 13414 13415 13416 13417 13418 13419 13420 13421 13422 13423 13424 13425 13426 13427 13428 13429 13430 13431 13432 13433 13434 13435 13436 13437 13438 13439 13440 13441 13442 13443 13444 13445 13446 13447 13448 13449 13450 13451 13452 13453 13454 13455 13456 13457 13458 13459 13460 13461 13462 13463 13464 13465 13466 13467 13468 13469 13470 13471 13472 13473 13474 13475 13476 13477 13478 13479 13480 13481 13482 13483 13484 13485 13486 13487 13488 13489 13490 13491 13492 13493 13494 13495 13496 13497 13498 13499 13500 13501 13502 13503 13504 13505 13506 13507 13508 13509 13510 13511 13512 13513 13514 13515 13516 13517 13518 13519 13520 13521 13522 13523 13524 13525 13526 13527 13528 13529 13530 13531 13532 13533 13534 13535 13536 13537 13538 13539 13540 13541 13542 13543 13544 13545 13546 13547 13548 13549 13550 13551 13552 13553 13554 13555 13556 13557 13558 13559 13560 13561 13562 13563 13564 13565 13566 13567 13568 13569 13570 13571 13572 13573 13574 13575 13576 13577 13578 13579 13580 13581 13582 13583 13584 13585 13586 13587 13588 13589 13590 13591 13592 13593 13594 13595 13596 13597 13598 13599 13600 13601 13602 13603 13604 13605 13606 13607 13608 13609 13610 13611 13612 13613 13614 13615 13616 13617 13618 13619 13620 13621 13622 13623 13624 13625 13626 13627 13628 13629 13630 13631 13632 13633 13634 13635 13636 13637 13638 13639 13640 13641 13642 13643 13644 13645 13646 13647 13648 13649 13650 13651 13652 13653 13654 13655 13656 13657 13658 13659 13660 13661 13662 13663 13664 13665 13666 13667 13668 13669 13670 13671 13672 13673 13674 13675 13676 13677 13678 13679 13680 13681 13682 13683 13684 13685 13686 13687 13688 13689 13690 13691 13692 13693 13694 13695 13696 13697 13698 13699 13700 13701 13702 13703 13704 13705 13706 13707 13708 13709 13710 13711 13712 13713 13714 13715 13716 13717 13718 13719 13720 13721 13722 13723 13724 13725 13726 13727 13728 13729 13730 13731 13732 13733 13734 13735 13736 13737 13738 13739 13740 13741 13742 13743 13744 13745 13746 13747 13748 13749 13750 13751 13752 13753 13754 13755 13756 13757 13758 13759 13760 13761 13762 13763 13764 13765 13766 13767 13768 13769 13770 13771 13772 13773 13774 13775 13776 13777 13778 13779 13780 13781 13782 13783 13784 13785 13786 13787 13788 13789 13790 13791 13792 13793 13794 13795 13796 13797 13798 13799 13800 13801 13802 13803 13804 13805 13806 13807 13808 13809 13810 13811 13812 13813 13814 13815 13816 13817 13818 13819 13820 13821 13822 13823 13824 13825 13826 13827 13828 13829 13830 13831 13832 13833 13834 13835 13836 13837 13838 13839 13840 13841 13842 13843 13844 13845 13846 13847 13848 13849 13850 13851 13852 13853 13854 13855 13856 13857 13858 13859 13860 13861 13862 13863 13864 13865 13866 13867 13868 13869 13870 13871 13872 13873 13874 13875 13876 13877 13878 13879 13880 13881 13882 13883 13884 13885 13886 13887 13888 13889 13890 13891 13892 13893 13894 13895 13896 13897 13898 13899 13900 13901 13902 13903 13904 13905 13906 13907 13908 13909 13910 13911 13912 13913 13914 13915 13916 13917 13918 13919 13920 13921 13922 13923 13924 13925 13926 13927 13928 13929 13930 13931 13932 13933 13934 13935 13936 13937 13938 13939 13940 13941 13942 13943 13944 13945 13946 13947 13948 13949 13950 13951 13952 13953 13954 13955 13956 13957 13958 13959 13960 13961 13962 13963 13964 13965 13966 13967 13968 13969 13970 13971 13972 13973 13974 13975 13976 13977 13978 13979 13980 13981 13982 13983 13984 13985 13986 13987 13988 13989 13990 13991 13992 13993 13994 13995 13996 13997 13998 13999 14000 14001 14002 14003 14004 14005 14006 14007 14008 14009 14010 14011 14012 14013 14014 14015 14016 14017 14018 14019 14020 14021 14022 14023 14024 14025 14026 14027 14028 14029 14030 14031 14032 14033 14034 14035 14036 14037 14038 14039 14040 14041 14042 14043 14044 14045 14046 14047 14048 14049 14050 14051 14052 14053 14054 14055 14056 14057 14058 14059 14060 14061 14062 14063 14064 14065 14066 14067 14068 14069 14070 14071 14072 14073 14074 14075 14076 14077 14078 14079 14080 14081 14082 14083 14084 14085 14086 14087 14088 14089 14090 14091 14092 14093 14094 14095 14096 14097 14098 14099 14100 14101 14102 14103 14104 14105 14106 14107 14108 14109 14110 14111 14112 14113 14114 14115 14116 14117 14118 14119 14120 14121 14122 14123 14124 14125 14126 14127 14128 14129 14130 14131 14132 14133 14134 14135 14136 14137 14138 14139 14140 14141 14142 14143 14144 14145 14146 14147 14148 14149 14150 14151 14152 14153 14154 14155 14156 14157 14158 14159 14160 14161 14162 14163 14164 14165 14166 14167 14168 14169 14170 14171 14172 14173 14174 14175 14176 14177 14178 14179 14180 14181 14182 14183 14184 14185 14186 14187 14188 14189 14190 14191 14192 14193 14194 14195 14196 14197 14198 14199 14200 14201 14202 14203 14204 14205 14206 14207 14208 14209 14210 14211 14212 14213 14214 14215 14216 14217 14218 14219 14220 14221 14222 14223 14224 14225 14226 14227 14228 14229 14230 14231 14232 14233 14234 14235 14236 14237 14238 14239 14240 14241 14242 14243 14244 14245 14246 14247 14248 14249 14250 14251 14252 14253 14254 14255 14256 14257 14258 14259 14260 14261 14262 14263 14264 14265 14266 14267 14268 14269 14270 14271 14272 14273 14274 14275 14276 14277 14278 14279 14280 14281 14282 14283 14284 14285 14286 14287 14288 14289 14290 14291 14292 14293 14294 14295 14296 14297 14298 14299 14300 14301 14302 14303 14304 14305 14306 14307 14308 14309 14310 14311 14312 14313 14314 14315 14316 14317 14318 14319 14320 14321 14322 14323 14324 14325 14326 14327 14328 14329 14330 14331 14332 14333 14334 14335 14336 14337 14338 14339 14340 14341 14342 14343 14344 14345 14346 14347 14348 14349 14350 14351 14352 14353 14354 14355 14356 14357 14358 14359 14360 14361 14362 14363 14364 14365 14366 14367 14368 14369 14370 14371 14372 14373 14374 14375 14376 14377 14378 14379 14380 14381 14382 14383 14384 14385 14386 14387 14388 14389 14390 14391 14392 14393 14394 14395 14396 14397 14398 14399 14400 14401 14402 14403 14404 14405 14406 14407 14408 14409 14410 14411 14412 14413 14414 14415 14416 14417 14418 14419 14420 14421 14422 14423 14424 14425 14426 14427 14428 14429 14430 14431 14432 14433 14434 14435 14436 14437 14438 14439 14440 14441 14442 14443 14444 14445 14446 14447 14448 14449 14450 14451 14452 14453 14454 14455 14456 14457 14458 14459 14460 14461 14462 14463 14464 14465 14466 14467 14468 14469 14470 14471 14472 14473 14474 14475 14476 14477 14478 14479 14480 14481 14482 14483 14484 14485 14486 14487 14488 14489 14490 14491 14492 14493 14494 14495 14496 14497 14498 14499 14500 14501 14502 14503 14504 14505 14506 14507 14508 14509 14510 14511 14512 14513 14514 14515 14516 14517 14518 14519 14520 14521 14522 14523 14524 14525 14526 14527 14528 14529 14530 14531 14532 14533 14534 14535 14536 14537 14538 14539 14540 14541 14542 14543 14544 14545 14546 14547 14548 14549 14550 14551 14552 14553 14554 14555 14556 14557 14558 14559 14560 14561 14562 14563 14564 14565 14566 14567 14568 14569 14570 14571 14572 14573 14574 14575 14576 14577 14578 14579 14580 14581 14582 14583 14584 14585 14586 14587 14588 14589 14590 14591 14592 14593 14594 14595 14596 14597 14598 14599 14600 14601 14602 14603 14604 14605 14606 14607 14608 14609 14610 14611 14612 14613 14614 14615 14616 14617 14618 14619 14620 14621 14622 14623 14624 14625 14626 14627 14628 14629 14630 14631 14632 14633 14634 14635 14636 14637 14638 14639 14640 14641 14642 14643 14644 14645 14646 14647 14648 14649 14650 14651 14652 14653 14654 14655 14656 14657 14658 14659 14660 14661 14662 14663 14664 14665 14666 14667 14668 14669 14670 14671 14672 14673 14674 14675 14676 14677 14678 14679 14680 14681 14682 14683 14684 14685 14686 14687 14688 14689 14690 14691 14692 14693 14694 14695 14696 14697 14698 14699 14700 14701 14702 14703 14704 14705 14706 14707 14708 14709 14710 14711 14712 14713 14714 14715 14716 14717 14718 14719 14720 14721 14722 14723 14724 14725 14726 14727 14728 14729 14730 14731 14732 14733 14734 14735 14736 14737 14738 14739 14740 14741 14742 14743 14744 14745 14746 14747 14748 14749 14750 14751 14752 14753 14754 14755 14756 14757 14758 14759 14760 14761 14762 14763 14764 14765 14766 14767 14768 14769 14770 14771 14772 14773 14774 14775 14776 14777 14778 14779 14780 14781 14782 14783 14784 14785 14786 14787 14788 14789 14790 14791 14792 14793 14794 14795 14796 14797 14798 14799 14800 14801 14802 14803 14804 14805 14806 14807 14808 14809 14810 14811 14812 14813 14814 14815 14816 14817 14818 14819 14820 14821 14822 14823 14824 14825 14826 14827 14828 14829 14830 14831 14832 14833 14834 14835 14836 14837 14838 14839 14840 14841 14842 14843 14844 14845 14846 14847 14848 14849 14850 14851 14852 14853 14854 14855 14856 14857 14858 14859 14860 14861 14862 14863 14864 14865 14866 14867 14868 14869 14870 14871 14872 14873 14874 14875 14876 14877 14878 14879 14880 14881 14882 14883 14884 14885 14886 14887 14888 14889 14890 14891 14892 14893 14894 14895 14896 14897 14898 14899 14900 14901 14902 14903 14904 14905 14906 14907 14908 14909 14910 14911 14912 14913 14914 14915 14916 14917 14918 14919 14920 14921 14922 14923 14924 14925 14926 14927 14928 14929 14930 14931 14932 14933 14934 14935 14936 14937 14938 14939 14940 14941 14942 14943 14944 14945 14946 14947 14948 14949 14950 14951 14952 14953 14954 14955 14956 14957 14958 14959 14960 14961 14962 14963 14964 14965 14966 14967 14968 14969 14970 14971 14972 14973 14974 14975 14976 14977 14978 14979 14980 14981 14982 14983 14984 14985 14986 14987 14988 14989 14990 14991 14992 14993 14994 14995 14996 14997 14998 14999 15000 15001 15002 15003 15004 15005 15006 15007 15008 15009 15010 15011 15012 15013 15014 15015 15016 15017 15018 15019 15020 15021 15022 15023 15024 15025 15026 15027 15028 15029 15030 15031 15032 15033 15034 15035 15036 15037 15038 15039 15040 15041 15042 15043 15044 15045 15046 15047 15048 15049 15050 15051 15052 15053 15054 15055 15056 15057 15058 15059 15060 15061 15062 15063 15064 15065 15066 15067 15068 15069 15070 15071 15072 15073 15074 15075 15076 15077 15078 15079 15080 15081 15082 15083 15084 15085 15086 15087 15088 15089 15090 15091 15092 15093 15094 15095 15096 15097 15098 15099 15100 15101 15102 15103 15104 15105 15106 15107 15108 15109 15110 15111 15112 15113 15114 15115 15116 15117 15118 15119 15120 15121 15122 15123 15124 15125 15126 15127 15128 15129 15130 15131 15132 15133 15134 15135 15136 15137 15138 15139 15140 15141 15142 15143 15144 15145 15146 15147 15148 15149 15150 15151 15152 15153 15154 15155 15156 15157 15158 15159 15160 15161 15162 15163 15164 15165 15166 15167 15168 15169 15170 15171 15172 15173 15174 15175 15176 15177 15178 15179 15180 15181 15182 15183 15184 15185 15186 15187 15188 15189 15190 15191 15192 15193 15194 15195 15196 15197 15198 15199 15200 15201 15202 15203 15204 15205 15206 15207 15208 15209 15210 15211 15212 15213 15214 15215 15216 15217 15218 15219 15220 15221 15222 15223 15224 15225 15226 15227 15228 15229 15230 15231 15232 15233 15234 15235 15236 15237 15238 15239 15240 15241 15242 15243 15244 15245 15246 15247 15248 15249 15250 15251 15252 15253 15254 15255 15256 15257 15258 15259 15260 15261 15262 15263 15264 15265 15266 15267 15268 15269 15270 15271 15272 15273 15274 15275 15276 15277 15278 15279 15280 15281 15282 15283 15284 15285 15286 15287 15288 15289 15290 15291 15292 15293 15294 15295 15296 15297 15298 15299 15300 15301 15302 15303 15304 15305 15306 15307 15308 15309 15310 15311 15312 15313 15314 15315 15316 15317 15318 15319 15320 15321 15322 15323 15324 15325 15326 15327 15328 15329 15330 15331 15332 15333 15334 15335 15336 15337 15338 15339 15340 15341 15342 15343 15344 15345 15346 15347 15348 15349 15350 15351 15352 15353 15354 15355 15356 15357 15358 15359 15360 15361 15362 15363 15364 15365 15366 15367 15368 15369 15370 15371 15372 15373 15374 15375 15376 15377 15378 15379 15380 15381 15382 15383 15384 15385 15386 15387 15388 15389 15390 15391 15392 15393 15394 15395 15396 15397 15398 15399 15400 15401 15402 15403 15404 15405 15406 15407 15408 15409 15410 15411 15412 15413 15414 15415 15416 15417 15418 15419 15420 15421 15422 15423 15424 15425 15426 15427 15428 15429 15430 15431 15432 15433 15434 15435 15436 15437 15438 15439 15440 15441 15442 15443 15444 15445 15446 15447 15448 15449 15450 15451 15452 15453 15454 15455 15456 15457 15458 15459 15460 15461 15462 15463 15464 15465 15466 15467 15468 15469 15470 15471 15472 15473 15474 15475 15476 15477 15478 15479 15480 15481 15482 15483 15484 15485 15486 15487 15488 15489 15490 15491 15492 15493 15494 15495 15496 15497 15498 15499 15500 15501 15502 15503 15504 15505 15506 15507 15508 15509 15510 15511 15512 15513 15514 15515 15516 15517 15518 15519 15520 15521 15522 15523 15524 15525 15526 15527 15528 15529 15530 15531 15532 15533 15534 15535 15536 15537 15538 15539 15540 15541 15542 15543 15544 15545 15546 15547 15548 15549 15550 15551 15552 15553 15554 15555 15556 15557 15558 15559 15560 15561 15562 15563 15564 15565 15566 15567 15568 15569 15570 15571 15572 15573 15574 15575 15576 15577 15578 15579 15580 15581 15582 15583 15584 15585 15586 15587 15588 15589 15590 15591 15592 15593 15594 15595 15596 15597 15598 15599 15600 15601 15602 15603 15604 15605 15606 15607 15608 15609 15610 15611 15612 15613 15614 15615 15616 15617 15618 15619 15620 15621 15622 15623 15624 15625 15626 15627 15628 15629 15630 15631 15632 15633 15634 15635 15636 15637 15638 15639 15640 15641 15642 15643 15644 15645 15646 15647 15648 15649 15650 15651 15652 15653 15654 15655 15656 15657 15658 15659 15660 15661 15662 15663 15664 15665 15666 15667 15668 15669 15670 15671 15672 15673 15674 15675 15676 15677 15678 15679 15680 15681 15682 15683 15684 15685 15686 15687 15688 15689 15690 15691 15692 15693 15694 15695 15696 15697 15698 15699 15700 15701 15702 15703 15704 15705 15706 15707 15708 15709 15710 15711 15712 15713 15714 15715 15716 15717 15718 15719 15720 15721 15722 15723 15724 15725 15726 15727 15728 15729 15730 15731 15732 15733 15734 15735 15736 15737 15738 15739 15740 15741 15742 15743 15744 15745 15746 15747 15748 15749 15750 15751 15752 15753 15754 15755 15756 15757 15758 15759 15760 15761 15762 15763 15764 15765 15766 15767 15768 15769 15770 15771 15772 15773 15774 15775 15776 15777 15778 15779 15780 15781 15782 15783 15784 15785 15786 15787 15788 15789 15790 15791 15792 15793 15794 15795 15796 15797 15798 15799 15800 15801 15802 15803 15804 15805 15806 15807 15808 15809 15810 15811 15812 15813 15814 15815 15816 15817 15818 15819 15820 15821 15822 15823 15824 15825 15826 15827 15828 15829 15830 15831 15832 15833 15834 15835 15836 15837 15838 15839 15840 15841 15842 15843 15844 15845 15846 15847 15848 15849 15850 15851 15852 15853 15854 15855 15856 15857 15858 15859 15860 15861 15862 15863 15864 15865 15866 15867 15868 15869 15870 15871 15872 15873 15874 15875 15876 15877 15878 15879 15880 15881 15882 15883 15884 15885 15886 15887 15888 15889 15890 15891 15892 15893 15894 15895 15896 15897 15898 15899 15900 15901 15902 15903 15904 15905 15906 15907 15908 15909 15910 15911 15912 15913 15914 15915 15916 15917 15918 15919 15920 15921 15922 15923 15924 15925 15926 15927 15928 15929 15930 15931 15932 15933 15934 15935 15936 15937 15938 15939 15940 15941 15942 15943 15944 15945 15946 15947 15948 15949 15950 15951 15952 15953 15954 15955 15956 15957 15958 15959 15960 15961 15962 15963 15964 15965 15966 15967 15968 15969 15970 15971 15972 15973 15974 15975 15976 15977 15978 15979 15980 15981 15982 15983 15984 15985 15986 15987 15988 15989 15990 15991 15992 15993 15994 15995 15996 15997 15998 15999 16000 16001 16002 16003 16004 16005 16006 16007 16008 16009 16010 16011 16012 16013 16014 16015 16016 16017 16018 16019 16020 16021 16022 16023 16024 16025 16026 16027 16028 16029 16030 16031 16032 16033 16034 16035 16036 16037 16038 16039 16040 16041 16042 16043 16044 16045 16046 16047 16048 16049 16050 16051 16052 16053 16054 16055 16056 16057 16058 16059 16060 16061 16062 16063 16064 16065 16066 16067 16068 16069 16070 16071 16072 16073 16074 16075 16076 16077 16078 16079 16080 16081 16082 16083 16084 16085 16086 16087 16088 16089 16090 16091 16092 16093 16094 16095 16096 16097 16098 16099 16100 16101 16102 16103 16104 16105 16106 16107 16108 16109 16110 16111 16112 16113 16114 16115 16116 16117 16118 16119 16120 16121 16122 16123 16124 16125 16126 16127 16128 16129 16130 16131 16132 16133 16134 16135 16136 16137 16138 16139 16140 16141 16142 16143 16144 16145 16146 16147 16148 16149 16150 16151 16152 16153 16154 16155 16156 16157 16158 16159 16160 16161 16162 16163 16164 16165 16166 16167 16168 16169 16170 16171 16172 16173 16174 16175 16176 16177 16178 16179 16180 16181 16182 16183 16184 16185 16186 16187 16188 16189 16190 16191 16192 16193 16194 16195 16196 16197 16198 16199 16200 16201 16202 16203 16204 16205 16206 16207 16208 16209 16210 16211 16212 16213 16214 16215 16216 16217 16218 16219 16220 16221 16222 16223 16224 16225 16226 16227 16228 16229 16230 16231 16232 16233 16234 16235 16236 16237 16238 16239 16240 16241 16242 16243 16244 16245 16246 16247 16248 16249 16250 16251 16252 16253 16254 16255 16256 16257 16258 16259 16260 16261 16262 16263 16264 16265 16266 16267 16268 16269 16270 16271 16272 16273 16274 16275 16276 16277 16278 16279 16280 16281 16282 16283 16284 16285 16286 16287 16288 16289 16290 16291 16292 16293 16294 16295 16296 16297 16298 16299 16300 16301 16302 16303 16304 16305 16306 16307 16308 16309 16310 16311 16312 16313 16314 16315 16316 16317 16318 16319 16320 16321 16322 16323 16324 16325 16326 16327 16328 16329 16330 16331 16332 16333 16334 16335 16336 16337 16338 16339 16340 16341 16342 16343 16344 16345 16346 16347 16348 16349 16350 16351 16352 16353 16354 16355 16356 16357 16358 16359 16360 16361 16362 16363 16364 16365 16366 16367 16368 16369 16370 16371 16372 16373 16374 16375 16376 16377 16378 16379 16380 16381 16382 16383 16384 16385 16386 16387 16388 16389 16390 16391 16392 16393 16394 16395 16396 16397 16398 16399 16400 16401 16402 16403 16404 16405 16406 16407 16408 16409 16410 16411 16412 16413 16414 16415 16416 16417 16418 16419 16420 16421 16422 16423 16424 16425 16426 16427 16428 16429 16430 16431 16432 16433 16434 16435 16436 16437 16438 16439 16440 16441 16442 16443 16444 16445 16446 16447 16448 16449 16450 16451 16452 16453 16454 16455 16456 16457 16458 16459 16460 16461 16462 16463 16464 16465 16466 16467 16468 16469 16470 16471 16472 16473 16474 16475 16476 16477 16478 16479 16480 16481 16482 16483 16484 16485 16486 16487 16488 16489 16490 16491 16492 16493 16494 16495 16496 16497 16498 16499 16500 16501 16502 16503 16504 16505 16506 16507 16508 16509 16510 16511 16512 16513 16514 16515 16516 16517 16518 16519 16520 16521 16522 16523 16524 16525 16526 16527 16528 16529 16530 16531 16532 16533 16534 16535 16536 16537 16538 16539 16540 16541 16542 16543 16544 16545 16546 16547 16548 16549 16550 16551 16552 16553 16554 16555 16556 16557 16558 16559 16560 16561 16562 16563 16564 16565 16566 16567 16568 16569 16570 16571 16572 16573 16574 16575 16576 16577 16578 16579 16580 16581 16582 16583 16584 16585 16586 16587 16588 16589 16590 16591 16592 16593 16594 16595 16596 16597 16598 16599 16600 16601 16602 16603 16604 16605 16606 16607 16608 16609 16610 16611 16612 16613 16614 16615 16616 16617 16618 16619 16620 16621 16622 16623 16624 16625 16626 16627 16628 16629 16630 16631 16632 16633 16634 16635 16636 16637 16638 16639 16640 16641 16642 16643 16644 16645 16646 16647 16648 16649 16650 16651 16652 16653 16654 16655 16656 16657 16658 16659 16660 16661 16662 16663 16664 16665 16666 16667 16668 16669 16670 16671 16672 16673 16674 16675 16676 16677 16678 16679 16680 16681 16682 16683 16684 16685 16686 16687 16688 16689 16690 16691 16692 16693 16694 16695 16696 16697 16698 16699 16700 16701 16702 16703 16704 16705 16706 16707 16708 16709 16710 16711 16712 16713 16714 16715 16716 16717 16718 16719 16720 16721 16722 16723 16724 16725 16726 16727 16728 16729 16730 16731 16732 16733 16734 16735 16736 16737 16738 16739 16740 16741 16742 16743 16744 16745 16746 16747 16748 16749 16750 16751 16752 16753 16754 16755 16756 16757 16758 16759 16760 16761 16762 16763 16764 16765 16766 16767 16768 16769 16770 16771 16772 16773 16774 16775 16776 16777 16778 16779 16780 16781 16782 16783 16784 16785 16786 16787 16788 16789 16790 16791 16792 16793 16794 16795 16796 16797 16798 16799 16800 16801 16802 16803 16804 16805 16806 16807 16808 16809 16810 16811 16812 16813 16814 16815 16816 16817 16818 16819 16820 16821 16822 16823 16824 16825 16826 16827 16828 16829 16830 16831 16832 16833 16834 16835 16836 16837 16838 16839 16840 16841 16842 16843 16844 16845 16846 16847 16848 16849 16850 16851 16852 16853 16854 16855 16856 16857 16858 16859 16860 16861 16862 16863 16864 16865 16866 16867 16868 16869 16870 16871 16872 16873 16874 16875 16876 16877 16878 16879 16880 16881 16882 16883 16884 16885 16886 16887 16888 16889 16890 16891 16892 16893 16894 16895 16896 16897 16898 16899 16900 16901 16902 16903 16904 16905 16906 16907 16908 16909 16910 16911 16912 16913 16914 16915 16916 16917 16918 16919 16920 16921 16922 16923 16924 16925 16926 16927 16928 16929 16930 16931 16932 16933 16934 16935 16936 16937 16938 16939 16940 16941 16942 16943 16944 16945 16946 16947 16948 16949 16950 16951 16952 16953 16954 16955 16956 16957 16958 16959 16960 16961 16962 16963 16964 16965 16966 16967 16968 16969 16970 16971 16972 16973 16974 16975 16976 16977 16978 16979 16980 16981 16982 16983 16984 16985 16986 16987 16988 16989 16990 16991 16992 16993 16994 16995 16996 16997 16998 16999 17000 17001 17002 17003 17004 17005 17006 17007 17008 17009 17010 17011 17012 17013 17014 17015 17016 17017 17018 17019 17020 17021 17022 17023 17024 17025 17026 17027 17028 17029 17030 17031 17032 17033 17034 17035 17036 17037 17038 17039 17040 17041 17042 17043 17044 17045 17046 17047 17048 17049 17050 17051 17052 17053 17054 17055 17056 17057 17058 17059 17060 17061 17062 17063 17064 17065 17066 17067 17068 17069 17070 17071 17072 17073 17074 17075 17076 17077 17078 17079 17080 17081 17082 17083 17084 17085 17086 17087 17088 17089 17090 17091 17092 17093 17094 17095 17096 17097 17098 17099 17100 17101 17102 17103 17104 17105 17106 17107 17108 17109 17110 17111 17112 17113 17114 17115 17116 17117 17118 17119 17120 17121 17122 17123 17124 17125 17126 17127 17128 17129 17130 17131 17132 17133 17134 17135 17136 17137 17138 17139 17140 17141 17142 17143 17144 17145 17146 17147 17148 17149 17150 17151 17152 17153 17154 17155 17156 17157 17158 17159 17160 17161 17162 17163 17164 17165 17166 17167 17168 17169 17170 17171 17172 17173 17174 17175 17176 17177 17178 17179 17180 17181 17182 17183 17184 17185 17186 17187 17188 17189 17190 17191 17192 17193 17194 17195 17196 17197 17198 17199 17200 17201 17202 17203 17204 17205 17206 17207 17208 17209 17210 17211 17212 17213 17214 17215 17216 17217 17218 17219 17220 17221 17222 17223 17224 17225 17226 17227 17228 17229 17230 17231 17232 17233 17234 17235 17236 17237 17238 17239 17240 17241 17242 17243 17244 17245 17246 17247 17248 17249 17250 17251 17252 17253 17254 17255 17256 17257 17258 17259 17260 17261 17262 17263 17264 17265 17266 17267 17268 17269 17270 17271 17272 17273 17274 17275 17276 17277 17278 17279 17280 17281 17282 17283 17284 17285 17286 17287 17288 17289 17290 17291 17292 17293 17294 17295 17296 17297 17298 17299 17300 17301 17302 17303 17304 17305 17306 17307 17308 17309 17310 17311 17312 17313 17314 17315 17316 17317 17318 17319 17320 17321 17322 17323 17324 17325 17326 17327 17328 17329 17330 17331 17332 17333 17334 17335 17336 17337 17338 17339 17340 17341 17342 17343 17344 17345 17346 17347 17348 17349 17350 17351 17352 17353 17354 17355 17356 17357 17358 17359 17360 17361 17362 17363 17364 17365 17366 17367 17368 17369 17370 17371 17372 17373 17374 17375 17376 17377 17378 17379 17380 17381 17382 17383 17384 17385 17386 17387 17388 17389 17390 17391 17392 17393 17394 17395 17396 17397 17398 17399 17400 17401 17402 17403 17404 17405 17406 17407 17408 17409 17410 17411 17412 17413 17414 17415 17416 17417 17418 17419 17420 17421 17422 17423 17424 17425 17426 17427 17428 17429 17430 17431 17432 17433 17434 17435 17436 17437 17438 17439 17440 17441 17442 17443 17444 17445 17446 17447 17448 17449 17450 17451 17452 17453 17454 17455 17456 17457 17458 17459 17460 17461 17462 17463 17464 17465 17466 17467 17468 17469 17470 17471 17472 17473 17474 17475 17476 17477 17478 17479 17480 17481 17482 17483 17484 17485 17486 17487 17488 17489 17490 17491 17492 17493 17494 17495 17496 17497 17498 17499 17500 17501 17502 17503 17504 17505 17506 17507 17508 17509 17510 17511 17512 17513 17514 17515 17516 17517 17518 17519 17520 17521 17522 17523 17524 17525 17526 17527 17528 17529 17530 17531 17532 17533 17534 17535 17536 17537 17538 17539 17540 17541 17542 17543 17544 17545 17546 17547 17548 17549 17550 17551 17552 17553 17554 17555 17556 17557 17558 17559 17560 17561 17562 17563 17564 17565 17566 17567 17568 17569 17570 17571 17572 17573 17574 17575 17576 17577 17578 17579 17580 17581 17582 17583 17584 17585 17586 17587 17588 17589 17590 17591 17592 17593 17594 17595 17596 17597 17598 17599 17600 17601 17602 17603 17604 17605 17606 17607 17608 17609 17610 17611 17612 17613 17614 17615 17616 17617 17618 17619 17620 17621 17622 17623 17624 17625 17626 17627 17628 17629 17630 17631 17632 17633 17634 17635 17636 17637 17638 17639 17640 17641 17642 17643 17644 17645 17646 17647 17648 17649 17650 17651 17652 17653 17654 17655 17656 17657 17658 17659 17660 17661 17662 17663 17664 17665 17666 17667 17668 17669 17670 17671 17672 17673 17674 17675 17676 17677 17678 17679 17680 17681 17682 17683 17684 17685 17686 17687 17688 17689 17690 17691 17692 17693 17694 17695 17696 17697 17698 17699 17700 17701 17702 17703 17704 17705 17706 17707 17708 17709 17710 17711 17712 17713 17714 17715 17716 17717 17718 17719 17720 17721 17722 17723 17724 17725 17726 17727 17728 17729 17730 17731 17732 17733 17734 17735 17736 17737 17738 17739 17740 17741 17742 17743 17744 17745 17746 17747 17748 17749 17750 17751 17752 17753 17754 17755 17756 17757 17758 17759 17760 17761 17762 17763 17764 17765 17766 17767 17768 17769 17770 17771 17772 17773 17774 17775 17776 17777 17778 17779 17780 17781 17782 17783 17784 17785 17786 17787 17788 17789 17790 17791 17792 17793 17794 17795 17796 17797 17798 17799 17800 17801 17802 17803 17804 17805 17806 17807 17808 17809 17810 17811 17812 17813 17814 17815 17816 17817 17818 17819 17820 17821 17822 17823 17824 17825 17826 17827 17828 17829 17830 17831 17832 17833 17834 17835 17836 17837 17838 17839 17840 17841 17842 17843 17844 17845 17846 17847 17848 17849 17850 17851 17852 17853 17854 17855 17856 17857 17858 17859 17860 17861 17862 17863 17864 17865 17866 17867 17868 17869 17870 17871 17872 17873 17874 17875 17876 17877 17878 17879 17880 17881 17882 17883 17884 17885 17886 17887 17888 17889 17890 17891 17892 17893 17894 17895 17896 17897 17898 17899 17900 17901 17902 17903 17904 17905 17906 17907 17908 17909 17910 17911 17912 17913 17914 17915 17916 17917 17918 17919 17920 17921 17922 17923 17924 17925 17926 17927 17928 17929 17930 17931 17932 17933 17934 17935 17936 17937 17938 17939 17940 17941 17942 17943 17944 17945 17946 17947 17948 17949 17950 17951 17952 17953 17954 17955 17956 17957 17958 17959 17960 17961 17962 17963 17964 17965 17966 17967 17968 17969 17970 17971 17972 17973 17974 17975 17976 17977 17978 17979 17980 17981 17982 17983 17984 17985 17986 17987 17988 17989 17990 17991 17992 17993 17994 17995 17996 17997 17998 17999 18000 18001 18002 18003 18004 18005 18006 18007 18008 18009 18010 18011 18012 18013 18014 18015 18016 18017 18018 18019 18020 18021 18022 18023 18024 18025 18026 18027 18028 18029 18030 18031 18032 18033 18034 18035 18036 18037 18038 18039 18040 18041 18042 18043 18044 18045 18046 18047 18048 18049 18050 18051 18052 18053 18054 18055 18056 18057 18058 18059 18060 18061 18062 18063 18064 18065 18066 18067 18068 18069 18070 18071 18072 18073 18074 18075 18076 18077 18078 18079 18080 18081 18082 18083 18084 18085 18086 18087 18088 18089 18090 18091 18092 18093 18094 18095 18096 18097 18098 18099 18100 18101 18102 18103 18104 18105 18106 18107 18108 18109 18110 18111 18112 18113 18114 18115 18116 18117 18118 18119 18120 18121 18122 18123 18124 18125 18126 18127 18128 18129 18130 18131 18132 18133 18134 18135 18136 18137 18138 18139 18140 18141 18142 18143 18144 18145 18146 18147 18148 18149 18150 18151 18152 18153 18154 18155 18156 18157 18158 18159 18160 18161 18162 18163 18164 18165 18166 18167 18168 18169 18170 18171 18172 18173 18174 18175 18176 18177 18178 18179 18180 18181 18182 18183 18184 18185 18186 18187 18188 18189 18190 18191 18192 18193 18194 18195 18196 18197 18198 18199 18200 18201 18202 18203 18204 18205 18206 18207 18208 18209 18210 18211 18212 18213 18214 18215 18216 18217 18218 18219 18220 18221 18222 18223 18224 18225 18226 18227 18228 18229 18230 18231 18232 18233 18234 18235 18236 18237 18238 18239 18240 18241 18242 18243 18244 18245 18246 18247 18248 18249 18250 18251 18252 18253 18254 18255 18256 18257 18258 18259 18260 18261 18262 18263 18264 18265 18266 18267 18268 18269 18270 18271 18272 18273 18274 18275 18276 18277 18278 18279 18280 18281 18282 18283 18284 18285 18286 18287 18288 18289 18290 18291 18292 18293 18294 18295 18296 18297 18298 18299 18300 18301 18302 18303 18304 18305 18306 18307 18308 18309 18310 18311 18312 18313 18314 18315 18316 18317 18318 18319 18320 18321 18322 18323 18324 18325 18326 18327 18328 18329 18330 18331 18332 18333 18334 18335 18336 18337 18338 18339 18340 18341 18342 18343 18344 18345 18346 18347 18348 18349 18350 18351 18352 18353 18354 18355 18356 18357 18358 18359 18360 18361 18362 18363 18364 18365 18366 18367 18368 18369 18370 18371 18372 18373 18374 18375 18376 18377 18378 18379 18380 18381 18382 18383 18384 18385 18386 18387 18388 18389 18390 18391 18392 18393 18394 18395 18396 18397 18398 18399 18400 18401 18402 18403 18404 18405 18406 18407 18408 18409 18410 18411 18412 18413 18414 18415 18416 18417 18418 18419 18420 18421 18422 18423 18424 18425 18426 18427 18428 18429 18430 18431 18432 18433 18434 18435 18436 18437 18438 18439 18440 18441 18442 18443 18444 18445 18446 18447 18448 18449 18450 18451 18452 18453 18454 18455 18456 18457 18458 18459 18460 18461 18462 18463 18464 18465 18466 18467 18468 18469 18470 18471 18472 18473 18474 18475 18476 18477 18478 18479 18480 18481 18482 18483 18484 18485 18486 18487 18488 18489 18490 18491 18492 18493 18494 18495 18496 18497 18498 18499 18500 18501 18502 18503 18504 18505 18506 18507 18508 18509 18510 18511 18512 18513 18514 18515 18516 18517 18518 18519 18520 18521 18522 18523 18524 18525 18526 18527 18528 18529 18530 18531 18532 18533 18534 18535 18536 18537 18538 18539 18540 18541 18542 18543 18544 18545 18546 18547 18548 18549 18550 18551 18552 18553 18554 18555 18556 18557 18558 18559 18560 18561 18562 18563 18564 18565 18566 18567 18568 18569 18570 18571 18572 18573 18574 18575 18576 18577 18578 18579 18580 18581 18582 18583 18584 18585 18586 18587 18588 18589 18590 18591 18592 18593 18594 18595 18596 18597 18598 18599 18600 18601 18602 18603 18604 18605 18606 18607 18608 18609 18610 18611 18612 18613 18614 18615 18616 18617 18618 18619 18620 18621 18622 18623 18624 18625 18626 18627 18628 18629 18630 18631 18632 18633 18634 18635 18636 18637 18638 18639 18640 18641 18642 18643 18644 18645 18646 18647 18648 18649 18650 18651 18652 18653 18654 18655 18656 18657 18658 18659 18660 18661 18662 18663 18664 18665 18666 18667 18668 18669 18670 18671 18672 18673 18674 18675 18676 18677 18678 18679 18680 18681 18682 18683 18684 18685 18686 18687 18688 18689 18690 18691 18692 18693 18694 18695 18696 18697 18698 18699 18700 18701 18702 18703 18704 18705 18706 18707 18708 18709 18710 18711 18712 18713 18714 18715 18716 18717 18718 18719 18720 18721 18722 18723 18724 18725 18726 18727 18728 18729 18730 18731 18732 18733 18734 18735 18736 18737 18738 18739 18740 18741 18742 18743 18744 18745 18746 18747 18748 18749 18750 18751 18752 18753 18754 18755 18756 18757 18758 18759 18760 18761 18762 18763 18764 18765 18766 18767 18768 18769 18770 18771 18772 18773 18774 18775 18776 18777 18778 18779 18780 18781 18782 18783 18784 18785 18786 18787 18788 18789 18790 18791 18792 18793 18794 18795 18796 18797 18798 18799 18800 18801 18802 18803 18804 18805 18806 18807 18808 18809 18810 18811 18812 18813 18814 18815 18816 18817 18818 18819 18820 18821 18822 18823 18824 18825 18826 18827 18828 18829 18830 18831 18832 18833 18834 18835 18836 18837 18838 18839 18840 18841 18842 18843 18844 18845 18846 18847 18848 18849 18850 18851 18852 18853 18854 18855 18856 18857 18858 18859 18860 18861 18862 18863 18864 18865 18866 18867 18868 18869 18870 18871 18872 18873 18874 18875 18876 18877 18878 18879 18880 18881 18882 18883 18884 18885 18886 18887 18888 18889 18890 18891 18892 18893 18894 18895 18896 18897 18898 18899 18900 18901 18902 18903 18904 18905 18906 18907 18908 18909 18910 18911 18912 18913 18914 18915 18916 18917 18918 18919 18920 18921 18922 18923 18924 18925 18926 18927 18928 18929 18930 18931 18932 18933 18934 18935 18936 18937 18938 18939 18940 18941 18942 18943 18944 18945 18946 18947 18948 18949 18950 18951 18952 18953 18954 18955 18956 18957 18958 18959 18960 18961 18962 18963 18964 18965 18966 18967 18968 18969 18970 18971 18972 18973 18974 18975 18976 18977 18978 18979 18980 18981 18982 18983 18984 18985 18986 18987 18988 18989 18990 18991 18992 18993 18994 18995 18996 18997 18998 18999 19000 19001 19002 19003 19004 19005 19006 19007 19008 19009 19010 19011 19012 19013 19014 19015 19016 19017 19018 19019 19020 19021 19022 19023 19024 19025 19026 19027 19028 19029 19030 19031 19032 19033 19034 19035 19036 19037 19038 19039 19040 19041 19042 19043 19044 19045 19046 19047 19048 19049 19050 19051 19052 19053 19054 19055 19056 19057 19058 19059 19060 19061 19062 19063 19064 19065 19066 19067 19068 19069 19070 19071 19072 19073 19074 19075 19076 19077 19078 19079 19080 19081 19082 19083 19084 19085 19086 19087 19088 19089 19090 19091 19092 19093 19094 19095 19096 19097 19098 19099 19100 19101 19102 19103 19104 19105 19106 19107 19108 19109 19110 19111 19112 19113 19114 19115 19116 19117 19118 19119 19120 19121 19122 19123 19124 19125 19126 19127 19128 19129 19130 19131 19132 19133 19134 19135 19136 19137 19138 19139 19140 19141 19142 19143 19144 19145 19146 19147 19148 19149 19150 19151 19152 19153 19154 19155 19156 19157 19158 19159 19160 19161 19162 19163 19164 19165 19166 19167 19168 19169 19170 19171 19172 19173 19174 19175 19176 19177 19178 19179 19180 19181 19182 19183 19184 19185 19186 19187 19188 19189 19190 19191 19192 19193 19194 19195 19196 19197 19198 19199 19200 19201 19202 19203 19204 19205 19206 19207 19208 19209 19210 19211 19212 19213 19214 19215 19216 19217 19218 19219 19220 19221 19222 19223 19224 19225 19226 19227 19228 19229 19230 19231 19232 19233 19234 19235 19236 19237 19238 19239 19240 19241 19242 19243 19244 19245 19246 19247 19248 19249 19250 19251 19252 19253 19254 19255 19256 19257 19258 19259 19260 19261 19262 19263 19264 19265 19266 19267 19268 19269 19270 19271 19272 19273 19274 19275 19276 19277 19278 19279 19280 19281 19282 19283 19284 19285 19286 19287 19288 19289 19290 19291 19292 19293 19294 19295 19296 19297 19298 19299 19300 19301 19302 19303 19304 19305 19306 19307 19308 19309 19310 19311 19312 19313 19314 19315 19316 19317 19318 19319 19320 19321 19322 19323 19324 19325 19326 19327 19328 19329 19330 19331 19332 19333 19334 19335 19336 19337 19338 19339 19340 19341 19342 19343 19344 19345 19346 19347 19348 19349 19350 19351 19352 19353 19354 19355 19356 19357 19358 19359 19360 19361 19362 19363 19364 19365 19366 19367 19368 19369 19370 19371 19372 19373 19374 19375 19376 19377 19378 19379 19380 19381 19382 19383 19384 19385 19386 19387 19388 19389 19390 19391 19392 19393 19394 19395 19396 19397 19398 19399 19400 19401 19402 19403 19404 19405 19406 19407 19408 19409 19410 19411 19412 19413 19414 19415 19416 19417 19418 19419 19420 19421 19422 19423 19424 19425 19426 19427 19428 19429 19430 19431 19432 19433 19434 19435 19436 19437 19438 19439 19440 19441 19442 19443 19444 19445 19446 19447 19448 19449 19450 19451 19452 19453 19454 19455 19456 19457 19458 19459 19460 19461 19462 19463 19464 19465 19466 19467 19468 19469 19470 19471 19472 19473 19474 19475 19476 19477 19478 19479 19480 19481 19482 19483 19484 19485 19486 19487 19488 19489 19490 19491 19492 19493 19494 19495 19496 19497 19498 19499 19500 19501 19502 19503 19504 19505 19506 19507 19508 19509 19510 19511 19512 19513 19514 19515 19516 19517 19518 19519 19520 19521 19522 19523 19524 19525 19526 19527 19528 19529 19530 19531 19532 19533 19534 19535 19536 19537 19538 19539 19540 19541 19542 19543 19544 19545 19546 19547 19548 19549 19550 19551 19552 19553 19554 19555 19556 19557 19558 19559 19560 19561 19562 19563 19564 19565 19566 19567 19568 19569 19570 19571 19572 19573 19574 19575 19576 19577 19578 19579 19580 19581 19582 19583 19584 19585 19586 19587 19588 19589 19590 19591 19592 19593 19594 19595 19596 19597 19598 19599 19600 19601 19602 19603 19604 19605 19606 19607 19608 19609 19610 19611 19612 19613 19614 19615 19616 19617 19618 19619 19620 19621 19622 19623 19624 19625 19626 19627 19628 19629 19630 19631 19632 19633 19634 19635 19636 19637 19638 19639 19640 19641 19642 19643 19644 19645 19646 19647 19648 19649 19650 19651 19652 19653 19654 19655 19656 19657 19658 19659 19660 19661 19662 19663 19664 19665 19666 19667 19668 19669 19670 19671 19672 19673 19674 19675 19676 19677 19678 19679 19680 19681 19682 19683 19684 19685 19686 19687 19688 19689 19690 19691 19692 19693 19694 19695 19696 19697 19698 19699 19700 19701 19702 19703 19704 19705 19706 19707 19708 19709 19710 19711 19712 19713 19714 19715 19716 19717 19718 19719 19720 19721 19722 19723 19724 19725 19726 19727 19728 19729 19730 19731 19732 19733 19734 19735 19736 19737 19738 19739 19740 19741 19742 19743 19744 19745 19746 19747 19748 19749 19750 19751 19752 19753 19754 19755 19756 19757 19758 19759 19760 19761 19762 19763 19764 19765 19766 19767 19768 19769 19770 19771 19772 19773 19774 19775 19776 19777 19778 19779 19780 19781 19782 19783 19784 19785 19786 19787 19788 19789 19790 19791 19792 19793 19794 19795 19796 19797 19798 19799 19800 19801 19802 19803 19804 19805 19806 19807 19808 19809 19810 19811 19812 19813 19814 19815 19816 19817 19818 19819 19820 19821 19822 19823 19824 19825 19826 19827 19828 19829 19830 19831 19832 19833 19834 19835 19836 19837 19838 19839 19840 19841 19842 19843 19844 19845 19846 19847 19848 19849 19850 19851 19852 19853 19854 19855 19856 19857 19858 19859 19860 19861 19862 19863 19864 19865 19866 19867 19868 19869 19870 19871 19872 19873 19874 19875 19876 19877 19878 19879 19880 19881 19882 19883 19884 19885 19886 19887 19888 19889 19890 19891 19892 19893 19894 19895 19896 19897 19898 19899 19900 19901 19902 19903 19904 19905 19906 19907 19908 19909 19910 19911 19912 19913 19914 19915 19916 19917 19918 19919 19920 19921 19922 19923 19924 19925 19926 19927 19928 19929 19930 19931 19932 19933 19934 19935 19936 19937 19938 19939 19940 19941 19942 19943 19944 19945 19946 19947 19948 19949 19950 19951 19952 19953 19954 19955 19956 19957 19958 19959 19960 19961 19962 19963 19964 19965 19966 19967 19968 19969 19970 19971 19972 19973 19974 19975 19976 19977 19978 19979 19980 19981 19982 19983 19984 19985 19986 19987 19988 19989 19990 19991 19992 19993 19994 19995 19996 19997 19998 19999 20000 20001 20002 20003 20004 20005 20006 20007 20008 20009 20010 20011 20012 20013 20014 20015 20016 20017 20018 20019 20020 20021 20022 20023 20024 20025 20026 20027 20028 20029 20030 20031 20032 20033 20034 20035 20036 20037 20038 20039 20040 20041 20042 20043 20044 20045 20046 20047 20048 20049 20050 20051 20052 20053 20054 20055 20056 20057 20058 20059 20060 20061 20062 20063 20064 20065 20066 20067 20068 20069 20070 20071 20072 20073 20074 20075 20076 20077 20078 20079 20080 20081 20082 20083 20084 20085 20086 20087 20088 20089 20090 20091 20092 20093 20094 20095 20096 20097 20098 20099 20100 20101 20102 20103 20104 20105 20106 20107 20108 20109 20110 20111 20112 20113 20114 20115 20116 20117 20118 20119 20120 20121 20122 20123 20124 20125 20126 20127 20128 20129 20130 20131 20132 20133 20134 20135 20136 20137 20138 20139 20140 20141 20142 20143 20144 20145 20146 20147 20148 20149 20150 20151 20152 20153 20154 20155 20156 20157 20158 20159 20160 20161 20162 20163 20164 20165 20166 20167 20168 20169 20170 20171 20172 20173 20174 20175 20176 20177 20178 20179 20180 20181 20182 20183 20184 20185 20186 20187 20188 20189 20190 20191 20192 20193 20194 20195 20196 20197 20198 20199 20200 20201 20202 20203 20204 20205 20206 20207 20208 20209 20210 20211 20212 20213 20214 20215 20216 20217 20218 20219 20220 20221 20222 20223 20224 20225 20226 20227 20228 20229 20230 20231 20232 20233 20234 20235 20236 20237 20238 20239 20240 20241 20242 20243 20244 20245 20246 20247 20248 20249 20250 20251 20252 20253 20254 20255 20256 20257 20258 20259 20260 20261 20262 20263 20264 20265 20266 20267 20268 20269 20270 20271 20272 20273 20274 20275 20276 20277 20278 20279 20280 20281 20282 20283 20284 20285 20286 20287 20288 20289 20290 20291 20292 20293 20294 20295 20296 20297 20298 20299 20300 20301 20302 20303 20304 20305 20306 20307 20308 20309 20310 20311 20312 20313 20314 20315 20316 20317 20318 20319 20320 20321 20322 20323 20324 20325 20326 20327 20328 20329 20330 20331 20332 20333 20334 20335 20336 20337 20338 20339 20340 20341 20342 20343 20344 20345 20346 20347 20348 20349 20350 20351 20352 20353 20354 20355 20356 20357 20358 20359 20360 20361 20362 20363 20364 20365 20366 20367 20368 20369 20370 20371 20372 20373 20374 20375 20376 20377 20378 20379 20380 20381 20382 20383 20384 20385 20386 20387 20388 20389 20390 20391 20392 20393 20394 20395 20396 20397 20398 20399 20400 20401 20402 20403 20404 20405 20406 20407 20408 20409 20410 20411 20412 20413 20414 20415 20416 20417 20418 20419 20420 20421 20422 20423 20424 20425 20426 20427 20428 20429 20430 20431 20432 20433 20434 20435 20436 20437 20438 20439 20440 20441 20442 20443 20444 20445 20446 20447 20448 20449 20450 20451 20452 20453 20454 20455 20456 20457 20458 20459 20460 20461 20462 20463 20464 20465 20466 20467 20468 20469 20470 20471 20472 20473 20474 20475 20476 20477 20478 20479 20480 20481 20482 20483 20484 20485 20486 20487 20488 20489 20490 20491 20492 20493 20494 20495 20496 20497 20498 20499 20500 20501 20502 20503 20504 20505 20506 20507 20508 20509 20510 20511 20512 20513 20514 20515 20516 20517 20518 20519 20520 20521 20522 20523 20524 20525 20526 20527 20528 20529 20530 20531 20532 20533 20534 20535 20536 20537 20538 20539 20540 20541 20542 20543 20544 20545 20546 20547 20548 20549 20550 20551 20552 20553 20554 20555 20556 20557 20558 20559 20560 20561 20562 20563 20564 20565 20566 20567 20568 20569 20570 20571 20572 20573 20574 20575 20576 20577 20578 20579 20580 20581 20582 20583 20584 20585 20586 20587 20588 20589 20590 20591 20592 20593 20594 20595 20596 20597 20598 20599 20600 20601 20602 20603 20604 20605 20606 20607 20608 20609 20610 20611 20612 20613 20614 20615 20616 20617 20618 20619 20620 20621 20622 20623 20624 20625 20626 20627 20628 20629 20630 20631 20632 20633 20634 20635 20636 20637 20638 20639 20640 20641 20642 20643 20644 20645 20646 20647 20648 20649 20650 20651 20652 20653 20654 20655 20656 20657 20658 20659 20660 20661 20662 20663 20664 20665 20666 20667 20668 20669 20670 20671 20672 20673 20674 20675 20676 20677 20678 20679 20680 20681 20682 20683 20684 20685 20686 20687 20688 20689 20690 20691 20692 20693 20694 20695 20696 20697 20698 20699 20700 20701 20702 20703 20704 20705 20706 20707 20708 20709 20710 20711 20712 20713 20714 20715 20716 20717 20718 20719 20720 20721 20722 20723 20724 20725 20726 20727 20728 20729 20730 20731 20732 20733 20734 20735 20736 20737 20738 20739 20740 20741 20742 20743 20744 20745 20746 20747 20748 20749 20750 20751 20752 20753 20754 20755 20756 20757 20758 20759 20760 20761 20762 20763 20764 20765 20766 20767 20768 20769 20770 20771 20772 20773 20774 20775 20776 20777 20778 20779 20780 20781 20782 20783 20784 20785 20786 20787 20788 20789 20790 20791 20792 20793 20794 20795 20796 20797 20798 20799 20800 20801 20802 20803 20804 20805 20806 20807 20808 20809 20810 20811 20812 20813 20814 20815 20816 20817 20818 20819 20820 20821 20822 20823 20824 20825 20826 20827 20828 20829 20830 20831 20832 20833 20834 20835 20836 20837 20838 20839 20840 20841 20842 20843 20844 20845 20846 20847 20848 20849 20850 20851 20852 20853 20854 20855 20856 20857 20858 20859 20860 20861 20862 20863 20864 20865 20866 20867 20868 20869 20870 20871 20872 20873 20874 20875 20876 20877 20878 20879 20880 20881 20882 20883 20884 20885 20886 20887 20888 20889 20890 20891 20892 20893 20894 20895 20896 20897 20898 20899 20900 20901 20902 20903 20904 20905 20906 20907 20908 20909 20910 20911 20912 20913 20914 20915 20916 20917 20918 20919 20920 20921 20922 20923 20924 20925 20926 20927 20928 20929 20930 20931 20932 20933 20934 20935 20936 20937 20938 20939 20940 20941 20942 20943 20944 20945 20946 20947 20948 20949 20950 20951 20952 20953 20954 20955 20956 20957 20958 20959 20960 20961 20962 20963 20964 20965 20966 20967 20968 20969 20970 20971 20972 20973 20974 20975 20976 20977 20978 20979 20980 20981 20982 20983 20984 20985 20986 20987 20988 20989 20990 20991 20992 20993 20994 20995 20996 20997 20998 20999 21000 21001 21002 21003 21004 21005 21006 21007 21008 21009 21010 21011 21012 21013 21014 21015 21016 21017 21018 21019 21020 21021 21022 21023 21024 21025 21026 21027 21028 21029 21030 21031 21032 21033 21034 21035 21036 21037 21038 21039 21040 21041 21042 21043 21044 21045 21046 21047 21048 21049 21050 21051 21052 21053 21054 21055 21056 21057 21058 21059 21060 21061 21062 21063 21064 21065 21066 21067 21068 21069 21070 21071 21072 21073 21074 21075 21076 21077 21078 21079 21080 21081 21082 21083 21084 21085 21086 21087 21088 21089 21090 21091 21092 21093 21094 21095 21096 21097 21098 21099 21100 21101 21102 21103 21104 21105 21106 21107 21108 21109 21110 21111 21112 21113 21114 21115 21116 21117 21118 21119 21120 21121 21122 21123 21124 21125 21126 21127 21128 21129 21130 21131 21132 21133 21134 21135 21136 21137 21138 21139 21140 21141 21142 21143 21144 21145 21146 21147 21148 21149 21150 21151 21152 21153 21154 21155 21156 21157 21158 21159 21160 21161 21162 21163 21164 21165 21166 21167 21168 21169 21170 21171 21172 21173 21174 21175 21176 21177 21178 21179 21180 21181 21182 21183 21184 21185 21186 21187 21188 21189 21190 21191 21192 21193 21194 21195 21196 21197 21198 21199 21200 21201 21202 21203 21204 21205 21206 21207 21208 21209 21210 21211 21212 21213 21214 21215 21216 21217 21218 21219 21220 21221 21222 21223 21224 21225 21226 21227 21228 21229 21230 21231 21232 21233 21234 21235 21236 21237 21238 21239 21240 21241 21242 21243 21244 21245 21246 21247 21248 21249 21250 21251 21252 21253 21254 21255 21256 21257 21258 21259 21260 21261 21262 21263 21264 21265 21266 21267 21268 21269 21270 21271 21272 21273 21274 21275 21276 21277 21278 21279 21280 21281 21282 21283 21284 21285 21286 21287 21288 21289 21290 21291 21292 21293 21294 21295 21296 21297 21298 21299 21300 21301 21302 21303 21304 21305 21306 21307 21308 21309 21310 21311 21312 21313 21314 21315 21316 21317 21318 21319 21320 21321 21322 21323 21324 21325 21326 21327 21328 21329 21330 21331 21332 21333 21334 21335 21336 21337 21338 21339 21340 21341 21342 21343 21344 21345 21346 21347 21348 21349 21350 21351 21352 21353 21354 21355 21356 21357 21358 21359 21360 21361 21362 21363 21364 21365 21366 21367 21368 21369 21370 21371 21372 21373 21374 21375 21376 21377 21378 21379 21380 21381 21382 21383 21384 21385 21386 21387 21388 21389 21390 21391 21392 21393 21394 21395 21396 21397 21398 21399 21400 21401 21402 21403 21404 21405 21406 21407 21408 21409 21410 21411 21412 21413 21414 21415 21416 21417 21418 21419 21420 21421 21422 21423 21424 21425 21426 21427 21428 21429 21430 21431 21432 21433 21434 21435 21436 21437 21438 21439 21440 21441 21442 21443 21444 21445 21446 21447 21448 21449 21450 21451 21452 21453 21454 21455 21456 21457 21458 21459 21460 21461 21462 21463 21464 21465 21466 21467 21468 21469 21470 21471 21472 21473 21474 21475 21476 21477 21478 21479 21480 21481 21482 21483 21484 21485 21486 21487 21488 21489 21490 21491 21492 21493 21494 21495 21496 21497 21498 21499 21500 21501 21502 21503 21504 21505 21506 21507 21508 21509 21510 21511 21512 21513 21514 21515 21516 21517 21518 21519 21520 21521 21522 21523 21524 21525 21526 21527 21528 21529 21530 21531 21532 21533 21534 21535 21536 21537 21538 21539 21540 21541 21542 21543 21544 21545 21546 21547 21548 21549 21550 21551 21552 21553 21554 21555 21556 21557 21558 21559 21560 21561 21562 21563 21564 21565 21566 21567 21568 21569 21570 21571 21572 21573 21574 21575 21576 21577 21578 21579 21580 21581 21582 21583 21584 21585 21586 21587 21588 21589 21590 21591 21592 21593 21594 21595 21596 21597 21598 21599 21600 21601 21602 21603 21604 21605 21606 21607 21608 21609 21610 21611 21612 21613 21614 21615 21616 21617 21618 21619 21620 21621 21622 21623 21624 21625 21626 21627 21628 21629 21630 21631 21632 21633 21634 21635 21636 21637 21638 21639 21640 21641 21642 21643 21644 21645 21646 21647 21648 21649 21650 21651 21652 21653 21654 21655 21656 21657 21658 21659 21660 21661 21662 21663 21664 21665 21666 21667 21668 21669 21670 21671 21672 21673 21674 21675 21676 21677 21678 21679 21680 21681 21682 21683 21684 21685 21686 21687 21688 21689 21690 21691 21692 21693 21694 21695 21696 21697 21698 21699 21700 21701 21702 21703 21704 21705 21706 21707 21708 21709 21710 21711 21712 21713 21714 21715 21716 21717 21718 21719 21720 21721 21722 21723 21724 21725 21726 21727 21728 21729 21730 21731 21732 21733 21734 21735 21736 21737 21738 21739 21740 21741 21742 21743 21744 21745 21746 21747 21748 21749 21750 21751 21752 21753 21754 21755 21756 21757 21758 21759 21760 21761 21762 21763 21764 21765 21766 21767 21768 21769 21770 21771 21772 21773 21774 21775 21776 21777 21778 21779 21780 21781 21782 21783 21784 21785 21786 21787 21788 21789 21790 21791 21792 21793 21794 21795 21796 21797 21798 21799 21800 21801 21802 21803 21804 21805 21806 21807 21808 21809 21810 21811 21812 21813 21814 21815 21816 21817 21818 21819 21820 21821 21822 21823 21824 21825 21826 21827 21828 21829 21830 21831 21832 21833 21834 21835 21836 21837 21838 21839 21840 21841 21842 21843 21844 21845 21846 21847 21848 21849 21850 21851 21852 21853 21854 21855 21856 21857 21858 21859 21860 21861 21862 21863 21864 21865 21866 21867 21868 21869 21870 21871 21872 21873 21874 21875 21876 21877 21878 21879 21880 21881 21882 21883 21884 21885 21886 21887 21888 21889 21890 21891 21892 21893 21894 21895 21896 21897 21898 21899 21900 21901 21902 21903 21904 21905 21906 21907 21908 21909 21910 21911 21912 21913 21914 21915 21916 21917 21918 21919 21920 21921 21922 21923 21924 21925 21926 21927 21928 21929 21930 21931 21932 21933 21934 21935 21936 21937 21938 21939 21940 21941 21942 21943 21944 21945 21946 21947 21948 21949 21950 21951 21952 21953 21954 21955 21956 21957 21958 21959 21960 21961 21962 21963 21964 21965 21966 21967 21968 21969 21970 21971 21972 21973 21974 21975 21976 21977 21978 21979 21980 21981 21982 21983 21984 21985 21986 21987 21988 21989 21990 21991 21992 21993 21994 21995 21996 21997 21998 21999 22000 22001 22002 22003 22004 22005 22006 22007 22008 22009 22010 22011 22012 22013 22014 22015 22016 22017 22018 22019 22020 22021 22022 22023 22024 22025 22026 22027 22028 22029 22030 22031 22032 22033 22034 22035 22036 22037 22038 22039 22040 22041 22042 22043 22044 22045 22046 22047 22048 22049 22050 22051 22052 22053 22054 22055 22056 22057 22058 22059 22060 22061 22062 22063 22064 22065 22066 22067 22068 22069 22070 22071 22072 22073 22074 22075 22076 22077 22078 22079 22080 22081 22082 22083 22084 22085 22086 22087 22088 22089 22090 22091 22092 22093 22094 22095 22096 22097 22098 22099 22100 22101 22102 22103 22104 22105 22106 22107 22108 22109 22110 22111 22112 22113 22114 22115 22116 22117 22118 22119 22120 22121 22122 22123 22124 22125 22126 22127 22128 22129 22130 22131 22132 22133 22134 22135 22136 22137 22138 22139 22140 22141 22142 22143 22144 22145 22146 22147 22148 22149 22150 22151 22152 22153 22154 22155 22156 22157 22158 22159 22160 22161 22162 22163 22164 22165 22166 22167 22168 22169 22170 22171 22172 22173 22174 22175 22176 22177 22178 22179 22180 22181 22182 22183 22184 22185 22186 22187 22188 22189 22190 22191 22192 22193 22194 22195 22196 22197 22198 22199 22200 22201 22202 22203 22204 22205 22206 22207 22208 22209 22210 22211 22212 22213 22214 22215 22216 22217 22218 22219 22220 22221 22222 22223 22224 22225 22226 22227 22228 22229 22230 22231 22232 22233 22234 22235 22236 22237 22238 22239 22240 22241 22242 22243 22244 22245 22246 22247 22248 22249 22250 22251 22252 22253 22254 22255 22256 22257 22258 22259 22260 22261 22262 22263 22264 22265 22266 22267 22268 22269 22270 22271 22272 22273 22274 22275 22276 22277 22278 22279 22280 22281 22282 22283 22284 22285 22286 22287 22288 22289 22290 22291 22292 22293 22294 22295 22296 22297 22298 22299 22300 22301 22302 22303 22304 22305 22306 22307 22308 22309 22310 22311 22312 22313 22314 22315 22316 22317 22318 22319 22320 22321 22322 22323 22324 22325 22326 22327 22328 22329 22330 22331 22332 22333 22334 22335 22336 22337 22338 22339 22340 22341 22342 22343 22344 22345 22346 22347 22348 22349 22350 22351 22352 22353 22354 22355 22356 22357 22358 22359 22360 22361 22362 22363 22364 22365 22366 22367 22368 22369 22370 22371 22372 22373 22374 22375 22376 22377 22378 22379 22380 22381 22382 22383 22384 22385 22386 22387 22388 22389 22390 22391 22392 22393 22394 22395 22396 22397 22398 22399 22400 22401 22402 22403 22404 22405 22406 22407 22408 22409 22410 22411 22412 22413 22414 22415 22416 22417 22418 22419 22420 22421 22422 22423 22424 22425 22426 22427 22428 22429 22430 22431 22432 22433 22434 22435 22436 22437 22438 22439 22440 22441 22442 22443 22444 22445 22446 22447 22448 22449 22450 22451 22452 22453 22454 22455 22456 22457 22458 22459 22460 22461 22462 22463 22464 22465 22466 22467 22468 22469 22470 22471 22472 22473 22474 22475 22476 22477 22478 22479 22480 22481 22482 22483 22484 22485 22486 22487 22488 22489 22490 22491 22492 22493 22494 22495 22496 22497 22498 22499 22500 22501 22502 22503 22504 22505 22506 22507 22508 22509 22510 22511 22512 22513 22514 22515 22516 22517 22518 22519 22520 22521 22522 22523 22524 22525 22526 22527 22528 22529 22530 22531 22532 22533 22534 22535 22536 22537 22538 22539 22540 22541 22542 22543 22544 22545 22546 22547 22548 22549 22550 22551 22552 22553 22554 22555 22556 22557 22558 22559 22560 22561 22562 22563 22564 22565 22566 22567 22568 22569 22570 22571 22572 22573 22574 22575 22576 22577 22578 22579 22580 22581 22582 22583 22584 22585 22586 22587 22588 22589 22590 22591 22592 22593 22594 22595 22596 22597 22598 22599 22600 22601 22602 22603 22604 22605 22606 22607 22608 22609 22610 22611 22612 22613 22614 22615 22616 22617 22618 22619 22620 22621 22622 22623 22624 22625 22626 22627 22628 22629 22630 22631 22632 22633 22634 22635 22636 22637 22638 22639 22640 22641 22642 22643 22644 22645 22646 22647 22648 22649 22650 22651 22652 22653 22654 22655 22656 22657 22658 22659 22660 22661 22662 22663 22664 22665 22666 22667 22668 22669 22670 22671 22672 22673 22674 22675 22676 22677 22678 22679 22680 22681 22682 22683 22684 22685 22686 22687 22688 22689 22690 22691 22692 22693 22694 22695 22696 22697 22698 22699 22700 22701 22702 22703 22704 22705 22706 22707 22708 22709 22710 22711 22712 22713 22714 22715 22716 22717 22718 22719 22720 22721 22722 22723 22724 22725 22726 22727 22728 22729 22730 22731 22732 22733 22734 22735 22736 22737 22738 22739 22740 22741 22742 22743 22744 22745 22746 22747 22748 22749 22750 22751 22752 22753 22754 22755 22756 22757 22758 22759 22760 22761 22762 22763 22764 22765 22766 22767 22768 22769 22770 22771 22772 22773 22774 22775 22776 22777 22778 22779 22780 22781 22782 22783 22784 22785 22786 22787 22788 22789 22790 22791 22792 22793 22794 22795 22796 22797 22798 22799 22800 22801 22802 22803 22804 22805 22806 22807 22808 22809 22810 22811 22812 22813 22814 22815 22816 22817 22818 22819 22820 22821 22822 22823 22824 22825 22826 22827 22828 22829 22830 22831 22832 22833 22834 22835 22836 22837 22838 22839 22840 22841 22842 22843 22844 22845 22846 22847 22848 22849 22850 22851 22852 22853 22854 22855 22856 22857 22858 22859 22860 22861 22862 22863 22864 22865 22866 22867 22868 22869 22870 22871 22872 22873 22874 22875 22876 22877 22878 22879 22880 22881 22882 22883 22884 22885 22886 22887 22888 22889 22890 22891 22892 22893 22894 22895 22896 22897 22898 22899 22900 22901 22902 22903 22904 22905 22906 22907 22908 22909 22910 22911 22912 22913 22914 22915 22916 22917 22918 22919 22920 22921 22922 22923 22924 22925 22926 22927 22928 22929 22930 22931 22932 22933 22934 22935 22936 22937 22938 22939 22940 22941 22942 22943 22944 22945 22946 22947 22948 22949 22950 22951 22952 22953 22954 22955 22956 22957 22958 22959 22960 22961 22962 22963 22964 22965 22966 22967 22968 22969 22970 22971 22972 22973 22974 22975 22976 22977 22978 22979 22980 22981 22982 22983 22984 22985 22986 22987 22988 22989 22990 22991 22992 22993 22994 22995 22996 22997 22998 22999 23000 23001 23002 23003 23004 23005 23006 23007 23008 23009 23010 23011 23012 23013 23014 23015 23016 23017 23018 23019 23020 23021 23022 23023 23024 23025 23026 23027 23028 23029 23030 23031 23032 23033 23034 23035 23036 23037 23038 23039 23040 23041 23042 23043 23044 23045 23046 23047 23048 23049 23050 23051 23052 23053 23054 23055 23056 23057 23058 23059 23060 23061 23062 23063 23064 23065 23066 23067 23068 23069 23070 23071 23072 23073 23074 23075 23076 23077 23078 23079 23080 23081 23082 23083 23084 23085 23086 23087 23088 23089 23090 23091 23092 23093 23094 23095 23096 23097 23098 23099 23100 23101 23102 23103 23104 23105 23106 23107 23108 23109 23110 23111 23112 23113 23114 23115 23116 23117 23118 23119 23120 23121 23122 23123 23124 23125 23126 23127 23128 23129 23130 23131 23132 23133 23134 23135 23136 23137 23138 23139 23140 23141 23142 23143 23144 23145 23146 23147 23148 23149 23150 23151 23152 23153 23154 23155 23156 23157 23158 23159 23160 23161 23162 23163 23164 23165 23166 23167 23168 23169 23170 23171 23172 23173 23174 23175 23176 23177 23178 23179 23180 23181 23182 23183 23184 23185 23186 23187 23188 23189 23190 23191 23192 23193 23194 23195 23196 23197 23198 23199 23200 23201 23202 23203 23204 23205 23206 23207 23208 23209 23210 23211 23212 23213 23214 23215 23216 23217 23218 23219 23220 23221 23222 23223 23224 23225 23226 23227 23228 23229 23230 23231 23232 23233 23234 23235 23236 23237 23238 23239 23240 23241 23242 23243 23244 23245 23246 23247 23248 23249 23250 23251 23252 23253 23254 23255 23256 23257 23258 23259 23260 23261 23262 23263 23264 23265 23266 23267 23268 23269 23270 23271 23272 23273 23274 23275 23276 23277 23278 23279 23280 23281 23282 23283 23284 23285 23286 23287 23288 23289 23290 23291 23292 23293 23294 23295 23296 23297 23298 23299 23300 23301 23302 23303 23304 23305 23306 23307 23308 23309 23310 23311 23312 23313 23314 23315 23316 23317 23318 23319 23320 23321 23322 23323 23324 23325 23326 23327 23328 23329 23330 23331 23332 23333 23334 23335 23336 23337 23338 23339 23340 23341 23342 23343 23344 23345 23346 23347 23348 23349 23350 23351 23352 23353 23354 23355 23356 23357 23358 23359 23360 23361 23362 23363 23364 23365 23366 23367 23368 23369 23370 23371 23372 23373 23374 23375 23376 23377 23378 23379 23380 23381 23382 23383 23384 23385 23386 23387 23388 23389 23390 23391 23392 23393 23394 23395 23396 23397 23398 23399 23400 23401 23402 23403 23404 23405 23406 23407 23408 23409 23410 23411 23412 23413 23414 23415 23416 23417 23418 23419 23420 23421 23422 23423 23424 23425 23426 23427 23428 23429 23430 23431 23432 23433 23434 23435 23436 23437 23438 23439 23440 23441 23442 23443 23444 23445 23446 23447 23448 23449 23450 23451 23452 23453 23454 23455 23456 23457 23458 23459 23460 23461 23462 23463 23464 23465 23466 23467 23468 23469 23470 23471 23472 23473 23474 23475 23476 23477 23478 23479 23480 23481 23482 23483 23484 23485 23486 23487 23488 23489 23490 23491 23492 23493 23494 23495 23496 23497 23498 23499 23500 23501 23502 23503 23504 23505 23506 23507 23508 23509 23510 23511 23512 23513 23514 23515 23516 23517 23518 23519 23520 23521 23522 23523 23524 23525 23526 23527 23528 23529 23530 23531 23532 23533 23534 23535 23536 23537 23538 23539 23540 23541 23542 23543 23544 23545 23546 23547 23548 23549 23550 23551 23552 23553 23554 23555 23556 23557 23558 23559 23560 23561 23562 23563 23564 23565 23566 23567 23568 23569 23570 23571 23572 23573 23574 23575 23576 23577 23578 23579 23580 23581 23582 23583 23584 23585 23586 23587 23588 23589 23590 23591 23592 23593 23594 23595 23596 23597 23598 23599 23600 23601 23602 23603 23604 23605 23606 23607 23608 23609 23610 23611 23612 23613 23614 23615 23616 23617 23618 23619 23620 23621 23622 23623 23624 23625 23626 23627 23628 23629 23630 23631 23632 23633 23634 23635 23636 23637 23638 23639 23640 23641 23642 23643 23644 23645 23646 23647 23648 23649 23650 23651 23652 23653 23654 23655 23656 23657 23658 23659 23660 23661 23662 23663 23664 23665 23666 23667 23668 23669 23670 23671 23672 23673 23674 23675 23676 23677 23678 23679 23680 23681 23682 23683 23684 23685 23686 23687 23688 23689 23690 23691 23692 23693 23694 23695 23696 23697 23698 23699 23700 23701 23702 23703 23704 23705 23706 23707 23708 23709 23710 23711 23712 23713 23714 23715 23716 23717 23718 23719 23720 23721 23722 23723 23724 23725 23726 23727 23728 23729 23730 23731 23732 23733 23734 23735 23736 23737 23738 23739 23740 23741 23742 23743 23744 23745 23746 23747 23748 23749 23750 23751 23752 23753 23754 23755 23756 23757 23758 23759 23760 23761 23762 23763 23764 23765 23766 23767 23768 23769 23770 23771 23772 23773 23774 23775 23776 23777 23778 23779 23780 23781 23782 23783 23784 23785 23786 23787 23788 23789 23790 23791 23792 23793 23794 23795 23796 23797 23798 23799 23800 23801 23802 23803 23804 23805 23806 23807 23808 23809 23810 23811 23812 23813 23814 23815 23816 23817 23818 23819 23820 23821 23822 23823 23824 23825 23826 23827 23828 23829 23830 23831 23832 23833 23834 23835 23836 23837 23838 23839 23840 23841 23842 23843 23844 23845 23846 23847 23848 23849 23850 23851 23852 23853 23854 23855 23856 23857 23858 23859 23860 23861 23862 23863 23864 23865 23866 23867 23868 23869 23870 23871 23872 23873 23874 23875 23876 23877 23878 23879 23880 23881 23882 23883 23884 23885 23886 23887 23888 23889 23890 23891 23892 23893 23894 23895 23896 23897 23898 23899 23900 23901 23902 23903 23904 23905 23906 23907 23908 23909 23910 23911 23912 23913 23914 23915 23916 23917 23918 23919 23920 23921 23922 23923 23924 23925 23926 23927 23928 23929 23930 23931 23932 23933 23934 23935 23936 23937 23938 23939 23940 23941 23942 23943 23944 23945 23946 23947 23948 23949 23950 23951 23952 23953 23954 23955 23956 23957 23958 23959 23960 23961 23962 23963 23964 23965 23966 23967 23968 23969 23970 23971 23972 23973 23974 23975 23976 23977 23978 23979 23980 23981 23982 23983 23984 23985 23986 23987 23988 23989 23990 23991 23992 23993 23994 23995 23996 23997 23998 23999 24000 24001 24002 24003 24004 24005 24006 24007 24008 24009 24010 24011 24012 24013 24014 24015 24016 24017 24018 24019 24020 24021 24022 24023 24024 24025 24026 24027 24028 24029 24030 24031 24032 24033 24034 24035 24036 24037 24038 24039 24040 24041 24042 24043 24044 24045 24046 24047 24048 24049 24050 24051 24052 24053 24054 24055 24056 24057 24058 24059 24060 24061 24062 24063 24064 24065 24066 24067 24068 24069 24070 24071 24072 24073 24074 24075 24076 24077 24078 24079 24080 24081 24082 24083 24084 24085 24086 24087 24088 24089 24090 24091 24092 24093 24094 24095 24096 24097 24098 24099 24100 24101 24102 24103 24104 24105 24106 24107 24108 24109 24110 24111 24112 24113 24114 24115 24116 24117 24118 24119 24120 24121 24122 24123 24124 24125 24126 24127 24128 24129 24130 24131 24132 24133 24134 24135 24136 24137 24138 24139 24140 24141 24142 24143 24144 24145 24146 24147 24148 24149 24150 24151 24152 24153 24154 24155 24156 24157 24158 24159 24160 24161 24162 24163 24164 24165 24166 24167 24168 24169 24170 24171 24172 24173 24174 24175 24176 24177 24178 24179 24180 24181 24182 24183 24184 24185 24186 24187 24188 24189 24190 24191 24192 24193 24194 24195 24196 24197 24198 24199 24200 24201 24202 24203 24204 24205 24206 24207 24208 24209 24210 24211 24212 24213 24214 24215 24216 24217 24218 24219 24220 24221 24222 24223 24224 24225 24226 24227 24228 24229 24230 24231 24232 24233 24234 24235 24236 24237 24238 24239 24240 24241 24242 24243 24244 24245 24246 24247 24248 24249 24250 24251 24252 24253 24254 24255 24256 24257 24258 24259 24260 24261 24262 24263 24264 24265 24266 24267 24268 24269 24270 24271 24272 24273 24274 24275 24276 24277 24278 24279 24280 24281 24282 24283 24284 24285 24286 24287 24288 24289 24290 24291 24292 24293 24294 24295 24296 24297 24298 24299 24300 24301 24302 24303 24304 24305 24306 24307 24308 24309 24310 24311 24312 24313 24314 24315 24316 24317 24318 24319 24320 24321 24322 24323 24324 24325 24326 24327 24328 24329 24330 24331 24332 24333 24334 24335 24336 24337 24338 24339 24340 24341 24342 24343 24344 24345 24346 24347 24348 24349 24350 24351 24352 24353 24354 24355 24356 24357 24358 24359 24360 24361 24362 24363 24364 24365 24366 24367 24368 24369 24370 24371 24372 24373 24374 24375 24376 24377 24378 24379 24380 24381 24382 24383 24384 24385 24386 24387 24388 24389 24390 24391 24392 24393 24394 24395 24396 24397 24398 24399 24400 24401 24402 24403 24404 24405 24406 24407 24408 24409 24410 24411 24412 24413 24414 24415 24416 24417 24418 24419 24420 24421 24422 24423 24424 24425 24426 24427 24428 24429 24430 24431 24432 24433 24434 24435 24436 24437 24438 24439 24440 24441 24442 24443 24444 24445 24446 24447 24448 24449 24450 24451 24452 24453 24454 24455 24456 24457 24458 24459 24460 24461 24462 24463 24464 24465 24466 24467 24468 24469 24470 24471 24472 24473 24474 24475 24476 24477 24478 24479 24480 24481 24482 24483 24484 24485 24486 24487 24488 24489 24490 24491 24492 24493 24494 24495 24496 24497 24498 24499 24500 24501 24502 24503 24504 24505 24506 24507 24508 24509 24510 24511 24512 24513 24514 24515 24516 24517 24518 24519 24520 24521 24522 24523 24524 24525 24526 24527 24528 24529 24530 24531 24532 24533 24534 24535 24536 24537 24538 24539 24540 24541 24542 24543 24544 24545 24546 24547 24548 24549 24550 24551 24552 24553 24554 24555 24556 24557 24558 24559 24560 24561 24562 24563 24564 24565 24566 24567 24568 24569 24570 24571 24572 24573 24574 24575 24576 24577 24578 24579 24580 24581 24582 24583 24584 24585 24586 24587 24588 24589 24590 24591 24592 24593 24594 24595 24596 24597 24598 24599 24600 24601 24602 24603 24604 24605 24606 24607 24608 24609 24610 24611 24612 24613 24614 24615 24616 24617 24618 24619 24620 24621 24622 24623 24624 24625 24626 24627 24628 24629 24630 24631 24632 24633 24634 24635 24636 24637 24638 24639 24640 24641 24642 24643 24644 24645 24646 24647 24648 24649 24650 24651 24652 24653 24654 24655 24656 24657 24658 24659 24660 24661 24662 24663 24664 24665 24666 24667 24668 24669 24670 24671 24672 24673 24674 24675 24676 24677 24678 24679 24680 24681 24682 24683 24684 24685 24686 24687 24688 24689 24690 24691 24692 24693 24694 24695 24696 24697 24698 24699 24700 24701 24702 24703 24704 24705 24706 24707 24708 24709 24710 24711 24712 24713 24714 24715 24716 24717 24718 24719 24720 24721 24722 24723 24724 24725 24726 24727 24728 24729 24730 24731 24732 24733 24734 24735 24736 24737 24738 24739 24740 24741 24742 24743 24744 24745 24746 24747 24748 24749 24750 24751 24752 24753 24754 24755 24756 24757 24758 24759 24760 24761 24762 24763 24764 24765 24766 24767 24768 24769 24770 24771 24772 24773 24774 24775 24776 24777 24778 24779 24780 24781 24782 24783 24784 24785 24786 24787 24788 24789 24790 24791 24792 24793 24794 24795 24796 24797 24798 24799 24800 24801 24802 24803 24804 24805 24806 24807 24808 24809 24810 24811 24812 24813 24814 24815 24816 24817 24818 24819 24820 24821 24822 24823 24824 24825 24826 24827 24828 24829 24830 24831 24832 24833 24834 24835 24836 24837 24838 24839 24840 24841 24842 24843 24844 24845 24846 24847 24848 24849 24850 24851 24852 24853 24854 24855 24856 24857 24858 24859 24860 24861 24862 24863 24864 24865 24866 24867 24868 24869 24870 24871 24872 24873 24874 24875 24876 24877 24878 24879 24880 24881 24882 24883 24884 24885 24886 24887 24888 24889 24890 24891 24892 24893 24894 24895 24896 24897 24898 24899 24900 24901 24902 24903 24904 24905 24906 24907 24908 24909 24910 24911 24912 24913 24914 24915 24916 24917 24918 24919 24920 24921 24922 24923 24924 24925 24926 24927 24928 24929 24930 24931 24932 24933 24934 24935 24936 24937 24938 24939 24940 24941 24942 24943 24944 24945 24946 24947 24948 24949 24950 24951 24952 24953 24954 24955 24956 24957 24958 24959 24960 24961 24962 24963 24964 24965 24966 24967 24968 24969 24970 24971 24972 24973 24974 24975 24976 24977 24978 24979 24980 24981 24982 24983 24984 24985 24986 24987 24988 24989 24990 24991 24992 24993 24994 24995 24996 24997 24998 24999 25000 25001 25002 25003 25004 25005 25006 25007 25008 25009 25010 25011 25012 25013 25014 25015 25016 25017 25018 25019 25020 25021 25022 25023 25024 25025 25026 25027 25028 25029 25030 25031 25032 25033 25034 25035 25036 25037 25038 25039 25040 25041 25042 25043 25044 25045 25046 25047 25048 25049 25050 25051 25052 25053 25054 25055 25056 25057 25058 25059 25060 25061 25062 25063 25064 25065 25066 25067 25068 25069 25070 25071 25072 25073 25074 25075 25076 25077 25078 25079 25080 25081 25082 25083 25084 25085 25086 25087 25088 25089 25090 25091 25092 25093 25094 25095 25096 25097 25098 25099 25100 25101 25102 25103 25104 25105 25106 25107 25108 25109 25110 25111 25112 25113 25114 25115 25116 25117 25118 25119 25120 25121 25122 25123 25124 25125 25126 25127 25128 25129 25130 25131 25132 25133 25134 25135 25136 25137 25138 25139 25140 25141 25142 25143 25144 25145 25146 25147 25148 25149 25150 25151 25152 25153 25154 25155 25156 25157 25158 25159 25160 25161 25162 25163 25164 25165 25166 25167 25168 25169 25170 25171 25172 25173 25174 25175 25176 25177 25178 25179 25180 25181 25182 25183 25184 25185 25186 25187 25188 25189 25190 25191 25192 25193 25194 25195 25196 25197 25198 25199 25200 25201 25202 25203 25204 25205 25206 25207 25208 25209 25210 25211 25212 25213 25214 25215 25216 25217 25218 25219 25220 25221 25222 25223 25224 25225 25226 25227 25228 25229 25230 25231 25232 25233 25234 25235 25236 25237 25238 25239 25240 25241 25242 25243 25244 25245 25246 25247 25248 25249 25250 25251 25252 25253 25254 25255 25256 25257 25258 25259 25260 25261 25262 25263 25264 25265 25266 25267 25268 25269 25270 25271 25272 25273 25274 25275 25276 25277 25278 25279 25280 25281 25282 25283 25284 25285 25286 25287 25288 25289 25290 25291 25292 25293 25294 25295 25296 25297 25298 25299 25300 25301 25302 25303 25304 25305 25306 25307 25308 25309 25310 25311 25312 25313 25314 25315 25316 25317 25318 25319 25320 25321 25322 25323 25324 25325 25326 25327 25328 25329 25330 25331 25332 25333 25334 25335 25336 25337 25338 25339 25340 25341 25342 25343 25344 25345 25346 25347 25348 25349 25350 25351 25352 25353 25354 25355 25356 25357 25358 25359 25360 25361 25362 25363 25364 25365 25366 25367 25368 25369 25370 25371 25372 25373 25374 25375 25376 25377 25378 25379 25380 25381 25382 25383 25384 25385 25386 25387 25388 25389 25390 25391 25392 25393 25394 25395 25396 25397 25398 25399 25400 25401 25402 25403 25404 25405 25406 25407 25408 25409 25410 25411 25412 25413 25414 25415 25416 25417 25418 25419 25420 25421 25422 25423 25424 25425 25426 25427 25428 25429 25430 25431 25432 25433 25434 25435 25436 25437 25438 25439 25440 25441 25442 25443 25444 25445 25446 25447 25448 25449 25450 25451 25452 25453 25454 25455 25456 25457 25458 25459 25460 25461 25462 25463 25464 25465 25466 25467 25468 25469 25470 25471 25472 25473 25474 25475 25476 25477 25478 25479 25480 25481 25482 25483 25484 25485 25486 25487 25488 25489 25490 25491 25492 25493 25494 25495 25496 25497 25498 25499 25500 25501 25502 25503 25504 25505 25506 25507 25508 25509 25510 25511 25512 25513 25514 25515 25516 25517 25518 25519 25520 25521 25522 25523 25524 25525 25526 25527 25528 25529 25530 25531 25532 25533 25534 25535 25536 25537 25538 25539 25540 25541 25542 25543 25544 25545 25546 25547 25548 25549 25550 25551 25552 25553 25554 25555 25556 25557 25558 25559 25560 25561 25562 25563 25564 25565 25566 25567 25568 25569 25570 25571 25572 25573 25574 25575 25576 25577 25578 25579 25580 25581 25582 25583 25584 25585 25586 25587 25588 25589 25590 25591 25592 25593 25594 25595 25596 25597 25598 25599 25600 25601 25602 25603 25604 25605 25606 25607 25608 25609 25610 25611 25612 25613 25614 25615 25616 25617 25618 25619 25620 25621 25622 25623 25624 25625 25626 25627 25628 25629 25630 25631 25632 25633 25634 25635 25636 25637 25638 25639 25640 25641 25642 25643 25644 25645 25646 25647 25648 25649 25650 25651 25652 25653 25654 25655 25656 25657 25658 25659 25660 25661 25662 25663 25664 25665 25666 25667 25668 25669 25670 25671 25672 25673 25674 25675 25676 25677 25678 25679 25680 25681 25682 25683 25684 25685 25686 25687 25688 25689 25690 25691 25692 25693 25694 25695 25696 25697 25698 25699 25700 25701 25702 25703 25704 25705 25706 25707 25708 25709 25710 25711 25712 25713 25714 25715 25716 25717 25718 25719 25720 25721 25722 25723 25724 25725 25726 25727 25728 25729 25730 25731 25732 25733 25734 25735 25736 25737 25738 25739 25740 25741 25742 25743 25744 25745 25746 25747 25748 25749 25750 25751 25752 25753 25754 25755 25756 25757 25758 25759 25760 25761 25762 25763 25764 25765 25766 25767 25768 25769 25770 25771 25772 25773 25774 25775 25776 25777 25778 25779 25780 25781 25782 25783 25784 25785 25786 25787 25788 25789 25790 25791 25792 25793 25794 25795 25796 25797 25798 25799 25800 25801 25802 25803 25804 25805 25806 25807 25808 25809 25810 25811 25812 25813 25814 25815 25816 25817 25818 25819 25820 25821 25822 25823 25824 25825 25826 25827 25828 25829 25830 25831 25832 25833 25834 25835 25836 25837 25838 25839 25840 25841 25842 25843 25844 25845 25846 25847 25848 25849 25850 25851 25852 25853 25854 25855 25856 25857 25858 25859 25860 25861 25862 25863 25864 25865 25866 25867 25868 25869 25870 25871 25872 25873 25874 25875 25876 25877 25878 25879 25880 25881 25882 25883 25884 25885 25886 25887 25888 25889 25890 25891 25892 25893 25894 25895 25896 25897 25898 25899 25900 25901 25902 25903 25904 25905 25906 25907 25908 25909 25910 25911 25912 25913 25914 25915 25916 25917 25918 25919 25920 25921 25922 25923 25924 25925 25926 25927 25928 25929 25930 25931 25932 25933 25934 25935 25936 25937 25938 25939 25940 25941 25942 25943 25944 25945 25946 25947 25948 25949 25950 25951 25952 25953 25954 25955 25956 25957 25958 25959 25960 25961 25962 25963 25964 25965 25966 25967 25968 25969 25970 25971 25972 25973 25974 25975 25976 25977 25978 25979 25980 25981 25982 25983 25984 25985 25986 25987 25988 25989 25990 25991 25992 25993 25994 25995 25996 25997 25998 25999 26000 26001 26002 26003 26004 26005 26006 26007 26008 26009 26010 26011 26012 26013 26014 26015 26016 26017 26018 26019 26020 26021 26022 26023 26024 26025 26026 26027 26028 26029 26030 26031 26032 26033 26034 26035 26036 26037 26038 26039 26040 26041 26042 26043 26044 26045 26046 26047 26048 26049 26050 26051 26052 26053 26054 26055 26056 26057 26058 26059 26060 26061 26062 26063 26064 26065 26066 26067 26068 26069 26070 26071 26072 26073 26074 26075 26076 26077 26078 26079 26080 26081 26082 26083 26084 26085 26086 26087 26088 26089 26090 26091 26092 26093 26094 26095 26096 26097 26098 26099 26100 26101 26102 26103 26104 26105 26106 26107 26108 26109 26110 26111 26112 26113 26114 26115 26116 26117 26118 26119 26120 26121 26122 26123 26124 26125 26126 26127 26128 26129 26130 26131 26132 26133 26134 26135 26136 26137 26138 26139 26140 26141 26142 26143 26144 26145 26146 26147 26148 26149 26150 26151 26152 26153 26154 26155 26156 26157 26158 26159 26160 26161 26162 26163 26164 26165 26166 26167 26168 26169 26170 26171 26172 26173 26174 26175 26176 26177 26178 26179 26180 26181 26182 26183 26184 26185 26186 26187 26188 26189 26190 26191 26192 26193 26194 26195 26196 26197 26198 26199 26200 26201 26202 26203 26204 26205 26206 26207 26208 26209 26210 26211 26212 26213 26214 26215 26216 26217 26218 26219 26220 26221 26222 26223 26224 26225 26226 26227 26228 26229 26230 26231 26232 26233 26234 26235 26236 26237 26238 26239 26240 26241 26242 26243 26244 26245 26246 26247 26248 26249 26250 26251 26252 26253 26254 26255 26256 26257 26258 26259 26260 26261 26262 26263 26264 26265 26266 26267 26268 26269 26270 26271 26272 26273 26274 26275 26276 26277 26278 26279 26280 26281 26282 26283 26284 26285 26286 26287 26288 26289 26290 26291 26292 26293 26294 26295 26296 26297 26298 26299 26300 26301 26302 26303 26304 26305 26306 26307 26308 26309 26310 26311 26312 26313 26314 26315 26316 26317 26318 26319 26320 26321 26322 26323 26324 26325 26326 26327 26328 26329 26330 26331 26332 26333 26334 26335 26336 26337 26338 26339 26340 26341 26342 26343 26344 26345 26346 26347 26348 26349 26350 26351 26352 26353 26354 26355 26356 26357 26358 26359 26360 26361 26362 26363 26364 26365 26366 26367 26368 26369 26370 26371 26372 26373 26374 26375 26376 26377 26378 26379 26380 26381 26382 26383 26384 26385 26386 26387 26388 26389 26390 26391 26392 26393 26394 26395 26396 26397 26398 26399 26400 26401 26402 26403 26404 26405 26406 26407 26408 26409 26410 26411 26412 26413 26414 26415 26416 26417 26418 26419 26420 26421 26422 26423 26424 26425 26426 26427 26428 26429 26430 26431 26432 26433 26434 26435 26436 26437 26438 26439 26440 26441 26442 26443 26444 26445 26446 26447 26448 26449 26450 26451 26452 26453 26454 26455 26456 26457 26458 26459 26460 26461 26462 26463 26464 26465 26466 26467 26468 26469 26470 26471 26472 26473 26474 26475 26476 26477 26478 26479 26480 26481 26482 26483 26484 26485 26486 26487 26488 26489 26490 26491 26492 26493 26494 26495 26496 26497 26498 26499 26500 26501 26502 26503 26504 26505 26506 26507 26508 26509 26510 26511 26512 26513 26514 26515 26516 26517 26518 26519 26520 26521 26522 26523 26524 26525 26526 26527 26528 26529 26530 26531 26532 26533 26534 26535 26536 26537 26538 26539 26540 26541 26542 26543 26544 26545 26546 26547 26548 26549 26550 26551 26552 26553 26554 26555 26556 26557 26558 26559 26560 26561 26562 26563 26564 26565 26566 26567 26568 26569 26570 26571 26572 26573 26574 26575 26576 26577 26578 26579 26580 26581 26582 26583 26584 26585 26586 26587 26588 26589 26590 26591 26592 26593 26594 26595 26596 26597 26598 26599 26600 26601 26602 26603 26604 26605 26606 26607 26608 26609 26610 26611 26612 26613 26614 26615 26616 26617 26618 26619 26620 26621 26622 26623 26624 26625 26626 26627 26628 26629 26630 26631 26632 26633 26634 26635 26636 26637 26638 26639 26640 26641 26642 26643 26644 26645 26646 26647 26648 26649 26650 26651 26652 26653 26654 26655 26656 26657 26658 26659 26660 26661 26662 26663 26664 26665 26666 26667 26668 26669 26670 26671 26672 26673 26674 26675 26676 26677 26678 26679 26680 26681 26682 26683 26684 26685 26686 26687 26688 26689 26690 26691 26692 26693 26694 26695 26696 26697 26698 26699 26700 26701 26702 26703 26704 26705 26706 26707 26708 26709 26710 26711 26712 26713 26714 26715 26716 26717 26718 26719 26720 26721 26722 26723 26724 26725 26726 26727 26728 26729 26730 26731 26732 26733 26734 26735 26736 26737 26738 26739 26740 26741 26742 26743 26744 26745 26746 26747 26748 26749 26750 26751 26752 26753 26754 26755 26756 26757 26758 26759 26760 26761 26762 26763 26764 26765 26766 26767 26768 26769 26770 26771 26772 26773 26774 26775 26776 26777 26778 26779 26780 26781 26782 26783 26784 26785 26786 26787 26788 26789 26790 26791 26792 26793 26794 26795 26796 26797 26798 26799 26800 26801 26802 26803 26804 26805 26806 26807 26808 26809 26810 26811 26812 26813 26814 26815 26816 26817 26818 26819 26820 26821 26822 26823 26824 26825 26826 26827 26828 26829 26830 26831 26832 26833 26834 26835 26836 26837 26838 26839 26840 26841 26842 26843 26844 26845 26846 26847 26848 26849 26850 26851 26852 26853 26854 26855 26856 26857 26858 26859 26860 26861 26862 26863 26864 26865 26866 26867 26868 26869 26870 26871 26872 26873 26874 26875 26876 26877 26878 26879 26880 26881 26882 26883 26884 26885 26886 26887 26888 26889 26890 26891 26892 26893 26894 26895 26896 26897 26898 26899 26900 26901 26902 26903 26904 26905 26906 26907 26908 26909 26910 26911 26912 26913 26914 26915 26916 26917 26918 26919 26920 26921 26922 26923 26924 26925 26926 26927 26928 26929 26930 26931 26932 26933 26934 26935 26936 26937 26938 26939 26940 26941 26942 26943 26944 26945 26946 26947 26948 26949 26950 26951 26952 26953 26954 26955 26956 26957 26958 26959 26960 26961 26962 26963 26964 26965 26966 26967 26968 26969 26970 26971 26972 26973 26974 26975 26976 26977 26978 26979 26980 26981 26982 26983 26984 26985 26986 26987 26988 26989 26990 26991 26992 26993 26994 26995 26996 26997 26998 26999 27000 27001 27002 27003 27004 27005 27006 27007 27008 27009 27010 27011 27012 27013 27014 27015 27016 27017 27018 27019 27020 27021 27022 27023 27024 27025 27026 27027 27028 27029 27030 27031 27032 27033 27034 27035 27036 27037 27038 27039 27040 27041 27042 27043 27044 27045 27046 27047 27048 27049 27050 27051 27052 27053 27054 27055 27056 27057 27058 27059 27060 27061 27062 27063 27064 27065 27066 27067 27068 27069 27070 27071 27072 27073 27074 27075 27076 27077 27078 27079 27080 27081 27082 27083 27084 27085 27086 27087 27088 27089 27090 27091 27092 27093 27094 27095 27096 27097 27098 27099 27100 27101 27102 27103 27104 27105 27106 27107 27108 27109 27110 27111 27112 27113 27114 27115 27116 27117 27118 27119 27120 27121 27122 27123 27124 27125 27126 27127 27128 27129 27130 27131 27132 27133 27134 27135 27136 27137 27138 27139 27140 27141 27142 27143 27144 27145 27146 27147 27148 27149 27150 27151 27152 27153 27154 27155 27156 27157 27158 27159 27160 27161 27162 27163 27164 27165 27166 27167 27168 27169 27170 27171 27172 27173 27174 27175 27176 27177 27178 27179 27180 27181 27182 27183 27184 27185 27186 27187 27188 27189 27190 27191 27192 27193 27194 27195 27196 27197 27198 27199 27200 27201 27202 27203 27204 27205 27206 27207 27208 27209 27210 27211 27212 27213 27214 27215 27216 27217 27218 27219 27220 27221 27222 27223 27224 27225 27226 27227 27228 27229 27230 27231 27232 27233 27234 27235 27236 27237 27238 27239 27240 27241 27242 27243 27244 27245 27246 27247 27248 27249 27250 27251 27252 27253 27254 27255 27256 27257 27258 27259 27260 27261 27262 27263 27264 27265 27266 27267 27268 27269 27270 27271 27272 27273 27274 27275 27276 27277 27278 27279 27280 27281 27282 27283 27284 27285 27286 27287 27288 27289 27290 27291 27292 27293 27294 27295 27296 27297 27298 27299 27300 27301 27302 27303 27304 27305 27306 27307 27308 27309 27310 27311 27312 27313 27314 27315 27316 27317 27318 27319 27320 27321 27322 27323 27324 27325 27326 27327 27328 27329 27330 27331 27332 27333 27334 27335 27336 27337 27338 27339 27340 27341 27342 27343 27344 27345 27346 27347 27348 27349 27350 27351 27352 27353 27354 27355 27356 27357 27358 27359 27360 27361 27362 27363 27364 27365 27366 27367 27368 27369 27370 27371 27372 27373 27374 27375 27376 27377 27378 27379 27380 27381 27382 27383 27384 27385 27386 27387 27388 27389 27390 27391 27392 27393 27394 27395 27396 27397 27398 27399 27400 27401 27402 27403 27404 27405 27406 27407 27408 27409 27410 27411 27412 27413 27414 27415 27416 27417 27418 27419 27420 27421 27422 27423 27424 27425 27426 27427 27428 27429 27430 27431 27432 27433 27434 27435 27436 27437 27438 27439 27440 27441 27442 27443 27444 27445 27446 27447 27448 27449 27450 27451 27452 27453 27454 27455 27456 27457 27458 27459 27460 27461 27462 27463 27464 27465 27466 27467 27468 27469 27470 27471 27472 27473 27474 27475 27476 27477 27478 27479 27480 27481 27482 27483 27484 27485 27486 27487 27488 27489 27490 27491 27492 27493 27494 27495 27496 27497 27498 27499 27500 27501 27502 27503 27504 27505 27506 27507 27508 27509 27510 27511 27512 27513 27514 27515 27516 27517 27518 27519 27520 27521 27522 27523 27524 27525 27526 27527 27528 27529 27530 27531 27532 27533 27534 27535 27536 27537 27538 27539 27540 27541 27542 27543 27544 27545 27546 27547 27548 27549 27550 27551 27552 27553 27554 27555 27556 27557 27558 27559 27560 27561 27562 27563 27564 27565 27566 27567 27568 27569 27570 27571 27572 27573 27574 27575 27576 27577 27578 27579 27580 27581 27582 27583 27584 27585 27586 27587 27588 27589 27590 27591 27592 27593 27594 27595 27596 27597 27598 27599 27600 27601 27602 27603 27604 27605 27606 27607 27608 27609 27610 27611 27612 27613 27614 27615 27616 27617 27618 27619 27620 27621 27622 27623 27624 27625 27626 27627 27628 27629 27630 27631 27632 27633 27634 27635 27636 27637 27638 27639 27640 27641 27642 27643 27644 27645 27646 27647 27648 27649 27650 27651 27652 27653 27654 27655 27656 27657 27658 27659 27660 27661 27662 27663 27664 27665 27666 27667 27668 27669 27670 27671 27672 27673 27674 27675 27676 27677 27678 27679 27680 27681 27682 27683 27684 27685 27686 27687 27688 27689 27690 27691 27692 27693 27694 27695 27696 27697 27698 27699 27700 27701 27702 27703 27704 27705 27706 27707 27708 27709 27710 27711 27712 27713 27714 27715 27716 27717 27718 27719 27720 27721 27722 27723 27724 27725 27726 27727 27728 27729 27730 27731 27732 27733 27734 27735 27736 27737 27738 27739 27740 27741 27742 27743 27744 27745 27746 27747 27748 27749 27750 27751 27752 27753 27754 27755 27756 27757 27758 27759 27760 27761 27762 27763 27764 27765 27766 27767 27768 27769 27770 27771 27772 27773 27774 27775 27776 27777 27778 27779 27780 27781 27782 27783 27784 27785 27786 27787 27788 27789 27790 27791 27792 27793 27794 27795 27796 27797 27798 27799 27800 27801 27802 27803 27804 27805 27806 27807 27808 27809 27810 27811 27812 27813 27814 27815 27816 27817 27818 27819 27820 27821 27822 27823 27824 27825 27826 27827 27828 27829 27830 27831 27832 27833 27834 27835 27836 27837 27838 27839 27840 27841 27842 27843 27844 27845 27846 27847 27848 27849 27850 27851 27852 27853 27854 27855 27856 27857 27858 27859 27860 27861 27862 27863 27864 27865 27866 27867 27868 27869 27870 27871 27872 27873 27874 27875 27876 27877 27878 27879 27880 27881 27882 27883 27884 27885 27886 27887 27888 27889 27890 27891 27892 27893 27894 27895 27896 27897 27898 27899 27900 27901 27902 27903 27904 27905 27906 27907 27908 27909 27910 27911 27912 27913 27914 27915 27916 27917 27918 27919 27920 27921 27922 27923 27924 27925 27926 27927 27928 27929 27930 27931 27932 27933 27934 27935 27936 27937 27938 27939 27940 27941 27942 27943 27944 27945 27946 27947 27948 27949 27950 27951 27952 27953 27954 27955 27956 27957 27958 27959 27960 27961 27962 27963 27964 27965 27966 27967 27968 27969 27970 27971 27972 27973 27974 27975 27976 27977 27978 27979 27980 27981 27982 27983 27984 27985 27986 27987 27988 27989 27990 27991 27992 27993 27994 27995 27996 27997 27998 27999 28000 28001 28002 28003 28004 28005 28006 28007 28008 28009 28010 28011 28012 28013 28014 28015 28016 28017 28018 28019 28020 28021 28022 28023 28024 28025 28026 28027 28028 28029 28030 28031 28032 28033 28034 28035 28036 28037 28038 28039 28040 28041 28042 28043 28044 28045 28046 28047 28048 28049 28050 28051 28052 28053 28054 28055 28056 28057 28058 28059 28060 28061 28062 28063 28064 28065 28066 28067 28068 28069 28070 28071 28072 28073 28074 28075 28076 28077 28078 28079 28080 28081 28082 28083 28084 28085 28086 28087 28088 28089 28090 28091 28092 28093 28094 28095 28096 28097 28098 28099 28100 28101 28102 28103 28104 28105 28106 28107 28108 28109 28110 28111 28112 28113 28114 28115 28116 28117 28118 28119 28120 28121 28122 28123 28124 28125 28126 28127 28128 28129 28130 28131 28132 28133 28134 28135 28136 28137 28138 28139 28140 28141 28142 28143 28144 28145 28146 28147 28148 28149 28150 28151 28152 28153 28154 28155 28156 28157 28158 28159 28160 28161 28162 28163 28164 28165 28166 28167 28168 28169 28170 28171 28172 28173 28174 28175 28176 28177 28178 28179 28180 28181 28182 28183 28184 28185 28186 28187 28188 28189 28190 28191 28192 28193 28194 28195 28196 28197 28198 28199 28200 28201 28202 28203 28204 28205 28206 28207 28208 28209 28210 28211 28212 28213 28214 28215 28216 28217 28218 28219 28220 28221 28222 28223 28224 28225 28226 28227 28228 28229 28230 28231 28232 28233 28234 28235 28236 28237 28238 28239 28240 28241 28242 28243 28244 28245 28246 28247 28248 28249 28250 28251 28252 28253 28254 28255 28256 28257 28258 28259 28260 28261 28262 28263 28264 28265 28266 28267 28268 28269 28270 28271 28272 28273 28274 28275 28276 28277 28278 28279 28280 28281 28282 28283 28284 28285 28286 28287 28288 28289 28290 28291 28292 28293 28294 28295 28296 28297 28298 28299 28300 28301 28302 28303 28304 28305 28306 28307 28308 28309 28310 28311 28312 28313 28314 28315 28316 28317 28318 28319 28320 28321 28322 28323 28324 28325 28326 28327 28328 28329 28330 28331 28332 28333 28334 28335 28336 28337 28338 28339 28340 28341 28342 28343 28344 28345 28346 28347 28348 28349 28350 28351 28352 28353 28354 28355 28356 28357 28358 28359 28360 28361 28362 28363 28364 28365 28366 28367 28368 28369 28370 28371 28372 28373 28374 28375 28376 28377 28378 28379 28380 28381 28382 28383 28384 28385 28386 28387 28388 28389 28390 28391 28392 28393 28394 28395 28396 28397 28398 28399 28400 28401 28402 28403 28404 28405 28406 28407 28408 28409 28410 28411 28412 28413 28414 28415 28416 28417 28418 28419 28420 28421 28422 28423 28424 28425 28426 28427 28428 28429 28430 28431 28432 28433 28434 28435 28436 28437 28438 28439 28440 28441 28442 28443 28444 28445 28446 28447 28448 28449 28450 28451 28452 28453 28454 28455 28456 28457 28458 28459 28460 28461 28462 28463 28464 28465 28466 28467 28468 28469 28470 28471 28472 28473 28474 28475 28476 28477 28478 28479 28480 28481 28482 28483 28484 28485 28486 28487 28488 28489 28490 28491 28492 28493 28494 28495 28496 28497 28498 28499 28500 28501 28502 28503 28504 28505 28506 28507 28508 28509 28510 28511 28512 28513 28514 28515 28516 28517 28518 28519 28520 28521 28522 28523 28524 28525 28526 28527 28528 28529 28530 28531 28532 28533 28534 28535 28536 28537 28538 28539 28540 28541 28542 28543 28544 28545 28546 28547 28548 28549 28550 28551 28552 28553 28554 28555 28556 28557 28558 28559 28560 28561 28562 28563 28564 28565 28566 28567 28568 28569 28570 28571 28572 28573 28574 28575 28576 28577 28578 28579 28580 28581 28582 28583 28584 28585 28586 28587 28588 28589 28590 28591 28592 28593 28594 28595 28596 28597 28598 28599 28600 28601 28602 28603 28604 28605 28606 28607 28608 28609 28610 28611 28612 28613 28614 28615 28616 28617 28618 28619 28620 28621 28622 28623 28624 28625 28626 28627 28628 28629 28630 28631 28632 28633 28634 28635 28636 28637 28638 28639 28640 28641 28642 28643 28644 28645 28646 28647 28648 28649 28650 28651 28652 28653 28654 28655 28656 28657 28658 28659 28660 28661 28662 28663 28664 28665 28666 28667 28668 28669 28670 28671 28672 28673 28674 28675 28676 28677 28678 28679 28680 28681 28682 28683 28684 28685 28686 28687 28688 28689 28690 28691 28692 28693 28694 28695 28696 28697 28698 28699 28700 28701 28702 28703 28704 28705 28706 28707 28708 28709 28710 28711 28712 28713 28714 28715 28716 28717 28718 28719 28720 28721 28722 28723 28724 28725 28726 28727 28728 28729 28730 28731 28732 28733 28734 28735 28736 28737 28738 28739 28740 28741 28742 28743 28744 28745 28746 28747 28748 28749 28750 28751 28752 28753 28754 28755 28756 28757 28758 28759 28760 28761 28762 28763 28764 28765 28766 28767 28768 28769 28770 28771 28772 28773 28774 28775 28776 28777 28778 28779 28780 28781 28782 28783 28784 28785 28786 28787 28788 28789 28790 28791 28792 28793 28794 28795 28796 28797 28798 28799 28800 28801 28802 28803 28804 28805 28806 28807 28808 28809 28810 28811 28812 28813 28814 28815 28816 28817 28818 28819 28820 28821 28822 28823 28824 28825 28826 28827 28828 28829 28830 28831 28832 28833 28834 28835 28836 28837 28838 28839 28840 28841 28842 28843 28844 28845 28846 28847 28848 28849 28850 28851 28852 28853 28854 28855 28856 28857 28858 28859 28860 28861 28862 28863 28864 28865 28866 28867 28868 28869 28870 28871 28872 28873 28874 28875 28876 28877 28878 28879 28880 28881 28882 28883 28884 28885 28886 28887 28888 28889 28890 28891 28892 28893 28894 28895 28896 28897 28898 28899 28900 28901 28902 28903 28904 28905 28906 28907 28908 28909 28910 28911 28912 28913 28914 28915 28916 28917 28918 28919 28920 28921 28922 28923 28924 28925 28926 28927 28928 28929 28930 28931 28932 28933 28934 28935 28936 28937 28938 28939 28940 28941 28942 28943 28944 28945 28946 28947 28948 28949 28950 28951 28952 28953 28954 28955 28956 28957 28958 28959 28960 28961 28962 28963 28964 28965 28966 28967 28968 28969 28970 28971 28972 28973 28974 28975 28976 28977 28978 28979 28980 28981 28982 28983 28984 28985 28986 28987 28988 28989 28990 28991 28992 28993 28994 28995 28996 28997 28998 28999 29000 29001 29002 29003 29004 29005 29006 29007 29008 29009 29010 29011 29012 29013 29014 29015 29016 29017 29018 29019 29020 29021 29022 29023 29024 29025 29026 29027 29028 29029 29030 29031 29032 29033 29034 29035 29036 29037 29038 29039 29040 29041 29042 29043 29044 29045 29046 29047 29048 29049 29050 29051 29052 29053 29054 29055 29056 29057 29058 29059 29060 29061 29062 29063 29064 29065 29066 29067 29068 29069 29070 29071 29072 29073 29074 29075 29076 29077 29078 29079 29080 29081 29082 29083 29084 29085 29086 29087 29088 29089 29090 29091 29092 29093 29094 29095 29096 29097 29098 29099 29100 29101 29102 29103 29104 29105 29106 29107 29108 29109 29110 29111 29112 29113 29114 29115 29116 29117 29118 29119 29120 29121 29122 29123 29124 29125 29126 29127 29128 29129 29130 29131 29132 29133 29134 29135 29136 29137 29138 29139 29140 29141 29142 29143 29144 29145 29146 29147 29148 29149 29150 29151 29152 29153 29154 29155 29156 29157 29158 29159 29160 29161 29162 29163 29164 29165 29166 29167 29168 29169 29170 29171 29172 29173 29174 29175 29176 29177 29178 29179 29180 29181 29182 29183 29184 29185 29186 29187 29188 29189 29190 29191 29192 29193 29194 29195 29196 29197 29198 29199 29200 29201 29202 29203 29204 29205 29206 29207 29208 29209 29210 29211 29212 29213 29214 29215 29216 29217 29218 29219 29220 29221 29222 29223 29224 29225 29226 29227 29228 29229 29230 29231 29232 29233 29234 29235 29236 29237 29238 29239 29240 29241 29242 29243 29244 29245 29246 29247 29248 29249 29250 29251 29252 29253 29254 29255 29256 29257 29258 29259 29260 29261 29262 29263 29264 29265 29266 29267 29268 29269 29270 29271 29272 29273 29274 29275 29276 29277 29278 29279 29280 29281 29282 29283 29284 29285 29286 29287 29288 29289 29290 29291 29292 29293 29294 29295 29296 29297 29298 29299 29300 29301 29302 29303 29304 29305 29306 29307 29308 29309 29310 29311 29312 29313 29314 29315 29316 29317 29318 29319 29320 29321 29322 29323 29324 29325 29326 29327 29328 29329 29330 29331 29332 29333 29334 29335 29336 29337 29338 29339 29340 29341 29342 29343 29344 29345 29346 29347 29348 29349 29350 29351 29352 29353 29354 29355 29356 29357 29358 29359 29360 29361 29362 29363 29364 29365 29366 29367 29368 29369 29370 29371 29372 29373 29374 29375 29376 29377 29378 29379 29380 29381 29382 29383 29384 29385 29386 29387 29388 29389 29390 29391 29392 29393 29394 29395 29396 29397 29398 29399 29400 29401 29402 29403 29404 29405 29406 29407 29408 29409 29410 29411 29412 29413 29414 29415 29416 29417 29418 29419 29420 29421 29422 29423 29424 29425 29426 29427 29428 29429 29430 29431 29432 29433 29434 29435 29436 29437 29438 29439 29440 29441 29442 29443 29444 29445 29446 29447 29448 29449 29450 29451 29452 29453 29454 29455 29456 29457 29458 29459 29460 29461 29462 29463 29464 29465 29466 29467 29468 29469 29470 29471 29472 29473 29474 29475 29476 29477 29478 29479 29480 29481 29482 29483 29484 29485 29486 29487 29488 29489 29490 29491 29492 29493 29494 29495 29496 29497 29498 29499 29500 29501 29502 29503 29504 29505 29506 29507 29508 29509 29510 29511 29512 29513 29514 29515 29516 29517 29518 29519 29520 29521 29522 29523 29524 29525 29526 29527 29528 29529 29530 29531 29532 29533 29534 29535 29536 29537 29538 29539 29540 29541 29542 29543 29544 29545 29546 29547 29548 29549 29550 29551 29552 29553 29554 29555 29556 29557 29558 29559 29560 29561 29562 29563 29564 29565 29566 29567 29568 29569 29570 29571 29572 29573 29574 29575 29576 29577 29578 29579 29580 29581 29582 29583 29584 29585 29586 29587 29588 29589 29590 29591 29592 29593 29594 29595 29596 29597 29598 29599 29600 29601 29602 29603 29604 29605 29606 29607 29608 29609 29610 29611 29612 29613 29614 29615 29616 29617 29618 29619 29620 29621 29622 29623 29624 29625 29626 29627 29628 29629 29630 29631 29632 29633 29634 29635 29636 29637 29638 29639 29640 29641 29642 29643 29644 29645 29646 29647 29648 29649 29650 29651 29652 29653 29654 29655 29656 29657 29658 29659 29660 29661 29662 29663 29664 29665 29666 29667 29668 29669 29670 29671 29672 29673 29674 29675 29676 29677 29678 29679 29680 29681 29682 29683 29684 29685 29686 29687 29688 29689 29690 29691 29692 29693 29694 29695 29696 29697 29698 29699 29700 29701 29702 29703 29704 29705 29706 29707 29708 29709 29710 29711 29712 29713 29714 29715 29716 29717 29718 29719 29720 29721 29722 29723 29724 29725 29726 29727 29728 29729 29730 29731 29732 29733 29734 29735 29736 29737 29738 29739 29740 29741 29742 29743 29744 29745 29746 29747 29748 29749 29750 29751 29752 29753 29754 29755 29756 29757 29758 29759 29760 29761 29762 29763 29764 29765 29766 29767 29768 29769 29770 29771 29772 29773 29774 29775 29776 29777 29778 29779 29780 29781 29782 29783 29784 29785 29786 29787 29788 29789 29790 29791 29792 29793 29794 29795 29796 29797 29798 29799 29800 29801 29802 29803 29804 29805 29806 29807 29808 29809 29810 29811 29812 29813 29814 29815 29816 29817 29818 29819 29820 29821 29822 29823 29824 29825 29826 29827 29828 29829 29830 29831 29832 29833 29834 29835 29836 29837 29838 29839 29840 29841 29842 29843 29844 29845 29846 29847 29848 29849 29850 29851 29852 29853 29854 29855 29856 29857 29858 29859 29860 29861 29862 29863 29864 29865 29866 29867 29868 29869 29870 29871 29872 29873 29874 29875 29876 29877 29878 29879 29880 29881 29882 29883 29884 29885 29886 29887 29888 29889 29890 29891 29892 29893 29894 29895 29896 29897 29898 29899 29900 29901 29902 29903 29904 29905 29906 29907 29908 29909 29910 29911 29912 29913 29914 29915 29916 29917 29918 29919 29920 29921 29922 29923 29924 29925 29926 29927 29928 29929 29930 29931 29932 29933 29934 29935 29936 29937 29938 29939 29940 29941 29942 29943 29944 29945 29946 29947 29948 29949 29950 29951 29952 29953 29954 29955 29956 29957 29958 29959 29960 29961 29962 29963 29964 29965 29966 29967 29968 29969 29970 29971 29972 29973 29974 29975 29976 29977 29978 29979 29980 29981 29982 29983 29984 29985 29986 29987 29988 29989 29990 29991 29992 29993 29994 29995 29996 29997 29998 29999 30000 30001 30002 30003 30004 30005 30006 30007 30008 30009 30010 30011 30012 30013 30014 30015 30016 30017 30018 30019 30020 30021 30022 30023 30024 30025 30026 30027 30028 30029 30030 30031 30032 30033 30034 30035 30036 30037 30038 30039 30040 30041 30042 30043 30044 30045 30046 30047 30048 30049 30050 30051 30052 30053 30054 30055 30056 30057 30058 30059 30060 30061 30062 30063 30064 30065 30066 30067 30068 30069 30070 30071 30072 30073 30074 30075 30076 30077 30078 30079 30080 30081 30082 30083 30084 30085 30086 30087 30088 30089 30090 30091 30092 30093 30094 30095 30096 30097 30098 30099 30100 30101 30102 30103 30104 30105 30106 30107 30108 30109 30110 30111 30112 30113 30114 30115 30116 30117 30118 30119 30120 30121 30122 30123 30124 30125 30126 30127 30128 30129 30130 30131 30132 30133 30134 30135 30136 30137 30138 30139 30140 30141 30142 30143 30144 30145 30146 30147 30148 30149 30150 30151 30152 30153 30154 30155 30156 30157 30158 30159 30160 30161 30162 30163 30164 30165 30166 30167 30168 30169 30170 30171 30172 30173 30174 30175 30176 30177 30178 30179 30180 30181 30182 30183 30184 30185 30186 30187 30188 30189 30190 30191 30192 30193 30194 30195 30196 30197 30198 30199 30200 30201 30202 30203 30204 30205 30206 30207 30208 30209 30210 30211 30212 30213 30214 30215 30216 30217 30218 30219 30220 30221 30222 30223 30224 30225 30226 30227 30228 30229 30230 30231 30232 30233 30234 30235 30236 30237 30238 30239 30240 30241 30242 30243 30244 30245 30246 30247 30248 30249 30250 30251 30252 30253 30254 30255 30256 30257 30258 30259 30260 30261 30262 30263 30264 30265 30266 30267 30268 30269 30270 30271 30272 30273 30274 30275 30276 30277 30278 30279 30280 30281 30282 30283 30284 30285 30286 30287 30288 30289 30290 30291 30292 30293 30294 30295 30296 30297 30298 30299 30300 30301 30302 30303 30304 30305 30306 30307 30308 30309 30310 30311 30312 30313 30314 30315 30316 30317 30318 30319 30320 30321 30322 30323 30324 30325 30326 30327 30328 30329 30330 30331 30332 30333 30334 30335 30336 30337 30338 30339 30340 30341 30342 30343 30344 30345 30346 30347 30348 30349 30350 30351 30352 30353 30354 30355 30356 30357 30358 30359 30360 30361 30362 30363 30364 30365 30366 30367 30368 30369 30370 30371 30372 30373 30374 30375 30376 30377 30378 30379 30380 30381 30382 30383 30384 30385 30386 30387 30388 30389 30390 30391 30392 30393 30394 30395 30396 30397 30398 30399 30400 30401 30402 30403 30404 30405 30406 30407 30408 30409 30410 30411 30412 30413 30414 30415 30416 30417 30418 30419 30420 30421 30422 30423 30424 30425 30426 30427 30428 30429 30430 30431 30432 30433 30434 30435 30436 30437 30438 30439 30440 30441 30442 30443 30444 30445 30446 30447 30448 30449 30450 30451 30452 30453 30454 30455 30456 30457 30458 30459 30460 30461 30462 30463 30464 30465 30466 30467 30468 30469 30470 30471 30472 30473 30474 30475 30476 30477 30478 30479 30480 30481 30482 30483 30484 30485 30486 30487 30488 30489 30490 30491 30492 30493 30494 30495 30496 30497 30498 30499 30500 30501 30502 30503 30504 30505 30506 30507 30508 30509 30510 30511 30512 30513 30514 30515 30516 30517 30518 30519 30520 30521 30522 30523 30524 30525 30526 30527 30528 30529 30530 30531 30532 30533 30534 30535 30536 30537 30538 30539 30540 30541 30542 30543 30544 30545 30546 30547 30548 30549 30550 30551 30552 30553 30554 30555 30556 30557 30558 30559 30560 30561 30562 30563 30564 30565 30566 30567 30568 30569 30570 30571 30572 30573 30574 30575 30576 30577 30578 30579 30580 30581 30582 30583 30584 30585 30586 30587 30588 30589 30590 30591 30592 30593 30594 30595 30596 30597 30598 30599 30600 30601 30602 30603 30604 30605 30606 30607 30608 30609 30610 30611 30612 30613 30614 30615 30616 30617 
</DataArray>
<DataArray type="UInt32" Name="offsets" format="ascii">
2 5 8 11 14 17 20 23 26 28 31 34 37 39 42 45 48 51 54 57 60 63 66 69 72 75 78 81 84 86 89 92 94 97 100 103 105 108 111 114 116 119 122 125 128 131 134 137 140 142 145 148 151 154 157 160 162 165 168 171 174 177 180 183 186 189 191 194 197 199 202 205 208 210 213 215 218 220 222 225 228 231 234 237 240 243 246 249 251 254 256 259 262 264 267 270 273 276 279 282 285 288 291 294 297 300 303 306 309 311 314 317 320 323 325 328 331 333 335 338 341 343 346 349 352 354 356 358 361 363 366 369 372 375 378 381 384 387 390 392 394 397 400 403 406 409 412 414 417 420 423 426 429 431 433 436 439 441 444 447 449 451 454 456 458 461 464 467 470 473 476 479 482 485 488 491 494 496 499 502 504 507 510 513 516 519 522 525 528 531 534 537 540 543 546 549 552 555 558 561 564 566 569 572 575 578 581 584 587 590 593 596 599 602 605 608 611 613 616 619 621 624 627 630 633 635 637 640 643 646 649 652 655 658 661 664 667 670 673 676 679 682 684 687 690 693 695 698 701 704 707 710 713 716 719 721 723 726 729 732 735 738 741 744 747 750 752 755 758 761 764 767 769 772 774 777 780 783 786 789 791 793 796 799 802 804 807 809 812 815 818 820 823 825 828 831 833 836 839 842 844 847 850 853 856 859 861 863 866 869 871 874 876 878 881 884 886 889 891 894 897 900 903 905 908 910 913 916 918 920 922 925 927 930 932 934 937 940 943 946 949 952 955 958 961 963 966 969 972 975 978 981 984 987 990 993 996 999 1002 1005 1008 1011 1014 1017 1020 1023 1026 1029 1032 1035 1037 1040 1042 1045 1048 1051 1054 1057 1059 1062 1064 1067 1070 1072 1075 1078 1081 1084 1086 1089 1091 1094 1097 1100 1103 1106 1109 1112 1115 1118 1121 1124 1127 1130 1132 1135 1138 1140 1143 1146 1149 1152 1155 1158 1161 1164 1167 1170 1173 1176 1179 1182 1185 1188 1191 1193 1196 1199 1202 1205 1208 1211 1214 1217 1220 1223 1225 1228 1231 1234 1236 1238 1241 1244 1247 1250 1253 1256 1259 1262 1265 1268 1271 1274 1277 1280 1283 1286 1289 1292 1295 1298 1301 1304 1307 1309 1312 1315 1317 1320 1323 1325 1328 1330 1333 1336 1339 1341 1344 1346 1348 1351 1354 1357 1360 1363 1366 1369 1372 1375 1378 1380 1383 1386 1389 1392 1395 1398 1401 1404 1407 1410 1413 1416 1419 1422 1425 1428 1431 1434 1437 1440 1443 1446 1449 1452 1455 1458 1461 1464 1467 1470 1473 1476 1478 1481 1484 1487 1490 1492 1495 1498 1501 1504 1507 1510 1513 1515 1518 1521 1524 1527 1530 1533 1536 1539 1542 1544 1547 1549 1551 1554 1557 1559 1562 1564 1567 1570 1573 1576 1579 1582 1585 1588 1590 1593 1596 1599 1602 1605 1607 1610 1613 1616 1619 1622 1625 1627 1630 1633 1636 1639 1642 1645 1648 1651 1653 1656 1658 1661 1664 1667 1670 1673 1675 1678 1680 1683 1686 1689 1692 1695 1698 1700 1703 1706 1709 1712 1715 1718 1721 1724 1727 1730 1732 1734 1737 1740 1743 1746 1748 1751 1754 1757 1760 1763 1766 1769 1772 1775 1778 1781 1784 1786 1789 1792 1794 1797 1800 1803 1806 1809 1812 1815 1818 1821 1824 1826 1828 1831 1834 1837 1840 1843 1846 1849 1852 1855 1858 1860 1863 1865 1868 1871 1874 1877 1880 1883 1886 1889 1892 1895 1898 1901 1904 1907 1910 1913 1916 1919 1922 1925 1928 1931 1934 1937 1940 1943 1946 1949 1952 1955 1958 1961 1964 1967 1970 1973 1976 1979 1982 1984 1987 1990 1993 1995 1998 2000 2003 2005 2008 2011 2013 2016 2018 2021 2023 2026 2029 2031 2034 2037 2040 2043 2046 2049 2052 2055 2057 2060 2063 2065 2068 2071 2074 2077 2079 2082 2085 2088 2091 2094 2097 2100 2103 2106 2109 2111 2114 2116 2119 2121 2124 2126 2129 2131 2134 2137 2140 2142 2145 2147 2150 2153 2156 2159 2162 2165 2168 2171 2174 2177 2180 2183 2185 2188 2191 2193 2195 2198 2201 2204 2206 2209 2212 2214 2217 2220 2222 2225 2228 2231 2233 2236 2239 2242 2245 2248 2250 2253 2256 2258 2260 2263 2266 2269 2271 2273 2275 2278 2281 2283 2286 2289 2291 2294 2297 2300 2303 2306 2309 2311 2314 2317 2319 2322 2325 2327 2330 2333 2336 2339 2342 2345 2348 2351 2353 2356 2359 2362 2365 2368 2370 2372 2374 2377 2380 2383 2386 2389 2392 2395 2398 2401 2404 2407 2409 2412 2415 2418 2421 2423 2426 2429 2432 2435 2438 2441 2444 2446 2449 2452 2455 2457 2460 2462 2465 2467 2470 2472 2475 2478 2481 2484 2487 2490 2493 2496 2499 2502 2504 2507 2510 2513 2516 2519 2522 2525 2528 2530 2533 2536 2538 2541 2544 2547 2550 2552 2555 2558 2561 2564 2567 2570 2572 2575 2577 2580 2583 2586 2589 2592 2595 2597 2599 2602 2605 2608 2611 2613 2616 2618 2621 2624 2627 2629 2632 2635 2638 2641 2644 2647 2650 2652 2654 2657 2660 2662 2665 2667 2669 2671 2674 2677 2680 2683 2686 2689 2692 2694 2697 2700 2703 2706 2709 2712 2715 2718 2721 2724 2727 2730 2733 2735 2738 2741 2744 2747 2750 2753 2756 2759 2762 2765 2767 2770 2773 2775 2778 2781 2784 2787 2790 2792 2795 2798 2801 2804 2807 2810 2813 2816 2818 2821 2823 2826 2829 2831 2834 2837 2839 2842 2845 2848 2851 2853 2856 2859 2862 2865 2868 2870 2873 2876 2879 2882 2885 2888 2891 2894 2897 2899 2902 2905 2907 2909 2912 2915 2918 2921 2923 2926 2928 2931 2934 2936 2938 2941 2943 2946 2948 2951 2954 2957 2960 2963 2965 2968 2971 2974 2976 2979 2982 2985 2987 2990 2993 2996 2999 3002 3005 3008 3011 3014 3017 3019 3022 3025 3028 3031 3034 3037 3040 3043 3046 3049 3052 3055 3058 3061 3064 3067 3070 3073 3075 3078 3081 3083 3086 3089 3092 3095 3097 3100 3103 3106 3109 3112 3115 3118 3121 3124 3127 3130 3133 3136 3139 3142 3145 3148 3151 3154 3157 3160 3163 3166 3169 3172 3175 3178 3181 3184 3187 3190 3193 3196 3199 3202 3205 3208 3211 3214 3217 3220 3223 3226 3229 3232 3235 3238 3241 3244 3247 3250 3253 3256 3259 3262 3265 3268 3271 3273 3276 3279 3282 3285 3288 3291 3294 3297 3300 3303 3306 3309 3312 3315 3318 3321 3324 3327 3330 3332 3335 3338 3341 3344 3346 3349 3352 3355 3358 3361 3364 3367 3370 3373 3376 3379 3382 3385 3388 3391 3394 3397 3400 3402 3405 3408 3411 3414 3416 3419 3422 3425 3428 3431 3433 3435 3438 3441 3444 3447 3450 3453 3456 3459 3462 3465 3468 3471 3474 3477 3480 3483 3486 3489 3491 3494 3497 3500 3502 3505 3507 3510 3513 3516 3519 3522 3525 3528 3531 3534 3536 3539 3542 3545 3548 3550 3552 3555 3558 3561 3564 3567 3570 3573 3576 3579 3582 3585 3588 3591 3594 3597 3600 3603 3606 3609 3611 3614 3617 3620 3623 3626 3629 3632 3635 3638 3641 3644 3647 3650 3652 3655 3658 3661 3664 3667 3670 3673 3676 3679 3682 3685 3688 3691 3694 3697 3700 3703 3706 3709 3712 3715 3718 3720 3723 3726 3729 3732 3735 3738 3741 3743 3746 3749 3752 3754 3757 3760 3763 3766 3769 3772 3775 3778 3781 3784 3787 3790 3793 3796 3799 3802 3805 3808 3811 3814 3817 3820 3823 3826 3828 3831 3833 3836 3839 3842 3845 3847 3850 3852 3855 3858 3861 3864 3867 3870 3873 3875 3878 3881 3884 3887 3889 3892 3895 3898 3901 3904 3907 3910 3913 3916 3919 3922 3924 3927 3930 3933 3936 3939 3942 3944 3947 3949 3952 3955 3958 3961 3964 3966 3969 3972 3974 3977 3980 3982 3985 3988 3991 3994 3997 4000 4003 4006 4009 4012 4015 4018 4021 4024 4027 4030 4033 4036 4039 4042 4045 4048 4051 4054 4057 4060 4063 4065 4068 4071 4074 4076 4079 4081 4084 4087 4089 4091 4094 4097 4100 4102 4105 4108 4111 4114 4116 4119 4121 4124 4127 4129 4132 4135 4138 4141 4144 4146 4149 4152 4155 4158 4161 4163 4166 4169 4172 4175 4178 4181 4184 4187 4190 4193 4196 4199 4202 4205 4208 4211 4214 4217 4220 4223 4226 4229 4232 4235 4238 4241 4244 4247 4250 4253 4256 4259 4262 4265 4268 4271 4274 4277 4280 4283 4286 4289 4292 4294 4296 4299 4302 4305 4308 4311 4314 4317 4320 4323 4326 4329 4332 4335 4338 4341 4344 4347 4350 4353 4356 4359 4362 4365 4368 4371 4374 4377 4380 4382 4385 4388 4391 4394 4396 4399 4402 4405 4408 4410 4413 4416 4419 4422 4425 4428 4431 4433 4436 4438 4441 4444 4447 4450 4453 4455 4458 4461 4464 4467 4470 4473 4476 4479 4482 4485 4487 4490 4493 4496 4499 4502 4505 4508 4511 4514 4517 4520 4523 4526 4529 4532 4535 4538 4541 4544 4547 4550 4553 4556 4559 4562 4564 4567 4570 4573 4576 4578 4581 4583 4586 4589 4591 4594 4596 4599 4602 4605 4608 4611 4614 4616 4619 4622 4625 4627 4630 4633 4636 4639 4642 4645 4648 4651 4654 4657 4660 4663 4666 4669 4672 4675 4678 4680 4683 4685 4688 4691 4694 4697 4700 4702 4705 4707 4710 4713 4716 4719 4722 4725 4728 4731 4733 4736 4739 4742 4745 4748 4751 4754 4757 4760 4763 4766 4769 4772 4775 4778 4781 4784 4787 4790 4793 4796 4799 4802 4804 4807 4809 4812 4815 4818 4821 4824 4827 4830 4833 4836 4839 4842 4845 4847 4850 4853 4856 4859 4862 4865 4868 4871 4874 4877 4880 4883 4886 4889 4892 4895 4898 4901 4904 4907 4910 4913 4916 4919 4922 4925 4928 4930 4933 4936 4939 4941 4944 4946 4948 4951 4954 4957 4960 4963 4965 4968 4971 4974 4977 4980 4983 4986 4989 4992 4995 4998 5001 5004 5007 5010 5013 5016 5019 5022 5025 5028 5031 5034 5037 5039 5042 5045 5047 5050 5053 5056 5059 5062 5065 5068 5071 5073 5075 5078 5081 5084 5087 5090 5093 5096 5099 5102 5105 5107 5110 5113 5115 5117 5120 5122 5125 5128 5131 5134 5137 5139 5142 5144 5146 5148 5151 5154 5157 5160 5163 5166 5168 5171 5174 5177 5180 5183 5186 5189 5192 5195 5197 5200 5202 5205 5208 5210 5213 5216 5219 5222 5225 5228 5231 5234 5237 5240 5243 5246 5249 5252 5255 5258 5261 5264 5267 5270 5273 5276 5279 5282 5285 5288 5290 5292 5295 5298 5301 5304 5307 5310 5313 5316 5319 5322 5325 5328 5331 5334 5337 5340 5343 5346 5349 5352 5355 5358 5361 5364 5367 5370 5373 5376 5379 5382 5385 5388 5391 5394 5397 5400 5403 5406 5409 5412 5415 5418 5421 5424 5427 5430 5433 5436 5439 5442 5445 5448 5451 5454 5457 5460 5462 5465 5468 5471 5474 5477 5480 5483 5486 5489 5491 5493 5496 5499 5502 5504 5507 5510 5513 5516 5519 5522 5525 5528 5531 5534 5537 5540 5543 5546 5549 5552 5555 5558 5561 5564 5567 5570 5573 5576 5579 5582 5585 5588 5591 5594 5596 5599 5602 5605 5608 5611 5614 5617 5619 5622 5625 5628 5631 5634 5637 5640 5642 5645 5648 5650 5653 5656 5659 5662 5665 5668 5671 5674 5677 5679 5682 5685 5687 5689 5692 5695 5698 5700 5703 5706 5709 5712 5715 5718 5721 5724 5727 5730 5733 5735 5738 5741 5744 5747 5749 5752 5754 5757 5760 5762 5765 5768 5770 5772 5775 5778 5781 5784 5787 5790 5793 5796 5799 5802 5804 5806 5809 5812 5815 5818 5821 5824 5826 5829 5832 5835 5838 5841 5844 5846 5849 5851 5854 5857 5860 5863 5866 5868 5870 5873 5876 5879 5882 5885 5888 5891 5894 5897 5900 5903 5906 5909 5912 5915 5918 5921 5924 5927 5929 5931 5934 5937 5939 5942 5945 5948 5951 5954 5957 5960 5963 5966 5969 5972 5974 5977 5980 5983 5986 5989 5992 5995 5998 6001 6004 6007 6010 6013 6016 6019 6022 6025 6028 6031 6034 6037 6040 6043 6046 6049 6052 6055 6058 6060 6063 6066 6069 6072 6074 6076 6079 6082 6085 6088 6091 6094 6097 6099 6102 6104 6107 6110 6113 6116 6119 6122 6125 6128 6131 6134 6137 6140 6143 6146 6149 6152 6155 6158 6161 6164 6166 6168 6171 6173 6176 6179 6182 6185 6188 6190 6193 6196 6199 6202 6205 6208 6211 6214 6217 6220 6223 6226 6229 6232 6235 6238 6241 6243 6246 6249 6252 6255 6258 6261 6264 6267 6270 6273 6276 6278 6281 6284 6287 6290 6293 6296 6299 6302 6305 6308 6310 6313 6316 6319 6322 6325 6328 6331 6334 6337 6339 6342 6345 6348 6351 6353 6356 6359 6362 6364 6367 6370 6373 6376 6378 6381 6384 6387 6390 6393 6396 6399 6402 6405 6407 6410 6413 6416 6419 6421 6424 6427 6430 6433 6436 6439 6442 6445 6447 6450 6452 6454 6457 6459 6461 6464 6467 6470 6472 6475 6478 6481 6483 6486 6488 6491 6494 6497 6500 6503 6505 6508 6511 6514 6516 6519 6522 6525 6528 6531 6534 6536 6538 6541 6544 6547 6550 6553 6556 6559 6562 6565 6568 6571 6573 6576 6578 6580 6583 6586 6589 6592 6595 6597 6599 6602 6605 6607 6610 6613 6616 6619 6621 6624 6627 6630 6633 6636 6638 6641 6644 6647 6650 6652 6654 6657 6660 6662 6665 6667 6669 6672 6675 6678 6681 6684 6687 6690 6693 6696 6699 6702 6705 6708 6711 6714 6717 6720 6723 6726 6729 6732 6734 6737 6740 6742 6745 6747 6750 6753 6756 6758 6761 6764 6767 6770 6773 6776 6778 6780 6783 6786 6789 6792 6795 6798 6800 6803 6806 6808 6811 6814 6817 6820 6823 6826 6828 6831 6834 6837 6839 6842 6845 6848 6851 6854 6857 6859 6862 6865 6868 6871 6874 6877 6880 6883 6886 6889 6892 6895 6898 6900 6903 6905 6908 6911 6914 6917 6920 6923 6926 6929 6932 6934 6937 6940 6943 6945 6948 6951 6954 6957 6960 6963 6966 6969 6972 6975 6977 6980 6983 6986 6989 6992 6995 6998 7001 7004 7007 7010 7013 7016 7019 7022 7025 7028 7031 7034 7037 7040 7043 7046 7049 7052 7054 7057 7060 7063 7065 7068 7071 7073 7076 7079 7082 7085 7088 7090 7093 7096 7099 7101 7104 7107 7110 7113 7116 7119 7122 7124 7127 7130 7133 7136 7139 7142 7145 7148 7151 7154 7157 7160 7163 7166 7169 7172 7175 7177 7180 7182 7185 7188 7191 7194 7197 7200 7203 7206 7209 7211 7214 7216 7219 7221 7224 7226 7228 7231 7234 7237 7240 7242 7245 7248 7251 7254 7256 7259 7262 7265 7268 7271 7273 7276 7278 7281 7284 7286 7289 7292 7295 7298 7301 7304 7307 7310 7313 7316 7319 7322 7325 7328 7331 7334 7337 7339 7342 7345 7348 7351 7354 7357 7359 7362 7365 7368 7371 7374 7376 7379 7382 7385 7388 7391 7394 7397 7399 7402 7405 7407 7410 7413 7416 7419 7422 7425 7427 7430 7433 7436 7438 7441 7444 7447 7450 7453 7456 7459 7462 7465 7468 7471 7474 7477 7480 7483 7486 7489 7491 7494 7497 7500 7503 7506 7508 7510 7513 7516 7519 7522 7525 7527 7530 7532 7535 7537 7540 7542 7544 7547 7550 7553 7555 7557 7560 7563 7566 7569 7572 7575 7578 7581 7584 7587 7590 7593 7596 7599 7602 7605 7608 7611 7614 7617 7620 7623 7626 7629 7632 7635 7638 7641 7644 7647 7650 7653 7656 7659 7662 7665 7668 7671 7673 7676 7679 7682 7685 7688 7691 7694 7696 7699 7701 7704 7707 7710 7713 7716 7719 7721 7724 7727 7730 7732 7735 7738 7741 7743 7745 7748 7750 7753 7756 7759 7762 7765 7768 7770 7773 7776 7778 7781 7784 7787 7790 7793 7796 7799 7802 7805 7808 7811 7814 7816 7818 7820 7823 7826 7829 7831 7834 7837 7840 7843 7846 7849 7852 7855 7858 7861 7864 7867 7870 7873 7876 7879 7882 7885 7888 7891 7894 7897 7899 7902 7905 7908 7911 7913 7916 7919 7922 7925 7928 7931 7934 7936 7939 7942 7945 7948 7951 7953 7956 7959 7962 7965 7968 7970 7973 7976 7979 7982 7985 7988 7991 7994 7997 7999 8002 8005 8008 8011 8013 8016 8019 8022 8025 8028 8031 8034 8037 8040 8043 8045 8048 8051 8053 8056 8059 8062 8065 8068 8071 8074 8077 8080 8083 8086 8089 8092 8095 8098 8101 8104 8107 8110 8113 8115 8118 8121 8124 8127 8129 8132 8135 8138 8141 8144 8147 8150 8153 8155 8158 8161 8164 8167 8170 8172 8175 8178 8180 8183 8186 8189 8192 8195 8198 8201 8204 8207 8210 8213 8216 8218 8221 8224 8227 8230 8233 8236 8239 8242 8245 8248 8251 8254 8257 8260 8263 8266 8269 8272 8275 8278 8281 8284 8287 8290 8293 8296 8299 8302 8304 8307 8310 8313 8316 8319 8322 8325 8328 8331 8334 8337 8340 8343 8346 8348 8351 8354 8357 8360 8363 8366 8369 8372 8375 8378 8381 8384 8387 8390 8393 8396 8399 8402 8405 8407 8410 8413 8416 8419 8422 8425 8428 8430 8433 8436 8439 8442 8445 8448 8451 8454 8457 8460 8463 8466 8469 8472 8475 8478 8481 8484 8487 8490 8493 8496 8499 8502 8504 8507 8510 8513 8516 8519 8521 8524 8527 8530 8533 8536 8539 8542 8545 8548 8551 8553 8556 8559 8561 8564 8566 8569 8572 8575 8578 8581 8584 8587 8589 8592 8594 8597 8599 8602 8605 8608 8611 8614 8617 8620 8623 8626 8629 8632 8635 8638 8641 8644 8647 8650 8653 8656 8659 8662 8665 8668 8671 8674 8677 8680 8683 8686 8689 8692 8695 8698 8701 8704 8707 8709 8712 8715 8718 8721 8724 8727 8730 8733 8736 8739 8742 8745 8748 8751 8754 8757 8760 8763 8766 8769 8772 8775 8778 8781 8784 8787 8790 8793 8796 8799 8802 8804 8807 8810 8813 8816 8819 8822 8824 8826 8829 8832 8835 8838 8841 8844 8847 8850 8853 8856 8859 8862 8865 8867 8870 8873 8876 8879 8882 8885 8888 8891 8894 8897 8899 8901 8904 8906 8909 8912 8915 8917 8920 8922 8924 8927 8929 8932 8935 8938 8941 8944 8947 8950 8952 8954 8957 8960 8963 8966 8968 8971 8974 8977 8980 8982 8985 8987 8990 8992 8994 8997 8999 9002 9005 9008 9011 9014 9016 9019 9021 9023 9025 9027 9030 9033 9036 9039 9042 9044 9047 9050 9052 9054 9057 9060 9063 9065 9068 9071 9073 9076 9079 9082 9085 9087 9090 9093 9095 9098 9101 9103 9106 9109 9112 9115 9118 9121 9124 9127 9130 9133 9136 9139 9142 9145 9147 9150 9152 9155 9158 9161 9164 9167 9169 9172 9175 9177 9180 9183 9186 9189 9192 9194 9197 9200 9203 9206 9209 9212 9215 9218 9221 9224 9226 9229 9232 9235 9238 9241 9244 9247 9250 9253 9256 9259 9261 9264 9267 9270 9273 9276 9279 9281 9284 9287 9290 9293 9296 9299 9302 9305 9308 9311 9314 9317 9320 9323 9325 9328 9331 9334 9336 9339 9342 9345 9348 9351 9354 9357 9359 9362 9364 9367 9370 9373 9376 9379 9382 9385 9388 9391 9394 9397 9400 9403 9406 9409 9412 9415 9418 9421 9424 9427 9430 9433 9436 9439 9442 9445 9448 9451 9454 9457 9460 9463 9466 9469 9472 9474 9477 9479 9482 9485 9487 9490 9492 9495 9498 9501 9504 9507 9510 9512 9515 9518 9520 9522 9525 9528 9531 9534 9537 9540 9542 9545 9548 9551 9554 9557 9560 9563 9565 9568 9571 9574 9577 9580 9583 9586 9589 9592 9595 9598 9601 9604 9607 9610 9613 9616 9619 9622 9624 9627 9630 9633 9635 9638 9640 9643 9645 9648 9651 9654 9657 9659 9662 9665 9668 9671 9674 9677 9679 9682 9685 9688 9691 9694 9697 9699 9702 9705 9707 9710 9713 9716 9719 9722 9725 9727 9730 9733 9736 9739 9742 9745 9748 9751 9754 9756 9759 9761 9764 9767 9770 9773 9776 9778 9780 9783 9786 9789 9791 9793 9796 9799 9802 9805 9808 9811 9813 9816 9819 9821 9823 9826 9829 9831 9834 9837 9839 9842 9845 9848 9851 9853 9856 9859 9862 9865 9868 9871 9873 9876 9879 9882 9885 9888 9891 9894 9897 9900 9903 9905 9908 9911 9914 9916 9918 9921 9924 9927 9930 9933 9936 9939 9942 9945 9947 9950 9953 9956 9959 9962 9965 9968 9971 9974 9977 9980 9982 9984 9987 9990 9993 9996 9998 10001 10004 10007 10010 10012 10015 10018 10021 10024 10026 10029 10032 10035 10037 10040 10043 10046 10049 10051 10054 10057 10060 10063 10066 10068 10071 10074 10077 10080 10082 10085 10088 10091 10094 10097 10100 10103 10106 10109 10112 10115 10118 10121 10124 10127 10130 10133 10136 10139 10142 10145 10148 10151 10154 10157 10160 10163 10166 10169 10172 10175 10178 10180 10183 10186 10189 10192 10194 10197 10200 10203 10206 10209 10212 10214 10217 10220 10223 10225 10228 10230 10233 10236 10239 10242 10245 10248 10251 10254 10257 10260 10263 10266 10269 10272 10275 10278 10281 10284 10287 10290 10293 10296 10299 10301 10304 10306 10309 10312 10315 10317 10320 10323 10326 10329 10332 10335 10338 10341 10344 10347 10350 10353 10356 10358 10361 10364 10366 10369 10372 10374 10376 10379 10381 10384 10387 10390 10393 10396 10399 10402 10405 10408 10411 10414 10417 10420 10423 10426 10429 10432 10434 10437 10440 10443 10446 10449 10451 10454 10457 10460 10463 10466 10469 10472 10474 10477 10480 10483 10486 10489 10492 10495 10497 10500 10503 10506 10509 10512 10515 10518 10521 10524 10527 10530 10533 10536 10539 10542 10544 10547 10550 10553 10555 10558 10561 10564 10567 10570 10573 10576 10579 10582 10585 10588 10590 10593 10596 10599 10602 10605 10608 10610 10613 10616 10618 10621 10623 10626 10629 10632 10634 10637 10640 10643 10646 10649 10652 10655 10658 10661 10664 10667 10669 10672 10675 10678 10681 10684 10686 10689 10692 10695 10697 10700 10703 10706 10708 10711 10714 10717 10720 10723 10725 10728 10730 10733 10736 10739 10742 10745 10748 10751 10754 10756 10759 10761 10764 10767 10769 10772 10774 10777 10779 10782 10785 10788 10791 10794 10797 10800 10803 10806 10809 10811 10814 10816 10819 10822 10825 10828 10830 10833 10836 10839 10841 10843 10846 10849 10852 10854 10857 10859 10861 10864 10867 10869 10871 10874 10876 10878 10881 10884 10886 10888 10891 10894 10896 10899 10902 10904 10907 10909 10912 10915 10917 10920 10923 10925 10928 10930 10933 10936 10939 10941 10944 10946 10949 10952 10954 10956 10959 10962 10965 10967 10969 10972 10974 10977 10980 10983 10986 10989 10992 10995 10998 11000 11003 11006 11008 11010 11013 11015 11018 11020 11022 11025 11028 11031 11033 11036 11039 11041 11044 11047 11050 11053 11056 11059 11061 11063 11066 11069 11072 11075 11078 11081 11084 11086 11088 11091 11094 11097 11100 11102 11105 11108 11111 11113 11116 11119 11121 11124 11127 11130 11133 11136 11138 11141 11144 11146 11149 11152 11155 11157 11159 11162 11165 11167 11170 11173 11176 11178 11181 11184 11187 11189 11191 11194 11197 11199 11202 11205 11208 11211 11213 11215 11218 11221 11223 11225 11228 11230 11232 11235 11238 11241 11244 11247 11250 11252 11255 11258 11261 11264 11267 11270 11273 11276 11279 11282 11284 11286 11289 11292 11295 11298 11301 11304 11307 11309 11312 11315 11318 11321 11324 11327 11330 11333 11336 11338 11341 11344 11346 11349 11352 11354 11357 11360 11363 11366 11369 11372 11375 11378 11381 11384 11387 11390 11393 11396 11399 11402 11405 11408 11410 11412 11415 11418 11421 11424 11426 11429 11432 11434 11437 11440 11443 11446 11449 11452 11455 11458 11461 11463 11466 11469 11471 11474 11477 11480 11483 11486 11489 11492 11495 11498 11501 11504 11506 11509 11511 11514 11517 11520 11523 11526 11529 11532 11535 11538 11541 11543 11546 11549 11552 11555 11558 11561 11564 11567 11570 11573 11576 11579 11582 11585 11588 11591 11594 11597 11600 11603 11606 11609 11612 11615 11618 11621 11624 11627 11630 11633 11636 11639 11642 11645 11648 11651 11654 11657 11660 11662 11665 11668 11671 11674 11677 11680 11683 11686 11689 11691 11694 11697 11699 11702 11705 11708 11711 11714 11717 11720 11723 11726 11729 11732 11735 11738 11741 11744 11747 11749 11752 11754 11757 11760 11762 11765 11768 11771 11773 11775 11778 11780 11782 11785 11787 11790 11793 11795 11798 11801 11803 11806 11809 11812 11815 11818 11821 11824 11827 11830 11833 11836 11839 11842 11845 11848 11851 11854 11857 11860 11863 11866 11868 11871 11874 11877 11880 11883 11886 11889 11892 11895 11898 11901 11904 11907 11910 11913 11916 11919 11922 11925 11927 11930 11933 11936 11939 11942 11944 11947 11950 11953 11956 11959 11962 11965 11968 11971 11974 11977 11980 11983 11986 11989 11992 11995 11998 12001 12004 12007 12010 12013 12016 12018 12021 12024 12027 12030 12033 12036 12038 12041 12044 12047 12050 12053 12056 12059 12062 12065 12068 12071 12074 12077 12080 12083 12085 12088 12091 12094 12096 12098 12101 12104 12107 12109 12112 12115 12118 12121 12124 12127 12130 12133 12135 12138 12141 12144 12147 12149 12152 12155 12158 12161 12164 12167 12170 12173 12176 12179 12182 12185 12188 12190 12193 12196 12199 12202 12205 12208 12211 12214 12217 12220 12223 12226 12229 12232 12235 12238 12241 12244 12247 12250 12253 12256 12259 12262 12265 12268 12271 12273 12276 12279 12282 12285 12288 12291 12294 12297 12300 12303 12306 12309 12312 12315 12318 12320 12322 12325 12328 12331 12333 12336 12339 12342 12345 12348 12351 12354 12357 12360 12363 12366 12369 12372 12375 12378 12381 12384 12387 12390 12393 12396 12399 12402 12405 12408 12411 12414 12417 12420 12423 12425 12428 12431 12434 12437 12440 12443 12446 12449 12452 12455 12458 12461 12464 12467 12470 12473 12476 12479 12482 12485 12488 12491 12494 12497 12500 12502 12505 12508 12511 12514 12517 12520 12523 12525 12528 12531 12534 12536 12539 12542 12544 12547 12550 12553 12556 12559 12562 12565 12568 12570 12572 12575 12578 12581 12584 12587 12589 12592 12595 12598 12601 12604 12607 12610 12613 12616 12619 12622 12625 12628 12631 12634 12637 12640 12643 12646 12648 12651 12653 12656 12658 12661 12664 12667 12669 12672 12674 12677 12680 12683 12686 12689 12692 12695 12698 12701 12704 12707 12710 12712 12715 12718 12721 12724 12726 12729 12732 12734 12737 12739 12742 12745 12747 12750 12753 12756 12758 12761 12764 12767 12770 12773 12776 12779 12782 12785 12787 12790 12793 12796 12799 12801 12804 12807 12810 12813 12815 12818 12821 12824 12827 12830 12833 12835 12838 12840 12843 12845 12848 12851 12854 12856 12859 12862 12865 12868 12871 12874 12876 12878 12881 12884 12887 12890 12893 12895 12898 12901 12904 12907 12910 12913 12916 12919 12922 12925 12928 12931 12934 12937 12940 12943 12946 12949 12952 12954 12957 12960 12963 12966 12969 12972 12975 12978 12981 12983 12986 12988 12991 12993 12996 12999 13002 13005 13008 13011 13014 13017 13020 13023 13026 13029 13031 13034 13037 13039 13042 13045 13048 13051 13054 13057 13060 13063 13066 13068 13071 13073 13076 13079 13082 13085 13088 13091 13093 13096 13099 13102 13105 13108 13111 13114 13117 13120 13123 13126 13129 13132 13135 13138 13141 13144 13147 13150 13153 13156 13159 13162 13165 13168 13171 13174 13177 13180 13183 13186 13189 13192 13195 13198 13201 13204 13207 13210 13213 13216 13218 13221 13224 13226 13229 13231 13234 13237 13240 13242 13244 13247 13250 13252 13255 13258 13261 13264 13267 13270 13273 13276 13279 13282 13285 13288 13290 13293 13296 13299 13302 13305 13308 13311 13314 13317 13320 13323 13326 13328 13331 13334 13337 13340 13343 13346 13349 13352 13355 13358 13361 13364 13367 13370 13373 13375 13378 13381 13384 13387 13390 13392 13395 13398 13401 13404 13407 13410 13413 13416 13419 13421 13424 13427 13430 13433 13435 13438 13441 13444 13447 13450 13453 13456 13459 13462 13465 13468 13470 13473 13475 13478 13480 13483 13486 13489 13491 13494 13497 13500 13503 13506 13509 13512 13515 13518 13521 13524 13527 13530 13533 13536 13539 13542 13545 13548 13551 13553 13556 13559 13562 13565 13568 13571 13574 13577 13580 13583 13586 13589 13592 13595 13598 13601 13604 13607 13609 13612 13615 13618 13621 13624 13626 13629 13632 13635 13638 13641 13644 13647 13650 13652 13655 13658 13660 13663 13666 13669 13672 13675 13678 13681 13683 13686 13689 13692 13695 13698 13701 13704 13707 13710 13712 13715 13718 13721 13724 13727 13730 13733 13736 13739 13742 13745 13748 13751 13754 13757 13760 13763 13766 13769 13772 13775 13778 13781 13784 13786 13789 13791 13794 13797 13799 13802 13805 13808 13811 13814 13817 13820 13823 13825 13828 13831 13834 13837 13840 13843 13845 13848 13851 13854 13857 13860 13863 13866 13869 13872 13875 13878 13881 13883 13886 13889 13892 13895 13898 13901 13904 13907 13910 13913 13916 13919 13922 13925 13927 13930 13933 13936 13938 13941 13944 13947 13950 13952 13955 13958 13961 13964 13967 13970 13973 13976 13979 13982 13985 13988 13991 13994 13997 14000 14003 14006 14009 14012 14015 14018 14021 14024 14027 14030 14032 14035 14038 14040 14043 14046 14049 14052 14055 14058 14061 14064 14067 14069 14072 14075 14077 14080 14083 14085 14088 14091 14094 14097 14100 14103 14106 14109 14112 14115 14118 14121 14124 14127 14130 14133 14136 14139 14142 14145 14148 14151 14154 14157 14160 14163 14166 14169 14172 14175 14178 14181 14184 14187 14190 14193 14196 14199 14202 14205 14208 14211 14214 14217 14220 14223 14226 14229 14232 14235 14238 14241 14244 14247 14250 14253 14256 14259 14262 14265 14268 14271 14274 14276 14279 14282 14285 14288 14291 14294 14296 14299 14302 14305 14308 14311 14314 14317 14320 14323 14326 14329 14331 14333 14336 14339 14341 14344 14346 14349 14352 14354 14357 14360 14362 14365 14368 14371 14374 14377 14380 14383 14386 14388 14391 14394 14397 14400 14403 14406 14409 14412 14415 14417 14420 14423 14426 14429 14431 14434 14437 14440 14443 14446 14449 14452 14455 14458 14461 14464 14467 14470 14473 14476 14478 14481 14484 14487 14490 14492 14495 14497 14500 14503 14506 14508 14511 14514 14516 14519 14522 14525 14528 14531 14534 14537 14540 14543 14546 14549 14551 14554 14557 14559 14562 14565 14568 14570 14573 14576 14578 14580 14583 14586 14588 14591 14594 14597 14600 14603 14606 14609 14612 14614 14617 14620 14623 14626 14628 14631 14633 14636 14638 14641 14644 14647 14650 14652 14655 14658 14661 14663 14666 14669 14672 14675 14678 14681 14684 14687 14690 14693 14696 14699 14702 14705 14708 14711 14714 14717 14719 14722 14725 14728 14731 14734 14737 14740 14743 14746 14749 14752 14755 14758 14761 14764 14767 14770 14773 14776 14779 14782 14785 14788 14791 14794 14797 14800 14803 14806 14809 14812 14815 14818 14821 14824 14827 14830 14833 14836 14839 14841 14844 14847 14850 14853 14856 14858 14861 14864 14867 14870 14873 14876 14879 14882 14885 14888 14891 14894 14897 14899 14902 14905 14907 14910 14913 14916 14918 14921 14923 14926 14929 14932 14935 14937 14940 14943 14946 14949 14952 14955 14958 14961 14964 14966 14969 14972 14974 14976 14979 14981 14984 14987 14990 14993 14996 14999 15002 15005 15008 15011 15014 15017 15020 15023 15026 15029 15032 15035 15038 15041 15044 15047 15050 15052 15055 15058 15061 15063 15066 15069 15072 15075 15078 15081 15084 15086 15089 15092 15095 15098 15101 15104 15107 15110 15113 15116 15119 15122 15125 15128 15131 15134 15137 15140 15143 15146 15149 15152 15155 15157 15160 15163 15166 15169 15172 15174 15177 15179 15181 15184 15187 15190 15192 15195 15198 15200 15203 15206 15209 15212 15215 15218 15221 15224 15227 15230 15233 15235 15238 15241 15244 15246 15249 15251 15254 15257 15260 15263 15266 15268 15271 15273 15276 15278 15281 15284 15287 15290 15293 15296 15299 15302 15304 15306 15308 15311 15314 15316 15319 15322 15325 15328 15331 15334 15337 15340 15343 15346 15349 15352 15355 15358 15361 15364 15367 15370 15373 15376 15379 15382 15385 15388 15391 15394 15397 15400 15403 15406 15409 15412 15415 15418 15421 15424 15427 15429 15432 15435 15438 15441 15444 15447 15450 15452 15455 15458 15460 15463 15466 15469 15472 15475 15478 15481 15484 15487 15490 15493 15496 15499 15502 15505 15508 15511 15514 15517 15520 15523 15526 15529 15531 15534 15537 15540 15543 15546 15549 15552 15555 15558 15561 15563 15566 15569 15572 15575 15577 15580 15583 15586 15589 15591 15594 15596 15598 15601 15604 15607 15610 15612 15615 15618 15620 15623 15626 15628 15630 15633 15636 15639 15642 15645 15648 15651 15653 15656 15659 15662 15665 15668 15671 15674 15677 15680 15683 15686 15689 15692 15694 15697 15700 15703 15706 15709 15712 15715 15717 15719 15722 15724 15727 15729 15732 15735 15738 15740 15743 15746 15749 15752 15755 15757 15760 15763 15765 15768 15771 15774 15777 15780 15783 15786 15788 15791 15794 15797 15800 15803 15806 15809 15812 15814 15817 15820 15823 15825 15828 15831 15834 15837 15840 15842 15844 15847 15850 15852 15855 15858 15861 15864 15867 15870 15873 15876 15879 15882 15885 15888 15891 15894 15896 15899 15902 15904 15907 15909 15912 15915 15918 15921 15923 15926 15929 15932 15935 15938 15940 15943 15946 15948 15950 15953 15956 15959 15962 15964 15967 15970 15973 15976 15979 15982 15985 15988 15990 15993 15995 15998 16001 16004 16007 16010 16013 16016 16019 16021 16024 16027 16030 16033 16035 16038 16041 16044 16047 16050 16053 16056 16059 16062 16065 16068 16071 16074 16077 16080 16083 16086 16089 16092 16095 16098 16101 16104 16107 16110 16113 16116 16119 16122 16125 16128 16131 16134 16136 16139 16142 16145 16148 16151 16154 16157 16159 16162 16165 16168 16171 16174 16177 16180 16183 16186 16189 16192 16195 16197 16200 16203 16206 16209 16211 16214 16217 16220 16223 16226 16229 16232 16235 16238 16241 16244 16247 16250 16252 16255 16258 16260 16263 16266 16269 16272 16274 16277 16280 16283 16286 16289 16292 16295 16298 16301 16304 16307 16309 16312 16314 16317 16320 16322 16325 16328 16331 16334 16336 16339 16342 16345 16348 16351 16354 16357 16360 16363 16366 16369 16372 16375 16378 16381 16384 16387 16390 16393 16396 16399 16402 16405 16408 16411 16414 16417 16420 16422 16425 16428 16431 16434 16436 16439 16442 16445 16448 16451 16454 16457 16460 16463 16465 16468 16471 16474 16476 16479 16482 16485 16488 16491 16494 16496 16499 16501 16504 16506 16509 16512 16515 16518 16521 16524 16527 16530 16533 16536 16539 16542 16545 16548 16551 16554 16557 16560 16563 16566 16569 16572 16575 16578 16581 16584 16587 16590 16593 16596 16599 16602 16605 16608 16611 16613 16616 16618 16621 16624 16627 16630 16633 16636 16639 16642 16644 16647 16650 16653 16656 16659 16662 16665 16668 16671 16674 16677 16680 16682 16685 16688 16691 16694 16697 16700 16703 16706 16709 16712 16715 16718 16721 16723 16726 16729 16731 16734 16737 16740 16743 16745 16748 16751 16754 16757 16759 16762 16765 16768 16771 16774 16776 16778 16781 16783 16786 16789 16791 16794 16797 16800 16803 16805 16808 16810 16813 16816 16819 16822 16825 16828 16831 16834 16836 16839 16842 16845 16848 16850 16853 16856 16859 16862 16865 16868 16871 16874 16877 16880 16883 16886 16889 16892 16895 16898 16901 16904 16907 16910 16913 16916 16918 16921 16924 16927 16930 16933 16936 16939 16942 16945 16948 16951 16954 16957 16960 16963 16966 16969 16972 16975 16978 16981 16983 16986 16989 16992 16995 16998 17001 17004 17006 17009 17011 17014 17017 17020 17023 17026 17029 17032 17035 17038 17041 17044 17047 17050 17053 17056 17059 17062 17065 17068 17071 17074 17077 17080 17083 17086 17089 17091 17094 17097 17100 17103 17106 17108 17111 17113 17116 17119 17122 17125 17127 17129 17131 17134 17136 17139 17142 17145 17147 17150 17153 17156 17159 17161 17164 17166 17169 17172 17175 17178 17180 17183 17186 17189 17191 17193 17195 17198 17200 17203 17205 17208 17211 17213 17216 17219 17222 17225 17228 17231 17234 17237 17240 17243 17245 17248 17250 17253 17255 17258 17261 17264 17267 17269 17272 17275 17278 17281 17283 17286 17289 17292 17295 17298 17301 17304 17307 17310 17313 17315 17318 17320 17323 17326 17328 17331 17334 17336 17339 17342 17345 17348 17351 17353 17356 17359 17362 17365 17368 17371 17374 17377 17380 17383 17386 17389 17391 17394 17397 17400 17402 17405 17408 17411 17414 17417 17419 17422 17425 17428 17431 17434 17437 17440 17443 17446 17449 17452 17455 17458 17461 17464 17467 17470 17473 17476 17479 17482 17484 17487 17490 17493 17496 17498 17501 17504 17507 17509 17512 17514 17517 17520 17522 17525 17527 17530 17533 17536 17539 17542 17545 17547 17550 17553 17556 17559 17561 17564 17566 17569 17572 17575 17578 17581 17584 17587 17589 17592 17595 17598 17601 17604 17607 17610 17612 17615 17618 17621 17624 17627 17630 17633 17636 17639 17642 17645 17648 17651 17654 17657 17660 17663 17665 17668 17671 17674 17676 17679 17682 17685 17688 17691 17694 17697 17700 17703 17706 17709 17712 17715 17718 17720 17723 17726 17729 17732 17735 17738 17741 17744 17747 17750 17753 17756 17759 17762 17765 17768 17771 17774 17777 17780 17783 17786 17789 17792 17795 17798 17801 17803 17806 17808 17811 17814 17817 17819 17822 17825 17828 17830 17833 17836 17838 17840 17843 17846 17849 17852 17855 17858 17861 17864 17866 17869 17872 17874 17877 17880 17883 17886 17888 17891 17893 17896 17899 17902 17904 17907 17910 17913 17916 17919 17922 17925 17928 17931 17934 17936 17939 17942 17944 17947 17950 17952 17955 17958 17961 17964 17967 17970 17973 17975 17978 17981 17983 17985 17988 17991 17994 17996 17999 18002 18005 18008 18011 18014 18016 18019 18022 18025 18028 18030 18033 18036 18039 18041 18044 18047 18050 18053 18055 18058 18061 18063 18066 18069 18072 18075 18078 18081 18084 18087 18090 18093 18096 18098 18101 18104 18107 18110 18112 18115 18117 18120 18122 18125 18127 18130 18133 18136 18139 18142 18145 18148 18151 18154 18157 18160 18162 18164 18167 18170 18173 18176 18179 18182 18184 18187 18190 18192 18195 18198 18201 18204 18207 18210 18212 18215 18218 18221 18223 18226 18228 18231 18234 18237 18239 18242 18245 18248 18251 18254 18257 18259 18262 18265 18268 18271 18274 18277 18279 18282 18284 18287 18290 18293 18295 18298 18301 18304 18307 18309 18312 18315 18318 18321 18324 18327 18330 18332 18335 18337 18340 18342 18345 18348 18351 18353 18355 18358 18361 18363 18366 18369 18372 18375 18378 18380 18383 18385 18387 18389 18391 18394 18397 18400 18403 18406 18408 18410 18413 18416 18418 18421 18424 18427 18429 18432 18435 18438 18441 18444 18447 18450 18453 18456 18458 18461 18464 18467 18469 18472 18475 18478 18481 18484 18487 18490 18492 18495 18497 18500 18503 18506 18509 18511 18514 18516 18519 18522 18525 18528 18530 18533 18536 18539 18542 18545 18548 18551 18554 18557 18559 18562 18565 18568 18571 18574 18577 18580 18583 18586 18589 18592 18595 18598 18601 18604 18607 18610 18613 18616 18619 18622 18624 18627 18630 18633 18636 18638 18641 18644 18647 18650 18653 18655 18658 18660 18663 18666 18669 18672 18675 18678 18681 18684 18687 18690 18693 18695 18698 18700 18703 18705 18707 18710 18712 18715 18717 18720 18723 18726 18728 18731 18734 18737 18739 18742 18745 18748 18751 18753 18756 18758 18761 18764 18767 18770 18773 18776 18779 18782 18784 18787 18790 18793 18796 18799 18802 18805 18808 18810 18813 18816 18819 18822 18825 18828 18831 18834 18837 18839 18842 18845 18847 18850 18853 18856 18858 18861 18864 18867 18870 18873 18876 18879 18882 18885 18888 18891 18894 18896 18899 18902 18905 18908 18910 18913 18916 18919 18922 18925 18928 18930 18933 18936 18939 18942 18944 18947 18949 18952 18955 18958 18961 18964 18967 18970 18972 18975 18978 18981 18983 18985 18988 18991 18994 18997 18999 19002 19004 19007 19010 19012 19015 19018 19021 19024 19027 19030 19033 19036 19039 19042 19045 19048 19051 19054 19057 19060 19063 19066 19069 19072 19075 19078 19081 19084 19087 19090 19093 19096 19099 19102 19105 19108 19111 19114 19117 19119 19122 19125 19128 19130 19133 19136 19139 19142 19145 19148 19151 19154 19157 19160 19163 19166 19169 19171 19174 19176 19179 19182 19185 19188 19191 19194 19197 19200 19203 19206 19209 19212 19215 19217 19220 19223 19225 19228 19231 19234 19237 19240 19242 19245 19248 19251 19254 19257 19260 19263 19266 19269 19272 19275 19278 19281 19284 19287 19290 19293 19296 19299 19301 19303 19306 19309 19311 19314 19317 19319 19322 19325 19328 19331 19334 19337 19340 19342 19345 19348 19351 19354 19356 19359 19362 19365 19368 19371 19374 19377 19380 19383 19386 19389 19392 19395 19398 19400 19403 19406 19408 19411 19414 19417 19420 19423 19426 19429 19431 19433 19436 19439 19442 19445 19448 19451 19454 19457 19460 19463 19466 19469 19472 19475 19478 19481 19483 19486 19489 19492 19495 19497 19500 19503 19505 19508 19511 19513 19516 19519 19522 19525 19528 19531 19534 19537 19540 19543 19546 19549 19551 19554 19557 19560 19563 19565 19568 19571 19574 19577 19580 19583 19586 19589 19592 19594 19596 19598 19601 19604 19607 19609 19612 19615 19617 19619 19622 19624 19627 19630 19633 19635 19638 19641 19644 19647 19650 19653 19656 19659 19662 19665 19668 19671 19674 19677 19680 19683 19686 19689 19692 19695 19698 19701 19704 19707 19710 19713 19716 19719 19722 19725 19728 19731 19734 19737 19740 19743 19746 19749 19752 19755 19758 19761 19764 19767 19770 19773 19776 19779 19781 19784 19786 19789 19792 19795 19798 19801 19804 19807 19810 19813 19815 19818 19821 19824 19827 19830 19833 19835 19838 19841 19844 19847 19850 19852 19855 19858 19861 19864 19867 19870 19873 19876 19879 19882 19885 19888 19891 19894 19897 19899 19902 19905 19908 19911 19914 19917 19920 19922 19925 19928 19931 19934 19937 19939 19941 19944 19947 19950 19953 19955 19958 19961 19964 19967 19970 19973 19976 19979 19982 19985 19988 19991 19994 19997 20000 20003 20006 20009 20012 20015 20018 20020 20023 20026 20029 20032 20035 20038 20040 20043 20046 20049 20051 20054 20057 20060 20063 20066 20069 20072 20075 20078 20081 20084 20087 20090 20093 20096 20099 20102 20105 20107 20110 20112 20115 20118 20121 20124 20127 20129 20131 20134 20137 20140 20142 20145 20148 20151 20154 20157 20160 20162 20165 20168 20171 20174 20177 20179 20182 20184 20187 20190 20192 20195 20198 20201 20204 20206 20209 20212 20215 20218 20220 20223 20226 20229 20232 20234 20237 20240 20243 20246 20249 20252 20255 20258 20261 20264 20267 20270 20273 20275 20278 20281 20284 20287 20290 20293 20296 20299 20302 20305 20308 20311 20314 20317 20320 20323 20325 20328 20331 20334 20337 20339 20342 20345 20348 20351 20353 20356 20359 20362 20365 20368 20371 20374 20377 20380 20383 20385 20388 20391 20394 20397 20399 20402 20405 20408 20411 20414 20417 20420 20423 20426 20429 20432 20435 20438 20441 20444 20446 20449 20452 20455 20457 20460 20463 20466 20469 20472 20475 20478 20481 20484 20487 20490 20493 20496 20499 20501 20504 20507 20510 20513 20516 20519 20522 20525 20528 20531 20534 20536 20539 20542 20544 20547 20550 20553 20556 20559 20562 20564 20566 20569 20572 20575 20578 20580 20583 20585 20588 20591 20594 20596 20599 20602 20604 20607 20610 20613 20616 20619 20622 20625 20628 20631 20634 20637 20640 20643 20646 20649 20652 20654 20657 20660 20663 20666 20669 20672 20675 20678 20680 20682 20685 20688 20691 20693 20695 20698 20700 20703 20705 20708 20711 20714 20717 20719 20722 20725 20728 20731 20734 20737 20740 20743 20746 20749 20752 20755 20758 20760 20763 20765 20768 20771 20774 20777 20780 20783 20786 20789 20791 20793 20796 20799 20801 20803 20805 20808 20811 20814 20817 20820 20823 20825 20828 20831 20833 20836 20839 20841 20843 20845 20847 20850 20853 20856 20859 20862 20865 20868 20871 20874 20877 20880 20883 20886 20888 20891 20894 20896 20899 20901 20904 20907 20910 20913 20916 20919 20922 20924 20926 20929 20932 20934 20937 20940 20942 20945 20948 20951 20954 20956 20958 20960 20962 20965 20968 20971 20974 20977 20980 20983 20986 20989 20992 20995 20998 21001 21004 21006 21009 21012 21014 21017 21020 21023 21026 21028 21031 21034 21037 21039 21042 21045 21047 21050 21053 21055 21058 21061 21063 21065 21068 21070 21073 21076 21079 21082 21085 21088 21090 21093 21096 21099 21102 21104 21107 21110 21113 21116 21119 21121 21124 21127 21129 21132 21134 21136 21139 21142 21145 21147 21150 21153 21156 21159 21162 21164 21167 21170 21173 21175 21178 21181 21184 21186 21189 21192 21195 21198 21201 21204 21207 21209 21212 21215 21218 21221 21224 21226 21229 21232 21235 21238 21241 21244 21247 21249 21252 21254 21256 21259 21262 21264 21267 21270 21273 21276 21279 21282 21284 21287 21290 21293 21296 21299 21302 21304 21307 21310 21313 21316 21319 21322 21324 21327 21329 21332 21334 21337 21340 21342 21345 21348 21351 21354 21356 21358 21360 21362 21365 21368 21371 21374 21377 21380 21383 21386 21388 21391 21394 21397 21399 21402 21404 21407 21410 21413 21416 21419 21422 21425 21428 21431 21434 21437 21440 21443 21446 21449 21452 21454 21457 21459 21462 21465 21468 21471 21474 21477 21480 21483 21485 21488 21491 21494 21497 21500 21502 21505 21508 21510 21513 21516 21519 21522 21525 21528 21530 21532 21535 21538 21540 21543 21546 21549 21552 21555 21558 21561 21564 21567 21570 21573 21575 21577 21580 21583 21586 21589 21591 21594 21597 21600 21603 21606 21609 21612 21615 21617 21620 21623 21626 21629 21631 21634 21637 21640 21643 21646 21649 21651 21654 21656 21659 21661 21664 21667 21670 21673 21676 21679 21682 21685 21688 21691 21694 21697 21700 21703 21706 21709 21712 21715 21717 21720 21723 21726 21729 21732 21735 21738 21741 21744 21747 21750 21753 21756 21759 21762 21765 21768 21770 21772 21775 21778 21781 21784 21787 21790 21793 21796 21799 21802 21805 21808 21811 21814 21817 21820 21823 21826 21829 21832 21835 21838 21841 21844 21847 21850 21853 21856 21859 21862 21865 21868 21871 21874 21877 21880 21883 21886 21889 21892 21895 21898 21901 21904 21907 21909 21912 21914 21917 21920 21923 21926 21929 21932 21935 21937 21940 21943 21946 21948 21951 21953 21955 21957 21960 21962 21964 21967 21970 21972 21974 21976 21979 21982 21985 21988 21991 21993 21996 21998 22000 22003 22006 22009 22012 22015 22018 22021 22023 22026 22029 22031 22034 22037 22039 22041 22044 22047 22050 22053 22056 22059 22061 22064 22067 22069 22071 22074 22077 22079 22082 22085 22088 22090 22093 22096 22099 22102 22104 22107 22110 22113 22115 22118 22121 22123 22126 22129 22132 22135 22138 22141 22144 22147 22150 22153 22156 22159 22162 22165 22168 22171 22174 22177 22180 22182 22184 22187 22190 22193 22195 22198 22201 22204 22207 22209 22212 22215 22218 22221 22224 22226 22228 22231 22234 22237 22240 22243 22246 22249 22252 22255 22257 22260 22263 22266 22269 22272 22275 22278 22281 22284 22287 22290 22293 22296 22299 22302 22305 22308 22311 22314 22317 22320 22323 22326 22329 22332 22335 22338 22340 22343 22345 22347 22350 22353 22356 22359 22362 22365 22368 22371 22374 22377 22380 22383 22386 22389 22392 22395 22398 22401 22404 22407 22410 22413 22416 22419 22422 22425 22428 22430 22433 22436 22438 22441 22444 22446 22449 22452 22454 22457 22459 22462 22465 22468 22471 22474 22477 22480 22482 22485 22488 22491 22494 22497 22500 22503 22506 22509 22512 22515 22518 22520 22523 22525 22528 22530 22533 22536 22539 22542 22545 22547 22550 22553 22556 22559 22561 22564 22567 22569 22572 22575 22578 22581 22584 22587 22590 22593 22595 22598 22601 22604 22607 22610 22613 22615 22618 22621 22624 22627 22629 22632 22635 22638 22640 22643 22646 22649 22652 22655 22658 22661 22664 22667 22670 22673 22676 22679 22682 22685 22688 22691 22694 22696 22699 22701 22704 22707 22710 22712 22715 22718 22721 22724 22727 22730 22733 22736 22739 22742 22745 22748 22751 22754 22757 22760 22763 22766 22769 22771 22774 22777 22780 22782 22785 22788 22791 22793 22796 22799 22802 22805 22808 22811 22814 22817 22820 22823 22826 22829 22832 22835 22838 22840 22843 22846 22849 22852 22854 22857 22860 22862 22865 22868 22871 22874 22877 22880 22882 22885 22887 22890 22892 22894 22896 22899 22902 22905 22907 22909 22912 22915 22918 22921 22924 22927 22930 22932 22935 22938 22941 22943 22946 22948 22951 22954 22957 22960 22963 22966 22969 22972 22975 22977 22980 22983 22986 22989 22992 22995 22998 23001 23003 23006 23009 23012 23015 23017 23020 23023 23026 23029 23032 23035 23038 23041 23044 23047 23050 23053 23056 23059 23062 23065 23068 23071 23074 23077 23080 23082 23084 23087 23090 23093 23096 23099 23102 23105 23108 23110 23113 23116 23119 23122 23125 23128 23131 23134 23137 23140 23142 23145 23148 23151 23154 23157 23160 23162 23165 23168 23171 23174 23177 23179 23182 23184 23187 23190 23192 23194 23197 23200 23203 23206 23209 23212 23215 23218 23221 23224 23227 23230 23233 23236 23239 23242 23245 23248 23251 23254 23257 23260 23263 23266 23269 23272 23275 23278 23281 23284 23287 23290 23293 23296 23299 23302 23305 23308 23311 23314 23317 23320 23323 23326 23329 23332 23335 23338 23340 23342 23345 23348 23350 23353 23356 23359 23362 23365 23367 23369 23372 23375 23377 23379 23382 23385 23388 23391 23394 23397 23400 23403 23406 23409 23411 23414 23417 23420 23423 23426 23429 23432 23435 23438 23441 23444 23447 23450 23453 23456 23458 23461 23464 23467 23470 23473 23476 23479 23482 23485 23488 23491 23494 23497 23499 23502 23504 23506 23508 23511 23514 23517 23520 23523 23526 23529 23532 23534 23536 23539 23542 23545 23548 23550 23553 23556 23559 23562 23565 23568 23571 23574 23576 23579 23582 23585 23588 23591 23594 23597 23600 23603 23606 23609 23612 23615 23618 23621 23624 23627 23629 23632 23635 23638 23641 23644 23647 23649 23652 23655 23657 23660 23663 23666 23669 23672 23675 23678 23681 23684 23687 23690 23693 23696 23699 23702 23705 23708 23711 23713 23716 23719 23722 23724 23727 23730 23732 23735 23737 23739 23742 23745 23747 23750 23753 23756 23758 23761 23764 23766 23769 23771 23773 23776 23779 23782 23785 23787 23790 23793 23796 23799 23802 23805 23807 23810 23812 23815 23818 23821 23823 23826 23829 23832 23835 23837 23840 23842 23844 23847 23850 23853 23856 23859 23861 23864 23866 23869 23871 23874 23876 23878 23881 23884 23887 23890 23893 23896 23899 23901 23904 23906 23909 23912 23914 23917 23920 23922 23925 23928 23931 23934 23937 23940 23943 23946 23949 23952 23955 23958 23961 23964 23967 23970 23973 23976 23979 23982 23985 23988 23991 23994 23997 24000 24003 24006 24009 24012 24015 24017 24020 24023 24026 24029 24032 24035 24038 24041 24044 24047 24050 24053 24056 24059 24062 24065 24068 24071 24074 24077 24080 24083 24086 24088 24091 24094 24097 24100 24103 24105 24107 24110 24113 24116 24119 24122 24125 24128 24131 24134 24137 24140 24143 24146 24149 24152 24155 24158 24161 24164 24167 24170 24172 24175 24178 24181 24184 24187 24190 24193 24196 24199 24202 24205 24208 24211 24213 24216 24218 24221 24224 24227 24229 24232 24235 24238 24241 24244 24247 24250 24253 24255 24258 24260 24263 24266 24269 24272 24275 24277 24280 24283 24286 24289 24292 24295 24298 24301 24304 24307 24310 24312 24315 24318 24321 24324 24327 24330 24333 24336 24339 24342 24345 24347 24350 24353 24356 24359 24362 24365 24368 24371 24373 24376 24379 24382 24385 24388 24391 24394 24397 24400 24403 24406 24409 24412 24415 24418 24421 24424 24427 24430 24433 24436 24439 24442 24445 24448 24451 24453 24456 24459 24461 24464 24467 24470 24473 24476 24479 24482 24485 24488 24491 24494 24497 24500 24503 24506 24509 24512 24515 24518 24521 24524 24527 24530 24533 24536 24539 24542 24545 24547 24550 24552 24555 24557 24560 24563 24566 24569 24572 24574 24577 24580 24583 24586 24588 24591 24594 24597 24599 24602 24605 24608 24611 24614 24617 24620 24623 24626 24629 24632 24635 24638 24641 24644 24647 24650 24653 24655 24657 24659 24662 24665 24668 24671 24674 24677 24680 24683 24686 24689 24692 24695 24698 24700 24703 24706 24709 24712 24715 24718 24721 24724 24727 24730 24733 24736 24738 24741 24744 24746 24749 24752 24755 24758 24761 24764 24767 24770 24773 24776 24779 24782 24785 24788 24791 24794 24797 24800 24803 24806 24809 24811 24813 24816 24819 24822 24825 24828 24831 24834 24837 24840 24843 24846 24849 24852 24855 24857 24860 24863 24865 24868 24871 24874 24877 24879 24882 24885 24888 24891 24894 24897 24899 24902 24905 24908 24911 24914 24917 24920 24923 24926 24929 24932 24935 24938 24941 24944 24947 24950 24953 24955 24958 24961 24964 24967 24970 24972 24975 24978 24981 24984 24987 24990 24993 24996 24999 25002 25005 25008 25011 25014 25017 25020 25023 25026 25029 25032 25035 25038 25041 25044 25047 25050 25053 25056 25058 25061 25063 25066 25069 25072 25075 25077 25079 25082 25085 25088 25091 25094 25097 25100 25103 25106 25109 25112 25115 25118 25121 25124 25127 25130 25133 25136 25139 25142 25145 25148 25151 25154 25157 25160 25163 25166 25169 25172 25175 25178 25181 25184 25186 25189 25192 25195 25198 25200 25203 25206 25209 25212 25215 25218 25221 25224 25227 25230 25233 25235 25238 25241 25244 25247 25250 25253 25256 25259 25262 25265 25268 25271 25274 25277 25280 25283 25286 25288 25290 25293 25295 25298 25301 25304 25307 25310 25313 25316 25319 25322 25325 25327 25330 25333 25336 25339 25342 25345 25348 25351 25354 25357 25360 25363 25366 25369 25372 25375 25378 25380 25383 25386 25389 25392 25394 25397 25400 25403 25406 25409 25412 25415 25418 25421 25424 25427 25430 25433 25436 25439 25442 25445 25448 25451 25454 25457 25460 25463 25466 25469 25472 25475 25478 25481 25484 25487 25490 25493 25496 25499 25502 25505 25508 25511 25514 25517 25520 25523 25526 25529 25532 25535 25538 25541 25544 25547 25550 25553 25556 25559 25562 25565 25568 25571 25574 25577 25580 25583 25586 25589 25592 25595 25598 25601 25604 25607 25610 25613 25616 25619 25622 25625 25628 25631 25634 25637 25639 25642 25645 25648 25651 25654 25657 25660 25662 25665 25668 25670 25673 25676 25679 25682 25685 25688 25691 25694 25697 25700 25703 25706 25708 25711 25713 25716 25718 25721 25724 25727 25730 25733 25736 25739 25742 25744 25747 25750 25753 25756 25759 25762 25765 25768 25771 25773 25776 25779 25782 25785 25788 25791 25794 25797 25800 25803 25806 25809 25812 25815 25818 25821 25824 25827 25830 25833 25836 25838 25841 25844 25847 25850 25853 25856 25859 25862 25865 25868 25871 25874 25876 25879 25882 25885 25888 25891 25893 25896 25899 25901 25904 25907 25910 25913 25915 25917 25920 25923 25925 25928 25931 25934 25937 25940 25943 25946 25948 25950 25953 25956 25959 25962 25965 25968 25971 25974 25977 25980 25983 25986 25988 25991 25994 25997 26000 26002 26005 26008 26011 26014 26017 26020 26023 26026 26028 26031 26034 26037 26040 26042 26045 26048 26051 26054 26056 26059 26062 26065 26068 26071 26074 26077 26079 26082 26085 26088 26091 26094 26096 26099 26102 26105 26107 26110 26113 26116 26119 26122 26124 26127 26130 26133 26136 26139 26142 26145 26148 26151 26154 26157 26160 26163 26166 26168 26171 26174 26176 26179 26182 26185 26188 26191 26194 26197 26200 26203 26206 26209 26212 26215 26218 26221 26224 26227 26230 26233 26236 26239 26241 26244 26247 26249 26252 26255 26257 26260 26263 26266 26269 26272 26275 26278 26281 26284 26287 26290 26293 26296 26299 26302 26305 26308 26311 26314 26317 26320 26323 26326 26329 26332 26335 26338 26341 26344 26347 26349 26352 26355 26358 26361 26363 26366 26369 26371 26374 26376 26379 26382 26385 26388 26390 26393 26395 26398 26401 26403 26406 26408 26411 26413 26415 26418 26421 26423 26426 26428 26431 26433 26436 26439 26441 26444 26447 26450 26453 26456 26459 26461 26464 26466 26469 26472 26474 26476 26479 26482 26484 26487 26489 26492 26495 26497 26500 26503 26505 26508 26511 26513 26515 26517 26520 26522 26525 26528 26531 26534 26537 26540 26543 26546 26548 26551 26554 26557 26560 26563 26566 26569 26571 26574 26577 26580 26583 26586 26589 26592 26595 26598 26601 26604 26607 26610 26613 26615 26618 26621 26624 26627 26630 26633 26636 26639 26642 26645 26648 26651 26654 26657 26660 26663 26666 26669 26672 26674 26677 26680 26683 26686 26689 26692 26695 26698 26701 26704 26707 26710 26713 26716 26719 26722 26725 26728 26731 26734 26737 26740 26743 26746 26749 26752 26755 26758 26761 26764 26767 26769 26772 26775 26778 26780 26783 26785 26787 26790 26792 26795 26798 26801 26803 26806 26809 26812 26815 26817 26819 26821 26824 26827 26830 26833 26836 26839 26842 26845 26848 26851 26854 26857 26860 26863 26866 26869 26872 26874 26877 26880 26883 26886 26889 26892 26895 26898 26901 26903 26906 26909 26912 26914 26917 26920 26923 26926 26929 26932 26935 26938 26941 26944 26947 26950 26952 26955 26958 26960 26963 26966 26969 26972 26975 26978 26981 26984 26987 26990 26993 26996 26999 27002 27005 27008 27011 27014 27017 27020 27023 27026 27028 27031 27034 27037 27040 27043 27046 27049 27052 27055 27058 27061 27064 27067 27070 27073 27076 27079 27082 27084 27087 27090 27093 27096 27099 27102 27105 27107 27110 27113 27116 27119 27121 27124 27127 27130 27133 27136 27139 27142 27145 27148 27151 27154 27157 27160 27163 27166 27169 27172 27175 27178 27181 27184 27187 27190 27193 27196 27199 27202 27205 27208 27211 27214 27217 27220 27223 27226 27228 27230 27233 27236 27239 27242 27244 27247 27249 27252 27255 27258 27261 27264 27266 27269 27272 27275 27278 27281 27284 27287 27290 27292 27294 27297 27300 27303 27306 27308 27311 27314 27317 27320 27323 27326 27329 27332 27335 27338 27341 27344 27347 27350 27353 27356 27359 27362 27365 27368 27371 27373 27376 27379 27382 27385 27388 27391 27393 27396 27399 27401 27404 27407 27410 27413 27416 27419 27422 27425 27428 27430 27433 27436 27439 27442 27445 27448 27451 27454 27456 27459 27462 27465 27468 27471 27474 27477 27480 27483 27486 27489 27492 27495 27498 27501 27504 27507 27509 27512 27515 27517 27520 27523 27526 27529 27532 27535 27538 27541 27544 27547 27550 27553 27556 27559 27562 27565 27568 27571 27574 27577 27580 27583 27586 27589 27592 27595 27598 27601 27604 27606 27609 27611 27614 27617 27620 27623 27626 27629 27632 27635 27638 27641 27644 27647 27650 27653 27656 27659 27662 27665 27668 27671 27674 27677 27679 27682 27685 27688 27690 27693 27696 27699 27702 27705 27708 27711 27714 27717 27720 27723 27726 27728 27731 27734 27737 27739 27741 27744 27747 27749 27752 27755 27758 27761 27764 27767 27770 27773 27776 27778 27781 27784 27787 27790 27793 27796 27799 27802 27805 27808 27811 27814 27817 27819 27822 27824 27827 27830 27833 27836 27839 27842 27845 27848 27851 27854 27857 27860 27863 27866 27869 27872 27875 27878 27881 27884 27887 27890 27893 27896 27899 27902 27905 27908 27911 27913 27916 27919 27922 27925 27928 27931 27933 27936 27939 27942 27945 27948 27951 27954 27957 27960 27963 27966 27969 27972 27975 27978 27981 27983 27986 27988 27991 27994 27997 28000 28003 28006 28009 28011 28014 28017 28020 28022 28025 28028 28031 28034 28036 28039 28042 28045 28048 28051 28054 28056 28059 28062 28065 28068 28070 28073 28075 28078 28081 28084 28087 28090 28093 28096 28099 28101 28103 28106 28109 28112 28114 28116 28119 28122 28125 28128 28131 28134 28137 28139 28141 28144 28146 28148 28151 28154 28157 28160 28162 28165 28167 28170 28173 28176 28179 28182 28185 28187 28190 28193 28196 28199 28201 28204 28207 28210 28213 28215 28218 28221 28224 28227 28230 28232 28235 28238 28240 28243 28246 28249 28252 28254 28257 28260 28263 28266 28269 28272 28275 28278 28281 28283 28285 28288 28291 28294 28297 28300 28303 28306 28309 28312 28315 28318 28321 28324 28326 28329 28331 28334 28337 28340 28343 28346 28349 28352 28355 28358 28361 28364 28367 28370 28373 28376 28379 28382 28385 28388 28391 28394 28396 28399 28402 28405 28408 28411 28414 28417 28420 28423 28426 28429 28432 28435 28438 28441 28444 28447 28450 28453 28456 28459 28462 28465 28468 28471 28474 28476 28479 28482 28485 28488 28491 28494 28497 28500 28502 28505 28507 28510 28513 28516 28519 28522 28525 28527 28530 28533 28536 28539 28542 28545 28548 28551 28554 28557 28560 28563 28566 28569 28572 28575 28578 28581 28584 28587 28590 28593 28596 28599 28602 28605 28607 28610 28613 28616 28619 28622 28625 28628 28631 28633 28636 28639 28641 28644 28647 28649 28652 28655 28658 28661 28664 28666 28669 28672 28675 28678 28681 28684 28687 28690 28693 28695 28698 28701 28704 28707 28710 28713 28716 28719 28722 28725 28728 28731 28734 28737 28740 28742 28745 28748 28751 28754 28757 28760 28763 28766 28768 28771 28774 28777 28780 28783 28786 28789 28792 28795 28798 28801 28804 28807 28810 28813 28816 28819 28822 28824 28827 28829 28832 28834 28837 28840 28842 28844 28847 28850 28853 28856 28859 28862 28865 28868 28871 28874 28877 28880 28883 28886 28888 28891 28894 28897 28900 28903 28906 28908 28911 28914 28917 28919 28922 28925 28928 28931 28934 28937 28940 28943 28946 28949 28952 28955 28957 28960 28963 28966 28969 28971 28973 28975 28978 28981 28984 28987 28990 28993 28996 28998 29001 29004 29006 29009 29011 29014 29016 29019 29022 29025 29028 29031 29033 29036 29039 29042 29045 29048 29051 29054 29057 29060 29063 29066 29069 29072 29075 29078 29081 29084 29087 29090 29093 29095 29098 29101 29104 29106 29109 29111 29113 29115 29118 29121 29124 29127 29130 29132 29135 29138 29141 29144 29147 29150 29153 29156 29159 29162 29165 29168 29171 29174 29177 29180 29183 29186 29189 29192 29195 29198 29201 29204 29207 29210 29212 29215 29218 29220 29223 29226 29229 29232 29235 29238 29241 29244 29246 29249 29251 29254 29257 29260 29263 29266 29269 29272 29275 29277 29280 29283 29286 29289 29291 29294 29297 29299 29302 29305 29307 29310 29313 29316 29318 29321 29324 29327 29330 29333 29336 29339 29342 29345 29348 29351 29354 29357 29360 29363 29366 29369 29372 29375 29378 29380 29383 29386 29389 29392 29395 29398 29400 29403 29406 29409 29412 29415 29417 29420 29423 29426 29429 29432 29434 29437 29439 29441 29444 29447 29450 29453 29456 29459 29462 29465 29468 29471 29474 29477 29479 29482 29485 29488 29491 29493 29496 29498 29500 29503 29506 29509 29511 29514 29517 29520 29523 29526 29529 29532 29535 29538 29541 29544 29547 29550 29553 29556 29559 29562 29565 29568 29571 29574 29577 29579 29582 29584 29587 29590 29592 29595 29598 29600 29603 29606 29608 29611 29614 29617 29619 29621 29624 29627 29630 29633 29636 29639 29642 29644 29647 29650 29653 29656 29659 29662 29665 29668 29670 29673 29676 29679 29682 29685 29688 29691 29693 29696 29699 29702 29704 29707 29709 29711 29714 29717 29720 29722 29725 29728 29731 29734 29737 29740 29743 29746 29749 29752 29755 29758 29761 29764 29767 29770 29773 29776 29779 29782 29785 29788 29790 29793 29796 29798 29801 29804 29807 29809 29812 29815 29818 29821 29824 29827 29830 29832 29834 29837 29840 29842 29845 29848 29851 29854 29857 29860 29863 29866 29869 29872 29875 29878 29881 29884 29887 29890 29893 29896 29899 29902 29905 29908 29911 29914 29917 29920 29923 29926 29929 29932 29935 29938 29941 29944 29947 29949 29952 29955 29958 29961 29964 29967 29970 29972 29975 29978 29980 29983 29986 29988 29991 29994 29997 30000 30003 30006 30009 30012 30015 30018 30021 30024 30027 30030 30033 30036 30039 30042 30045 30047 30050 30053 30056 30059 30061 30064 30067 30070 30073 30076 30079 30082 30085 30088 30091 30093 30096 30099 30102 30105 30107 30110 30113 30116 30119 30121 30123 30126 30128 30131 30134 30137 30140 30143 30146 30149 30152 30155 30158 30161 30164 30167 30170 30172 30175 30178 30181 30184 30187 30190 30193 30196 30199 30201 30204 30207 30210 30213 30216 30219 30222 30225 30228 30231 30234 30237 30240 30243 30246 30249 30252 30255 30258 30261 30264 30267 30270 30273 30276 30279 30282 30285 30288 30291 30294 30297 30300 30303 30306 30309 30312 30315 30318 30321 30324 30326 30329 30332 30335 30338 30340 30343 30346 30348 30351 30354 30357 30360 30363 30366 30368 30370 30373 30376 30379 30382 30384 30387 30390 30393 30396 30399 30402 30405 30408 30411 30414 30417 30420 30423 30426 30429 30432 30435 30438 30441 30444 30447 30450 30453 30456 30459 30462 30465 30468 30471 30474 30477 30480 30483 30486 30489 30492 30495 30498 30501 30504 30507 30510 30513 30516 30519 30522 30525 30528 30531 30534 30537 30540 30543 30546 30549 30552 30555 30558 30561 30564 30567 30569 30572 30575 30578 30581 30584 30586 30589 30591 30594 30597 30600 30603 30606 30609 30612 30615 30618 
</DataArray>
<DataArray type="UInt32" Name="types" format="ascii">
3 5 5 5 5 5 5 5 5 3 5 5 5 3 5 5 5 5 5 5 5 5 5 5 5 5 5 5 5 3 5 5 3 5 5 5 3 5 5 5 3 5 5 5 5 5 5 5 5 3 5 5 5 5 5 5 3 5 5 5 5 5 5 5 5 5 3 5 5 3 5 5 5 3 5 3 5 3 3 5 5 5 5 5 5 5 5 5 3 5 3 5 5 3 5 5 5 5 5 5 5 5 5 5 5 5 5 5 5 3 5 5 5 5 3 5 5 3 3 5 5 3 5 5 5 3 3 3 5 3 5 5 5 5 5 5 5 5 5 3 3 5 5 5 5 5 5 3 5 5 5 5 5 3 3 5 5 3 5 5 3 3 5 3 3 5 5 5 5 5 5 5 5 5 5 5 5 3 5 5 3 5 5 5 5 5 5 5 5 5 5 5 5 5 5 5 5 5 5 5 5 3 5 5 5 5 5 5 5 5 5 5 5 5 5 5 5 3 5 5 3 5 5 5 5 3 3 5 5 5 5 5 5 5 5 5 5 5 5 5 5 5 3 5 5 5 3 5 5 5 5 5 5 5 5 3 3 5 5 5 5 5 5 5 5 5 3 5 5 5 5 5 3 5 3 5 5 5 5 5 3 3 5 5 5 3 5 3 5 5 5 3 5 3 5 5 3 5 5 5 3 5 5 5 5 5 3 3 5 5 3 5 3 3 5 5 3 5 3 5 5 5 5 3 5 3 5 5 3 3 3 5 3 5 3 3 5 5 5 5 5 5 5 5 5 3 5 5 5 5 5 5 5 5 5 5 5 5 5 5 5 5 5 5 5 5 5 5 5 5 3 5 3 5 5 5 5 5 3 5 3 5 5 3 5 5 5 5 3 5 3 5 5 5 5 5 5 5 5 5 5 5 5 5 3 5 5 3 5 5 5 5 5 5 5 5 5 5 5 5 5 5 5 5 5 3 5 5 5 5 5 5 5 5 5 5 3 5 5 5 3 3 5 5 5 5 5 5 5 5 5 5 5 5 5 5 5 5 5 5 5 5 5 5 5 3 5 5 3 5 5 3 5 3 5 5 5 3 5 3 3 5 5 5 5 5 5 5 5 5 5 3 5 5 5 5 5 5 5 5 5 5 5 5 5 5 5 5 5 5 5 5 5 5 5 5 5 5 5 5 5 5 5 5 3 5 5 5 5 3 5 5 5 5 5 5 5 3 5 5 5 5 5 5 5 5 5 3 5 3 3 5 5 3 5 3 5 5 5 5 5 5 5 5 3 5 5 5 5 5 3 5 5 5 5 5 5 3 5 5 5 5 5 5 5 5 3 5 3 5 5 5 5 5 3 5 3 5 5 5 5 5 5 3 5 5 5 5 5 5 5 5 5 5 3 3 5 5 5 5 3 5 5 5 5 5 5 5 5 5 5 5 5 3 5 5 3 5 5 5 5 5 5 5 5 5 5 3 3 5 5 5 5 5 5 5 5 5 5 3 5 3 5 5 5 5 5 5 5 5 5 5 5 5 5 5 5 5 5 5 5 5 5 5 5 5 5 5 5 5 5 5 5 5 5 5 5 5 5 5 5 3 5 5 5 3 5 3 5 3 5 5 3 5 3 5 3 5 5 3 5 5 5 5 5 5 5 5 3 5 5 3 5 5 5 5 3 5 5 5 5 5 5 5 5 5 5 3 5 3 5 3 5 3 5 3 5 5 5 3 5 3 5 5 5 5 5 5 5 5 5 5 5 5 3 5 5 3 3 5 5 5 3 5 5 3 5 5 3 5 5 5 3 5 5 5 5 5 3 5 5 3 3 5 5 5 3 3 3 5 5 3 5 5 3 5 5 5 5 5 5 3 5 5 3 5 5 3 5 5 5 5 5 5 5 5 3 5 5 5 5 5 3 3 3 5 5 5 5 5 5 5 5 5 5 5 3 5 5 5 5 3 5 5 5 5 5 5 5 3 5 5 5 3 5 3 5 3 5 3 5 5 5 5 5 5 5 5 5 5 3 5 5 5 5 5 5 5 5 3 5 5 3 5 5 5 5 3 5 5 5 5 5 5 3 5 3 5 5 5 5 5 5 3 3 5 5 5 5 3 5 3 5 5 5 3 5 5 5 5 5 5 5 3 3 5 5 3 5 3 3 3 5 5 5 5 5 5 5 3 5 5 5 5 5 5 5 5 5 5 5 5 5 3 5 5 5 5 5 5 5 5 5 5 3 5 5 3 5 5 5 5 5 3 5 5 5 5 5 5 5 5 3 5 3 5 5 3 5 5 3 5 5 5 5 3 5 5 5 5 5 3 5 5 5 5 5 5 5 5 5 3 5 5 3 3 5 5 5 5 3 5 3 5 5 3 3 5 3 5 3 5 5 5 5 5 3 5 5 5 3 5 5 5 3 5 5 5 5 5 5 5 5 5 5 3 5 5 5 5 5 5 5 5 5 5 5 5 5 5 5 5 5 5 3 5 5 3 5 5 5 5 3 5 5 5 5 5 5 5 5 5 5 5 5 5 5 5 5 5 5 5 5 5 5 5 5 5 5 5 5 5 5 5 5 5 5 5 5 5 5 5 5 5 5 5 5 5 5 5 5 5 5 5 5 5 5 5 5 5 5 3 5 5 5 5 5 5 5 5 5 5 5 5 5 5 5 5 5 5 5 3 5 5 5 5 3 5 5 5 5 5 5 5 5 5 5 5 5 5 5 5 5 5 5 3 5 5 5 5 3 5 5 5 5 5 3 3 5 5 5 5 5 5 5 5 5 5 5 5 5 5 5 5 5 5 3 5 5 5 3 5 3 5 5 5 5 5 5 5 5 5 3 5 5 5 5 3 3 5 5 5 5 5 5 5 5 5 5 5 5 5 5 5 5 5 5 5 3 5 5 5 5 5 5 5 5 5 5 5 5 5 3 5 5 5 5 5 5 5 5 5 5 5 5 5 5 5 5 5 5 5 5 5 5 3 5 5 5 5 5 5 5 3 5 5 5 3 5 5 5 5 5 5 5 5 5 5 5 5 5 5 5 5 5 5 5 5 5 5 5 5 3 5 3 5 5 5 5 3 5 3 5 5 5 5 5 5 5 3 5 5 5 5 3 5 5 5 5 5 5 5 5 5 5 5 3 5 5 5 5 5 5 3 5 3 5 5 5 5 5 3 5 5 3 5 5 3 5 5 5 5 5 5 5 5 5 5 5 5 5 5 5 5 5 5 5 5 5 5 5 5 5 5 5 3 5 5 5 3 5 3 5 5 3 3 5 5 5 3 5 5 5 5 3 5 3 5 5 3 5 5 5 5 5 3 5 5 5 5 5 3 5 5 5 5 5 5 5 5 5 5 5 5 5 5 5 5 5 5 5 5 5 5 5 5 5 5 5 5 5 5 5 5 5 5 5 5 5 5 5 5 5 5 5 3 3 5 5 5 5 5 5 5 5 5 5 5 5 5 5 5 5 5 5 5 5 5 5 5 5 5 5 5 5 3 5 5 5 5 3 5 5 5 5 3 5 5 5 5 5 5 5 3 5 3 5 5 5 5 5 3 5 5 5 5 5 5 5 5 5 5 3 5 5 5 5 5 5 5 5 5 5 5 5 5 5 5 5 5 5 5 5 5 5 5 5 5 3 5 5 5 5 3 5 3 5 5 3 5 3 5 5 5 5 5 5 3 5 5 5 3 5 5 5 5 5 5 5 5 5 5 5 5 5 5 5 5 5 3 5 3 5 5 5 5 5 3 5 3 5 5 5 5 5 5 5 5 3 5 5 5 5 5 5 5 5 5 5 5 5 5 5 5 5 5 5 5 5 5 5 5 3 5 3 5 5 5 5 5 5 5 5 5 5 5 5 3 5 5 5 5 5 5 5 5 5 5 5 5 5 5 5 5 5 5 5 5 5 5 5 5 5 5 5 3 5 5 5 3 5 3 3 5 5 5 5 5 3 5 5 5 5 5 5 5 5 5 5 5 5 5 5 5 5 5 5 5 5 5 5 5 5 3 5 5 3 5 5 5 5 5 5 5 5 3 3 5 5 5 5 5 5 5 5 5 5 3 5 5 3 3 5 3 5 5 5 5 5 3 5 3 3 3 5 5 5 5 5 5 3 5 5 5 5 5 5 5 5 5 3 5 3 5 5 3 5 5 5 5 5 5 5 5 5 5 5 5 5 5 5 5 5 5 5 5 5 5 5 5 5 5 3 3 5 5 5 5 5 5 5 5 5 5 5 5 5 5 5 5 5 5 5 5 5 5 5 5 5 5 5 5 5 5 5 5 5 5 5 5 5 5 5 5 5 5 5 5 5 5 5 5 5 5 5 5 5 5 5 5 3 5 5 5 5 5 5 5 5 5 3 3 5 5 5 3 5 5 5 5 5 5 5 5 5 5 5 5 5 5 5 5 5 5 5 5 5 5 5 5 5 5 5 5 5 5 3 5 5 5 5 5 5 5 3 5 5 5 5 5 5 5 3 5 5 3 5 5 5 5 5 5 5 5 5 3 5 5 3 3 5 5 5 3 5 5 5 5 5 5 5 5 5 5 5 3 5 5 5 5 3 5 3 5 5 3 5 5 3 3 5 5 5 5 5 5 5 5 5 5 3 3 5 5 5 5 5 5 3 5 5 5 5 5 5 3 5 3 5 5 5 5 5 3 3 5 5 5 5 5 5 5 5 5 5 5 5 5 5 5 5 5 5 5 3 3 5 5 3 5 5 5 5 5 5 5 5 5 5 5 3 5 5 5 5 5 5 5 5 5 5 5 5 5 5 5 5 5 5 5 5 5 5 5 5 5 5 5 5 3 5 5 5 5 3 3 5 5 5 5 5 5 5 3 5 3 5 5 5 5 5 5 5 5 5 5 5 5 5 5 5 5 5 5 5 5 3 3 5 3 5 5 5 5 5 3 5 5 5 5 5 5 5 5 5 5 5 5 5 5 5 5 5 3 5 5 5 5 5 5 5 5 5 5 5 3 5 5 5 5 5 5 5 5 5 5 3 5 5 5 5 5 5 5 5 5 3 5 5 5 5 3 5 5 5 3 5 5 5 5 3 5 5 5 5 5 5 5 5 5 3 5 5 5 5 3 5 5 5 5 5 5 5 5 3 5 3 3 5 3 3 5 5 5 3 5 5 5 3 5 3 5 5 5 5 5 3 5 5 5 3 5 5 5 5 5 5 3 3 5 5 5 5 5 5 5 5 5 5 5 3 5 3 3 5 5 5 5 5 3 3 5 5 3 5 5 5 5 3 5 5 5 5 5 3 5 5 5 5 3 3 5 5 3 5 3 3 5 5 5 5 5 5 5 5 5 5 5 5 5 5 5 5 5 5 5 5 5 3 5 5 3 5 3 5 5 5 3 5 5 5 5 5 5 3 3 5 5 5 5 5 5 3 5 5 3 5 5 5 5 5 5 3 5 5 5 3 5 5 5 5 5 5 3 5 5 5 5 5 5 5 5 5 5 5 5 5 3 5 3 5 5 5 5 5 5 5 5 5 3 5 5 5 3 5 5 5 5 5 5 5 5 5 5 3 5 5 5 5 5 5 5 5 5 5 5 5 5 5 5 5 5 5 5 5 5 5 5 5 5 3 5 5 5 3 5 5 3 5 5 5 5 5 3 5 5 5 3 5 5 5 5 5 5 5 3 5 5 5 5 5 5 5 5 5 5 5 5 5 5 5 5 5 3 5 3 5 5 5 5 5 5 5 5 5 3 5 3 5 3 5 3 3 5 5 5 5 3 5 5 5 5 3 5 5 5 5 5 3 5 3 5 5 3 5 5 5 5 5 5 5 5 5 5 5 5 5 5 5 5 5 3 5 5 5 5 5 5 3 5 5 5 5 5 3 5 5 5 5 5 5 5 3 5 5 3 5 5 5 5 5 5 3 5 5 5 3 5 5 5 5 5 5 5 5 5 5 5 5 5 5 5 5 5 3 5 5 5 5 5 3 3 5 5 5 5 5 3 5 3 5 3 5 3 3 5 5 5 3 3 5 5 5 5 5 5 5 5 5 5 5 5 5 5 5 5 5 5 5 5 5 5 5 5 5 5 5 5 5 5 5 5 5 5 5 5 5 5 3 5 5 5 5 5 5 5 3 5 3 5 5 5 5 5 5 3 5 5 5 3 5 5 5 3 3 5 3 5 5 5 5 5 5 3 5 5 3 5 5 5 5 5 5 5 5 5 5 5 5 3 3 3 5 5 5 3 5 5 5 5 5 5 5 5 5 5 5 5 5 5 5 5 5 5 5 5 5 5 3 5 5 5 5 3 5 5 5 5 5 5 5 3 5 5 5 5 5 3 5 5 5 5 5 3 5 5 5 5 5 5 5 5 5 3 5 5 5 5 3 5 5 5 5 5 5 5 5 5 5 3 5 5 3 5 5 5 5 5 5 5 5 5 5 5 5 5 5 5 5 5 5 5 5 3 5 5 5 5 3 5 5 5 5 5 5 5 5 3 5 5 5 5 5 3 5 5 3 5 5 5 5 5 5 5 5 5 5 5 5 3 5 5 5 5 5 5 5 5 5 5 5 5 5 5 5 5 5 5 5 5 5 5 5 5 5 5 5 5 3 5 5 5 5 5 5 5 5 5 5 5 5 5 5 3 5 5 5 5 5 5 5 5 5 5 5 5 5 5 5 5 5 5 5 3 5 5 5 5 5 5 5 3 5 5 5 5 5 5 5 5 5 5 5 5 5 5 5 5 5 5 5 5 5 5 5 5 3 5 5 5 5 5 3 5 5 5 5 5 5 5 5 5 5 3 5 5 3 5 3 5 5 5 5 5 5 5 3 5 3 5 3 5 5 5 5 5 5 5 5 5 5 5 5 5 5 5 5 5 5 5 5 5 5 5 5 5 5 5 5 5 5 5 5 5 5 5 5 3 5 5 5 5 5 5 5 5 5 5 5 5 5 5 5 5 5 5 5 5 5 5 5 5 5 5 5 5 5 5 5 3 5 5 5 5 5 5 3 3 5 5 5 5 5 5 5 5 5 5 5 5 5 3 5 5 5 5 5 5 5 5 5 5 3 3 5 3 5 5 5 3 5 3 3 5 3 5 5 5 5 5 5 5 3 3 5 5 5 5 3 5 5 5 5 3 5 3 5 3 3 5 3 5 5 5 5 5 3 5 3 3 3 3 5 5 5 5 5 3 5 5 3 3 5 5 5 3 5 5 3 5 5 5 5 3 5 5 3 5 5 3 5 5 5 5 5 5 5 5 5 5 5 5 5 5 3 5 3 5 5 5 5 5 3 5 5 3 5 5 5 5 5 3 5 5 5 5 5 5 5 5 5 5 3 5 5 5 5 5 5 5 5 5 5 5 3 5 5 5 5 5 5 3 5 5 5 5 5 5 5 5 5 5 5 5 5 5 3 5 5 5 3 5 5 5 5 5 5 5 3 5 3 5 5 5 5 5 5 5 5 5 5 5 5 5 5 5 5 5 5 5 5 5 5 5 5 5 5 5 5 5 5 5 5 5 5 5 5 3 5 3 5 5 3 5 3 5 5 5 5 5 5 3 5 5 3 3 5 5 5 5 5 5 3 5 5 5 5 5 5 5 3 5 5 5 5 5 5 5 5 5 5 5 5 5 5 5 5 5 5 5 3 5 5 5 3 5 3 5 3 5 5 5 5 3 5 5 5 5 5 5 3 5 5 5 5 5 5 3 5 5 3 5 5 5 5 5 5 3 5 5 5 5 5 5 5 5 5 3 5 3 5 5 5 5 5 3 3 5 5 5 3 3 5 5 5 5 5 5 3 5 5 3 3 5 5 3 5 5 3 5 5 5 5 3 5 5 5 5 5 5 3 5 5 5 5 5 5 5 5 5 5 3 5 5 5 3 3 5 5 5 5 5 5 5 5 5 3 5 5 5 5 5 5 5 5 5 5 5 3 3 5 5 5 5 3 5 5 5 5 3 5 5 5 5 3 5 5 5 3 5 5 5 5 3 5 5 5 5 5 3 5 5 5 5 3 5 5 5 5 5 5 5 5 5 5 5 5 5 5 5 5 5 5 5 5 5 5 5 5 5 5 5 5 5 5 5 5 3 5 5 5 5 3 5 5 5 5 5 5 3 5 5 5 3 5 3 5 5 5 5 5 5 5 5 5 5 5 5 5 5 5 5 5 5 5 5 5 5 5 3 5 3 5 5 5 3 5 5 5 5 5 5 5 5 5 5 5 5 5 3 5 5 3 5 5 3 3 5 3 5 5 5 5 5 5 5 5 5 5 5 5 5 5 5 5 5 3 5 5 5 5 5 3 5 5 5 5 5 5 5 3 5 5 5 5 5 5 5 3 5 5 5 5 5 5 5 5 5 5 5 5 5 5 5 3 5 5 5 3 5 5 5 5 5 5 5 5 5 5 5 3 5 5 5 5 5 5 3 5 5 3 5 3 5 5 5 3 5 5 5 5 5 5 5 5 5 5 5 3 5 5 5 5 5 3 5 5 5 3 5 5 5 3 5 5 5 5 5 3 5 3 5 5 5 5 5 5 5 5 3 5 3 5 5 3 5 3 5 3 5 5 5 5 5 5 5 5 5 5 3 5 3 5 5 5 5 3 5 5 5 3 3 5 5 5 3 5 3 3 5 5 3 3 5 3 3 5 5 3 3 5 5 3 5 5 3 5 3 5 5 3 5 5 3 5 3 5 5 5 3 5 3 5 5 3 3 5 5 5 3 3 5 3 5 5 5 5 5 5 5 5 3 5 5 3 3 5 3 5 3 3 5 5 5 3 5 5 3 5 5 5 5 5 5 3 3 5 5 5 5 5 5 5 3 3 5 5 5 5 3 5 5 5 3 5 5 3 5 5 5 5 5 3 5 5 3 5 5 5 3 3 5 5 3 5 5 5 3 5 5 5 3 3 5 5 3 5 5 5 5 3 3 5 5 3 3 5 3 3 5 5 5 5 5 5 3 5 5 5 5 5 5 5 5 5 5 3 3 5 5 5 5 5 5 5 3 5 5 5 5 5 5 5 5 5 3 5 5 3 5 5 3 5 5 5 5 5 5 5 5 5 5 5 5 5 5 5 5 5 5 3 3 5 5 5 5 3 5 5 3 5 5 5 5 5 5 5 5 5 3 5 5 3 5 5 5 5 5 5 5 5 5 5 5 3 5 3 5 5 5 5 5 5 5 5 5 5 3 5 5 5 5 5 5 5 5 5 5 5 5 5 5 5 5 5 5 5 5 5 5 5 5 5 5 5 5 5 5 5 5 5 5 5 5 5 5 5 3 5 5 5 5 5 5 5 5 5 3 5 5 3 5 5 5 5 5 5 5 5 5 5 5 5 5 5 5 5 3 5 3 5 5 3 5 5 5 3 3 5 3 3 5 3 5 5 3 5 5 3 5 5 5 5 5 5 5 5 5 5 5 5 5 5 5 5 5 5 5 5 5 3 5 5 5 5 5 5 5 5 5 5 5 5 5 5 5 5 5 5 5 3 5 5 5 5 5 3 5 5 5 5 5 5 5 5 5 5 5 5 5 5 5 5 5 5 5 5 5 5 5 5 3 5 5 5 5 5 5 3 5 5 5 5 5 5 5 5 5 5 5 5 5 5 5 3 5 5 5 3 3 5 5 5 3 5 5 5 5 5 5 5 5 3 5 5 5 5 3 5 5 5 5 5 5 5 5 5 5 5 5 5 3 5 5 5 5 5 5 5 5 5 5 5 5 5 5 5 5 5 5 5 5 5 5 5 5 5 5 5 3 5 5 5 5 5 5 5 5 5 5 5 5 5 5 5 3 3 5 5 5 3 5 5 5 5 5 5 5 5 5 5 5 5 5 5 5 5 5 5 5 5 5 5 5 5 5 5 5 5 5 5 3 5 5 5 5 5 5 5 5 5 5 5 5 5 5 5 5 5 5 5 5 5 5 5 5 5 3 5 5 5 5 5 5 5 3 5 5 5 3 5 5 3 5 5 5 5 5 5 5 5 3 3 5 5 5 5 5 3 5 5 5 5 5 5 5 5 5 5 5 5 5 5 5 5 5 5 5 3 5 3 5 3 5 5 5 3 5 3 5 5 5 5 5 5 5 5 5 5 5 5 3 5 5 5 5 3 5 5 3 5 3 5 5 3 5 5 5 3 5 5 5 5 5 5 5 5 5 3 5 5 5 5 3 5 5 5 5 3 5 5 5 5 5 5 3 5 3 5 3 5 5 5 3 5 5 5 5 5 5 3 3 5 5 5 5 5 3 5 5 5 5 5 5 5 5 5 5 5 5 5 5 5 5 5 5 5 3 5 5 5 5 5 5 5 5 5 3 5 3 5 3 5 5 5 5 5 5 5 5 5 5 5 5 3 5 5 3 5 5 5 5 5 5 5 5 5 3 5 3 5 5 5 5 5 5 3 5 5 5 5 5 5 5 5 5 5 5 5 5 5 5 5 5 5 5 5 5 5 5 5 5 5 5 5 5 5 5 5 5 5 5 5 5 5 5 5 5 3 5 5 3 5 3 5 5 5 3 3 5 5 3 5 5 5 5 5 5 5 5 5 5 5 5 3 5 5 5 5 5 5 5 5 5 5 5 5 3 5 5 5 5 5 5 5 5 5 5 5 5 5 5 5 3 5 5 5 5 5 3 5 5 5 5 5 5 5 5 5 3 5 5 5 5 3 5 5 5 5 5 5 5 5 5 5 5 3 5 3 5 3 5 5 5 3 5 5 5 5 5 5 5 5 5 5 5 5 5 5 5 5 5 5 5 5 3 5 5 5 5 5 5 5 5 5 5 5 5 5 5 5 5 5 5 3 5 5 5 5 5 3 5 5 5 5 5 5 5 5 3 5 5 3 5 5 5 5 5 5 5 3 5 5 5 5 5 5 5 5 5 3 5 5 5 5 5 5 5 5 5 5 5 5 5 5 5 5 5 5 5 5 5 5 5 5 3 5 3 5 5 3 5 5 5 5 5 5 5 5 3 5 5 5 5 5 5 3 5 5 5 5 5 5 5 5 5 5 5 5 3 5 5 5 5 5 5 5 5 5 5 5 5 5 5 3 5 5 5 3 5 5 5 5 3 5 5 5 5 5 5 5 5 5 5 5 5 5 5 5 5 5 5 5 5 5 5 5 5 5 5 3 5 5 3 5 5 5 5 5 5 5 5 5 3 5 5 3 5 5 3 5 5 5 5 5 5 5 5 5 5 5 5 5 5 5 5 5 5 5 5 5 5 5 5 5 5 5 5 5 5 5 5 5 5 5 5 5 5 5 5 5 5 5 5 5 5 5 5 5 5 5 5 5 5 5 5 5 5 5 5 5 5 5 3 5 5 5 5 5 5 3 5 5 5 5 5 5 5 5 5 5 5 3 3 5 5 3 5 3 5 5 3 5 5 3 5 5 5 5 5 5 5 5 3 5 5 5 5 5 5 5 5 5 3 5 5 5 5 3 5 5 5 5 5 5 5 5 5 5 5 5 5 5 5 3 5 5 5 5 3 5 3 5 5 5 3 5 5 3 5 5 5 5 5 5 5 5 5 5 5 3 5 5 3 5 5 5 3 5 5 3 3 5 5 3 5 5 5 5 5 5 5 5 3 5 5 5 5 3 5 3 5 3 5 5 5 5 3 5 5 5 3 5 5 5 5 5 5 5 5 5 5 5 5 5 5 5 5 5 5 3 5 5 5 5 5 5 5 5 5 5 5 5 5 5 5 5 5 5 5 5 5 5 5 5 5 5 5 5 5 5 5 5 5 5 5 5 5 5 5 5 3 5 5 5 5 5 3 5 5 5 5 5 5 5 5 5 5 5 5 5 3 5 5 3 5 5 5 3 5 3 5 5 5 5 3 5 5 5 5 5 5 5 5 5 3 5 5 3 3 5 3 5 5 5 5 5 5 5 5 5 5 5 5 5 5 5 5 5 5 5 5 5 5 5 3 5 5 5 3 5 5 5 5 5 5 5 3 5 5 5 5 5 5 5 5 5 5 5 5 5 5 5 5 5 5 5 5 5 5 5 3 5 5 5 5 5 3 5 3 3 5 5 5 3 5 5 3 5 5 5 5 5 5 5 5 5 5 5 3 5 5 5 3 5 3 5 5 5 5 5 3 5 3 5 3 5 5 5 5 5 5 5 5 3 3 3 5 5 3 5 5 5 5 5 5 5 5 5 5 5 5 5 5 5 5 5 5 5 5 5 5 5 5 5 5 5 5 5 5 5 5 5 5 5 5 5 3 5 5 5 5 5 5 5 3 5 5 3 5 5 5 5 5 5 5 5 5 5 5 5 5 5 5 5 5 5 5 5 5 5 5 3 5 5 5 5 5 5 5 5 5 5 3 5 5 5 5 3 5 5 5 5 3 5 3 3 5 5 5 5 3 5 5 3 5 5 3 3 5 5 5 5 5 5 5 3 5 5 5 5 5 5 5 5 5 5 5 5 5 3 5 5 5 5 5 5 5 3 3 5 3 5 3 5 5 5 3 5 5 5 5 5 3 5 5 3 5 5 5 5 5 5 5 3 5 5 5 5 5 5 5 5 3 5 5 5 3 5 5 5 5 5 3 3 5 5 3 5 5 5 5 5 5 5 5 5 5 5 5 5 5 3 5 5 3 5 3 5 5 5 5 3 5 5 5 5 5 3 5 5 3 3 5 5 5 5 3 5 5 5 5 5 5 5 5 3 5 3 5 5 5 5 5 5 5 5 3 5 5 5 5 3 5 5 5 5 5 5 5 5 5 5 5 5 5 5 5 5 5 5 5 5 5 5 5 5 5 5 5 5 5 5 5 5 5 3 5 5 5 5 5 5 5 3 5 5 5 5 5 5 5 5 5 5 5 5 3 5 5 5 5 3 5 5 5 5 5 5 5 5 5 5 5 5 5 3 5 5 3 5 5 5 5 3 5 5 5 5 5 5 5 5 5 5 5 3 5 3 5 5 3 5 5 5 5 3 5 5 5 5 5 5 5 5 5 5 5 5 5 5 5 5 5 5 5 5 5 5 5 5 5 5 5 5 3 5 5 5 5 3 5 5 5 5 5 5 5 5 5 3 5 5 5 3 5 5 5 5 5 5 3 5 3 5 3 5 5 5 5 5 5 5 5 5 5 5 5 5 5 5 5 5 5 5 5 5 5 5 5 5 5 5 5 5 5 5 5 5 5 5 3 5 3 5 5 5 5 5 5 5 5 3 5 5 5 5 5 5 5 5 5 5 5 5 3 5 5 5 5 5 5 5 5 5 5 5 5 5 3 5 5 3 5 5 5 5 3 5 5 5 5 3 5 5 5 5 5 3 3 5 3 5 5 3 5 5 5 5 3 5 3 5 5 5 5 5 5 5 5 3 5 5 5 5 3 5 5 5 5 5 5 5 5 5 5 5 5 5 5 5 5 5 5 5 5 5 5 3 5 5 5 5 5 5 5 5 5 5 5 5 5 5 5 5 5 5 5 5 5 3 5 5 5 5 5 5 5 3 5 3 5 5 5 5 5 5 5 5 5 5 5 5 5 5 5 5 5 5 5 5 5 5 5 5 5 5 3 5 5 5 5 5 3 5 3 5 5 5 5 3 3 3 5 3 5 5 5 3 5 5 5 5 3 5 3 5 5 5 5 3 5 5 5 3 3 3 5 3 5 3 5 5 3 5 5 5 5 5 5 5 5 5 5 3 5 3 5 3 5 5 5 5 3 5 5 5 5 3 5 5 5 5 5 5 5 5 5 5 3 5 3 5 5 3 5 5 3 5 5 5 5 5 3 5 5 5 5 5 5 5 5 5 5 5 5 3 5 5 5 3 5 5 5 5 5 3 5 5 5 5 5 5 5 5 5 5 5 5 5 5 5 5 5 5 5 5 5 3 5 5 5 5 3 5 5 5 3 5 3 5 5 3 5 3 5 5 5 5 5 5 3 5 5 5 5 3 5 3 5 5 5 5 5 5 5 3 5 5 5 5 5 5 5 3 5 5 5 5 5 5 5 5 5 5 5 5 5 5 5 5 5 3 5 5 5 3 5 5 5 5 5 5 5 5 5 5 5 5 5 5 3 5 5 5 5 5 5 5 5 5 5 5 5 5 5 5 5 5 5 5 5 5 5 5 5 5 5 5 3 5 3 5 5 5 3 5 5 5 3 5 5 3 3 5 5 5 5 5 5 5 5 3 5 5 3 5 5 5 5 3 5 3 5 5 5 3 5 5 5 5 5 5 5 5 5 5 3 5 5 3 5 5 3 5 5 5 5 5 5 5 3 5 5 3 3 5 5 5 3 5 5 5 5 5 5 3 5 5 5 5 3 5 5 5 3 5 5 5 5 3 5 5 3 5 5 5 5 5 5 5 5 5 5 5 3 5 5 5 5 3 5 3 5 3 5 3 5 5 5 5 5 5 5 5 5 5 5 3 3 5 5 5 5 5 5 3 5 5 3 5 5 5 5 5 5 3 5 5 5 3 5 3 5 5 5 3 5 5 5 5 5 5 3 5 5 5 5 5 5 3 5 3 5 5 5 3 5 5 5 5 3 5 5 5 5 5 5 5 3 5 3 5 3 5 5 5 3 3 5 5 3 5 5 5 5 5 3 5 3 3 3 3 5 5 5 5 5 3 3 5 5 3 5 5 5 3 5 5 5 5 5 5 5 5 5 3 5 5 5 3 5 5 5 5 5 5 5 3 5 3 5 5 5 5 3 5 3 5 5 5 5 3 5 5 5 5 5 5 5 5 5 3 5 5 5 5 5 5 5 5 5 5 5 5 5 5 5 5 5 5 5 5 5 3 5 5 5 5 3 5 5 5 5 5 3 5 3 5 5 5 5 5 5 5 5 5 5 5 3 5 3 5 3 3 5 3 5 3 5 5 5 3 5 5 5 3 5 5 5 5 3 5 3 5 5 5 5 5 5 5 5 3 5 5 5 5 5 5 5 5 3 5 5 5 5 5 5 5 5 5 3 5 5 3 5 5 5 3 5 5 5 5 5 5 5 5 5 5 5 5 3 5 5 5 5 3 5 5 5 5 5 5 3 5 5 5 5 3 5 3 5 5 5 5 5 5 5 3 5 5 5 3 3 5 5 5 5 3 5 3 5 5 3 5 5 5 5 5 5 5 5 5 5 5 5 5 5 5 5 5 5 5 5 5 5 5 5 5 5 5 5 5 5 5 5 5 5 5 3 5 5 5 3 5 5 5 5 5 5 5 5 5 5 5 5 5 3 5 3 5 5 5 5 5 5 5 5 5 5 5 5 5 3 5 5 3 5 5 5 5 5 3 5 5 5 5 5 5 5 5 5 5 5 5 5 5 5 5 5 5 5 3 3 5 5 3 5 5 3 5 5 5 5 5 5 5 3 5 5 5 5 3 5 5 5 5 5 5 5 5 5 5 5 5 5 5 3 5 5 3 5 5 5 5 5 5 5 3 3 5 5 5 5 5 5 5 5 5 5 5 5 5 5 5 5 3 5 5 5 5 3 5 5 3 5 5 3 5 5 5 5 5 5 5 5 5 5 5 5 3 5 5 5 5 3 5 5 5 5 5 5 5 5 5 3 3 3 5 5 5 3 5 5 3 3 5 3 5 5 5 3 5 5 5 5 5 5 5 5 5 5 5 5 5 5 5 5 5 5 5 5 5 5 5 5 5 5 5 5 5 5 5 5 5 5 5 5 5 5 5 5 5 5 5 5 5 5 5 5 3 5 3 5 5 5 5 5 5 5 5 5 3 5 5 5 5 5 5 3 5 5 5 5 5 3 5 5 5 5 5 5 5 5 5 5 5 5 5 5 5 3 5 5 5 5 5 5 5 3 5 5 5 5 5 3 3 5 5 5 5 3 5 5 5 5 5 5 5 5 5 5 5 5 5 5 5 5 5 5 5 5 5 3 5 5 5 5 5 5 3 5 5 5 3 5 5 5 5 5 5 5 5 5 5 5 5 5 5 5 5 5 5 3 5 3 5 5 5 5 5 3 3 5 5 5 3 5 5 5 5 5 5 3 5 5 5 5 5 3 5 3 5 5 3 5 5 5 5 3 5 5 5 5 3 5 5 5 5 3 5 5 5 5 5 5 5 5 5 5 5 5 5 3 5 5 5 5 5 5 5 5 5 5 5 5 5 5 5 5 3 5 5 5 5 3 5 5 5 5 3 5 5 5 5 5 5 5 5 5 5 3 5 5 5 5 3 5 5 5 5 5 5 5 5 5 5 5 5 5 5 5 3 5 5 5 3 5 5 5 5 5 5 5 5 5 5 5 5 5 5 3 5 5 5 5 5 5 5 5 5 5 5 3 5 5 3 5 5 5 5 5 5 3 3 5 5 5 5 3 5 3 5 5 5 3 5 5 3 5 5 5 5 5 5 5 5 5 5 5 5 5 5 5 5 3 5 5 5 5 5 5 5 5 3 3 5 5 5 3 3 5 3 5 3 5 5 5 5 3 5 5 5 5 5 5 5 5 5 5 5 5 5 3 5 3 5 5 5 5 5 5 5 5 3 3 5 5 3 3 3 5 5 5 5 5 5 3 5 5 3 5 5 3 3 3 3 5 5 5 5 5 5 5 5 5 5 5 5 5 3 5 5 3 5 3 5 5 5 5 5 5 5 3 3 5 5 3 5 5 3 5 5 5 5 3 3 3 3 5 5 5 5 5 5 5 5 5 5 5 5 5 5 3 5 5 3 5 5 5 5 3 5 5 5 3 5 5 3 5 5 3 5 5 3 3 5 3 5 5 5 5 5 5 3 5 5 5 5 3 5 5 5 5 5 3 5 5 3 5 3 3 5 5 5 3 5 5 5 5 5 3 5 5 5 3 5 5 5 3 5 5 5 5 5 5 5 3 5 5 5 5 5 3 5 5 5 5 5 5 5 3 5 3 3 5 5 3 5 5 5 5 5 5 3 5 5 5 5 5 5 3 5 5 5 5 5 5 3 5 3 5 3 5 5 3 5 5 5 5 3 3 3 3 5 5 5 5 5 5 5 5 3 5 5 5 3 5 3 5 5 5 5 5 5 5 5 5 5 5 5 5 5 5 5 3 5 3 5 5 5 5 5 5 5 5 3 5 5 5 5 5 3 5 5 3 5 5 5 5 5 5 3 3 5 5 3 5 5 5 5 5 5 5 5 5 5 5 3 3 5 5 5 5 3 5 5 5 5 5 5 5 5 3 5 5 5 5 3 5 5 5 5 5 5 3 5 3 5 3 5 5 5 5 5 5 5 5 5 5 5 5 5 5 5 5 5 5 3 5 5 5 5 5 5 5 5 5 5 5 5 5 5 5 5 5 3 3 5 5 5 5 5 5 5 5 5 5 5 5 5 5 5 5 5 5 5 5 5 5 5 5 5 5 5 5 5 5 5 5 5 5 5 5 5 5 5 5 5 5 5 5 5 3 5 3 5 5 5 5 5 5 5 3 5 5 5 3 5 3 3 3 5 3 3 5 5 3 3 3 5 5 5 5 5 3 5 3 3 5 5 5 5 5 5 5 3 5 5 3 5 5 3 3 5 5 5 5 5 5 3 5 5 3 3 5 5 3 5 5 5 3 5 5 5 5 3 5 5 5 3 5 5 3 5 5 5 5 5 5 5 5 5 5 5 5 5 5 5 5 5 5 5 3 3 5 5 5 3 5 5 5 5 3 5 5 5 5 5 3 3 5 5 5 5 5 5 5 5 5 3 5 5 5 5 5 5 5 5 5 5 5 5 5 5 5 5 5 5 5 5 5 5 5 5 5 5 5 3 5 3 3 5 5 5 5 5 5 5 5 5 5 5 5 5 5 5 5 5 5 5 5 5 5 5 5 5 5 5 3 5 5 3 5 5 3 5 5 3 5 3 5 5 5 5 5 5 5 3 5 5 5 5 5 5 5 5 5 5 5 5 3 5 3 5 3 5 5 5 5 5 3 5 5 5 5 3 5 5 3 5 5 5 5 5 5 5 5 3 5 5 5 5 5 5 3 5 5 5 5 3 5 5 5 3 5 5 5 5 5 5 5 5 5 5 5 5 5 5 5 5 5 5 3 5 3 5 5 5 3 5 5 5 5 5 5 5 5 5 5 5 5 5 5 5 5 5 5 5 3 5 5 5 3 5 5 5 3 5 5 5 5 5 5 5 5 5 5 5 5 5 5 5 3 5 5 5 5 3 5 5 3 5 5 5 5 5 5 3 5 3 5 3 3 3 5 5 5 3 3 5 5 5 5 5 5 5 3 5 5 5 3 5 3 5 5 5 5 5 5 5 5 5 3 5 5 5 5 5 5 5 5 3 5 5 5 5 3 5 5 5 5 5 5 5 5 5 5 5 5 5 5 5 5 5 5 5 5 5 3 3 5 5 5 5 5 5 5 5 3 5 5 5 5 5 5 5 5 5 5 3 5 5 5 5 5 5 3 5 5 5 5 5 3 5 3 5 5 3 3 5 5 5 5 5 5 5 5 5 5 5 5 5 5 5 5 5 5 5 5 5 5 5 5 5 5 5 5 5 5 5 5 5 5 5 5 5 5 5 5 5 5 5 5 5 5 5 5 3 3 5 5 3 5 5 5 5 5 3 3 5 5 3 3 5 5 5 5 5 5 5 5 5 5 3 5 5 5 5 5 5 5 5 5 5 5 5 5 5 5 3 5 5 5 5 5 5 5 5 5 5 5 5 5 3 5 3 3 3 5 5 5 5 5 5 5 5 3 3 5 5 5 5 3 5 5 5 5 5 5 5 5 3 5 5 5 5 5 5 5 5 5 5 5 5 5 5 5 5 5 3 5 5 5 5 5 5 3 5 5 3 5 5 5 5 5 5 5 5 5 5 5 5 5 5 5 5 5 5 3 5 5 5 3 5 5 3 5 3 3 5 5 3 5 5 5 3 5 5 3 5 3 3 5 5 5 5 3 5 5 5 5 5 5 3 5 3 5 5 5 3 5 5 5 5 3 5 3 3 5 5 5 5 5 3 5 3 5 3 5 3 3 5 5 5 5 5 5 5 3 5 3 5 5 3 5 5 3 5 5 5 5 5 5 5 5 5 5 5 5 5 5 5 5 5 5 5 5 5 5 5 5 5 5 5 5 5 5 5 3 5 5 5 5 5 5 5 5 5 5 5 5 5 5 5 5 5 5 5 5 5 5 5 3 5 5 5 5 5 3 3 5 5 5 5 5 5 5 5 5 5 5 5 5 5 5 5 5 5 5 5 5 3 5 5 5 5 5 5 5 5 5 5 5 5 5 3 5 3 5 5 5 3 5 5 5 5 5 5 5 5 3 5 3 5 5 5 5 5 3 5 5 5 5 5 5 5 5 5 5 5 3 5 5 5 5 5 5 5 5 5 5 5 3 5 5 5 5 5 5 5 5 3 5 5 5 5 5 5 5 5 5 5 5 5 5 5 5 5 5 5 5 5 5 5 5 5 5 5 3 5 5 3 5 5 5 5 5 5 5 5 5 5 5 5 5 5 5 5 5 5 5 5 5 5 5 5 5 5 5 5 3 5 3 5 3 5 5 5 5 5 3 5 5 5 5 3 5 5 5 3 5 5 5 5 5 5 5 5 5 5 5 5 5 5 5 5 5 5 3 3 3 5 5 5 5 5 5 5 5 5 5 5 5 5 3 5 5 5 5 5 5 5 5 5 5 5 5 3 5 5 3 5 5 5 5 5 5 5 5 5 5 5 5 5 5 5 5 5 5 5 5 5 3 3 5 5 5 5 5 5 5 5 5 5 5 5 5 5 3 5 5 3 5 5 5 5 3 5 5 5 5 5 5 3 5 5 5 5 5 5 5 5 5 5 5 5 5 5 5 5 5 5 3 5 5 5 5 5 3 5 5 5 5 5 5 5 5 5 5 5 5 5 5 5 5 5 5 5 5 5 5 5 5 5 5 5 5 3 5 3 5 5 5 5 3 3 5 5 5 5 5 5 5 5 5 5 5 5 5 5 5 5 5 5 5 5 5 5 5 5 5 5 5 5 5 5 5 5 5 5 5 3 5 5 5 5 3 5 5 5 5 5 5 5 5 5 5 5 3 5 5 5 5 5 5 5 5 5 5 5 5 5 5 5 5 5 3 3 5 3 5 5 5 5 5 5 5 5 5 5 3 5 5 5 5 5 5 5 5 5 5 5 5 5 5 5 5 5 3 5 5 5 5 3 5 5 5 5 5 5 5 5 5 5 5 5 5 5 5 5 5 5 5 5 5 5 5 5 5 5 5 5 5 5 5 5 5 5 5 5 5 5 5 5 5 5 5 5 5 5 5 5 5 5 5 5 5 5 5 5 5 5 5 5 5 5 5 5 5 5 5 5 5 5 5 5 5 5 5 5 5 5 5 5 5 3 5 5 5 5 5 5 5 3 5 5 3 5 5 5 5 5 5 5 5 5 5 5 5 3 5 3 5 3 5 5 5 5 5 5 5 5 3 5 5 5 5 5 5 5 5 5 3 5 5 5 5 5 5 5 5 5 5 5 5 5 5 5 5 5 5 5 5 5 3 5 5 5 5 5 5 5 5 5 5 5 5 3 5 5 5 5 5 3 5 5 3 5 5 5 5 3 3 5 5 3 5 5 5 5 5 5 5 3 3 5 5 5 5 5 5 5 5 5 5 5 5 3 5 5 5 5 3 5 5 5 5 5 5 5 5 3 5 5 5 5 3 5 5 5 5 3 5 5 5 5 5 5 5 3 5 5 5 5 5 3 5 5 5 3 5 5 5 5 5 3 5 5 5 5 5 5 5 5 5 5 5 5 5 5 3 5 5 3 5 5 5 5 5 5 5 5 5 5 5 5 5 5 5 5 5 5 5 5 5 3 5 5 3 5 5 3 5 5 5 5 5 5 5 5 5 5 5 5 5 5 5 5 5 5 5 5 5 5 5 5 5 5 5 5 5 5 3 5 5 5 5 3 5 5 3 5 3 5 5 5 5 3 5 3 5 5 3 5 3 5 3 3 5 5 3 5 3 5 3 5 5 3 5 5 5 5 5 5 3 5 3 5 5 3 3 5 5 3 5 3 5 5 3 5 5 3 5 5 3 3 3 5 3 5 5 5 5 5 5 5 5 3 5 5 5 5 5 5 5 3 5 5 5 5 5 5 5 5 5 5 5 5 5 5 3 5 5 5 5 5 5 5 5 5 5 5 5 5 5 5 5 5 5 5 3 5 5 5 5 5 5 5 5 5 5 5 5 5 5 5 5 5 5 5 5 5 5 5 5 5 5 5 5 5 5 5 3 5 5 5 3 5 3 3 5 3 5 5 5 3 5 5 5 5 3 3 3 5 5 5 5 5 5 5 5 5 5 5 5 5 5 5 5 5 3 5 5 5 5 5 5 5 5 5 3 5 5 5 3 5 5 5 5 5 5 5 5 5 5 5 5 3 5 5 3 5 5 5 5 5 5 5 5 5 5 5 5 5 5 5 5 5 5 5 5 5 5 3 5 5 5 5 5 5 5 5 5 5 5 5 5 5 5 5 5 5 3 5 5 5 5 5 5 5 3 5 5 5 5 3 5 5 5 5 5 5 5 5 5 5 5 5 5 5 5 5 5 5 5 5 5 5 5 5 5 5 5 5 5 5 5 5 5 5 5 3 3 5 5 5 5 3 5 3 5 5 5 5 5 3 5 5 5 5 5 5 5 5 3 3 5 5 5 5 3 5 5 5 5 5 5 5 5 5 5 5 5 5 5 5 5 5 5 5 5 5 3 5 5 5 5 5 5 3 5 5 3 5 5 5 5 5 5 5 5 5 3 5 5 5 5 5 5 5 5 3 5 5 5 5 5 5 5 5 5 5 5 5 5 5 5 5 5 3 5 5 3 5 5 5 5 5 5 5 5 5 5 5 5 5 5 5 5 5 5 5 5 5 5 5 5 5 5 5 5 5 3 5 3 5 5 5 5 5 5 5 5 5 5 5 5 5 5 5 5 5 5 5 5 5 5 3 5 5 5 3 5 5 5 5 5 5 5 5 5 5 5 5 3 5 5 5 3 3 5 5 3 5 5 5 5 5 5 5 5 5 3 5 5 5 5 5 5 5 5 5 5 5 5 5 3 5 3 5 5 5 5 5 5 5 5 5 5 5 5 5 5 5 5 5 5 5 5 5 5 5 5 5 5 5 5 5 3 5 5 5 5 5 5 3 5 5 5 5 5 5 5 5 5 5 5 5 5 5 5 5 3 5 3 5 5 5 5 5 5 5 3 5 5 5 3 5 5 5 5 3 5 5 5 5 5 5 3 5 5 5 5 3 5 3 5 5 5 5 5 5 5 5 3 3 5 5 5 3 3 5 5 5 5 5 5 5 3 3 5 3 3 5 5 5 5 3 5 3 5 5 5 5 5 5 3 5 5 5 5 3 5 5 5 5 3 5 5 5 5 5 3 5 5 3 5 5 5 5 3 5 5 5 5 5 5 5 5 5 3 3 5 5 5 5 5 5 5 5 5 5 5 5 5 3 5 3 5 5 5 5 5 5 5 5 5 5 5 5 5 5 5 5 5 5 5 5 5 3 5 5 5 5 5 5 5 5 5 5 5 5 5 5 5 5 5 5 5 5 5 5 5 5 5 5 3 5 5 5 5 5 5 5 5 3 5 3 5 5 5 5 5 5 3 5 5 5 5 5 5 5 5 5 5 5 5 5 5 5 5 5 5 5 5 5 5 5 5 5 5 3 5 5 5 5 5 5 5 5 3 5 5 3 5 5 3 5 5 5 5 5 3 5 5 5 5 5 5 5 5 5 3 5 5 5 5 5 5 5 5 5 5 5 5 5 5 5 3 5 5 5 5 5 5 5 5 3 5 5 5 5 5 5 5 5 5 5 5 5 5 5 5 5 5 5 3 5 3 5 3 5 5 3 3 5 5 5 5 5 5 5 5 5 5 5 5 5 5 3 5 5 5 5 5 5 3 5 5 5 3 5 5 5 5 5 5 5 5 5 5 5 5 3 5 5 5 5 3 3 3 5 5 5 5 5 5 5 3 5 5 3 5 3 5 3 5 5 5 5 5 3 5 5 5 5 5 5 5 5 5 5 5 5 5 5 5 5 5 5 5 5 3 5 5 5 3 5 3 3 3 5 5 5 5 5 3 5 5 5 5 5 5 5 5 5 5 5 5 5 5 5 5 5 5 5 5 5 5 5 5 5 5 3 5 5 3 5 5 5 5 5 5 5 5 3 5 3 5 5 5 5 5 5 5 5 3 5 5 5 5 3 5 5 3 5 5 3 5 5 5 3 5 5 5 5 5 5 5 5 5 5 5 5 5 5 5 5 5 5 5 5 3 5 5 5 5 5 5 3 5 5 5 5 5 3 5 5 5 5 5 3 5 3 3 5 5 5 5 5 5 5 5 5 5 5 5 3 5 5 5 5 3 5 3 3 5 5 5 3 5 5 5 5 5 5 5 5 5 5 5 5 5 5 5 5 5 5 5 5 5 5 3 5 3 5 5 3 5 5 3 5 5 3 5 5 5 3 3 5 5 5 5 5 5 5 3 5 5 5 5 5 5 5 5 3 5 5 5 5 5 5 5 3 5 5 5 3 5 3 3 5 5 5 3 5 5 5 5 5 5 5 5 5 5 5 5 5 5 5 5 5 5 5 5 5 5 3 5 5 3 5 5 5 3 5 5 5 5 5 5 5 3 3 5 5 3 5 5 5 5 5 5 5 5 5 5 5 5 5 5 5 5 5 5 5 5 5 5 5 5 5 5 5 5 5 5 5 5 5 5 5 3 5 5 5 5 5 5 5 3 5 5 3 5 5 3 5 5 5 5 5 5 5 5 5 5 5 5 5 5 5 5 5 5 5 3 5 5 5 5 3 5 5 5 5 5 5 5 5 5 5 3 5 5 5 5 3 5 5 5 5 3 3 5 3 5 5 5 5 5 5 5 5 5 5 5 5 5 5 3 5 5 5 5 5 5 5 5 5 3 5 5 5 5 5 5 5 5 5 5 5 5 5 5 5 5 5 5 5 5 5 5 5 5 5 5 5 5 5 5 5 5 5 5 5 5 5 5 5 5 5 3 5 5 5 5 3 5 5 3 5 5 5 5 5 5 3 3 5 5 5 5 3 5 5 5 5 5 5 5 5 5 5 5 5 5 5 5 5 5 5 5 5 5 5 5 5 5 5 5 5 5 5 5 5 5 5 5 5 5 5 5 5 5 5 5 5 5 5 5 5 5 5 5 5 5 5 5 5 5 5 5 5 5 3 5 5 5 5 5 3 5 3 5 5 5 5 5 5 5 5 5 
</DataArray>
</Cells>
<PointData Scalars="" Vectors="displacement," Tensors="">
<DataArray type="Float64" Name="displacement" NumberOfComponents="3" format="ascii">
5.9199947659354991e-08 0.01499976444938707 0 4.2075063226379854e-05 0.014363306992787615 0 -9.7642016952374436e-11 0.014999767768348833 0 3.9571327944130903e-10 0.014999962847938458 0 9.8179527911734791e-08 0.014206256691435682 0 3.9571327944130903e-10 0.014999962847938458 0 9.8179527911734791e-08 0.014206256691435682 0 2.567053626781044e-09 0.013244949122775579 0 4.0593025012962856e-08 0.014999790527794651 0 5.0103889104536764e-05 0.014530017099265513 0 3.1416408485667789e-05 0.014800209124661422 0 4.0593025012962856e-08 0.014999790527794651 0 4.7711778564391168e-08 0.014999663082163949 0 3.1416408485667789e-05 0.014800209124661422 0 5.0103889104536764e-05 0.014530017099265513 0 3.892081646820772e-05 0.014703000720839337 0 3.1416408485667789e-05 0.014800209124661422 0 3.892081646820772e-05 0.014703000720839337 0 4.7711778564391168e-08 0.014999663082163949 0 3.1416408485667789e-05 0.014800209124661422 0 0.00019879215738090021 0.014402466025411944 0 2.7842266988061571e-07 0.014999631422324678 0 0.0001325497658051341 0.014721637381707968 0 3.892081646820772e-05 0.014703000720839337 0 4.7711778564391168e-08 0.014999663082163949 0 -1.6359153049416187e-08 0.015000031198119988 0 0.00011402585726347073 0.014537203485990701 0 -3.3807105457943861e-09 0.014999818060985555 0 0.00019879215738090021 0.014402466025411944 0 0.0001325497658051341 0.014721637381707968 0 0.00019382468352372343 0.01443754680711873 0 0.0001955622417253397 0.014609957939973417 0 0.0001325497658051341 0.014721637381707968 0 0.00019382468352372343 0.01443754680711873 0 0.0001955622417253397 0.014609957939973417 0 5.4431963944869149e-09 0.014999473452931447 0 0.0001325497658051341 0.014721637381707968 0 0.00013209515468365013 0.014762294357864324 0 8.0296808758362017e-08 0.014999884485220624 0 2.7842266988061571e-07 0.014999631422324678 0 5.4431963944869149e-09 0.014999473452931447 0 0.0001325497658051341 0.014721637381707968 0 0.00011278171635358461 0.014264129093887863 0 0.00012985348982601528 0.014632666630055682 0 3.4017507529166802e-05 0.014474688052707751 0 0.00011278171635358461 0.014264129093887863 0 -8.594479185329848e-06 0.014281052566704307 0 3.4017507529166802e-05 0.014474688052707751 0 0.00011278171635358461 0.014264129093887863 0 0.00019382468352372343 0.01443754680711873 0 0.00015576951139634779 0.014230292173041809 0 0.00011278171635358461 0.014264129093887863 0 0.00019382468352372343 0.01443754680711873 0 0.00012985348982601528 0.014632666630055682 0 0.0001955622417253397 0.014609957939973417 0 0.00019382468352372343 0.01443754680711873 0 0.00012985348982601528 0.014632666630055682 0 0.00019879215738090021 0.014402466025411944 0 0.00019382468352372343 0.01443754680711873 0 0.0001565496965531229 0.014169178345185617 0 0.00019382468352372343 0.01443754680711873 0 0.00015576951139634779 0.014230292173041809 0 0.0001565496965531229 0.014169178345185617 0 0.00011278171635358461 0.014264129093887863 0 0.00013970352171175483 0.013889373011250305 0 4.111625901074636e-05 0.01377940869524732 0 0.00011278171635358461 0.014264129093887863 0 0.00015576951139634779 0.014230292173041809 0 0.00013970352171175483 0.013889373011250305 0 0.00015576951139634779 0.014230292173041809 0 0.0001565496965531229 0.014169178345185617 0 0.00013970352171175483 0.013889373011250305 0 9.8179527911734791e-08 0.014206256691435682 0 2.567053626781044e-09 0.013244949122775579 0 -4.0747604864582155e-07 0.013410609521988139 0 0.00013970352171175483 0.013889373011250305 0 0.00016335173221843186 0.013752476648689334 0 0.00016399993404967659 0.013568287107495212 0 0.00013970352171175483 0.013889373011250305 0 0.00013056904734564331 0.014031935017991876 0 0.00016335173221843186 0.013752476648689334 0 0.0001565496965531229 0.014169178345185617 0 0.00013970352171175483 0.013889373011250305 0 0.00013056904734564331 0.014031935017991876 0 0.00011402585726347073 0.014537203485990701 0 0.00012775983854228858 0.014123512550403713 0 5.0103889104536764e-05 0.014530017099265513 0 3.892081646820772e-05 0.014703000720839337 0 0.00013056904734564331 0.014031935017991876 0 0.00019879215738090021 0.014402466025411944 0 0.0001565496965531229 0.014169178345185617 0 0.00013056904734564331 0.014031935017991876 0 4.2075063226379854e-05 0.014363306992787615 0 8.1158358287561496e-05 0.013669741190840867 0 5.0103889104536764e-05 0.014530017099265513 0 0.00013056904734564331 0.014031935017991876 0 0.00014995109703838246 0.013938333000146578 0 0.00013056904734564331 0.014031935017991876 0 0.00016335173221843186 0.013752476648689334 0 0.00014995109703838246 0.013938333000146578 0 2.567053626781044e-09 0.013244949122775579 0 8.601867898263927e-06 0.012615547155766996 0 1.1752420658954246e-07 0.011897659727027018 0 8.1158358287561496e-05 0.013669741190840867 0 7.9393788563436666e-05 0.01285281554100455 0 0.00016335173221843186 0.013752476648689334 0 0.00018484976387989237 0.013147552180358801 0 0.00016399993404967659 0.013568287107495212 0 2.567053626781044e-09 0.013244949122775579 0 -4.0747604864582155e-07 0.013410609521988139 0 8.601867898263927e-06 0.012615547155766996 0 0.00016335173221843186 0.013752476648689334 0 0.00014995109703838246 0.013938333000146578 0 0.00018484976387989237 0.013147552180358801 0 7.9393788563436666e-05 0.01285281554100455 0 -3.1838310822805335e-05 0.012143651418639125 0 0.00018484976387989237 0.013147552180358801 0 9.8004615766238894e-05 0.012818861014679042 0 -8.3910078286422092e-06 0.011978147037270357 0 0.00018484976387989237 0.013147552180358801 0 9.8004615766238894e-05 0.012818861014679042 0 0.00013381300067831292 0.013377203239252483 0 9.8004615766238894e-05 0.012818861014679042 0 0.00013381300067831292 0.013377203239252483 0 -8.4029598896898496e-05 0.012760207488654798 0 0.00013970352171175483 0.013889373011250305 0 0.00013381300067831292 0.013377203239252483 0 0.00016399993404967659 0.013568287107495212 0 0.00018484976387989237 0.013147552180358801 0 0.00013381300067831292 0.013377203239252483 0 0.00016399993404967659 0.013568287107495212 0 1.1752420658954246e-07 0.011897659727027018 0 -8.3910078286422092e-06 0.011978147037270357 0 -9.7455148715657662e-05 0.011545893805463985 0 8.601867898263927e-06 0.012615547155766996 0 1.1752420658954246e-07 0.011897659727027018 0 -8.3910078286422092e-06 0.011978147037270357 0 9.8004615766238894e-05 0.012818861014679042 0 -8.3910078286422092e-06 0.011978147037270357 0 -8.4029598896898496e-05 0.012760207488654798 0 -3.533963305948913e-05 0.012628996220028174 0 -0.00042707455671416186 0.012233984715345585 0 -8.3910078286422092e-06 0.011978147037270357 0 -8.4029598896898496e-05 0.012760207488654798 0 -9.7455148715657662e-05 0.011545893805463985 0 -8.4029598896898496e-05 0.012760207488654798 0 -0.00056543038924086145 0.013106805962440925 0 -0.00084463776251598977 0.012586784969235194 0 -0.00056543038924086145 0.013106805962440925 0 3.6947014790435814e-05 0.013427715309584146 0 -0.00045334780593197491 0.013612972510661866 0 -8.4029598896898496e-05 0.012760207488654798 0 -0.00056543038924086145 0.013106805962440925 0 3.6947014790435814e-05 0.013427715309584146 0 3.6947014790435814e-05 0.013427715309584146 0 -1.6535429537153598e-05 0.013718310160240719 0 -0.00045334780593197491 0.013612972510661866 0 0.00035805988808818278 0.011899257945665901 0 4.7690838516537623e-05 0.011794252850846296 0 0.0002989521836420876 0.011976542451457581 0 0.00020422558958611327 0.012748443383940896 0 -0.00022920908769064508 0.012867089370391884 0 0.00013970352171175483 0.013889373011250305 0 0.00013381300067831292 0.013377203239252483 0 4.111625901074636e-05 0.01377940869524732 0 0.00013381300067831292 0.013377203239252483 0 -8.4029598896898496e-05 0.012760207488654798 0 3.6947014790435814e-05 0.013427715309584146 0 0.00013381300067831292 0.013377203239252483 0 3.6947014790435814e-05 0.013427715309584146 0 4.111625901074636e-05 0.01377940869524732 0 3.6947014790435814e-05 0.013427715309584146 0 4.111625901074636e-05 0.01377940869524732 0 7.3609575726747098e-05 0.013674025938416299 0 3.6947014790435814e-05 0.013427715309584146 0 -1.6535429537153598e-05 0.013718310160240719 0 7.3609575726747098e-05 0.013674025938416299 0 -1.6535429537153598e-05 0.013718310160240719 0 7.3609575726747098e-05 0.013674025938416299 0 7.3436100202616041e-05 0.013661901572689839 0 0.00011278171635358461 0.014264129093887863 0 4.111625901074636e-05 0.01377940869524732 0 -8.594479185329848e-06 0.014281052566704307 0 4.111625901074636e-05 0.01377940869524732 0 -8.594479185329848e-06 0.014281052566704307 0 -0.00026038845801042848 0.014584999343273779 0 4.111625901074636e-05 0.01377940869524732 0 7.3609575726747098e-05 0.013674025938416299 0 6.676821386369327e-05 0.013655671971565444 0 -1.0873777473977424e-05 0.013916825763897578 0 2.4418524124181683e-05 0.013892643643908974 0 -8.594479185329848e-06 0.014281052566704307 0 -0.00010964821375210024 0.014612112167296422 0 3.4017507529166802e-05 0.014474688052707751 0 -8.594479185329848e-06 0.014281052566704307 0 -0.00010964821375210024 0.014612112167296422 0 -0.00026038845801042848 0.014584999343273779 0 -7.8927132532146199e-06 0.014070110242960591 0 2.4418524124181683e-05 0.013892643643908974 0 -0.00010964821375210024 0.014612112167296422 0 -0.00016693202545428083 0.014677924372798896 0 -6.8487046123145569e-05 0.014733247476234454 0 -0.00010964821375210024 0.014612112167296422 0 -0.00016693202545428083 0.014677924372798896 0 -0.00017192700967101838 0.014593806999344962 0 0.00076953584632846153 0.012130918610523605 0 0.00071958854581498583 0.012010297664773021 0 0.00061219312498309454 0.01217277278467014 0 9.0977884942489154e-05 0.01366818975197978 0 6.7033239604531237e-05 0.013442401536377758 0 0.0001566224380326425 0.013675552115867053 0 0.00013705905266459141 0.013628924223617755 0 0.00015574928660525217 0.013634104637070731 0 9.0977884942489154e-05 0.01366818975197978 0 2.4418524124181683e-05 0.013892643643908974 0 7.3609575726747098e-05 0.013674025938416299 0 7.3436100202616041e-05 0.013661901572689839 0 6.676821386369327e-05 0.013655671971565444 0 6.7033239604531237e-05 0.013442401536377758 0 2.4418524124181683e-05 0.013892643643908974 0 0.00020422558958611327 0.012748443383940896 0 6.7033239604531237e-05 0.013442401536377758 0 0.00035805988808818278 0.011899257945665901 0 0.00071958854581498583 0.012010297664773021 0 0.00050597748310594632 0.012081276053233194 0 0.00035805988808818278 0.011899257945665901 0 0.00050597748310594632 0.012081276053233194 0 0.00037483989131446632 0.012064509683457996 0 0.00050597748310594632 0.012081276053233194 0 0.00061219312498309454 0.01217277278467014 0 0.00046631079224998545 0.012263675751067137 0 0.00050597748310594632 0.012081276053233194 0 0.00046631079224998545 0.012263675751067137 0 0.00037483989131446632 0.012064509683457996 0 0.00071958854581498583 0.012010297664773021 0 0.00050597748310594632 0.012081276053233194 0 0.00061219312498309454 0.01217277278467014 0 0.00046631079224998545 0.012263675751067137 0 0.00062941400049041382 0.012324276793039286 0 0.00051455137543543841 0.012536457707718284 0 0.00046631079224998545 0.012263675751067137 0 0.00033142072925730674 0.012467415994950232 0 0.00051455137543543841 0.012536457707718284 0 0.00061219312498309454 0.01217277278467014 0 0.00046631079224998545 0.012263675751067137 0 0.00062941400049041382 0.012324276793039286 0 -0.00016693202545428083 0.014677924372798896 0 -6.8487046123145569e-05 0.014733247476234454 0 -5.2086936942459553e-05 0.014891154084618944 0 9.0977884942489154e-05 0.01366818975197978 0 -4.09980610033637e-05 0.014805598996476439 0 -0.00016480561730655539 0.014124407361124278 0 -3.4290243105874243e-05 0.014475186465112488 0 -0.00015921022924820648 0.01450324110229894 0 9.0977884942489154e-05 0.01366818975197978 0 0.00033096688799081107 0.013390620653103331 0 0.00076953584632846153 0.012130918610523605 0 0.00062941400049041382 0.012324276793039286 0 0.00078139272476969999 0.012521994362768846 0 0.00076953584632846153 0.012130918610523605 0 0.00061219312498309454 0.01217277278467014 0 0.00062941400049041382 0.012324276793039286 0 9.656401447144914e-06 0.012398847517619067 0 0.0004035741109526747 0.010873350240393745 0 0.0002989521836420876 0.011976542451457581 0 0.00015500721493963697 0.012223006511202903 0 -6.1337992751685531e-05 0.012198988189819942 0 4.377335452396474e-05 0.011958238792008998 0 0.0002989521836420876 0.011976542451457581 0 -2.757865534792593e-05 0.012136809333291717 0 4.7690838516537623e-05 0.011794252850846296 0 4.377335452396474e-05 0.011958238792008998 0 0.0002989521836420876 0.011976542451457581 0 4.377335452396474e-05 0.011958238792008998 0 -2.757865534792593e-05 0.012136809333291717 0 -0.00014352104386557434 0.011922443197189729 0 4.7690838516537623e-05 0.011794252850846296 0 4.377335452396474e-05 0.011958238792008998 0 -0.00014352104386557434 0.011922443197189729 0 0.0002989521836420876 0.011976542451457581 0 0.00031985075845158663 0.012168128227861676 0 0.00015500721493963697 0.012223006511202903 0 0.00035805988808818278 0.011899257945665901 0 0.0002989521836420876 0.011976542451457581 0 0.00037483989131446632 0.012064509683457996 0 0.0002989521836420876 0.011976542451457581 0 0.00037483989131446632 0.012064509683457996 0 0.00031985075845158663 0.012168128227861676 0 0.00046631079224998545 0.012263675751067137 0 0.00037483989131446632 0.012064509683457996 0 0.00031985075845158663 0.012168128227861676 0 0.00021798133803314413 0.012431373370072579 0 0.00015500721493963697 0.012223006511202903 0 5.6518928717661101e-05 0.012518829516692248 0 0.00046631079224998545 0.012263675751067137 0 0.00031985075845158663 0.012168128227861676 0 0.00029820263551255129 0.012310296918755828 0 0.00046631079224998545 0.012263675751067137 0 0.00029820263551255129 0.012310296918755828 0 0.00033142072925730674 0.012467415994950232 0 0.00029820263551255129 0.012310296918755828 0 0.00021798133803314413 0.012431373370072579 0 0.00033142072925730674 0.012467415994950232 0 0.00029820263551255129 0.012310296918755828 0 0.00021798133803314413 0.012431373370072579 0 0.00015500721493963697 0.012223006511202903 0 0.00031985075845158663 0.012168128227861676 0 0.00029820263551255129 0.012310296918755828 0 0.00015500721493963697 0.012223006511202903 0 0.00010496370026689767 0.012374594596852541 0 0.00035053191033954724 0.012166391505248298 0 0.00015500721493963697 0.012223006511202903 0 1.3828546645706217e-05 0.012327296508439051 0 7.7166857545185523e-05 0.012447547819240807 0 0.00015500721493963697 0.012223006511202903 0 1.0562358042869406e-05 0.012245587033994915 0 -6.1337992751685531e-05 0.012198988189819942 0 0.00015500721493963697 0.012223006511202903 0 1.237105392633658e-05 0.012291719970158498 0 1.0562358042869406e-05 0.012245587033994915 0 0.00015500721493963697 0.012223006511202903 0 1.237105392633658e-05 0.012291719970158498 0 1.3828546645706217e-05 0.012327296508439051 0 0.0004601448946733435 0.011387455970313173 0 0.00047585598599127112 0.011748752434447283 0 1.237105392633658e-05 0.012291719970158498 0 -1.4492337586939021e-05 0.012272174919577813 0 1.4059028264090702e-05 0.012323700064075549 0 0.00082296563056589783 0.011298322306262799 0 0.00079216305744083814 0.011237323852651832 0 0.0010280360058345433 0.01110320859157741 0 0.00044833292748629232 0.011868193771915295 0 0.00047585598599127112 0.011748752434447283 0 0.0004601448946733435 0.011387455970313173 0 0.0004035741109526747 0.010873350240393745 0 -1.949143131002884e-05 0.012272909522683013 0 1.0562358042869406e-05 0.012245587033994915 0 -6.1337992751685531e-05 0.012198988189819942 0 1.237105392633658e-05 0.012291719970158498 0 -1.4492337586939021e-05 0.012272174919577813 0 1.0562358042869406e-05 0.012245587033994915 0 0.0004601448946733435 0.011387455970313173 0 0.00030280388699073665 0.011568171330681897 0 0.00066246971719735191 0.011909439459611645 0 0.00066502265994456496 0.011465455259745965 0 0.00055927887631409558 0.01170296715596207 0 0.00053350828221376584 0.011910269932315521 0 0.00056939072449815453 0.011826121056473703 0 0.0006581895360915082 0.011996937314551322 0 0.00079216305744083814 0.011237323852651832 0 0.00079276214154233463 0.01094603013038113 0 0.0010280360058345433 0.01110320859157741 0 0.00047585598599127112 0.011748752434447283 0 0.0009374878129513939 0.01124746130784496 0 0.00047585598599127112 0.011748752434447283 0 0.00035053191033954724 0.012166391505248298 0 0.0009374878129513939 0.01124746130784496 0 0.00035053191033954724 0.012166391505248298 0 5.6518928717661101e-05 0.012518829516692248 0 0.00023829789567209023 0.012630171641095464 0 0.00023376129773846187 0.012858891067446315 0 0.00035053191033954724 0.012166391505248298 0 0.00063392119138234451 0.012217581036956839 0 0.00021798133803314413 0.012431373370072579 0 0.00023829789567209023 0.012630171641095464 0 0.00033142072925730674 0.012467415994950232 0 0.00021798133803314413 0.012431373370072579 0 5.6518928717661101e-05 0.012518829516692248 0 0.00023829789567209023 0.012630171641095464 0 0.00023829789567209023 0.012630171641095464 0 0.00033142072925730674 0.012467415994950232 0 0.0003550508849180666 0.012606116560483133 0 0.00033142072925730674 0.012467415994950232 0 0.0003550508849180666 0.012606116560483133 0 0.00051455137543543841 0.012536457707718284 0 0.0003550508849180666 0.012606116560483133 0 0.00030776668319643991 0.012761662559715847 0 0.00042350266415336368 0.012724330276332222 0 0.00023829789567209023 0.012630171641095464 0 0.0003550508849180666 0.012606116560483133 0 0.00030776668319643991 0.012761662559715847 0 0.00040191202102821453 0.012861820830631388 0 0.00035594076718484073 0.012856537695518477 0 0.00042350266415336368 0.012724330276332222 0 0.00035594076718484073 0.012856537695518477 0 0.00028162318988131271 0.012883017558015375 0 0.00042350266415336368 0.012724330276332222 0 0.00030776668319643991 0.012761662559715847 0 0.00026625339240726086 0.012880007986958444 0 0.00042350266415336368 0.012724330276332222 0 0.00057817392881466794 0.01232654047357565 0 0.00027362884158818834 0.012837416529978149 0 0.00057817392881466794 0.01232654047357565 0 0.00085255556532279776 0.012287048512029809 0 0.00033550776654514298 0.012937888173632056 0 0.00028363270680125411 0.012881936325682467 0 0.00032875803788271992 0.012998267295246895 0 0.00040191202102821453 0.012861820830631388 0 0.00035594076718484073 0.012856537695518477 0 0.00036127038066969186 0.012905202669888975 0 0.00040191202102821453 0.012861820830631388 0 0.00039786848492240329 0.0129428273627799 0 0.00036127038066969186 0.012905202669888975 0 0.00039786848492240329 0.0129428273627799 0 0.00036127038066969186 0.012905202669888975 0 0.00033550776654514298 0.012937888173632056 0 0.00036127038066969186 0.012905202669888975 0 0.00033550776654514298 0.012937888173632056 0 0.00031184943570458889 0.012901313155902131 0 0.00033550776654514298 0.012937888173632056 0 0.00031184943570458889 0.012901313155902131 0 0.00028363270680125411 0.012881936325682467 0 0.00057415099075963606 0.012362817306162914 0 0.00057817392881466794 0.01232654047357565 0 0.00035594076718484073 0.012856537695518477 0 0.00031184943570458889 0.012901313155902131 0 0.00028162318988131271 0.012883017558015375 0 0.00035594076718484073 0.012856537695518477 0 0.00036127038066969186 0.012905202669888975 0 0.00031184943570458889 0.012901313155902131 0 0.00078563943024119356 0.011989431030794162 0 0.00071150950661802469 0.012065163294068018 0 0.00084014001505393278 0.012142409975420865 0 0.0011169461225850473 0.011543734597526707 0 0.0010842196071846543 0.011633567463162922 0 0.00087473545834301151 0.011503975125471704 0 0.0011169461225850473 0.011543734597526707 0 0.001149575965543272 0.011567003631229082 0 0.0010842196071846543 0.011633567463162922 0 0.00063392119138234451 0.012217581036956839 0 0.00057817392881466794 0.01232654047357565 0 0.00057817392881466794 0.01232654047357565 0 0.0011040191618926639 0.01172017377714824 0 0.00023829789567209023 0.012630171641095464 0 0.00030776668319643991 0.012761662559715847 0 0.00023376129773846187 0.012858891067446315 0 0.00030776668319643991 0.012761662559715847 0 0.00023376129773846187 0.012858891067446315 0 0.00026625339240726086 0.012880007986958444 0 0.0009374878129513939 0.01124746130784496 0 0.00063392119138234451 0.012217581036956839 0 0.0011169461225850473 0.011543734597526707 0 0.00087473545834301151 0.011503975125471704 0 0.00087394611782388 0.011432815303096231 0 0.00087351272883667321 0.011371193232415101 0 0.0011169461225850473 0.011543734597526707 0 0.00087394611782388 0.011432815303096231 0 0.0011040191618926639 0.01172017377714824 0 0.0016130439512937024 0.010536253525269124 0 0.0016130439512937024 0.010536253525269124 0 0.0022410721576451237 0.0098023448503533565 0 0.0024621938004397636 0.0094238526074923671 0 0.0024631325574238348 0.009424376791427538 0 0.0024673165279853661 0.0094324174801818095 0 0.0016130439512937024 0.010536253525269124 0 0.0012448403993589739 0.010935044370675948 0 0.0009374878129513939 0.01124746130784496 0 0.0012448403993589739 0.010935044370675948 0 -6.5386072838915455e-05 0.014644794634020339 0 -3.4290243105874243e-05 0.014475186465112488 0 -0.00015921022924820648 0.01450324110229894 0 0.00062941400049041382 0.012324276793039286 0 0.00078139272476969999 0.012521994362768846 0 0.00051455137543543841 0.012536457707718284 0 0.00078139272476969999 0.012521994362768846 0 0.00051455137543543841 0.012536457707718284 0 0.00059928228026081751 0.012760274907359977 0 0.00051455137543543841 0.012536457707718284 0 0.00059928228026081751 0.012760274907359977 0 0.00042350266415336368 0.012724330276332222 0 0.0003550508849180666 0.012606116560483133 0 0.00051455137543543841 0.012536457707718284 0 0.00042350266415336368 0.012724330276332222 0 0.00040191202102821453 0.012861820830631388 0 0.00042350266415336368 0.012724330276332222 0 0.00047627600978882435 0.012852702477955067 0 0.00059928228026081751 0.012760274907359977 0 0.00042350266415336368 0.012724330276332222 0 0.00047627600978882435 0.012852702477955067 0 0.00040191202102821453 0.012861820830631388 0 0.00039786848492240329 0.0129428273627799 0 0.00047627600978882435 0.012852702477955067 0 0.00059928228026081751 0.012760274907359977 0 0.00047627600978882435 0.012852702477955067 0 0.0006096161917034501 0.0130095578579705 0 0.00059928228026081751 0.012760274907359977 0 0.00079662940768496367 0.012934798968316931 0 0.0006096161917034501 0.0130095578579705 0 -6.5386072838915455e-05 0.014644794634020339 0 -0.0001252935644451967 0.014787716797010114 0 3.0021321698303778e-05 0.014753810899238901 0 0.00078139272476969999 0.012521994362768846 0 0.00059928228026081751 0.012760274907359977 0 0.00079662940768496367 0.012934798968316931 0 0.00033096688799081107 0.013390620653103331 0 0.00032819991525563641 0.013920250044742035 0 -6.5386072838915455e-05 0.014644794634020339 0 -0.00015921022924820648 0.01450324110229894 0 -0.0001252935644451967 0.014787716797010114 0 -0.0001252935644451967 0.014787716797010114 0 3.0021321698303778e-05 0.014753810899238901 0 -3.4446860100169474e-05 0.014899674772608886 0 -4.09980610033637e-05 0.014805598996476439 0 9.3999103797480386e-06 0.014825738601408525 0 -5.2086936942459553e-05 0.014891154084618944 0 1.1973410289007869e-05 0.014959027968085792 0 1.2312490481134372e-05 0.014909441961641916 0 1.1973410289007869e-05 0.014959027968085792 0 1.2312490481134372e-05 0.014909441961641916 0 3.7104832629087248e-05 0.014939134276314955 0 -6.5386072838915455e-05 0.014644794634020339 0 -3.4290243105874243e-05 0.014475186465112488 0 3.0021321698303778e-05 0.014753810899238901 0 1.2312490481134372e-05 0.014909441961641916 0 1.4266692425879863e-05 0.014850549451122647 0 4.9508800622982998e-05 0.014876835236317859 0 -5.2086936942459553e-05 0.014891154084618944 0 1.2312490481134372e-05 0.014909441961641916 0 1.4266692425879863e-05 0.014850549451122647 0 3.7104832629087248e-05 0.014939134276314955 0 5.669481767826159e-05 0.014918652063909672 0 4.9508800622982998e-05 0.014876835236317859 0 1.2312490481134372e-05 0.014909441961641916 0 3.7104832629087248e-05 0.014939134276314955 0 4.9508800622982998e-05 0.014876835236317859 0 1.1973410289007869e-05 0.014959027968085792 0 3.7104832629087248e-05 0.014939134276314955 0 2.7434418709672035e-05 0.014962497846281172 0 3.7104832629087248e-05 0.014939134276314955 0 3.6392567810087821e-05 0.014961343068569458 0 2.7434418709672035e-05 0.014962497846281172 0 3.6392567810087821e-05 0.014961343068569458 0 2.259661105326342e-05 0.014975103522015878 0 2.7434418709672035e-05 0.014962497846281172 0 3.6392567810087821e-05 0.014961343068569458 0 4.0561158615050845e-08 0.014999950041734319 0 2.259661105326342e-05 0.014975103522015878 0 4.0561158615050845e-08 0.014999950041734319 0 4.0582274144472469e-05 0.014952193442754346 0 4.8525785773288666e-08 0.014999849130021618 0 3.6392567810087821e-05 0.014961343068569458 0 4.0561158615050845e-08 0.014999950041734319 0 4.0582274144472469e-05 0.014952193442754346 0 3.7104832629087248e-05 0.014939134276314955 0 3.6392567810087821e-05 0.014961343068569458 0 5.669481767826159e-05 0.014918652063909672 0 3.6392567810087821e-05 0.014961343068569458 0 4.0582274144472469e-05 0.014952193442754346 0 5.669481767826159e-05 0.014918652063909672 0 4.0582274144472469e-05 0.014952193442754346 0 5.669481767826159e-05 0.014918652063909672 0 8.6079923745229885e-05 0.014864067999996736 0 4.0582274144472469e-05 0.014952193442754346 0 8.6079923745229885e-05 0.014864067999996736 0 4.8525785773288666e-08 0.014999849130021618 0 6.7318275563130956e-05 0.014898769154931624 0 2.7901614814310764e-08 0.014999969065591647 0 4.8525785773288666e-08 0.014999849130021618 0 6.7318275563130956e-05 0.014898769154931624 0 8.6079923745229885e-05 0.014864067999996736 0 4.8525785773288666e-08 0.014999849130021618 0 6.7318275563130956e-05 0.014898769154931624 0 8.6079923745229885e-05 0.014864067999996736 0 0.00012985348982601528 0.014632666630055682 0 0.00013209515468365013 0.014762294357864324 0 0.00011567251316347623 0.014661805430159384 0 8.6079923745229885e-05 0.014864067999996736 0 0.00012985348982601528 0.014632666630055682 0 5.9573592415163014e-05 0.014774082677679462 0 0.00012985348982601528 0.014632666630055682 0 3.4017507529166802e-05 0.014474688052707751 0 1.4575782542806456e-05 0.014666712079584834 0 -0.00010964821375210024 0.014612112167296422 0 3.4017507529166802e-05 0.014474688052707751 0 1.4575782542806456e-05 0.014666712079584834 0 -0.00010964821375210024 0.014612112167296422 0 -6.8487046123145569e-05 0.014733247476234454 0 1.4575782542806456e-05 0.014666712079584834 0 0.00012985348982601528 0.014632666630055682 0 1.4575782542806456e-05 0.014666712079584834 0 5.9573592415163014e-05 0.014774082677679462 0 5.9573592415163014e-05 0.014774082677679462 0 -1.2804461648432519e-05 0.014778160572751669 0 1.4266692425879863e-05 0.014850549451122647 0 -6.8487046123145569e-05 0.014733247476234454 0 -5.2086936942459553e-05 0.014891154084618944 0 -1.2804461648432519e-05 0.014778160572751669 0 1.4575782542806456e-05 0.014666712079584834 0 5.9573592415163014e-05 0.014774082677679462 0 -1.2804461648432519e-05 0.014778160572751669 0 -6.8487046123145569e-05 0.014733247476234454 0 1.4575782542806456e-05 0.014666712079584834 0 -1.2804461648432519e-05 0.014778160572751669 0 -5.2086936942459553e-05 0.014891154084618944 0 -1.2804461648432519e-05 0.014778160572751669 0 1.4266692425879863e-05 0.014850549451122647 0 5.9573592415163014e-05 0.014774082677679462 0 1.4266692425879863e-05 0.014850549451122647 0 4.9508800622982998e-05 0.014876835236317859 0 8.6079923745229885e-05 0.014864067999996736 0 5.9573592415163014e-05 0.014774082677679462 0 4.9508800622982998e-05 0.014876835236317859 0 5.669481767826159e-05 0.014918652063909672 0 8.6079923745229885e-05 0.014864067999996736 0 4.9508800622982998e-05 0.014876835236317859 0 0.0016939107684820996 0.0059828321125215246 0 0.0014541909853440298 0.0062463877364330022 0 0.0012303037135904229 0.0056721429678353533 0 0.0016939107684820996 0.0059828321125215246 0 0.0014541909853440298 0.0062463877364330022 0 0.0017734422661965603 0.0063730352564285329 0 0.0012580050163605049 0.0065527896616447267 0 0.001675433940219501 0.006845665638490081 0 0.00081633236777650415 0.0072488935879161083 0 0.0008174033559801905 0.0072252841802091117 0 0.0010647244647124777 0.0073813045209749481 0 0.00081633236777650415 0.0072488935879161083 0 0.0010632471119348434 0.007428606492845974 0 0.0010647244647124777 0.0073813045209749481 0 0.00042761261839736165 0.0077716486321958269 0 0.00057625245783441098 0.0077970173977889188 0 0.0016939107684820996 0.0059828321125215246 0 0.002177828480378501 0.0062996709892092512 0 0.0017734422661965603 0.0063730352564285329 0 0.00011225256722443933 0.0082179649668307365 0 7.6682576807897204e-05 0.0082460043567583255 0 0.00011044885402028754 0.0080959214115304233 0 0.00011225256722443933 0.0082179649668307365 0 7.6682576807897204e-05 0.0082460043567583255 0 9.9621704648172535e-05 0.0082716370217627462 0 0.00081633236777650415 0.0072488935879161083 0 0.0008174033559801905 0.0072252841802091117 0 0.00057293743084312141 0.0070771080490940295 0 0.0012580050163605049 0.0065527896616447267 0 0.00058599648859211195 0.007087421947974337 0 0.00042761261839736165 0.0077716486321958269 0 0.00058599648859211195 0.007087421947974337 0 7.6682576807897204e-05 0.0082460043567583255 0 0.00011044885402028754 0.0080959214115304233 0 -3.7002605613888481e-05 0.008155422464640948 0 0.00011044885402028754 0.0080959214115304233 0 1.5739692503024281e-05 0.007815369598386834 0 -3.7002605613888481e-05 0.008155422464640948 0 0.00011044885402028754 0.0080959214115304233 0 6.0232809215100109e-05 0.0079545433462990759 0 1.5739692503024281e-05 0.007815369598386834 0 6.0232809215100109e-05 0.0079545433462990759 0 4.7307060070676966e-08 0.0075453926173608713 0 3.3815881127728225e-07 0.0083852863741970592 0 6.0232809215100109e-05 0.0079545433462990759 0 4.7307060070676966e-08 0.0075453926173608713 0 1.5739692503024281e-05 0.007815369598386834 0 0.00011044885402028754 0.0080959214115304233 0 3.3815881127728225e-07 0.0083852863741970592 0 6.0009118169413912e-05 0.00842966113293157 0 0.00011044885402028754 0.0080959214115304233 0 6.0232809215100109e-05 0.0079545433462990759 0 3.3815881127728225e-07 0.0083852863741970592 0 0.00011225256722443933 0.0082179649668307365 0 0.00011044885402028754 0.0080959214115304233 0 6.0009118169413912e-05 0.00842966113293157 0 0.00011225256722443933 0.0082179649668307365 0 3.4835972267285895e-05 0.008297023326483537 0 6.0009118169413912e-05 0.00842966113293157 0 3.4835972267285895e-05 0.008297023326483537 0 6.0009118169413912e-05 0.00842966113293157 0 -1.8070946144141737e-05 0.0085180688324730785 0 3.3815881127728225e-07 0.0083852863741970592 0 -1.6458685854875242e-07 0.0092258846097414311 0 -1.3968865735307684e-05 0.0089047149272480086 0 3.3815881127728225e-07 0.0083852863741970592 0 6.0009118169413912e-05 0.00842966113293157 0 -1.3968865735307684e-05 0.0089047149272480086 0 6.0009118169413912e-05 0.00842966113293157 0 -1.3968865735307684e-05 0.0089047149272480086 0 -1.8070946144141737e-05 0.0085180688324730785 0 -1.3968865735307684e-05 0.0089047149272480086 0 -0.00018620417123622196 0.008491562442428182 0 -0.00040582094379067196 0.008697716988647089 0 -1.3968865735307684e-05 0.0089047149272480086 0 -0.00018620417123622196 0.008491562442428182 0 -1.8070946144141737e-05 0.0085180688324730785 0 1.0251040364714093e-05 0.0090094401807971607 0 -0.00011715337722555907 0.0090841525998680561 0 -1.6458685854875242e-07 0.0092258846097414311 0 -1.3968865735307684e-05 0.0089047149272480086 0 3.4958405390195574e-05 0.0097043200472666704 0 3.4835972267285895e-05 0.008297023326483537 0 -0.00018620417123622196 0.008491562442428182 0 -0.00031086296311416646 0.0083027355220810645 0 3.4835972267285895e-05 0.008297023326483537 0 -0.00018620417123622196 0.008491562442428182 0 -1.8070946144141737e-05 0.0085180688324730785 0 3.2643534728716546e-05 0.0082946835337605138 0 -2.7557397047366729e-05 0.0083113229081530193 0 3.4835972267285895e-05 0.008297023326483537 0 7.036096363157991e-05 0.0083178332743589437 0 0.00021568038321127239 0.0082654081903219788 0 7.036096363157991e-05 0.0083178332743589437 0 0.00020836198744181308 0.0084782036207243401 0 0.00021568038321127239 0.0082654081903219788 0 0.00011225256722443933 0.0082179649668307365 0 8.2136061208043504e-05 0.0082680305403610641 0 9.9621704648172535e-05 0.0082716370217627462 0 0.00011225256722443933 0.0082179649668307365 0 3.4835972267285895e-05 0.008297023326483537 0 8.2136061208043504e-05 0.0082680305403610641 0 3.4835972267285895e-05 0.008297023326483537 0 7.036096363157991e-05 0.0083178332743589437 0 8.2136061208043504e-05 0.0082680305403610641 0 7.036096363157991e-05 0.0083178332743589437 0 9.9621704648172535e-05 0.0082716370217627462 0 7.0609135704790966e-05 0.0082567452840216216 0 0.0010632471119348434 0.007428606492845974 0 0.0010647244647124777 0.0073813045209749481 0 0.001316953095831323 0.0075383689804201714 0 7.036096363157991e-05 0.0083178332743589437 0 8.2136061208043504e-05 0.0082680305403610641 0 9.9621704648172535e-05 0.0082716370217627462 0 0.00057625245783441098 0.0077970173977889188 0 0.00062284776382482776 0.0082058579344785349 0 -4.6218471046175627e-05 0.0084391509935726108 0 0.00062284776382482776 0.0082058579344785349 0 7.036096363157991e-05 0.0083178332743589437 0 0.00020836198744181308 0.0084782036207243401 0 1.781434664035751e-05 0.0086714044522639717 0 0.00020836198744181308 0.0084782036207243401 0 0.00039979693701458935 0.0085151040950822553 0 0.00021568038321127239 0.0082654081903219788 0 0.00020836198744181308 0.0084782036207243401 0 0.00039979693701458935 0.0085151040950822553 0 0.00032074004725299445 0.0086751119977044912 0 0.00039979693701458935 0.0085151040950822553 0 0.00053702966504688828 0.0083602457454115455 0 0.0006387353910116216 0.008618141832282258 0 0.00039979693701458935 0.0085151040950822553 0 0.0006387353910116216 0.008618141832282258 0 0.00047723144427173767 0.0086716072241298896 0 -0.0005663634839200173 0.008313177927874239 0 -0.00058492461212495122 0.0084612668001037509 0 -0.00067828129109533456 0.0084292635499242808 0 -0.0005663634839200173 0.008313177927874239 0 -0.00047089339659437741 0.0084753638621985448 0 -0.00058492461212495122 0.0084612668001037509 0 0.00039979693701458935 0.0085151040950822553 0 0.00053702966504688828 0.0083602457454115455 0 0.00021568038321127239 0.0082654081903219788 0 -0.0005663634839200173 0.008313177927874239 0 -0.00031086296311416646 0.0083027355220810645 0 -0.00047089339659437741 0.0084753638621985448 0 -2.2680802623356361e-05 0.0081354049783430131 0 -2.7557397047366729e-05 0.0083113229081530193 0 -0.00034255094216218714 0.0084846988066940975 0 -0.00040582094379067196 0.008697716988647089 0 -0.00047089339659437741 0.0084753638621985448 0 -0.00018620417123622196 0.008491562442428182 0 -0.00031086296311416646 0.0083027355220810645 0 -0.00034255094216218714 0.0084846988066940975 0 -0.00031086296311416646 0.0083027355220810645 0 -0.00034255094216218714 0.0084846988066940975 0 -0.00047089339659437741 0.0084753638621985448 0 -0.00018620417123622196 0.008491562442428182 0 -0.00034255094216218714 0.0084846988066940975 0 -0.00040582094379067196 0.008697716988647089 0 -1.6458685854875242e-07 0.0092258846097414311 0 3.4958405390195574e-05 0.0097043200472666704 0 -8.7201473239791902e-11 0.01006572351166642 0 -0.00011715337722555907 0.0090841525998680561 0 -0.00069579163885971651 0.010519863679383594 0 3.4958405390195574e-05 0.0097043200472666704 0 -8.7201473239791902e-11 0.01006572351166642 0 -0.00010614070480838872 0.0098722662682912358 0 -1.0987872133480753e-07 0.010066606783257574 0 -0.00069579163885971651 0.010519863679383594 0 -0.00061717036209284605 0.0086130747850619027 0 -0.00047089339659437741 0.0084753638621985448 0 -0.00058492461212495122 0.0084612668001037509 0 -0.00040582094379067196 0.008697716988647089 0 -0.00061717036209284605 0.0086130747850619027 0 -0.00047089339659437741 0.0084753638621985448 0 -0.00061717036209284605 0.0086130747850619027 0 -0.00058492461212495122 0.0084612668001037509 0 -0.00067828129109533456 0.0084292635499242808 0 -8.5319701469057591e-07 0.010067824813303648 0 -0.0001081714903179898 0.010689561418054999 0 -9.7455148715657662e-05 0.011545893805463985 0 -0.0015869170500023553 0.012383072068257887 0 -0.00084463776251598977 0.012586784969235194 0 -0.001324939910904934 0.012922400463470358 0 -0.00069579163885971651 0.010519863679383594 0 -0.0010651294262687956 0.010676288933165044 0 -0.00069579163885971651 0.010519863679383594 0 -0.00042707455671416186 0.012233984715345585 0 1.1752420658954246e-07 0.011897659727027018 0 -8.5319701469057591e-07 0.010067824813303648 0 -9.7455148715657662e-05 0.011545893805463985 0 -0.00056543038924086145 0.013106805962440925 0 -0.00084463776251598977 0.012586784969235194 0 -0.001324939910904934 0.012922400463470358 0 -0.00056543038924086145 0.013106805962440925 0 -0.001324939910904934 0.012922400463470358 0 -0.0010506445961257392 0.01344272602748818 0 -2.2680802623356361e-05 0.0081354049783430131 0 -0.00021456214867070778 0.01048772600283249 0 -0.0005663634839200173 0.008313177927874239 0 -0.00067828129109533456 0.0084292635499242808 0 -0.00073354031722893808 0.0083104962920707015 0 -0.0010651294262687956 0.010676288933165044 0 -0.00021456214867070778 0.01048772600283249 0 0.00053702966504688828 0.0083602457454115455 0 0.0006387353910116216 0.008618141832282258 0 0.00085023052570780823 0.0084683621660923206 0 0.0006387353910116216 0.008618141832282258 0 0.00085023052570780823 0.0084683621660923206 0 0.00080864356453401378 0.0086516964829867014 0 0.00085023052570780823 0.0084683621660923206 0 0.00096473869338707912 0.0086920229311004144 0 0.00080864356453401378 0.0086516964829867014 0 -0.00021456214867070778 0.01048772600283249 0 0.00038336450182502953 0.01024735659170673 0 4.7690838516537623e-05 0.011794252850846296 0 -0.00026173466923321795 0.011688084746685009 0 -0.00014352104386557434 0.011922443197189729 0 -0.00022920908769064508 0.012867089370391884 0 -0.00021456214867070778 0.01048772600283249 0 -0.00056543038924086145 0.013106805962440925 0 -0.00045334780593197491 0.013612972510661866 0 -0.0010506445961257392 0.01344272602748818 0 0.0010755156829996158 0.0089196513114676683 0 0.00096473869338707912 0.0086920229311004144 0 0.00078120505123503866 0.0088305556734562529 0 0.0004035741109526747 0.010873350240393745 0 0.00038336450182502953 0.01024735659170673 0 0.00096473869338707912 0.0086920229311004144 0 0.00080864356453401378 0.0086516964829867014 0 0.00078120505123503866 0.0088305556734562529 0 0.0006387353910116216 0.008618141832282258 0 0.00078120505123503866 0.0088305556734562529 0 0.00055441311412513775 0.0088765715849666183 0 0.0006387353910116216 0.008618141832282258 0 0.00080864356453401378 0.0086516964829867014 0 0.00078120505123503866 0.0088305556734562529 0 0.0011226263636453446 0.009475878916162887 0 0.00053578888949965605 0.0088118286511647513 0 0.00078120505123503866 0.0088305556734562529 0 0.0008109414043012712 0.0090710483210641926 0 0.00055441311412513775 0.0088765715849666183 0 0.00098899485531977463 0.0091037813059120058 0 0.0008344661214178961 0.0091951266106143556 0 0.00064590353951539414 0.0088713307879914882 0 0.00048867820197086775 0.010845331553700406 0 0.0013451648047059588 0.010323385359834068 0 0.00096125749448162413 0.010063407149911531 0 0.0003741765787215538 0.010621422981524371 0 0.00048867820197086775 0.010845331553700406 0 0.00096125749448162413 0.010063407149911531 0 0.0010755156829996158 0.0089196513114676683 0 0.00078120505123503866 0.0088305556734562529 0 0.0008109414043012712 0.0090710483210641926 0 0.0004035741109526747 0.010873350240393745 0 0.0011226263636453446 0.009475878916162887 0 0.0004601448946733435 0.011387455970313173 0 0.0012810021380062122 0.010349558598630165 0 0.001584646940765566 0.01041493197084686 0 0.0015851336822940948 0.010440217042062957 0 0.0014399882065888345 0.010376231442183668 0 0.001584646940765566 0.01041493197084686 0 0.001480289062458865 0.010338494813993912 0 0.0014399882065888345 0.010376231442183668 0 0.0011226263636453446 0.009475878916162887 0 0.0012810021380062122 0.010349558598630165 0 0.0014753039264594411 0.0096298188298944588 0 0.001562388423811154 0.0096915475279281856 0 0.0015030247102890597 0.0097472906809799621 0 0.0012810021380062122 0.010349558598630165 0 0.0019597124286105084 0.0097185875404868973 0 0.0009374878129513939 0.01124746130784496 0 0.0012810021380062122 0.010349558598630165 0 0.0015855086875849395 0.01046985289689863 0 0.0015851336822940948 0.010440217042062957 0 0.0014399882065888345 0.010376231442183668 0 0.0024621938004397636 0.0094238526074923671 0 0.0024482520823314691 0.0094193231266279896 0 0.0024631325574238348 0.009424376791427538 0 0.0024988482797835077 0.0094449322804874402 0 0.0023408111371168755 0.0093410829075909543 0 0.0024482520823314691 0.0094193231266279896 0 0.0024631325574238348 0.009424376791427538 0 0.0024444833578404963 0.0094221632135986291 0 0.0016130439512937024 0.010536253525269124 0 0.0019597124286105084 0.0097185875404868973 0 0.0024631325574238348 0.009424376791427538 0 0.0024284832984968288 0.0093709285442812526 0 0.0024484522927263413 0.0094202223480830925 0 0.002424646907065385 0.009405166921404676 0 0.0024284832984968288 0.0093709285442812526 0 0.0024484522927263413 0.0094202223480830925 0 0.002424646907065385 0.009405166921404676 0 0.0024284832984968288 0.0093709285442812526 0 0.0023833144888020475 0.009389016497330609 0 0.0024777266828164748 0.0092259277913325864 0 0.002406973580927352 0.0092410494591572464 0 0.002390670522934605 0.0093134045254827606 0 0.0023408111371168755 0.0093410829075909543 0 0.0023993457220928996 0.0093402474967629531 0 0.0024777266828164748 0.0092259277913325864 0 0.0024024071251595443 0.009172621776932106 0 0.002406973580927352 0.0092410494591572464 0 0.0023408111371168755 0.0093410829075909543 0 0.0020273370928777265 0.0087606640257283409 0 0.0019583194128168719 0.0093296073251495741 0 0.0019024933212691564 0.0091657339299397785 0 0.0018061338632350289 0.0092228595081805496 0 0.0020422859935746614 0.0092506236834703597 0 0.0019583194128168719 0.0093296073251495741 0 0.0019024933212691564 0.0091657339299397785 0 0.0019597124286105084 0.0097185875404868973 0 0.0023408111371168755 0.0093410829075909543 0 0.0011226263636453446 0.009475878916162887 0 0.0013993030480642528 0.0091703781362342321 0 0.0019597124286105084 0.0097185875404868973 0 0.0013993030480642528 0.0091703781362342321 0 0.0014753039264594411 0.0096298188298944588 0 0.0015030247102890597 0.0097472906809799621 0 0.0013914803306517166 0.0096787622629099512 0 0.0013993030480642528 0.0091703781362342321 0 0.0020273370928777265 0.0087606640257283409 0 0.0021848587510919113 0.0082482936332012174 0 0.001993728701388264 0.0083555219038536702 0 0.0020296297270990709 0.0082953499447382031 0 0.0020273370928777265 0.0087606640257283409 0 0.0015243333871009408 0.0083459240452123662 0 0.0020273370928777265 0.0087606640257283409 0 0.0021802933811998779 0.0089584632052574602 0 0.0021848587510919113 0.0082482936332012174 0 0.0020153674310911807 0.0082371505106336087 0 0.0019689282990801357 0.0080907629326305019 0 0.0017632275578068218 0.0087645216028288085 0 0.0016114223573060456 0.0088551623429256199 0 0.0012652623373206183 0.0084605257840650993 0 0.0021848587510919113 0.0082482936332012174 0 0.0020296297270990709 0.0082953499447382031 0 0.0020153674310911807 0.0082371505106336087 0 0.0024024071251595443 0.009172621776932106 0 0.002406973580927352 0.0092410494591572464 0 0.0023567134120337039 0.0092522193787606555 0 0.0024024071251595443 0.009172621776932106 0 0.0023567134120337039 0.0092522193787606555 0 0.0022828535027582812 0.0092430925585499004 0 0.002406973580927352 0.0092410494591572464 0 0.0023567134120337039 0.0092522193787606555 0 0.002390670522934605 0.0093134045254827606 0 0.0023567134120337039 0.0092522193787606555 0 0.0023115895510079569 0.0092726069023579393 0 0.0022828535027582812 0.0092430925585499004 0 0.0023567134120337039 0.0092522193787606555 0 0.0023207236881743771 0.0093065790581830822 0 0.002390670522934605 0.0093134045254827606 0 0.0023567134120337039 0.0092522193787606555 0 0.0023207236881743771 0.0093065790581830822 0 0.0023115895510079569 0.0092726069023579393 0 0.0021802933811998779 0.0089584632052574602 0 0.0021737229745761063 0.0093504049837588431 0 0.0022828535027582812 0.0092430925585499004 0 0.0021649797720846875 0.0093139824640388318 0 0.0022100219692016629 0.0093060753210210088 0 0.002259429690532804 0.0092907551504372871 0 0.0022828535027582812 0.0092430925585499004 0 0.0022100219692016629 0.0093060753210210088 0 0.002259429690532804 0.0092907551504372871 0 0.0022100219692016629 0.0093060753210210088 0 0.0022588966455874744 0.0093256105740982254 0 0.002259429690532804 0.0092907551504372871 0 0.0022834251266833422 0.0092874816620148806 0 0.0022588966455874744 0.0093256105740982254 0 0.0023207236881743771 0.0093065790581830822 0 0.0022834251266833422 0.0092874816620148806 0 0.0022588966455874744 0.0093256105740982254 0 0.0023207236881743771 0.0093065790581830822 0 0.0023115895510079569 0.0092726069023579393 0 0.0022834251266833422 0.0092874816620148806 0 0.002259429690532804 0.0092907551504372871 0 0.0022834251266833422 0.0092874816620148806 0 0.0022828535027582812 0.0092430925585499004 0 0.0023115895510079569 0.0092726069023579393 0 0.0022834251266833422 0.0092874816620148806 0 0.0022828535027582812 0.0092430925585499004 0 0.0019805762573947361 0.0083301635162407114 0 0.001993728701388264 0.0083555219038536702 0 0.0020296297270990709 0.0082953499447382031 0 0.0019805762573947361 0.0083301635162407114 0 0.0019101393162044905 0.0083436227597814289 0 0.0019710608292195886 0.0082953562613756471 0 0.0019805762573947361 0.0083301635162407114 0 0.0019058847892146104 0.0083723372837118584 0 0.0019101393162044905 0.0083436227597814289 0 0.0019805762573947361 0.0083301635162407114 0 0.001993728701388264 0.0083555219038536702 0 0.0019058847892146104 0.0083723372837118584 0 0.0019101393162044905 0.0083436227597814289 0 0.0019202347409034619 0.0083007448038083485 0 0.0018510128465967785 0.0083419768374545355 0 0.0019202347409034619 0.0083007448038083485 0 0.0019289930633163575 0.0082465935281829193 0 0.0019710608292195886 0.0082953562613756471 0 0.0019101393162044905 0.0083436227597814289 0 0.0019202347409034619 0.0083007448038083485 0 0.0019710608292195886 0.0082953562613756471 0 0.0019202347409034619 0.0083007448038083485 0 0.0019289930633163575 0.0082465935281829193 0 0.0018692514426092194 0.0082844149228199875 0 0.0019289930633163575 0.0082465935281829193 0 0.0019710608292195886 0.0082953562613756471 0 0.0020153674310911807 0.0082371505106336087 0 0.0019805762573947361 0.0083301635162407114 0 0.0020296297270990709 0.0082953499447382031 0 0.0019710608292195886 0.0082953562613756471 0 0.0020296297270990709 0.0082953499447382031 0 0.0019710608292195886 0.0082953562613756471 0 0.0020153674310911807 0.0082371505106336087 0 0.0019289930633163575 0.0082465935281829193 0 0.0020153674310911807 0.0082371505106336087 0 0.0019689282990801357 0.0080907629326305019 0 0.0019289930633163575 0.0082465935281829193 0 0.0019689282990801357 0.0080907629326305019 0 0.0018512591055768204 0.0082258840357398843 0 0.0012652623373206183 0.0084605257840650993 0 0.001187982613267887 0.0085570636143634683 0 0.00076743652280688982 0.0082593549974555626 0 0.0016114223573060456 0.0088551623429256199 0 0.0012652623373206183 0.0084605257840650993 0 0.001187982613267887 0.0085570636143634683 0 0.0008344661214178961 0.0091951266106143556 0 0.00038145143994778381 0.0089179276580350388 0 0.00064590353951539414 0.0088713307879914882 0 0.0013993030480642528 0.0091703781362342321 0 0.00076104077936115606 0.008680393403582223 0 0.00038145143994778381 0.0089179276580350388 0 0.00064590353951539414 0.0088713307879914882 0 0.00032074004725299445 0.0086751119977044912 0 0.00053578888949965605 0.0088118286511647513 0 0.0003708771920172667 0.0087139508029670295 0 0.00055441311412513775 0.0088765715849666183 0 0.00047723144427173767 0.0086716072241298896 0 0.00032074004725299445 0.0086751119977044912 0 0.0006387353910116216 0.008618141832282258 0 0.00055441311412513775 0.0088765715849666183 0 0.00047723144427173767 0.0086716072241298896 0 0.00039979693701458935 0.0085151040950822553 0 0.00047723144427173767 0.0086716072241298896 0 0.00032074004725299445 0.0086751119977044912 0 0.00038145143994778381 0.0089179276580350388 0 0.00032074004725299445 0.0086751119977044912 0 1.781434664035751e-05 0.0086714044522639717 0 0.00020836198744181308 0.0084782036207243401 0 0.00032074004725299445 0.0086751119977044912 0 1.781434664035751e-05 0.0086714044522639717 0 0.00076104077936115606 0.008680393403582223 0 0.00062284776382482776 0.0082058579344785349 0 0.0012652623373206183 0.0084605257840650993 0 0.00076743652280688982 0.0082593549974555626 0 0.00077047037698969444 0.008157275599611517 0 0.0015024562372758855 0.0076107503146896635 0 0.00062284776382482776 0.0082058579344785349 0 0.002177828480378501 0.0062996709892092512 0 0.0026821795141492872 0.006640187814282399 0 0.0022807675918167518 0.0069321324365133616 0 0.0010632471119348434 0.007428606492845974 0 0.0013150789817990313 0.0076094643618817067 0 0.001316953095831323 0.0075383689804201714 0 0.001675433940219501 0.006845665638490081 0 0.0015024562372758855 0.0076107503146896635 0 0.0026821795141492872 0.006640187814282399 0 0.0024880962587489164 0.0071352896804430382 0 0.0026684561642198439 0.0073494222398443696 0 0.0026821795141492872 0.006640187814282399 0 0.0022807675918167518 0.0069321324365133616 0 0.0024880962587489164 0.0071352896804430382 0 0.0022807675918167518 0.0069321324365133616 0 0.0023721001372813025 0.007208868523210679 0 0.0024880962587489164 0.0071352896804430382 0 0.0022807675918167518 0.0069321324365133616 0 0.0023721001372813025 0.007208868523210679 0 0.0021826211821793845 0.0072494644567004983 0 0.0015024562372758855 0.0076107503146896635 0 0.0022921117609681491 0.007611165832460483 0 0.0019689282990801357 0.0080907629326305019 0 0.0017460876746055408 0.0079308504636857093 0 0.0017422339907586985 0.0081979217420844012 0 0.0015243333871009408 0.0083459240452123662 0 0.0015024562372758855 0.0076107503146896635 0 0.0019689282990801357 0.0080907629326305019 0 0.0018512591055768204 0.0082258840357398843 0 0.0017422339907586985 0.0081979217420844012 0 0.0017422339907586985 0.0081979217420844012 0 0.0017894063679103746 0.0082818692940518461 0 0.0017392984124612197 0.0084603497421893558 0 0.0018512591055768204 0.0082258840357398843 0 0.0017422339907586985 0.0081979217420844012 0 0.0017894063679103746 0.0082818692940518461 0 0.0019289930633163575 0.0082465935281829193 0 0.0018512591055768204 0.0082258840357398843 0 0.0018692514426092194 0.0082844149228199875 0 0.0018512591055768204 0.0082258840357398843 0 0.0018279594549838972 0.0082701071008128568 0 0.0018692514426092194 0.0082844149228199875 0 0.0018512591055768204 0.0082258840357398843 0 0.0017894063679103746 0.0082818692940518461 0 0.0018279594549838972 0.0082701071008128568 0 0.0018279594549838972 0.0082701071008128568 0 0.0018692514426092194 0.0082844149228199875 0 0.0018165939051880758 0.0083211553582607841 0 0.0017894063679103746 0.0082818692940518461 0 0.0018279594549838972 0.0082701071008128568 0 0.0018165939051880758 0.0083211553582607841 0 0.0018692514426092194 0.0082844149228199875 0 0.0018510128465967785 0.0083419768374545355 0 0.0018165939051880758 0.0083211553582607841 0 0.0019202347409034619 0.0083007448038083485 0 0.0018692514426092194 0.0082844149228199875 0 0.0018510128465967785 0.0083419768374545355 0 0.0019101393162044905 0.0083436227597814289 0 0.0018510128465967785 0.0083419768374545355 0 0.0017392984124612197 0.0084603497421893558 0 0.0019058847892146104 0.0083723372837118584 0 0.0019101393162044905 0.0083436227597814289 0 0.0017392984124612197 0.0084603497421893558 0 0.0017894063679103746 0.0082818692940518461 0 0.0018165939051880758 0.0083211553582607841 0 0.0017392984124612197 0.0084603497421893558 0 0.0022921117609681491 0.007611165832460483 0 0.0021045518476682382 0.008633615008525752 0 0.001993728701388264 0.0083555219038536702 0 0.0019058847892146104 0.0083723372837118584 0 0.0017392984124612197 0.0084603497421893558 0 0.0022881905969233335 0.0092229368025184329 0 0.0021159641923358401 0.0093074909537079979 0 0.0021649797720846875 0.0093139824640388318 0 0.0021802933811998779 0.0089584632052574602 0 0.0021045518476682382 0.008633615008525752 0 0.0018510128465967785 0.0083419768374545355 0 0.0018165939051880758 0.0083211553582607841 0 0.0017392984124612197 0.0084603497421893558 0 0.0026684561642198439 0.0073494222398443696 0 0.0026436985803919007 0.0079389531993966055 0 0.002498742663860555 0.0076975620138860041 0 0.0026436985803919007 0.0079389531993966055 0 0.0023712948667006352 0.0078617013854073263 0 0.0023288661891041691 0.0080546132184158813 0 0.0026436985803919007 0.0079389531993966055 0 0.0023712948667006352 0.0078617013854073263 0 0.002498742663860555 0.0076975620138860041 0 0.002498742663860555 0.0076975620138860041 0 0.0023840033962080043 0.0075809276155377617 0 0.0022654054553959643 0.007711450701339613 0 0.0023712948667006352 0.0078617013854073263 0 0.002498742663860555 0.0076975620138860041 0 0.0022654054553959643 0.007711450701339613 0 0.0023840033962080043 0.0075809276155377617 0 0.0022301247547960906 0.0075748327174184615 0 0.0022654054553959643 0.007711450701339613 0 0.0023840033962080043 0.0075809276155377617 0 0.0025227025931173369 0.0074128979979039928 0 0.0022301247547960906 0.0075748327174184615 0 0.002498742663860555 0.0076975620138860041 0 0.0023840033962080043 0.0075809276155377617 0 0.0025142893077927213 0.0075107096021877918 0 0.0026684561642198439 0.0073494222398443696 0 0.002498742663860555 0.0076975620138860041 0 0.0025142893077927213 0.0075107096021877918 0 0.0023840033962080043 0.0075809276155377617 0 0.0025142893077927213 0.0075107096021877918 0 0.0025227025931173369 0.0074128979979039928 0 0.0023721001372813025 0.007208868523210679 0 0.0024880962587489164 0.0071352896804430382 0 0.0025227025931173369 0.0074128979979039928 0 0.0024880962587489164 0.0071352896804430382 0 0.0026684561642198439 0.0073494222398443696 0 0.0025227025931173369 0.0074128979979039928 0 0.0026684561642198439 0.0073494222398443696 0 0.0025142893077927213 0.0075107096021877918 0 0.0025227025931173369 0.0074128979979039928 0 0.0023721001372813025 0.007208868523210679 0 0.0025227025931173369 0.0074128979979039928 0 0.0021826211821793845 0.0072494644567004983 0 0.0021826211821793845 0.0072494644567004983 0 0.0017324940367276834 0.007391155333239737 0 0.0018587373472652572 0.0071791361069687715 0 0.0025227025931173369 0.0074128979979039928 0 0.0021826211821793845 0.0072494644567004983 0 0.0017324940367276834 0.007391155333239737 0 0.002487116775583212 0.007407733051970412 0 0.0018752033047381368 0.0074595001737840947 0 0.0025227025931173369 0.0074128979979039928 0 0.0022301247547960906 0.0075748327174184615 0 0.0019653430278388012 0.0074780793653173973 0 0.0022301247547960906 0.0075748327174184615 0 0.002014334519683453 0.007689624841983449 0 0.0019653430278388012 0.0074780793653173973 0 0.0022301247547960906 0.0075748327174184615 0 0.0022654054553959643 0.007711450701339613 0 0.002014334519683453 0.007689624841983449 0 0.0022654054553959643 0.007711450701339613 0 0.002014334519683453 0.007689624841983449 0 0.0021388148735041537 0.0079012175233178685 0 0.002014334519683453 0.007689624841983449 0 0.0021388148735041537 0.0079012175233178685 0 0.0018600272532920301 0.0078722934371595991 0 0.0023712948667006352 0.0078617013854073263 0 0.0021388148735041537 0.0079012175233178685 0 0.0023288661891041691 0.0080546132184158813 0 0.0023712948667006352 0.0078617013854073263 0 0.0022654054553959643 0.007711450701339613 0 0.0021388148735041537 0.0079012175233178685 0 0.0019680992072957913 0.0080265146812717181 0 0.0016752742037164307 0.0075863351982514956 0 0.0014717099158011056 0.0080471281420891605 0 0.0019680992072957913 0.0080265146812717181 0 0.0017171543411394292 0.0083203257985428793 0 0.0014717099158011056 0.0080471281420891605 0 0.002014334519683453 0.007689624841983449 0 0.0018600272532920301 0.0078722934371595991 0 0.0016752742037164307 0.0075863351982514956 0 0.0018860536881246052 0.0079155727535365292 0 0.0017164139232899564 0.0076389885868508511 0 0.0016752742037164307 0.0075863351982514956 0 0.0019653430278388012 0.0074780793653173973 0 0.0012866470234143177 0.0075106275320966261 0 0.0014172426125584265 0.0072964700829971953 0 0.0017324940367276834 0.007391155333239737 0 0.0018587373472652572 0.0071791361069687715 0 0.0014172426125584265 0.0072964700829971953 0 0.0017324940367276834 0.007391155333239737 0 0.00098180859257349378 0.0074055759085485014 0 0.0014256083820288531 0.0072727080259977683 0 0.0018122078227748317 0.0071848141874350105 0 0.0018752033047381368 0.0074595001737840947 0 0.0010586205449053107 0.0072718767568998571 0 0.002014334519683453 0.007689624841983449 0 0.0016752742037164307 0.0075863351982514956 0 0.0019653430278388012 0.0074780793653173973 0 0.00143638444940129 0.0072480026434583135 0 0.0015633807398502894 0.0069450316219460077 0 0.0018587373472652572 0.0071791361069687715 0 0.00143638444940129 0.0072480026434583135 0 0.0015633807398502894 0.0069450316219460077 0 0.0011592043179412311 0.0069248156019149024 0 0.0015633807398502894 0.0069450316219460077 0 0.0014919863272906716 0.0066027684226276154 0 0.0011592043179412311 0.0069248156019149024 0 0.0015633807398502894 0.0069450316219460077 0 0.0018884967383489034 0.0067661414058819069 0 0.0014919863272906716 0.0066027684226276154 0 0.0018587373472652572 0.0071791361069687715 0 0.0020581067239785196 0.007036789493722097 0 0.0018884967383489034 0.0067661414058819069 0 0.0021826211821793845 0.0072494644567004983 0 0.0018587373472652572 0.0071791361069687715 0 0.0020581067239785196 0.007036789493722097 0 0.0022807675918167518 0.0069321324365133616 0 0.0021826211821793845 0.0072494644567004983 0 0.0020581067239785196 0.007036789493722097 0 0.0022807675918167518 0.0069321324365133616 0 0.0020581067239785196 0.007036789493722097 0 0.0018884967383489034 0.0067661414058819069 0 0.0015633807398502894 0.0069450316219460077 0 0.0018587373472652572 0.0071791361069687715 0 0.0018884967383489034 0.0067661414058819069 0 0.002177828480378501 0.0062996709892092512 0 0.0018884967383489034 0.0067661414058819069 0 0.0017734422661965603 0.0063730352564285329 0 0.002177828480378501 0.0062996709892092512 0 0.0022807675918167518 0.0069321324365133616 0 0.0018884967383489034 0.0067661414058819069 0 0.0014541909853440298 0.0062463877364330022 0 0.0017734422661965603 0.0063730352564285329 0 0.0014919863272906716 0.0066027684226276154 0 0.0018884967383489034 0.0067661414058819069 0 0.0017734422661965603 0.0063730352564285329 0 0.0014919863272906716 0.0066027684226276154 0 0.0015701163869951548 0.0095198999794314267 0 0.0016661083331231843 0.0098125440842020753 0 0.0014162637513325707 0.0097117597121155474 0 0.0015701163869951548 0.0095198999794314267 0 0.0018609317055990847 0.0097089078538325317 0 0.0018105791974851154 0.0094622298251935532 0 0.0015701163869951548 0.0095198999794314267 0 0.0018609317055990847 0.0097089078538325317 0 0.0016661083331231843 0.0098125440842020753 0 0.0018609317055990847 0.0097089078538325317 0 0.0018105791974851154 0.0094622298251935532 0 0.00203813887229766 0.0095780119834608171 0 0.0018105791974851154 0.0094622298251935532 0 0.0015995035449800161 0.0092225320902045889 0 0.0019082670970331224 0.0091840018574440591 0 0.0015701163869951548 0.0095198999794314267 0 0.0018105791974851154 0.0094622298251935532 0 0.0015995035449800161 0.0092225320902045889 0 0.0015701163869951548 0.0095198999794314267 0 0.0015995035449800161 0.0092225320902045889 0 0.0013185315999670317 0.009207351295688667 0 0.0015995035449800161 0.0092225320902045889 0 0.0014035063904005904 0.0089528121062741085 0 0.0013185315999670317 0.009207351295688667 0 0.0015995035449800161 0.0092225320902045889 0 0.0017315081652777191 0.008835267450232798 0 0.0014035063904005904 0.0089528121062741085 0 0.0018999352499204653 0.0086875865767621508 0 0.0015340136880663095 0.0088308297538215123 0 0.0019680992072957913 0.0080265146812717181 0 0.0017171543411394292 0.0083203257985428793 0 0.0022243535917692912 0.0084706915417483691 0 0.0017171543411394292 0.0083203257985428793 0 0.0022243535917692912 0.0084706915417483691 0 0.0016594735503279771 0.0087169932408669801 0 0.0018860536881246052 0.0079155727535365292 0 0.0018999352499204653 0.0086875865767621508 0 0.0017744667442867318 0.0091470133636018872 0 0.0019115114438149625 0.0093908203725961373 0 0.0019555973393753862 0.0090742007252794417 0 0.0021388148735041537 0.0079012175233178685 0 0.0020286865098275604 0.0081763823877589667 0 0.0023288661891041691 0.0080546132184158813 0 0.0018999352499204653 0.0086875865767621508 0 0.0021918447559637552 0.008547516602679375 0 0.0021388148735041537 0.0079012175233178685 0 0.0018600272532920301 0.0078722934371595991 0 0.0020286865098275604 0.0081763823877589667 0 0.0018999352499204653 0.0086875865767621508 0 0.0019099539609023235 0.0093350406743436202 0 0.0015995035449800161 0.0092225320902045889 0 0.0017315081652777191 0.008835267450232798 0 0.0019082670970331224 0.0091840018574440591 0 0.0019115114438149625 0.0093908203725961373 0 0.0021234853186012227 0.0092783983746883552 0 0.0020976701564998901 0.0095432623436574136 0 0.0019115114438149625 0.0093908203725961373 0 0.0019555973393753862 0.0090742007252794417 0 0.0021234853186012227 0.0092783983746883552 0 0.0021170841369230315 0.0094748786563271532 0 0.0021034533114186195 0.0094869715652143582 0 0.0021375191055014973 0.008997902577678402 0 0.0019555973393753862 0.0090742007252794417 0 0.0021234853186012227 0.0092783983746883552 0 0.0021045518476682382 0.008633615008525752 0 0.0021918447559637552 0.008547516602679375 0 0.0021045518476682382 0.008633615008525752 0 0.0021170841369230315 0.0094748786563271532 0 0.0021159641923358401 0.0093074909537079979 0 0.002199312318432207 0.0094085799930122855 0 0.0021172059521040215 0.0094496958788627579 0 0.0021649797720846875 0.0093139824640388318 0 0.002199312318432207 0.0094085799930122855 0 0.002215429296959304 0.0093529204541588449 0 0.0021649797720846875 0.0093139824640388318 0 0.0022100219692016629 0.0093060753210210088 0 0.002215429296959304 0.0093529204541588449 0 0.0021159641923358401 0.0093074909537079979 0 0.0021649797720846875 0.0093139824640388318 0 0.002199312318432207 0.0094085799930122855 0 0.002199312318432207 0.0094085799930122855 0 0.0021172059521040215 0.0094496958788627579 0 0.0022095167417751113 0.0094938938207713985 0 0.0021172059521040215 0.0094496958788627579 0 0.0021491534447944322 0.0095138617145433639 0 0.0022095167417751113 0.0094938938207713985 0 0.0021172059521040215 0.0094496958788627579 0 0.0021491534447944322 0.0095138617145433639 0 0.0020976701564998901 0.0095432623436574136 0 0.0021817687712930387 0.0095784694889051794 0 0.0021491534447944322 0.0095138617145433639 0 0.0022095167417751113 0.0094938938207713985 0 0.0021817687712930387 0.0095784694889051794 0 0.0021491534447944322 0.0095138617145433639 0 0.0020976701564998901 0.0095432623436574136 0 0.0021817687712930387 0.0095784694889051794 0 0.0020976701564998901 0.0095432623436574136 0 0.0021089017678031477 0.0096118188492811361 0 0.0019099539609023235 0.0093350406743436202 0 0.0020244722295272581 0.0095318554336343633 0 0.0019115114438149625 0.0093908203725961373 0 0.0020976701564998901 0.0095432623436574136 0 0.00203813887229766 0.0095780119834608171 0 0.0018105791974851154 0.0094622298251935532 0 0.0019082670970331224 0.0091840018574440591 0 0.00203813887229766 0.0095780119834608171 0 0.0020976701564998901 0.0095432623436574136 0 0.00203813887229766 0.0095780119834608171 0 0.0021089017678031477 0.0096118188492811361 0 0.00203813887229766 0.0095780119834608171 0 0.002050434905164517 0.0097031817658598703 0 0.0021089017678031477 0.0096118188492811361 0 0.0018609317055990847 0.0097089078538325317 0 0.00203813887229766 0.0095780119834608171 0 0.002050434905164517 0.0097031817658598703 0 0.002050434905164517 0.0097031817658598703 0 0.0021574788090904882 0.0096786950588400467 0 0.0021181270000323474 0.0097855183327597572 0 0.0021574788090904882 0.0096786950588400467 0 0.0022078221165252872 0.0097580841794049824 0 0.0021181270000323474 0.0097855183327597572 0 0.0021574788090904882 0.0096786950588400467 0 0.0022604092873634543 0.0096682792490341944 0 0.0022078221165252872 0.0097580841794049824 0 0.0021817687712930387 0.0095784694889051794 0 0.0021574788090904882 0.0096786950588400467 0 0.0022604092873634543 0.0096682792490341944 0 0.0021817687712930387 0.0095784694889051794 0 0.0021574788090904882 0.0096786950588400467 0 0.0021089017678031477 0.0096118188492811361 0 0.002050434905164517 0.0097031817658598703 0 0.0021574788090904882 0.0096786950588400467 0 0.0021089017678031477 0.0096118188492811361 0 0.0022604092873634543 0.0096682792490341944 0 0.0023175306895640404 0.0098063958415631185 0 0.0022078221165252872 0.0097580841794049824 0 0.0022604092873634543 0.0096682792490341944 0 0.0023577657585381584 0.0096912981921770981 0 0.0023175306895640404 0.0098063958415631185 0 0.0022604092873634543 0.0096682792490341944 0 0.0023577657585381584 0.0096912981921770981 0 0.0022960569873123884 0.0095763563640781438 0 0.0023577657585381584 0.0096912981921770981 0 0.0024498952292886563 0.0096314874531387203 0 0.0024324861463409773 0.0098082934710534454 0 0.0023577657585381584 0.0096912981921770981 0 0.0023716148580710272 0.0096070117007208897 0 0.0024498952292886563 0.0096314874531387203 0 0.0023577657585381584 0.0096912981921770981 0 0.0023716148580710272 0.0096070117007208897 0 0.0022960569873123884 0.0095763563640781438 0 0.0023716148580710272 0.0096070117007208897 0 0.0023810335885657086 0.0095297353092804217 0 0.0024498952292886563 0.0096314874531387203 0 0.0022960569873123884 0.0095763563640781438 0 0.0022996011503336571 0.0094907509213543861 0 0.0023810335885657086 0.0095297353092804217 0 0.0023716148580710272 0.0096070117007208897 0 0.0022960569873123884 0.0095763563640781438 0 0.0023810335885657086 0.0095297353092804217 0 0.0021817687712930387 0.0095784694889051794 0 0.0022960569873123884 0.0095763563640781438 0 0.0022095167417751113 0.0094938938207713985 0 0.0021817687712930387 0.0095784694889051794 0 0.0022604092873634543 0.0096682792490341944 0 0.0022960569873123884 0.0095763563640781438 0 0.0022960569873123884 0.0095763563640781438 0 0.0022095167417751113 0.0094938938207713985 0 0.0022996011503336571 0.0094907509213543861 0 0.002199312318432207 0.0094085799930122855 0 0.0022996011503336571 0.0094907509213543861 0 0.0022997775390191607 0.0094125194793400306 0 0.002199312318432207 0.0094085799930122855 0 0.0022095167417751113 0.0094938938207713985 0 0.0022996011503336571 0.0094907509213543861 0 0.002199312318432207 0.0094085799930122855 0 0.0022997775390191607 0.0094125194793400306 0 0.002215429296959304 0.0093529204541588449 0 0.0023207236881743771 0.0093065790581830822 0 0.0022997775390191607 0.0094125194793400306 0 0.0022588966455874744 0.0093256105740982254 0 0.0022997775390191607 0.0094125194793400306 0 0.0022588966455874744 0.0093256105740982254 0 0.002215429296959304 0.0093529204541588449 0 0.0022100219692016629 0.0093060753210210088 0 0.0022588966455874744 0.0093256105740982254 0 0.002215429296959304 0.0093529204541588449 0 0.0023833144888020475 0.009389016497330609 0 0.0022997775390191607 0.0094125194793400306 0 0.0023740460723580365 0.0094443967059020407 0 0.0023833144888020475 0.009389016497330609 0 0.0023740460723580365 0.0094443967059020407 0 0.0024140205321776329 0.0094250505137429812 0 0.0023207236881743771 0.0093065790581830822 0 0.002390670522934605 0.0093134045254827606 0 0.0022997775390191607 0.0094125194793400306 0 0.0023993457220928996 0.0093402474967629531 0 0.0023019313116240787 0.0094163431154912734 0 0.0022996011503336571 0.0094907509213543861 0 0.0022997775390191607 0.0094125194793400306 0 0.0023740460723580365 0.0094443967059020407 0 0.0022996011503336571 0.0094907509213543861 0 0.0023740460723580365 0.0094443967059020407 0 0.0023810335885657086 0.0095297353092804217 0 0.0023810335885657086 0.0095297353092804217 0 0.0024504825074479421 0.0095354448182142851 0 0.002444114512107378 0.0094645943434318175 0 0.0024504825074479421 0.0095354448182142851 0 0.002444114512107378 0.0094645943434318175 0 0.002531651886189003 0.0095203745690836689 0 0.002409448697286105 0.0094766848502248081 0 0.0024271922710963705 0.0097699881461965205 0 0.002444114512107378 0.0094645943434318175 0 0.0024422759176277861 0.0094366395129022226 0 0.0024520590000462542 0.0094589304717709096 0 0.0023740460723580365 0.0094443967059020407 0 0.0023810335885657086 0.0095297353092804217 0 0.002444114512107378 0.0094645943434318175 0 0.0023740460723580365 0.0094443967059020407 0 0.002444114512107378 0.0094645943434318175 0 0.0024140205321776329 0.0094250505137429812 0 0.002444114512107378 0.0094645943434318175 0 0.0024140205321776329 0.0094250505137429812 0 0.0024422759176277861 0.0094366395129022226 0 0.002424646907065385 0.009405166921404676 0 0.0024140205321776329 0.0094250505137429812 0 0.0024422759176277861 0.0094366395129022226 0 0.002424646907065385 0.009405166921404676 0 0.0024422759176277861 0.0094366395129022226 0 0.0024484522927263413 0.0094202223480830925 0 0.002424646907065385 0.009405166921404676 0 0.0023833144888020475 0.009389016497330609 0 0.0024140205321776329 0.0094250505137429812 0 0.0021859391332125825 0.010132122458919006 0 0.0022410721576451237 0.0098023448503533565 0 0.0024561156500205379 0.0094448383296558622 0 0.002462814326431815 0.0094661384339447905 0 0.0024673165279853661 0.0094324174801818095 0 0.0024484522927263413 0.0094202223480830925 0 0.0024561156500205379 0.0094448383296558622 0 0.0024673165279853661 0.0094324174801818095 0 0.0024631325574238348 0.009424376791427538 0 0.0024484522927263413 0.0094202223480830925 0 0.0024673165279853661 0.0094324174801818095 0 0.0024422759176277861 0.0094366395129022226 0 0.0024561156500205379 0.0094448383296558622 0 0.0024520590000462542 0.0094589304717709096 0 0.0024422759176277861 0.0094366395129022226 0 0.0024484522927263413 0.0094202223480830925 0 0.0024561156500205379 0.0094448383296558622 0 0.002444114512107378 0.0094645943434318175 0 0.0024520590000462542 0.0094589304717709096 0 0.0024547581650387678 0.0094729281194919947 0 0.0024561156500205379 0.0094448383296558622 0 0.002462814326431815 0.0094661384339447905 0 0.0024520590000462542 0.0094589304717709096 0 0.002462814326431815 0.0094661384339447905 0 0.0024520590000462542 0.0094589304717709096 0 0.0024547581650387678 0.0094729281194919947 0 0.0025239034504582723 0.0095893143388873781 0 0.0025327104400592517 0.0095972748691160979 0 0.0025254533257847685 0.0096048760456433936 0 0.0024271922710963705 0.0097699881461965205 0 0.0023357336406043721 0.010107797184341771 0 0.0019677391207307588 0.010874240501521188 0 0.0020050597845951293 0.010757628136475777 0 0.0018834025795445169 0.010811527186688536 0 0.0021859391332125825 0.010132122458919006 0 0.0023357336406043721 0.010107797184341771 0 0.0021859391332125825 0.010132122458919006 0 0.0024271922710963705 0.0097699881461965205 0 0.0022168644553618617 0.010058536857084115 0 0.0023389531271526764 0.0099341498516961231 0 0.0022725578393907801 0.0098847954040513133 0 0.0025327104400592517 0.0095972748691160979 0 0.0025338299324975402 0.0096130062308377381 0 0.00256775131278731 0.0096247839578898261 0 0.0023357336406043721 0.010107797184341771 0 0.0020501919897556974 0.010691929067215188 0 0.0020050597845951293 0.010757628136475777 0 0.0018834025795445169 0.010811527186688536 0 0.0018613567426898239 0.010653692692898155 0 0.0024692986109480851 0.010422907718606404 0 0.0020501919897556974 0.010691929067215188 0 0.0025338299324975402 0.0096130062308377381 0 0.0025272077450479579 0.0096362664715981712 0 0.00256775131278731 0.0096247839578898261 0 0.0025272077450479579 0.0096362664715981712 0 0.0025112466077570183 0.0096945137644105176 0 0.00256775131278731 0.0096247839578898261 0 0.0025055838600286286 0.0096416135366486147 0 0.0025272077450479579 0.0096362664715981712 0 0.0025112466077570183 0.0096945137644105176 0 0.0025055838600286286 0.0096416135366486147 0 0.0025272077450479579 0.0096362664715981712 0 0.0025117740609565827 0.0096194298194424016 0 0.0025239034504582723 0.0095893143388873781 0 0.0025117740609565827 0.0096194298194424016 0 0.0025254533257847685 0.0096048760456433936 0 0.0025338299324975402 0.0096130062308377381 0 0.0025117740609565827 0.0096194298194424016 0 0.0025254533257847685 0.0096048760456433936 0 0.0025338299324975402 0.0096130062308377381 0 0.0025272077450479579 0.0096362664715981712 0 0.0025117740609565827 0.0096194298194424016 0 0.0025327104400592517 0.0095972748691160979 0 0.0025338299324975402 0.0096130062308377381 0 0.0025254533257847685 0.0096048760456433936 0 0.0024271922710963705 0.0097699881461965205 0 0.0025067292362324998 0.0095580764691229614 0 0.0024504825074479421 0.0095354448182142851 0 0.002531651886189003 0.0095203745690836689 0 0.0024498952292886563 0.0096314874531387203 0 0.0025239034504582723 0.0095893143388873781 0 0.0025117740609565827 0.0096194298194424016 0 0.0024498952292886563 0.0096314874531387203 0 0.0023810335885657086 0.0095297353092804217 0 0.0024504825074479421 0.0095354448182142851 0 0.0024498952292886563 0.0096314874531387203 0 0.0025055838600286286 0.0096416135366486147 0 0.0025117740609565827 0.0096194298194424016 0 0.0024498952292886563 0.0096314874531387203 0 0.0024498952292886563 0.0096314874531387203 0 0.0025112466077570183 0.0096945137644105176 0 0.0024324861463409773 0.0098082934710534454 0 0.0024692986109480851 0.010422907718606404 0 0.0024113562794426642 0.010490265647489967 0 0.0025055838600286286 0.0096416135366486147 0 0.0024498952292886563 0.0096314874531387203 0 0.0025112466077570183 0.0096945137644105176 0 0.002216192595516447 0.011273210183813135 0 0.0023032291325990229 0.011247265837606666 0 0.0022496980907944194 0.011183571223892828 0 0.002216192595516447 0.011273210183813135 0 0.0023032291325990229 0.011247265837606666 0 0.0021834907514689805 0.011355033678992743 0 0.002216192595516447 0.011273210183813135 0 0.0022496980907944194 0.011183571223892828 0 0.0021507661595344513 0.011200694246512918 0 0.0022496980907944194 0.011183571223892828 0 0.0023174918089119679 0.011139897564058794 0 0.0022529989798216522 0.011071388601101476 0 0.0023032291325990229 0.011247265837606666 0 0.0022496980907944194 0.011183571223892828 0 0.0023174918089119679 0.011139897564058794 0 0.0021032801258051184 0.01128494380575509 0 0.0015981660888743478 0.011960057562961493 0 0.0022496980907944194 0.011183571223892828 0 0.0022529989798216522 0.011071388601101476 0 0.0021507661595344513 0.011200694246512918 0 0.0023174918089119679 0.011139897564058794 0 0.0023585317804295978 0.011055831528673612 0 0.0022529989798216522 0.011071388601101476 0 0.0023032291325990229 0.011247265837606666 0 0.0023174918089119679 0.011139897564058794 0 0.0024225435137780536 0.011139941268398797 0 0.0023174918089119679 0.011139897564058794 0 0.0023585317804295978 0.011055831528673612 0 0.0024225435137780536 0.011139941268398797 0 0.0023585317804295978 0.011055831528673612 0 0.0023559292354876278 0.010944119587520826 0 0.0024355812907000253 0.011000701107185588 0 0.0023585317804295978 0.011055831528673612 0 0.0022529989798216522 0.011071388601101476 0 0.0023559292354876278 0.010944119587520826 0 0.0023585317804295978 0.011055831528673612 0 0.0024355812907000253 0.011000701107185588 0 0.0024225435137780536 0.011139941268398797 0 0.0018501826452896615 0.011636293056118801 0 0.0018681684385475883 0.011307564564024699 0 0.0021645705629311151 0.011212455142392481 0 0.0021032801258051184 0.01128494380575509 0 0.0022469077945980903 0.011089246548805977 0 0.0018501826452896615 0.011636293056118801 0 0.0018681684385475883 0.011307564564024699 0 0.0015221177965703812 0.011334821439428905 0 0.0017207294220226851 0.011561172700144322 0 0.0012398040489608562 0.012321199498423439 0 0.0018681684385475883 0.011307564564024699 0 0.0019173842109185776 0.011023216982715365 0 0.0015221177965703812 0.011334821439428905 0 0.0018681684385475883 0.011307564564024699 0 0.0019173842109185776 0.011023216982715365 0 0.0021645705629311151 0.011212455142392481 0 0.0013434691098453343 0.012321641347668361 0 0.0013788887442149776 0.012340856905630582 0 0.0013411806959351023 0.012369737248886544 0 0.0022958560876265794 0.010737463219441063 0 0.0021645705629311151 0.011212455142392481 0 0.0024234844885960907 0.010812106835622982 0 0.0019173842109185776 0.011023216982715365 0 0.0022958560876265794 0.010737463219441063 0 0.0021645705629311151 0.011212455142392481 0 0.0017207294220226851 0.011561172700144322 0 0.0017033706018471709 0.011785252784386222 0 0.0013434691098453343 0.012321641347668361 0 0.0013103531217375825 0.012348740161958738 0 0.0013411806959351023 0.012369737248886544 0 0.0022469077945980903 0.011089246548805977 0 0.0024213481203198329 0.010828017431015328 0 0.0023559292354876278 0.010944119587520826 0 0.0024313645352212121 0.010905061739694109 0 0.0024234844885960907 0.010812106835622982 0 0.0023559292354876278 0.010944119587520826 0 0.0024313645352212121 0.010905061739694109 0 0.0024355812907000253 0.011000701107185588 0 0.0025212379670882974 0.010942703690347621 0 0.0024313645352212121 0.010905061739694109 0 0.0024355812907000253 0.011000701107185588 0 0.0025212379670882974 0.010942703690347621 0 0.0024878601628223469 0.010888468417373183 0 0.0025384511084977396 0.01084654887011436 0 0.0025212379670882974 0.010942703690347621 0 0.0024878601628223469 0.010888468417373183 0 0.0024313645352212121 0.010905061739694109 0 0.0024878601628223469 0.010888468417373183 0 0.0024313645352212121 0.010905061739694109 0 0.0024851573862098805 0.010858149036412964 0 0.0017033706018471709 0.011785252784386222 0 0.0027103346558185375 0.010834303094656267 0 0.0022958560876265794 0.010737463219441063 0 0.0025511801904625916 0.010857301687973 0 0.0024234844885960907 0.010812106835622982 0 0.0024313645352212121 0.010905061739694109 0 0.0024851573862098805 0.010858149036412964 0 0.0024234844885960907 0.010812106835622982 0 0.0024851573862098805 0.010858149036412964 0 0.0025511801904625916 0.010857301687973 0 0.0024234844885960907 0.010812106835622982 0 0.0024878601628223469 0.010888468417373183 0 0.0024851573862098805 0.010858149036412964 0 0.0025384511084977396 0.01084654887011436 0 0.0024851573862098805 0.010858149036412964 0 0.0025384511084977396 0.01084654887011436 0 0.0025511801904625916 0.010857301687973 0 0.0024471893746047919 0.010858743808280513 0 0.0023207006131849271 0.01089984008089053 0 0.0024362111727746008 0.01097877313437276 0 0.0025511801904625916 0.010857301687973 0 0.0024471893746047919 0.010858743808280513 0 0.0024362111727746008 0.01097877313437276 0 0.0025384511084977396 0.01084654887011436 0 0.0025511801904625916 0.010857301687973 0 0.0024471893746047919 0.010858743808280513 0 0.0025384511084977396 0.01084654887011436 0 0.0024471893746047919 0.010858743808280513 0 0.0023510301897045828 0.010709203007604997 0 0.0025212379670882974 0.010942703690347621 0 0.0025470661952860883 0.011032921474773159 0 0.0026760629657558836 0.010916404428317606 0 0.0025962478607088248 0.010887534205298975 0 0.0023882180108740691 0.010614735954265687 0 0.0024486351559262999 0.010483814281211487 0 0.0023882180108740691 0.010614735954265687 0 0.0025212379670882974 0.010942703690347621 0 0.0025384511084977396 0.01084654887011436 0 0.0026760629657558836 0.010916404428317606 0 0.0023272674625295581 0.0099676037433240692 0 0.0021736755064696075 0.0099123486321901592 0 0.0021825850527947025 0.0101413141314041 0 0.0025470661952860883 0.011032921474773159 0 0.0024355812907000253 0.011000701107185588 0 0.0024225435137780536 0.011139941268398797 0 0.0025212379670882974 0.010942703690347621 0 0.0025470661952860883 0.011032921474773159 0 0.0024355812907000253 0.011000701107185588 0 0.0024486351559262999 0.010483814281211487 0 0.0024113562794426642 0.010490265647489967 0 0.0023577657585381584 0.0096912981921770981 0 0.0024324861463409773 0.0098082934710534454 0 0.0023175306895640404 0.0098063958415631185 0 0.0023272674625295581 0.0099676037433240692 0 0.0024324861463409773 0.0098082934710534454 0 0.0023175306895640404 0.0098063958415631185 0 0.0023175306895640404 0.0098063958415631185 0 0.0022078221165252872 0.0097580841794049824 0 0.0021736755064696075 0.0099123486321901592 0 0.0023272674625295581 0.0099676037433240692 0 0.0023175306895640404 0.0098063958415631185 0 0.0021736755064696075 0.0099123486321901592 0 0.0021181270000323474 0.0097855183327597572 0 0.0020106078470885284 0.009859331857144344 0 0.0021736755064696075 0.0099123486321901592 0 0.0022078221165252872 0.0097580841794049824 0 0.0021181270000323474 0.0097855183327597572 0 0.0021736755064696075 0.0099123486321901592 0 0.0018609317055990847 0.0097089078538325317 0 0.002050434905164517 0.0097031817658598703 0 0.0020106078470885284 0.009859331857144344 0 0.002050434905164517 0.0097031817658598703 0 0.0021181270000323474 0.0097855183327597572 0 0.0020106078470885284 0.009859331857144344 0 0.0018609317055990847 0.0097089078538325317 0 0.0020106078470885284 0.009859331857144344 0 0.0018544630735294373 0.0098803119943596668 0 0.0020106078470885284 0.009859331857144344 0 0.0019999760996400853 0.010079917686626482 0 0.0021736755064696075 0.0099123486321901592 0 0.0020106078470885284 0.009859331857144344 0 0.0019999760996400853 0.010079917686626482 0 0.0018544630735294373 0.0098803119943596668 0 0.0019999760996400853 0.010079917686626482 0 0.0021736755064696075 0.0099123486321901592 0 0.0021825850527947025 0.0101413141314041 0 0.0020380491998983796 0.010192057619319536 0 0.0023882180108740691 0.010614735954265687 0 0.0021285072967570078 0.010355150036421849 0 0.0024841249883667737 0.010521498456952206 0 0.0021474753580611222 0.010827611034235846 0 0.0023510301897045828 0.010709203007604997 0 0.0023207006131849271 0.01089984008089053 0 0.0021474753580611222 0.010827611034235846 0 0.0023882180108740691 0.010614735954265687 0 0.0021744845124514445 0.010816000572655967 0 0.0023207006131849271 0.01089984008089053 0 0.0021474753580611222 0.010827611034235846 0 0.00225449872317897 0.011089868776840707 0 0.0024471893746047919 0.010858743808280513 0 0.0023510301897045828 0.010709203007604997 0 0.0023207006131849271 0.01089984008089053 0 0.0021285072967570078 0.010355150036421849 0 0.0021474753580611222 0.010827611034235846 0 0.0017758721961880295 0.010633044669258775 0 0.0021285072967570078 0.010355150036421849 0 0.0017758721961880295 0.010633044669258775 0 0.001811215267782198 0.010181035795183001 0 0.0021474753580611222 0.010827611034235846 0 0.0017758721961880295 0.010633044669258775 0 0.0019133311632918391 0.010978348162960805 0 0.0017758721961880295 0.010633044669258775 0 0.0016134585276491088 0.010942578012295048 0 0.0019133311632918391 0.010978348162960805 0 0.0017758721961880295 0.010633044669258775 0 0.0016134585276491088 0.010942578012295048 0 0.0013268356326914435 0.010756268797092792 0 0.0017758721961880295 0.010633044669258775 0 0.001455101847273764 0.010338534955126648 0 0.0013268356326914435 0.010756268797092792 0 0.0017758721961880295 0.010633044669258775 0 0.001455101847273764 0.010338534955126648 0 0.001811215267782198 0.010181035795183001 0 0.001455101847273764 0.010338534955126648 0 0.001811215267782198 0.010181035795183001 0 0.00148022463915047 0.0099831560831725157 0 0.0017861117582923724 0.010105152392293275 0 0.0015001653809080041 0.0099873594360080729 0 0.0020380491998983796 0.010192057619319536 0 0.0017861117582923724 0.010105152392293275 0 0.0019999760996400853 0.010079917686626482 0 0.0017757793966166103 0.0100321843145556 0 0.0018544630735294373 0.0098803119943596668 0 0.0017757793966166103 0.0100321843145556 0 0.0018544630735294373 0.0098803119943596668 0 0.0016661083331231843 0.0098125440842020753 0 0.0018609317055990847 0.0097089078538325317 0 0.0018544630735294373 0.0098803119943596668 0 0.0016661083331231843 0.0098125440842020753 0 0.0017757793966166103 0.0100321843145556 0 0.0016661083331231843 0.0098125440842020753 0 0.00148022463915047 0.0099831560831725157 0 0.0016661083331231843 0.0098125440842020753 0 0.00148022463915047 0.0099831560831725157 0 0.0014162637513325707 0.0097117597121155474 0 1.9489448122191633e-05 0.014981427810576936 0 2.0187225382945019e-05 0.014985562173141769 0 1.7876895921220553e-05 0.01498407108913892 0 1.9489448122191633e-05 0.014981427810576936 0 2.0187225382945019e-05 0.014985562173141769 0 1.948914722305205e-05 0.014965780781013804 0 1.9489448122191633e-05 0.014981427810576936 0 1.7876895921220553e-05 0.01498407108913892 0 1.5575839441972591e-05 0.014986166911199254 0 1.9489448122191633e-05 0.014981427810576936 0 1.5575839441972591e-05 0.014986166911199254 0 2.0037767192988444e-05 0.01497723095514813 0 -2.6904938811520391e-05 0.014974431029827269 0 1.948914722305205e-05 0.014965780781013804 0 -2.1343816224238635e-05 0.014968052525230802 0 -6.3211526774649659e-05 0.015079105691867972 0 4.3394058491737873e-05 0.014922245621829294 0 -2.6904938811520391e-05 0.014974431029827269 0 -2.1343816224238635e-05 0.014968052525230802 0 -2.8394373001323638e-05 0.01497213022071942 0 -6.3211526774649659e-05 0.015079105691867972 0 0.00028672639566548177 0.014507069158997941 0 2.0187225382945019e-05 0.014985562173141769 0 2.0687469272058621e-05 0.014977747195842285 0 2.776887693063629e-05 0.014973122342988416 0 2.0187225382945019e-05 0.014985562173141769 0 3.6886608566345272e-05 0.01497248759933192 0 2.776887693063629e-05 0.014973122342988416 0 2.0687469272058621e-05 0.014977747195842285 0 1.7876895921220553e-05 0.01498407108913892 0 1.1892217157727583e-05 0.014985127863954768 0 1.7876895921220553e-05 0.01498407108913892 0 1.1892217157727583e-05 0.014985127863954768 0 1.5575839441972591e-05 0.014986166911199254 0 2.0187225382945019e-05 0.014985562173141769 0 2.0687469272058621e-05 0.014977747195842285 0 1.7876895921220553e-05 0.01498407108913892 0 1.1892217157727583e-05 0.014985127863954768 0 8.1439875683649993e-06 0.014991427352777661 0 1.5575839441972591e-05 0.014986166911199254 0 1.1892217157727583e-05 0.014985127863954768 0 8.1439875683649993e-06 0.014991427352777661 0 2.6281600794751434e-06 0.014996244534429479 0 8.1439875683649993e-06 0.014991427352777661 0 2.6281600794751434e-06 0.014996244534429479 0 9.3513763282444026e-09 0.014999983327508879 0 2.6281600794751434e-06 0.014996244534429479 0 9.3513763282444026e-09 0.014999983327508879 0 2.5718260911974187e-09 0.014999990389408831 0 9.3513763282444026e-09 0.014999983327508879 0 9.8089154491161348e-06 0.014990657138997806 0 9.0211126620545631e-09 0.014999974933520127 0 8.1439875683649993e-06 0.014991427352777661 0 9.3513763282444026e-09 0.014999983327508879 0 9.8089154491161348e-06 0.014990657138997806 0 9.8089154491161348e-06 0.014990657138997806 0 1.5575839441972591e-05 0.014986166911199254 0 1.7856319723922027e-05 0.014982023618143544 0 1.5575839441972591e-05 0.014986166911199254 0 1.7856319723922027e-05 0.014982023618143544 0 2.0037767192988444e-05 0.01497723095514813 0 8.1439875683649993e-06 0.014991427352777661 0 9.8089154491161348e-06 0.014990657138997806 0 1.5575839441972591e-05 0.014986166911199254 0 1.7856319723922027e-05 0.014982023618143544 0 2.259661105326342e-05 0.014975103522015878 0 2.3848732839658548e-05 0.014965110007005365 0 1.7856319723922027e-05 0.014982023618143544 0 2.3848732839658548e-05 0.014965110007005365 0 2.0037767192988444e-05 0.01497723095514813 0 9.8089154491161348e-06 0.014990657138997806 0 1.7856319723922027e-05 0.014982023618143544 0 9.0211126620545631e-09 0.014999974933520127 0 1.7856319723922027e-05 0.014982023618143544 0 9.0211126620545631e-09 0.014999974933520127 0 2.259661105326342e-05 0.014975103522015878 0 4.0561158615050845e-08 0.014999950041734319 0 9.0211126620545631e-09 0.014999974933520127 0 2.259661105326342e-05 0.014975103522015878 0 2.259661105326342e-05 0.014975103522015878 0 2.7434418709672035e-05 0.014962497846281172 0 2.3848732839658548e-05 0.014965110007005365 0 1.1973410289007869e-05 0.014959027968085792 0 2.7434418709672035e-05 0.014962497846281172 0 2.8656994250020095e-05 0.014946363579905347 0 2.7434418709672035e-05 0.014962497846281172 0 2.8656994250020095e-05 0.014946363579905347 0 2.3848732839658548e-05 0.014965110007005365 0 2.3848732839658548e-05 0.014965110007005365 0 1.948914722305205e-05 0.014965780781013804 0 2.0037767192988444e-05 0.01497723095514813 0 2.8656994250020095e-05 0.014946363579905347 0 1.948914722305205e-05 0.014965780781013804 0 9.3566338251568566e-07 0.014956915660331589 0 2.8656994250020095e-05 0.014946363579905347 0 2.3848732839658548e-05 0.014965110007005365 0 1.948914722305205e-05 0.014965780781013804 0 1.9489448122191633e-05 0.014981427810576936 0 1.948914722305205e-05 0.014965780781013804 0 2.0037767192988444e-05 0.01497723095514813 0 -2.8984700661849899e-05 0.014959958954145832 0 -2.1343816224238635e-05 0.014968052525230802 0 -4.0093415745946882e-05 0.014960391615780944 0 -2.1343816224238635e-05 0.014968052525230802 0 9.3566338251568566e-07 0.014956915660331589 0 -1.8190521879323241e-05 0.014957012178253746 0 -2.8984700661849899e-05 0.014959958954145832 0 -2.1343816224238635e-05 0.014968052525230802 0 -1.8190521879323241e-05 0.014957012178253746 0 -2.8984700661849899e-05 0.014959958954145832 0 -1.8190521879323241e-05 0.014957012178253746 0 -3.5837665912780927e-05 0.014951681104138576 0 1.948914722305205e-05 0.014965780781013804 0 -2.1343816224238635e-05 0.014968052525230802 0 9.3566338251568566e-07 0.014956915660331589 0 2.8656994250020095e-05 0.014946363579905347 0 9.3566338251568566e-07 0.014956915660331589 0 -9.0843688297748286e-06 0.014936598313113329 0 9.3566338251568566e-07 0.014956915660331589 0 -1.953718511439294e-05 0.014944957936872373 0 -9.0843688297748286e-06 0.014936598313113329 0 -1.953718511439294e-05 0.014944957936872373 0 -9.0843688297748286e-06 0.014936598313113329 0 -3.3269659888575968e-05 0.014934152025545641 0 9.3566338251568566e-07 0.014956915660331589 0 -1.953718511439294e-05 0.014944957936872373 0 -1.8190521879323241e-05 0.014957012178253746 0 -1.953718511439294e-05 0.014944957936872373 0 -1.8190521879323241e-05 0.014957012178253746 0 -3.5837665912780927e-05 0.014951681104138576 0 -1.953718511439294e-05 0.014944957936872373 0 -3.5837665912780927e-05 0.014951681104138576 0 -3.3269659888575968e-05 0.014934152025545641 0 -9.0843688297748286e-06 0.014936598313113329 0 -3.3269659888575968e-05 0.014934152025545641 0 -3.4446860100169474e-05 0.014899674772608886 0 3.0021321698303778e-05 0.014753810899238901 0 2.8656994250020095e-05 0.014946363579905347 0 -3.4446860100169474e-05 0.014899674772608886 0 9.3999103797480386e-06 0.014825738601408525 0 3.4131118614766937e-05 0.014944272984468675 0 2.8656994250020095e-05 0.014946363579905347 0 -9.0843688297748286e-06 0.014936598313113329 0 -3.4446860100169474e-05 0.014899674772608886 0 0.00079662940768496367 0.012934798968316931 0 0.0006096161917034501 0.0130095578579705 0 0.00080450834645462096 0.013375858987983893 0 -0.0001252935644451967 0.014787716797010114 0 -3.4446860100169474e-05 0.014899674772608886 0 -7.1131800684890535e-05 0.014947446707038483 0 0.00032819991525563641 0.013920250044742035 0 0.00044631865732695526 0.013968685279096794 0 -3.3269659888575968e-05 0.014934152025545641 0 -3.4446860100169474e-05 0.014899674772608886 0 -5.1842315233793309e-05 0.01494180031320185 0 0.00094563526779765895 0.012786080195230608 0 0.00085255556532279776 0.012287048512029809 0 0.0006096161917034501 0.0130095578579705 0 0.00048480035182058397 0.013179178114832178 0 0.00080450834645462096 0.013375858987983893 0 0.00047767229563368095 0.012905684655469927 0 0.00053528534797221239 0.013072100537876871 0 0.00039786848492240329 0.0129428273627799 0 0.00047627600978882435 0.012852702477955067 0 0.00048733191927156276 0.013091811360895961 0 0.00047627600978882435 0.012852702477955067 0 0.0006096161917034501 0.0130095578579705 0 0.00048480035182058397 0.013179178114832178 0 0.00053528534797221239 0.013072100537876871 0 0.00044631865732695526 0.013968685279096794 0 0.0008740128905572696 0.012631194768362067 0 0.00088721247039597864 0.012841750359484788 0 0.00073750060285538105 0.012548855210405885 0 0.00053528534797221239 0.013072100537876871 0 0.00085255556532279776 0.012287048512029809 0 0.00040192690813733572 0.013334969397611187 0 0.00041513730902826239 0.013564589290994765 0 0.00062834330347100783 0.013474668265335612 0 0.00053528534797221239 0.013072100537876871 0 0.00094563526779765895 0.012786080195230608 0 0.00041513730902826239 0.013564589290994765 0 0.00062834330347100783 0.013474668265335612 0 0.00063106481817530829 0.013738685620353576 0 -4.0093415745946882e-05 0.014960391615780944 0 -7.1131800684890535e-05 0.014947446707038483 0 -2.8394373001323638e-05 0.01497213022071942 0 0.00044631865732695526 0.013968685279096794 0 0.00028699564674014583 0.014482110693324007 0 -2.8984700661849899e-05 0.014959958954145832 0 -3.5837665912780927e-05 0.014951681104138576 0 -4.0093415745946882e-05 0.014960391615780944 0 -3.5837665912780927e-05 0.014951681104138576 0 -4.0093415745946882e-05 0.014960391615780944 0 -4.8885614989299005e-05 0.014950797686350333 0 -4.0093415745946882e-05 0.014960391615780944 0 -4.8885614989299005e-05 0.014950797686350333 0 -7.1131800684890535e-05 0.014947446707038483 0 -3.4446860100169474e-05 0.014899674772608886 0 -5.1842315233793309e-05 0.01494180031320185 0 -7.1131800684890535e-05 0.014947446707038483 0 -4.8885614989299005e-05 0.014950797686350333 0 -5.1842315233793309e-05 0.01494180031320185 0 -7.1131800684890535e-05 0.014947446707038483 0 -3.5837665912780927e-05 0.014951681104138576 0 -4.8885614989299005e-05 0.014950797686350333 0 -5.1842315233793309e-05 0.01494180031320185 0 -3.5837665912780927e-05 0.014951681104138576 0 -3.3269659888575968e-05 0.014934152025545641 0 -5.1842315233793309e-05 0.01494180031320185 0 0.0018249960977528403 0.010647738600691972 0 0.0018276050473063656 0.010386053023142824 0 0.0019130090015163732 0.010443216524013484 0 0.0016130439512937024 0.010536253525269124 0 0.0015633619791145291 0.011174147443012251 0 0.0019866494426826961 0.010227112808730104 0 0.0018276050473063656 0.010386053023142824 0 0.0019130090015163732 0.010443216524013484 0 0.001487660348499197 0.011133470001115468 0 0.0014328928871321473 0.011097293483573346 0 0.0014340925020153627 0.011189028460193477 0 0.0011040191618926639 0.01172017377714824 0 0.0015633619791145291 0.011174147443012251 0 0.0012570002347093102 0.011816523893212357 0 0.0011670314879461156 0.011908065219895892 0 0.0012453259985540175 0.011894315615910861 0 0.0011670314879461156 0.011908065219895892 0 0.0012453259985540175 0.011894315615910861 0 0.0012841050364033489 0.011959876497713491 0 0.0012453259985540175 0.011894315615910861 0 0.0013067679483135081 0.011847017189847512 0 0.0012841050364033489 0.011959876497713491 0 0.0012570002347093102 0.011816523893212357 0 0.0012453259985540175 0.011894315615910861 0 0.0013067679483135081 0.011847017189847512 0 0.0011040191618926639 0.01172017377714824 0 0.00085255556532279776 0.012287048512029809 0 0.00039786848492240329 0.0129428273627799 0 0.00048733191927156276 0.013091811360895961 0 0.00032875803788271992 0.012998267295246895 0 0.00039786848492240329 0.0129428273627799 0 0.00033550776654514298 0.012937888173632056 0 0.00032875803788271992 0.012998267295246895 0 0.0014012107882655747 0.012029044842602013 0 0.0013067679483135081 0.011847017189847512 0 0.0012841050364033489 0.011959876497713491 0 0.0014012107882655747 0.012029044842602013 0 0.0012850580584206335 0.012032309988408488 0 0.0013161296332131493 0.012090206606710346 0 0.0014012107882655747 0.012029044842602013 0 0.0012850580584206335 0.012032309988408488 0 0.0012841050364033489 0.011959876497713491 0 0.0012850580584206335 0.012032309988408488 0 0.0012841050364033489 0.011959876497713491 0 0.0012080801668082142 0.012037856903318983 0 0.0012850580584206335 0.012032309988408488 0 0.0012080801668082142 0.012037856903318983 0 0.0012621485975973436 0.012077499839094079 0 0.0011670314879461156 0.011908065219895892 0 0.0012841050364033489 0.011959876497713491 0 0.0012080801668082142 0.012037856903318983 0 0.0017908295790690554 0.011053745475450877 0 0.0018834025795445169 0.010811527186688536 0 0.0017916142605503187 0.010718951122352797 0 0.0019677391207307588 0.010874240501521188 0 0.0017908295790690554 0.011053745475450877 0 0.0018834025795445169 0.010811527186688536 0 0.0015633619791145291 0.011174147443012251 0 0.0015142829014927167 0.011493430204849451 0 0.0011670314879461156 0.011908065219895892 0 0.0012080801668082142 0.012037856903318983 0 0.0011688782016099847 0.012074099116412168 0 0.0021859391332125825 0.010132122458919006 0 0.0015633619791145291 0.011174147443012251 0 0.002216192595516447 0.011273210183813135 0 0.0021517745590041476 0.011332695164012091 0 0.0021834907514689805 0.011355033678992743 0 0.0017380007928992954 0.011487329597060569 0 0.0020501919897556974 0.010691929067215188 0 0.0016843841994871223 0.011153665514560126 0 0.0016893619342037297 0.011156516579211954 0 0.0016833547938568906 0.011162082583339998 0 0.0017380007928992954 0.011487329597060569 0 0.0015142829014927167 0.011493430204849451 0 0.0018834025795445169 0.010811527186688536 0 0.0018613567426898239 0.010653692692898155 0 0.0017916142605503187 0.010718951122352797 0 0.0020501919897556974 0.010691929067215188 0 0.0015142829014927167 0.011493430204849451 0 0.0012080801668082142 0.012037856903318983 0 0.0011630156013688199 0.01207913205906066 0 0.001221486555430053 0.012101647525331098 0 0.0012080801668082142 0.012037856903318983 0 0.001221486555430053 0.012101647525331098 0 0.0012621485975973436 0.012077499839094079 0 0.0011635110914179209 0.012141195488326584 0 0.0011630156013688199 0.01207913205906066 0 0.001221486555430053 0.012101647525331098 0 0.0011579998810672711 0.011935230508857426 0 0.0015142829014927167 0.011493430204849451 0 0.0011635110914179209 0.012141195488326584 0 0.001221486555430053 0.012101647525331098 0 0.0012366852688659327 0.012147442486731431 0 0.0017380007928992954 0.011487329597060569 0 0.0012199182621487874 0.012265247072714149 0 0.0011635110914179209 0.012141195488326584 0 0.0012366852688659327 0.012147442486731431 0 0.0012387132029520027 0.012201934968408767 0 0.0012578522935389296 0.012177174157038759 0 0.0012801920725952387 0.012125960161899887 0 0.001321086130471208 0.012189485000086734 0 0.0012578522935389296 0.012177174157038759 0 0.0012366852688659327 0.012147442486731431 0 0.0012387132029520027 0.012201934968408767 0 0.0012578522935389296 0.012177174157038759 0 0.0012801920725952387 0.012125960161899887 0 0.0012366852688659327 0.012147442486731431 0 0.001221486555430053 0.012101647525331098 0 0.0012801920725952387 0.012125960161899887 0 0.0012366852688659327 0.012147442486731431 0 0.001221486555430053 0.012101647525331098 0 0.0012801920725952387 0.012125960161899887 0 0.0012621485975973436 0.012077499839094079 0 0.0012850580584206335 0.012032309988408488 0 0.0012621485975973436 0.012077499839094079 0 0.0013161296332131493 0.012090206606710346 0 0.0012801920725952387 0.012125960161899887 0 0.0012621485975973436 0.012077499839094079 0 0.0013161296332131493 0.012090206606710346 0 0.0012801920725952387 0.012125960161899887 0 0.0013161296332131493 0.012090206606710346 0 0.001321086130471208 0.012189485000086734 0 0.0013161296332131493 0.012090206606710346 0 0.001321086130471208 0.012189485000086734 0 0.0014140470149814894 0.012187784805896232 0 0.001321086130471208 0.012189485000086734 0 0.0012358956375779992 0.012205363554019927 0 0.0014222643553115076 0.012355081617006703 0 0.0010490649396621922 0.012839090333021819 0 0.00099230090870507581 0.012794902236525015 0 0.001017988094568204 0.012804048544659243 0 0.0012199182621487874 0.012265247072714149 0 0.0011460332447436163 0.012736492186007111 0 0.0010490649396621922 0.012839090333021819 0 0.0010437629322222772 0.012800034644747098 0 0.001017988094568204 0.012804048544659243 0 0.0012578522935389296 0.012177174157038759 0 0.001321086130471208 0.012189485000086734 0 0.0012358956375779992 0.012205363554019927 0 0.0012413479515063176 0.012231371057078161 0 0.0012199182621487874 0.012265247072714149 0 0.0017380007928992954 0.011487329597060569 0 0.0015981660888743478 0.011960057562961493 0 0.002216192595516447 0.011273210183813135 0 0.0021517745590041476 0.011332695164012091 0 0.0021507661595344513 0.011200694246512918 0 0.0015355975856633165 0.011836050687912453 0 0.0016030358304392717 0.011888694018873859 0 0.0015366529158904387 0.011975091763378983 0 0.0010490649396621922 0.012839090333021819 0 0.0010856858413501179 0.012804666074472056 0 0.0010437629322222772 0.012800034644747098 0 0.0012199182621487874 0.012265247072714149 0 0.0015981660888743478 0.011960057562961493 0 -2.1343816224238635e-05 0.014968052525230802 0 -4.0093415745946882e-05 0.014960391615780944 0 -2.8394373001323638e-05 0.01497213022071942 0 0.0014012107882655747 0.012029044842602013 0 0.0013161296332131493 0.012090206606710346 0 0.0014140470149814894 0.012187784805896232 0 0.00094563526779765895 0.012786080195230608 0 0.00076070651536593438 0.013342575928189793 0 0.00041513730902826239 0.013564589290994765 0 0.00063106481817530829 0.013738685620353576 0 0.00052461025212874215 0.013783718092291156 0 0.00099694360990358675 0.012911227395015755 0 0.0010005564847028569 0.012914401904176821 0 0.00099978041769720476 0.012915389000271487 0 0.00094563526779765895 0.012786080195230608 0 0.0012186645681596091 0.012475334793030105 0 0.0010005564847028569 0.012914401904176821 0 0.00099978041769720476 0.012915389000271487 0 0.00099946028608983843 0.012913838589267385 0 0.001321086130471208 0.012189485000086734 0 0.0014140470149814894 0.012187784805896232 0 0.0014222643553115076 0.012355081617006703 0 0.0010005564847028569 0.012914401904176821 0 0.0010003629726740798 0.012910831824253134 0 0.0010025449365029405 0.012908383624056084 0 0.0012186645681596091 0.012475334793030105 0 0.0011460332447436163 0.012736492186007111 0 0.0010005564847028569 0.012914401904176821 0 0.00099946028608983843 0.012913838589267385 0 0.0010003629726740798 0.012910831824253134 0 -2.6904938811520391e-05 0.014974431029827269 0 -1.791248757120097e-05 0.014950405935883863 0 -2.0395668415067941e-05 0.014944175117417989 0 -2.6904938811520391e-05 0.014974431029827269 0 -2.8394373001323638e-05 0.01497213022071942 0 -1.791248757120097e-05 0.014950405935883863 0 0.0010003629726740798 0.012910831824253134 0 0.00099689467422795766 0.012914201749676462 0 0.00099992366202720107 0.012905463284451494 0 0.00099946028608983843 0.012913838589267385 0 0.0010003629726740798 0.012910831824253134 0 0.00099689467422795766 0.012914201749676462 0 0.00028699564674014583 0.014482110693324007 0 0.00047269273532769802 0.014005066906325931 0 0.00099978041769720476 0.012915389000271487 0 0.00099946028608983843 0.012913838589267385 0 0.00099689467422795766 0.012914201749676462 0 0.00063106481817530829 0.013738685620353576 0 0.00052461025212874215 0.013783718092291156 0 0.00063347000299133441 0.013999823893295666 0 0.00076070651536593438 0.013342575928189793 0 0.00047269273532769802 0.014005066906325931 0 0.00047269273532769802 0.014005066906325931 0 0.00028672639566548177 0.014507069158997941 0 0.00052930565880331701 0.014094363293866841 0 0.0005251789129222344 0.01410143582058025 0 0.00054804771657313749 0.014126298054075066 0 0.00051500219479137539 0.014134359870980738 0 0.00051601254784519298 0.014134128768333797 0 0.00051722747731408993 0.014133378226438441 0 0.00099878592912537763 0.012907160271363155 0 0.00099992366202720107 0.012905463284451494 0 0.00099677012725022263 0.012912136814816183 0 0.00028672639566548177 0.014507069158997941 0 0.00063039198935780792 0.013782232191102754 0 0.00028672639566548177 0.014507069158997941 0 0.0002911779746379495 0.014544853158641178 0 0.00047269273532769802 0.014005066906325931 0 0.00063039198935780792 0.013782232191102754 0 0.0010003629726740798 0.012910831824253134 0 0.00099878592912537763 0.012907160271363155 0 0.00099992366202720107 0.012905463284451494 0 0.0010003629726740798 0.012910831824253134 0 0.00099878592912537763 0.012907160271363155 0 0.0010025449365029405 0.012908383624056084 0 0.0011460332447436163 0.012736492186007111 0 0.0010026647557980278 0.012937793463101579 0 0.00099878592912537763 0.012907160271363155 0 0.00099664575799326928 0.012904616807390955 0 0.00099677012725022263 0.012912136814816183 0 0.00099230090870507581 0.012794902236525015 0 0.00098519750851678418 0.012808373843516758 0 0.00099677012725022263 0.012912136814816183 0 0.0010711187734557448 0.012811453474596828 0 0.0011460332447436163 0.012736492186007111 0 0.00099230090870507581 0.012794902236525015 0 0.00098519750851678418 0.012808373843516758 0 0.001017988094568204 0.012804048544659243 0 0.00098519750851678418 0.012808373843516758 0 0.00099677012725022263 0.012912136814816183 0 0.00095721968801448689 0.012878677097619735 0 0.00099992366202720107 0.012905463284451494 0 0.00099677012725022263 0.012912136814816183 0 0.00099627902392095992 0.012924674933408847 0 0.00094994813093349304 0.012905170934632199 0 0.00099627902392095992 0.012924674933408847 0 0.00090195974068153165 0.012964935921478926 0 0.00099677012725022263 0.012912136814816183 0 0.00094994813093349304 0.012905170934632199 0 0.00095721968801448689 0.012878677097619735 0 0.00099677012725022263 0.012912136814816183 0 0.00094994813093349304 0.012905170934632199 0 0.00099627902392095992 0.012924674933408847 0 0.00063039198935780792 0.013782232191102754 0 0.00050964910588559092 0.014259645963648565 0 0.00052624898757236448 0.014045589369653406 0 0.00046718781072944954 0.014151722709209395 0 0.00052525810023902879 0.014149577851708886 0 0.0005251789129222344 0.01410143582058025 0 0.00052525810023902879 0.014149577851708886 0 0.00054804771657313749 0.014126298054075066 0 0.00063039198935780792 0.013782232191102754 0 0.00076979028909232073 0.013466334524326162 0 0.0018501826452896615 0.011636293056118801 0 0.0015274639521677179 0.012051506912439787 0 0.0015250665640460445 0.011693173458793185 0 0.0010856858413501179 0.012804666074472056 0 0.0010924197367839024 0.012750792717132624 0 0.0010551441487104639 0.012772712797209707 0 0.0015981660888743478 0.011960057562961493 0 0.0013137377124153879 0.012244941813973682 0 0.0010856858413501179 0.012804666074472056 0 0.0010551441487104639 0.012772712797209707 0 0.0010437629322222772 0.012800034644747098 0 0.0010924197367839024 0.012750792717132624 0 0.0010551441487104639 0.012772712797209707 0 0.0010324155620451787 0.012737845520727171 0 0.0010551441487104639 0.012772712797209707 0 0.0010246639064755017 0.012785184086306921 0 0.0010324155620451787 0.012737845520727171 0 0.0010551441487104639 0.012772712797209707 0 0.0010437629322222772 0.012800034644747098 0 0.0010246639064755017 0.012785184086306921 0 0.0010437629322222772 0.012800034644747098 0 0.001017988094568204 0.012804048544659243 0 0.0010246639064755017 0.012785184086306921 0 0.00098519750851678418 0.012808373843516758 0 0.001017988094568204 0.012804048544659243 0 0.0010246639064755017 0.012785184086306921 0 0.00098519750851678418 0.012808373843516758 0 0.00095721968801448689 0.012878677097619735 0 0.00089298071267034801 0.012886078429119319 0 0.00098519750851678418 0.012808373843516758 0 0.0010246639064755017 0.012785184086306921 0 0.0010324155620451787 0.012737845520727171 0 0.0010128784141125969 0.012781396740592603 0 0.00088712762227016653 0.012883120389168353 0 0.00089298071267034801 0.012886078429119319 0 0.00080160261588118199 0.012950303900255646 0 0.00090195974068153165 0.012964935921478926 0 0.00094994813093349304 0.012905170934632199 0 0.00095721968801448689 0.012878677097619735 0 0.00089298071267034801 0.012886078429119319 0 0.00094994813093349304 0.012905170934632199 0 0.00089298071267034801 0.012886078429119319 0 0.00090195974068153165 0.012964935921478926 0 0.0018501826452896615 0.011636293056118801 0 0.0015250665640460445 0.011693173458793185 0 0.0015221177965703812 0.011334821439428905 0 0.0010924197367839024 0.012750792717132624 0 0.0010324155620451787 0.012737845520727171 0 0.00109439247778934 0.012682206820398625 0 0.0013137377124153879 0.012244941813973682 0 0.0012398040489608562 0.012321199498423439 0 0.00088712762227016653 0.012883120389168353 0 0.0012398040489608562 0.012321199498423439 0 0.0012398040489608562 0.012321199498423439 0 0.0010882623809439817 0.012714345715151655 0 0.00080160261588118199 0.012950303900255646 0 0.00085239549318674181 0.013022740540937543 0 0.00079582501485338209 0.013091223255475732 0 0.0013434691098453343 0.012321641347668361 0 0.0013785053212228434 0.012292975752959814 0 0.0013788887442149776 0.012340856905630582 0 0.00080160261588118199 0.012950303900255646 0 0.00085239549318674181 0.013022740540937543 0 0.00090195974068153165 0.012964935921478926 0 0.00085239549318674181 0.013022740540937543 0 0.00090195974068153165 0.012964935921478926 0 0.0009109939660412017 0.013086995770670372 0 0.00099627902392095992 0.012924674933408847 0 0.00090195974068153165 0.012964935921478926 0 0.0009109939660412017 0.013086995770670372 0 0.00085239549318674181 0.013022740540937543 0 0.0009109939660412017 0.013086995770670372 0 0.00079582501485338209 0.013091223255475732 0 0.00043406487873080417 0.014235277063706815 0 0.00046146750618632562 0.014250191079232288 0 0.00044297025784650825 0.014259332934614333 0 0.0009109939660412017 0.013086995770670372 0 0.00079582501485338209 0.013091223255475732 0 0.00081448067531355412 0.01324679880527134 0 0.00052525810023902879 0.014149577851708886 0 0.00052595143184085017 0.014205369305960938 0 0.0005715767808180095 0.014165370313660091 0 0.00052525810023902879 0.014149577851708886 0 0.00052595143184085017 0.014205369305960938 0 0.00047500581607374392 0.014201673909013578 0 0.00046718781072944954 0.014151722709209395 0 0.00052525810023902879 0.014149577851708886 0 0.00047500581607374392 0.014201673909013578 0 0.00076979028909232073 0.013466334524326162 0 0.00064423488732570308 0.013705505125400768 0 0.00046718781072944954 0.014151722709209395 0 0.00043406487873080417 0.014235277063706815 0 0.00047500581607374392 0.014201673909013578 0 0.00052595143184085017 0.014205369305960938 0 0.00047500581607374392 0.014201673909013578 0 0.00046146750618632562 0.014250191079232288 0 0.00046146750618632562 0.014250191079232288 0 0.00046000274758671122 0.014261148450149697 0 0.00045609519300583544 0.014263463029223251 0 0.00043406487873080417 0.014235277063706815 0 0.00047500581607374392 0.014201673909013578 0 0.00046146750618632562 0.014250191079232288 0 0.00055720582800641947 0.014175043399926588 0 0.00043857867479419872 0.014271324793426916 0 0.00046101108408582651 0.014265210357616015 0 0.00046146750618632562 0.014250191079232288 0 0.00046000274758671122 0.014261148450149697 0 0.00046101108408582651 0.014265210357616015 0 0.00046000274758671122 0.014261148450149697 0 0.00045915977830743342 0.014266333104664344 0 0.00046000274758671122 0.014261148450149697 0 0.00045999537795442008 0.014266105530491686 0 0.00045915977830743342 0.014266333104664344 0 0.00046000274758671122 0.014261148450149697 0 0.00045999537795442008 0.014266105530491686 0 0.00045932084440792307 0.014267456683676547 0 0.00045999537795442008 0.014266105530491686 0 0.00045796408930330563 0.014268091041116608 0 0.00045915977830743342 0.014266333104664344 0 0.00045999537795442008 0.014266105530491686 0 0.00046014217257134965 0.014268646073254839 0 0.00045796408930330563 0.014268091041116608 0 5.4793432476059571e-05 0.014887393554790691 0 7.3125327918287036e-05 0.014927418132754389 0 1.7447901768076895e-05 0.0149432773956961 0 0.00022233456574272101 0.014647612535200879 0 0.00026240636510778225 0.01459566528676963 0 7.3125327918287036e-05 0.014927418132754389 0 4.5345365034204727e-05 0.014964361498884936 0 1.7447901768076895e-05 0.0149432773956961 0 7.3125327918287036e-05 0.014927418132754389 0 4.5345365034204727e-05 0.014964361498884936 0 9.020480013443838e-05 0.014964095744174902 0 0.00046101108408582651 0.014265210357616015 0 0.00045915977830743342 0.014266333104664344 0 0.00045740076212215483 0.014271806194898193 0 0.00055720582800641947 0.014175043399926588 0 0.00025852204903471093 0.014598490556489627 0 0.00045796408930330563 0.014268091041116608 0 0.00045915977830743342 0.014266333104664344 0 0.00045740076212215483 0.014271806194898193 0 0.00026240636510778225 0.01459566528676963 0 0.00025852204903471093 0.014598490556489627 0 0.00052525810023902879 0.014149577851708886 0 0.0005715767808180095 0.014165370313660091 0 0.00054804771657313749 0.014126298054075066 0 0.00025852204903471093 0.014598490556489627 0 0.0002911779746379495 0.014544853158641178 0 2.9144504458133493e-05 0.014947939900088733 0 3.3884855939256643e-05 0.014961874216277486 0 2.4707652259182869e-05 0.014966373737066826 0 0.00025852204903471093 0.014598490556489627 0 -3.5664804152749377e-05 0.015054039317941536 0 2.9144504458133493e-05 0.014947939900088733 0 2.4707652259182869e-05 0.014966373737066826 0 1.2043780737343707e-05 0.014968428003694063 0 4.5345365034204727e-05 0.014964361498884936 0 9.020480013443838e-05 0.014964095744174902 0 2.9185210672129436e-05 0.01500147805061674 0 2.0687469272058621e-05 0.014977747195842285 0 2.4707652259182869e-05 0.014966373737066826 0 1.2043780737343707e-05 0.014968428003694063 0 2.0687469272058621e-05 0.014977747195842285 0 1.1892217157727583e-05 0.014985127863954768 0 1.2043780737343707e-05 0.014968428003694063 0 2.0687469272058621e-05 0.014977747195842285 0 2.776887693063629e-05 0.014973122342988416 0 2.4707652259182869e-05 0.014966373737066826 0 3.6886608566345272e-05 0.01497248759933192 0 3.3884855939256643e-05 0.014961874216277486 0 2.776887693063629e-05 0.014973122342988416 0 3.3884855939256643e-05 0.014961874216277486 0 2.776887693063629e-05 0.014973122342988416 0 2.4707652259182869e-05 0.014966373737066826 0 2.6281600794751434e-06 0.014996244534429479 0 7.8223157078120293e-06 0.014997664829909654 0 2.5718260911974187e-09 0.014999990389408831 0 2.6281600794751434e-06 0.014996244534429479 0 7.8223157078120293e-06 0.014997664829909654 0 2.9185210672129436e-05 0.01500147805061674 0 1.1892217157727583e-05 0.014985127863954768 0 2.6281600794751434e-06 0.014996244534429479 0 1.2043780737343707e-05 0.014968428003694063 0 3.191143135689725e-05 0.01496784223777148 0 -3.5664804152749377e-05 0.015054039317941536 0 4.5345365034204727e-05 0.014964361498884936 0 2.9185210672129436e-05 0.01500147805061674 0 1.9649989389406819e-05 0.014978852193086312 0 7.8223157078120293e-06 0.014997664829909654 0 2.9185210672129436e-05 0.01500147805061674 0 1.9649989389406819e-05 0.014978852193086312 0 1.9649989389406819e-05 0.014978852193086312 0 1.8751288326619061e-06 0.014995143427366178 0 1.7447901768076895e-05 0.0149432773956961 0 7.8223157078120293e-06 0.014997664829909654 0 1.9649989389406819e-05 0.014978852193086312 0 1.8751288326619061e-06 0.014995143427366178 0 2.5718260911974187e-09 0.014999990389408831 0 1.8751288326619061e-06 0.014995143427366178 0 3.1375398553070691e-09 0.014999996520174795 0 7.8223157078120293e-06 0.014997664829909654 0 2.5718260911974187e-09 0.014999990389408831 0 1.8751288326619061e-06 0.014995143427366178 0 1.8751288326619061e-06 0.014995143427366178 0 3.1375398553070691e-09 0.014999996520174795 0 8.2577922681661898e-06 0.015001375509571771 0 3.1375398553070691e-09 0.014999996520174795 0 8.2577922681661898e-06 0.015001375509571771 0 6.2310040149663728e-06 0.01499639852378771 0 2.0421328469632725e-05 0.014967638843318982 0 -2.8213596521154879e-05 0.015032929311849566 0 4.5345365034204727e-05 0.014964361498884936 0 1.9649989389406819e-05 0.014978852193086312 0 1.7447901768076895e-05 0.0149432773956961 0 2.8551633499007509e-05 0.014988799089426057 0 6.2310040149663728e-06 0.01499639852378771 0 1.0775905878839643e-05 0.014983099236670537 0 0.00022233456574272101 0.014647612535200879 0 -2.8213596521154879e-05 0.015032929311849566 0 2.8551633499007509e-05 0.014988799089426057 0 8.2577922681661898e-06 0.015001375509571771 0 6.2310040149663728e-06 0.01499639852378771 0 3.1375398553070691e-09 0.014999996520174795 0 6.2310040149663728e-06 0.01499639852378771 0 -1.0528683731055785e-06 0.014996925974023209 0 3.1375398553070691e-09 0.014999996520174795 0 -1.0528683731055785e-06 0.014996925974023209 0 -1.6017415911291641e-09 0.01499998793740711 0 6.2310040149663728e-06 0.01499639852378771 0 -1.0528683731055785e-06 0.014996925974023209 0 1.0775905878839643e-05 0.014983099236670537 0 3.0895374676225966e-06 0.014976302060737664 0 -1.4253827093579698e-05 0.015027953868375563 0 -1.0528683731055785e-06 0.014996925974023209 0 1.0775905878839643e-05 0.014983099236670537 0 -2.6192163825559609e-06 0.014961498263673545 0 -1.0528683731055785e-06 0.014996925974023209 0 -1.6017415911291641e-09 0.01499998793740711 0 -2.4117285738263143e-07 0.015000298302732237 0 1.0775905878839643e-05 0.014983099236670537 0 2.2457020590149125e-05 0.014961743757955876 0 -2.6192163825559609e-06 0.014961498263673545 0 2.8551633499007509e-05 0.014988799089426057 0 1.0775905878839643e-05 0.014983099236670537 0 2.2457020590149125e-05 0.014961743757955876 0 2.2457020590149125e-05 0.014961743757955876 0 -2.6192163825559609e-06 0.014961498263673545 0 6.5295540351345592e-06 0.014921580948186566 0 0.00036619270335247749 0.014330696054710929 0 0.00037519432922280009 0.014300164635463001 0 0.00034697768955146231 0.014291660051862195 0 0.00019886106087323575 0.014632357256904828 0 8.6479293280143711e-05 0.014740282089909967 0 -1.6017415911291641e-09 0.01499998793740711 0 -2.4117285738263143e-07 0.015000298302732237 0 -1.2299190957550434e-10 0.015000002775156453 0 -1.4253827093579698e-05 0.015027953868375563 0 8.6479293280143711e-05 0.014740282089909967 0 -2.4117285738263143e-07 0.015000298302732237 0 -1.2299190957550434e-10 0.015000002775156453 0 3.61359796521332e-07 0.014998859290667606 0 0.00045999537795442008 0.014266105530491686 0 0.00046014217257134965 0.014268646073254839 0 0.00046366374856662205 0.014270594566826483 0 0.00045999537795442008 0.014266105530491686 0 0.00045932084440792307 0.014267456683676547 0 0.00046366374856662205 0.014270594566826483 0 0.00045932084440792307 0.014267456683676547 0 0.00046366374856662205 0.014270594566826483 0 0.00045607095388994749 0.014273944383205709 0 0.00038874231051026363 0.01438505697239747 0 0.00041937278794531766 0.014344293629129735 0 0.00039314667594237925 0.014328421487995681 0 0.00038874231051026363 0.01438505697239747 0 0.00036619270335247749 0.014330696054710929 0 0.00039314667594237925 0.014328421487995681 0 0.00022233456574272101 0.014647612535200879 0 0.00019886106087323575 0.014632357256904828 0 0.00022233456574272101 0.014647612535200879 0 0.00048380161529485973 0.014247778489425839 0 0.00039314667594237925 0.014328421487995681 0 0.00041514657861155838 0.014304782779935367 0 0.00037519432922280009 0.014300164635463001 0 0.00036619270335247749 0.014330696054710929 0 0.00039314667594237925 0.014328421487995681 0 0.00037519432922280009 0.014300164635463001 0 0.00041937278794531766 0.014344293629129735 0 0.00039314667594237925 0.014328421487995681 0 0.00041514657861155838 0.014304782779935367 0 0.00041514657861155838 0.014304782779935367 0 0.00044963729025214677 0.014289772119252267 0 0.00046065332890494912 0.014277891286075733 0 0.00045108726521617354 0.014289026148576623 0 0.00036906025604948863 0.01434261363884883 0 0.00041937278794531766 0.014344293629129735 0 0.00041514657861155838 0.014304782779935367 0 0.00044963729025214677 0.014289772119252267 0 0.00048380161529485973 0.014247778489425839 0 0.00043322634747073132 0.014313821333923088 0 0.00046366374856662205 0.014270594566826483 0 0.00044963729025214677 0.014289772119252267 0 0.00045607095388994749 0.014273944383205709 0 0.00041514657861155838 0.014304782779935367 0 0.00040186838696400928 0.014282584144045625 0 0.00043997617737523675 0.01429710128594212 0 3.9884089883875421e-05 0.014928596956296227 0 0.00016001299946183148 0.014867412006015263 0 0.00015744827405987733 0.015004672195602536 0 0.00022351132991108057 0.014624114646658189 0 0.00036906025604948863 0.01434261363884883 0 0.00041514657861155838 0.014304782779935367 0 0.00040186838696400928 0.014282584144045625 0 0.00037519432922280009 0.014300164635463001 0 3.9884089883875421e-05 0.014928596956296227 0 1.1272371907774125e-05 0.014885225519224351 0 2.7178312754247061e-05 0.014870737079710221 0 3.9884089883875421e-05 0.014928596956296227 0 2.7178312754247061e-05 0.014870737079710221 0 7.038408547046081e-05 0.014832942445651807 0 3.9884089883875421e-05 0.014928596956296227 0 7.038408547046081e-05 0.014832942445651807 0 0.00016001299946183148 0.014867412006015263 0 -1.2299190957550434e-10 0.015000002775156453 0 3.61359796521332e-07 0.014998859290667606 0 1.8042249096972575e-07 0.014999599768741613 0 0.00040186838696400928 0.014282584144045625 0 0.00037519432922280009 0.014300164635463001 0 0.00035184146793345108 0.014269622155658204 0 0.00037519432922280009 0.014300164635463001 0 0.00034697768955146231 0.014291660051862195 0 0.00035184146793345108 0.014269622155658204 0 8.6479293280143711e-05 0.014740282089909967 0 0.00013773306338999168 0.014744063911853697 0 0.00022351132991108057 0.014624114646658189 0 0.00013773306338999168 0.014744063911853697 0 -1.2299190957550434e-10 0.015000002775156453 0 1.8042249096972575e-07 0.014999599768741613 0 5.6860097268933453e-10 0.014999996352059397 0 6.4575771832992644e-05 0.014768463696948533 0 4.9219668667198086e-05 0.014832370178833076 0 0.0001097192559506404 0.014858228215802162 0 8.6479293280143711e-05 0.014740282089909967 0 3.6630136739421069e-05 0.014958719927007764 0 2.4572429459545072e-05 0.015004755407965181 0 -4.5454464321260389e-06 0.014983919076880842 0 1.9435449159860032e-06 0.014959683022637137 0 0.00013773306338999168 0.014744063911853697 0 3.6630136739421069e-05 0.014958719927007764 0 3.6630136739421069e-05 0.014958719927007764 0 2.3414551430095975e-08 0.014999950532480407 0 3.6630136739421069e-05 0.014958719927007764 0 8.7179440539671436e-09 0.01500000108813059 0 1.7647995182807514e-07 0.014999880725819722 0 4.0176608851906154e-10 0.014999999750939135 0 -1.8583086460778264e-10 0.014999999961141182 0 -4.5454464321260389e-06 0.014983919076880842 0 1.9435449159860032e-06 0.014959683022637137 0 -2.2512735516036244e-08 0.014999842591341505 0 1.9435449159860032e-06 0.014959683022637137 0 -2.2512735516036244e-08 0.014999842591341505 0 5.4369093223038749e-06 0.014942154147297606 0 -2.2512735516036244e-08 0.014999842591341505 0 5.4369093223038749e-06 0.014942154147297606 0 2.0518439523863977e-08 0.01499990875334903 0 5.4369093223038749e-06 0.014942154147297606 0 1.2751814815383633e-05 0.014873979340504159 0 8.4483614513475659e-06 0.014960986758674216 0 5.4369093223038749e-06 0.014942154147297606 0 1.2751814815383633e-05 0.014873979340504159 0 2.2655542055211429e-05 0.014896685271508383 0 1.2751814815383633e-05 0.014873979340504159 0 2.2655542055211429e-05 0.014896685271508383 0 4.3296944671856921e-05 0.014836839747938769 0 0.00013773306338999168 0.014744063911853697 0 -1.434499856391939e-05 0.014989703880646925 0 1.1272371907774125e-05 0.014885225519224351 0 2.2655542055211429e-05 0.014896685271508383 0 2.7178312754247061e-05 0.014870737079710221 0 2.4572429459545072e-05 0.015004755407965181 0 1.9435449159860032e-06 0.014959683022637137 0 2.2655542055211429e-05 0.014896685271508383 0 1.9435449159860032e-06 0.014959683022637137 0 5.4369093223038749e-06 0.014942154147297606 0 2.2655542055211429e-05 0.014896685271508383 0 2.2655542055211429e-05 0.014896685271508383 0 2.7178312754247061e-05 0.014870737079710221 0 4.3296944671856921e-05 0.014836839747938769 0 2.7178312754247061e-05 0.014870737079710221 0 7.038408547046081e-05 0.014832942445651807 0 4.3296944671856921e-05 0.014836839747938769 0 7.038408547046081e-05 0.014832942445651807 0 8.5370574387019763e-05 0.014752169280530412 0 4.3296944671856921e-05 0.014836839747938769 0 7.038408547046081e-05 0.014832942445651807 0 8.5370574387019763e-05 0.014752169280530412 0 0.00013315636300537879 0.014636228797595675 0 8.5370574387019763e-05 0.014752169280530412 0 4.3296944671856921e-05 0.014836839747938769 0 7.1755761452498975e-05 0.014786304379766463 0 1.2751814815383633e-05 0.014873979340504159 0 4.3296944671856921e-05 0.014836839747938769 0 7.1755761452498975e-05 0.014786304379766463 0 1.2751814815383633e-05 0.014873979340504159 0 6.5584825511897475e-05 0.014754336995584736 0 7.1755761452498975e-05 0.014786304379766463 0 6.5584825511897475e-05 0.014754336995584736 0 7.1755761452498975e-05 0.014786304379766463 0 9.9565719590971038e-05 0.014743748868247376 0 8.5370574387019763e-05 0.014752169280530412 0 7.1755761452498975e-05 0.014786304379766463 0 9.9565719590971038e-05 0.014743748868247376 0 8.5370574387019763e-05 0.014752169280530412 0 9.9565719590971038e-05 0.014743748868247376 0 0.00013315636300537879 0.014636228797595675 0 8.295965536695068e-05 0.014547287605828713 0 8.2928843571533186e-05 0.014533574310282443 0 4.8732494099655064e-05 0.014337176921449191 0 0.00011485481362545578 0.014356361334583258 0 0.00010460995711522619 0.014302185890282905 0 6.5584825511897475e-05 0.014754336995584736 0 9.9565719590971038e-05 0.014743748868247376 0 7.7617169854768934e-05 0.014698863872331143 0 6.5584825511897475e-05 0.014754336995584736 0 5.1172631203929928e-05 0.014715277625716915 0 7.7617169854768934e-05 0.014698863872331143 0 1.3251348171175551e-05 0.014723642147661418 0 5.1172631203929928e-05 0.014715277625716915 0 4.7398214519902428e-05 0.014692215720104396 0 6.5584825511897475e-05 0.014754336995584736 0 1.3251348171175551e-05 0.014723642147661418 0 5.1172631203929928e-05 0.014715277625716915 0 -9.1324103707702665e-06 0.014997047747205118 0 6.9700020143620371e-09 0.015000000835574902 0 8.4483614513475659e-06 0.014960986758674216 0 6.9700020143620371e-09 0.015000000835574902 0 2.0518439523863977e-08 0.01499990875334903 0 8.4483614513475659e-06 0.014960986758674216 0 5.4369093223038749e-06 0.014942154147297606 0 2.0518439523863977e-08 0.01499990875334903 0 8.4483614513475659e-06 0.014960986758674216 0 1.2751814815383633e-05 0.014873979340504159 0 6.5584825511897475e-05 0.014754336995584736 0 1.3251348171175551e-05 0.014723642147661418 0 1.2751814815383633e-05 0.014873979340504159 0 -9.1324103707702665e-06 0.014997047747205118 0 8.4483614513475659e-06 0.014960986758674216 0 1.2325536934699725e-05 0.014878909248663745 0 7.3810376532652393e-06 0.014863048715509176 0 0.00064292576008427723 0.014404040360986232 0 0.00060701096680957636 0.013835043924433009 0 0.00030499790374007306 0.014276729958241967 0 0.00064292576008427723 0.014404040360986232 0 0.00030499790374007306 0.014276729958241967 0 0.00038575099356318585 0.01456094176491014 0 0.00069430599212258568 0.013883547664446954 0 0.00063150189220028546 0.013835610387907336 0 0.00077640032047761787 0.013397203217732953 0 0.00060701096680957636 0.013835043924433009 0 0.00062447294469655638 0.01353582241144982 0 0.00060701096680957636 0.013835043924433009 0 0.00030499790374007306 0.014276729958241967 0 0.00033161984909912788 0.014030678783381444 0 0.00015656345474070004 0.014259925012095892 0 0.00030499790374007306 0.014276729958241967 0 0.00033161984909912788 0.014030678783381444 0 4.8732494099655064e-05 0.014337176921449191 0 0.00015656345474070004 0.014259925012095892 0 0.00010460995711522619 0.014302185890282905 0 4.8732494099655064e-05 0.014337176921449191 0 0.00015656345474070004 0.014259925012095892 0 0.00013315636300537879 0.014636228797595675 0 8.295965536695068e-05 0.014547287605828713 0 0.00013498363081116381 0.014638183360102924 0 0.00030499790374007306 0.014276729958241967 0 0.00013315636300537879 0.014636228797595675 0 0.00038575099356318585 0.01456094176491014 0 0.00015656345474070004 0.014259925012095892 0 0.00030499790374007306 0.014276729958241967 0 0.00013315636300537879 0.014636228797595675 0 0.00013315636300537879 0.014636228797595675 0 0.00031852520946418439 0.014758194285295958 0 0.00038575099356318585 0.01456094176491014 0 7.038408547046081e-05 0.014832942445651807 0 0.00013315636300537879 0.014636228797595675 0 0.00016001299946183148 0.014867412006015263 0 0.00013315636300537879 0.014636228797595675 0 0.00031852520946418439 0.014758194285295958 0 0.00016001299946183148 0.014867412006015263 0 0.00031852520946418439 0.014758194285295958 0 0.00038575099356318585 0.01456094176491014 0 0.00059632124235536638 0.014705423191148533 0 0.00031852520946418439 0.014758194285295958 0 0.00059632124235536638 0.014705423191148533 0 0.00045882173344127743 0.014831385251154716 0 0.00064292576008427723 0.014404040360986232 0 0.00038575099356318585 0.01456094176491014 0 0.00059632124235536638 0.014705423191148533 0 0.00069430599212258568 0.013883547664446954 0 0.00070329827846708315 0.014011785156057732 0 0.00059632124235536638 0.014705423191148533 0 0.00057190642728949194 0.014917464861661536 0 0.00045882173344127743 0.014831385251154716 0 0.00070329827846708315 0.014011785156057732 0 0.00062033828611273421 0.013806249434161533 0 0.00057190642728949194 0.014917464861661536 0 0.00045882173344127743 0.014831385251154716 0 0.00033483055762312502 0.014978304244331594 0 0.00031852520946418439 0.014758194285295958 0 0.00045882173344127743 0.014831385251154716 0 0.00033483055762312502 0.014978304244331594 0 0.00062033828611273421 0.013806249434161533 0 0.00036128947059392731 0.014556857396416217 0 0.00053664207640242046 0.013917631042760415 0 0.00053665169558873599 0.013950213833848124 0 0.00048318691140417184 0.01393944575992128 0 0.00053665169558873599 0.013950213833848124 0 0.00048318691140417184 0.01393944575992128 0 0.00051414652034503469 0.013967663686569111 0 0.00062033828611273421 0.013806249434161533 0 0.00065167649905989986 0.01350821394878669 0 0.00076336078782090881 0.013139611937457595 0 0.00076180411242780365 0.013115936232596935 0 0.00075050072553571546 0.013116279142430817 0 0.00076180411242780365 0.013115936232596935 0 0.00075657429109072388 0.013107456078120376 0 0.00075050072553571546 0.013116279142430817 0 0.00031852520946418439 0.014758194285295958 0 0.00016001299946183148 0.014867412006015263 0 0.00033483055762312502 0.014978304244331594 0 0.00048318691140417184 0.01393944575992128 0 0.00042877307190048922 0.01396253295666874 0 0.00048114109709722651 0.01397690984578866 0 0.00036128947059392731 0.014556857396416217 0 0.00036906025604948863 0.01434261363884883 0 0.00016001299946183148 0.014867412006015263 0 0.00033483055762312502 0.014978304244331594 0 0.00015744827405987733 0.015004672195602536 0 0.00046065332890494912 0.014277891286075733 0 0.00045667608463852242 0.014275517931574217 0 0.00044905375061851232 0.014274152301461354 0 0.00044963729025214677 0.014289772119252267 0 0.00045667608463852242 0.014275517931574217 0 0.00045607095388994749 0.014273944383205709 0 0.00044963729025214677 0.014289772119252267 0 0.00046065332890494912 0.014277891286075733 0 0.00045667608463852242 0.014275517931574217 0 0.00045667608463852242 0.014275517931574217 0 0.00044905375061851232 0.014274152301461354 0 0.00045609519300583544 0.014263463029223251 0 0.00036906025604948863 0.01434261363884883 0 0.00044384135067419058 0.014155784675260059 0 0.00044905375061851232 0.014274152301461354 0 0.00045609519300583544 0.014263463029223251 0 0.00044297025784650825 0.014259332934614333 0 0.00046146750618632562 0.014250191079232288 0 0.00045609519300583544 0.014263463029223251 0 0.00044297025784650825 0.014259332934614333 0 0.00045667608463852242 0.014275517931574217 0 0.00045609519300583544 0.014263463029223251 0 0.00045766824377376137 0.014267884003739148 0 0.00046000274758671122 0.014261148450149697 0 0.00045609519300583544 0.014263463029223251 0 0.00045766824377376137 0.014267884003739148 0 0.00046000274758671122 0.014261148450149697 0 0.00045932084440792307 0.014267456683676547 0 0.00045766824377376137 0.014267884003739148 0 0.00045667608463852242 0.014275517931574217 0 0.00045766824377376137 0.014267884003739148 0 0.00045607095388994749 0.014273944383205709 0 0.00045932084440792307 0.014267456683676547 0 0.00045766824377376137 0.014267884003739148 0 0.00045607095388994749 0.014273944383205709 0 0.00076180411242780365 0.013115936232596935 0 0.00075992457683553088 0.013102448096260915 0 0.00075657429109072388 0.013107456078120376 0 0.00053665169558873599 0.013950213833848124 0 0.00053690688279357563 0.013980536389749547 0 0.00051414652034503469 0.013967663686569111 0 0.00065167649905989986 0.01350821394878669 0 0.00077691562538791017 0.013426881086027846 0 0.00053690688279357563 0.013980536389749547 0 0.00051414652034503469 0.013967663686569111 0 0.00053167463748903703 0.013989388059178065 0 0.00076280670431122088 0.013098476214305271 0 0.00075657429109072388 0.013107456078120376 0 0.00075054757906140685 0.013095917357249954 0 0.00077691562538791017 0.013426881086027846 0 0.00083570696077048018 0.013137632227558161 0 0.00044384135067419058 0.014155784675260059 0 0.00071408800664533487 0.013614385474875451 0 0.00048114109709722651 0.01397690984578866 0 0.00051414652034503469 0.013967663686569111 0 0.00053167463748903703 0.013989388059178065 0 0.00048318691140417184 0.01393944575992128 0 0.00048114109709722651 0.01397690984578866 0 0.00051414652034503469 0.013967663686569111 0 0.00044905375061851232 0.014274152301461354 0 0.00044297025784650825 0.014259332934614333 0 0.00042853202962198029 0.014261517012804871 0 0.00043406487873080417 0.014235277063706815 0 0.00044297025784650825 0.014259332934614333 0 0.00042853202962198029 0.014261517012804871 0 0.00064423488732570308 0.013705505125400768 0 0.00071408800664533487 0.013614385474875451 0 0.00079582501485338209 0.013091223255475732 0 0.00081448067531355412 0.01324679880527134 0 0.00079540541411124151 0.013238447751320047 0 0.0010882623809439817 0.012714345715151655 0 0.00092559721687747757 0.013127143719439032 0 0.0013788887442149776 0.012340856905630582 0 0.0013771028407046084 0.01239285468235867 0 0.0013411806959351023 0.012369737248886544 0 0.00090545159879201493 0.013445251045145698 0 0.00093374039754652192 0.013399287797735146 0 0.00090495649923265494 0.013386974979419724 0 0.00077691562538791017 0.013426881086027846 0 0.00071408800664533487 0.013614385474875451 0 0.00071408800664533487 0.013614385474875451 0 0.00092559721687747757 0.013127143719439032 0 0.00076280670431122088 0.013098476214305271 0 0.00076285252912780121 0.013092097627993711 0 0.00075054757906140685 0.013095917357249954 0 0.00077691562538791017 0.013426881086027846 0 0.00092559721687747757 0.013127143719439032 0 0.00074792831012216007 0.013083100713052938 0 0.00075054757906140685 0.013095917357249954 0 0.00073645957919813191 0.013091740332249274 0 0.00092559721687747757 0.013127143719439032 0 0.00098824366703833318 0.012728730011375247 0 0.00076285252912780121 0.013092097627993711 0 0.00074792831012216007 0.013083100713052938 0 0.00075054757906140685 0.013095917357249954 0 0.00075657429109072388 0.013107456078120376 0 0.00075054757906140685 0.013095917357249954 0 0.00074108533539997477 0.013105475836291935 0 0.00075054757906140685 0.013095917357249954 0 0.00074108533539997477 0.013105475836291935 0 0.00073645957919813191 0.013091740332249274 0 0.00075657429109072388 0.013107456078120376 0 0.00074108533539997477 0.013105475836291935 0 0.00075050072553571546 0.013116279142430817 0 0.00074108533539997477 0.013105475836291935 0 0.00072633242239297194 0.013106269167842187 0 0.00073645957919813191 0.013091740332249274 0 0.0017033706018471709 0.011785252784386222 0 0.00098824366703833318 0.012728730011375247 0 0.00073961561633685059 0.013073350611932634 0 0.00074792831012216007 0.013083100713052938 0 0.00073645957919813191 0.013091740332249274 0 0.0027479602820104166 0.010953030163478957 0 0.0025511801904625916 0.010857301687973 0 0.0025346031555629734 0.011152813683258603 0 0.00073961561633685059 0.013073350611932634 0 0.00073645957919813191 0.013091740332249274 0 0.00072698523317919978 0.01309677933319851 0 0.0017033706018471709 0.011785252784386222 0 0.0016273921923687282 0.012163066870027651 0 0.0025511801904625916 0.010857301687973 0 0.0025346031555629734 0.011152813683258603 0 0.0024362111727746008 0.01097877313437276 0 0.0025346031555629734 0.011152813683258603 0 0.0024362111727746008 0.01097877313437276 0 0.00225449872317897 0.011089868776840707 0 0.00072698523317919978 0.01309677933319851 0 0.00071834898674670144 0.013110130258206679 0 0.00074640757858010205 0.01311085388357206 0 0.0016273921923687282 0.012163066870027651 0 0.0015186145126247837 0.012262173965688067 0 0.00072633242239297194 0.013106269167842187 0 0.00073645957919813191 0.013091740332249274 0 0.00072698523317919978 0.01309677933319851 0 0.00072633242239297194 0.013106269167842187 0 0.00072698523317919978 0.01309677933319851 0 0.00071834898674670144 0.013110130258206679 0 0.00072633242239297194 0.013106269167842187 0 0.00071834898674670144 0.013110130258206679 0 0.00070897576092605722 0.013122235074327061 0 0.00071834898674670144 0.013110130258206679 0 0.00071086232792657363 0.013098511449741052 0 0.00074640757858010205 0.01311085388357206 0 0.00071834898674670144 0.013110130258206679 0 0.00071086232792657363 0.013098511449741052 0 0.00070897576092605722 0.013122235074327061 0 0.00071086232792657363 0.013098511449741052 0 0.00070897576092605722 0.013122235074327061 0 0.00068938628965256523 0.013160687369010819 0 0.00070897576092605722 0.013122235074327061 0 0.00071364026352828511 0.01314776827166517 0 0.00073198241852052959 0.013120055197502102 0 0.00070897576092605722 0.013122235074327061 0 0.00071364026352828511 0.01314776827166517 0 0.00068938628965256523 0.013160687369010819 0 0.00076336078782090881 0.013139611937457595 0 0.00071364026352828511 0.01314776827166517 0 0.00073198241852052959 0.013120055197502102 0 0.00079531209632135069 0.013227029612491692 0 0.00079561879081663006 0.013145202897498209 0 0.00071364026352828511 0.01314776827166517 0 0.00062033828611273421 0.013806249434161533 0 0.00081561979629362746 0.012950141995551657 0 0.00076336078782090881 0.013139611937457595 0 0.00073198241852052959 0.013120055197502102 0 0.00075050072553571546 0.013116279142430817 0 0.00074108533539997477 0.013105475836291935 0 0.00073198241852052959 0.013120055197502102 0 0.00075050072553571546 0.013116279142430817 0 0.00074108533539997477 0.013105475836291935 0 0.00072633242239297194 0.013106269167842187 0 0.00073198241852052959 0.013120055197502102 0 0.00072633242239297194 0.013106269167842187 0 0.00070897576092605722 0.013122235074327061 0 0.00073198241852052959 0.013120055197502102 0 0.0016971525225515495 0.011214515731853033 0 0.0016093399179112908 0.011578571865891805 0 0.0013083840356457712 0.011274636873673353 0 0.0016134585276491088 0.010942578012295048 0 0.0016971525225515495 0.011214515731853033 0 0.0013083840356457712 0.011274636873673353 0 0.0016134585276491088 0.010942578012295048 0 0.0019133311632918391 0.010978348162960805 0 0.0016971525225515495 0.011214515731853033 0 0.0019133311632918391 0.010978348162960805 0 0.0016971525225515495 0.011214515731853033 0 0.0020024331590425288 0.011317485756270585 0 0.0016971525225515495 0.011214515731853033 0 0.0020024331590425288 0.011317485756270585 0 0.0016093399179112908 0.011578571865891805 0 0.0019133311632918391 0.010978348162960805 0 0.0020024331590425288 0.011317485756270585 0 0.00225449872317897 0.011089868776840707 0 0.0021474753580611222 0.010827611034235846 0 0.0019133311632918391 0.010978348162960805 0 0.00225449872317897 0.011089868776840707 0 0.0023207006131849271 0.01089984008089053 0 0.0024362111727746008 0.01097877313437276 0 0.00225449872317897 0.011089868776840707 0 0.0020024331590425288 0.011317485756270585 0 0.00225449872317897 0.011089868776840707 0 0.0022902199724494587 0.011424608440676498 0 0.0025346031555629734 0.011152813683258603 0 0.00225449872317897 0.011089868776840707 0 0.0022902199724494587 0.011424608440676498 0 0.00074640757858010205 0.01311085388357206 0 0.00082411233565519114 0.013062099919558284 0 0.00076102474464914726 0.013031461779679133 0 0.00071086232792657363 0.013098511449741052 0 0.00074640757858010205 0.01311085388357206 0 0.00076102474464914726 0.013031461779679133 0 0.00082411233565519114 0.013062099919558284 0 0.00083621145143618152 0.012934991812621038 0 0.00076102474464914726 0.013031461779679133 0 0.0020024331590425288 0.011317485756270585 0 0.0022902199724494587 0.011424608440676498 0 0.0019725598210135324 0.011742940002859548 0 0.0015186145126247837 0.012262173965688067 0 0.0013951655896829963 0.01240283145132021 0 0.0020024331590425288 0.011317485756270585 0 0.0019725598210135324 0.011742940002859548 0 0.0016093399179112908 0.011578571865891805 0 0.0019725598210135324 0.011742940002859548 0 0.0016093399179112908 0.011578571865891805 0 0.001606056274167485 0.012080668448278844 0 0.0013951655896829963 0.01240283145132021 0 0.001263656652904096 0.012474550175812041 0 0.00082411233565519114 0.013062099919558284 0 0.00095073798119132144 0.012877474280060501 0 0.00083621145143618152 0.012934991812621038 0 0.0016093399179112908 0.011578571865891805 0 0.001606056274167485 0.012080668448278844 0 0.0012671810505364459 0.011791291368613359 0 0.00095073798119132144 0.012877474280060501 0 0.0009838739937593332 0.012604851851917417 0 0.0010922507344081809 0.012459199582191884 0 0.00095073798119132144 0.012877474280060501 0 0.00087298176833163551 0.012805405133632018 0 0.0009838739937593332 0.012604851851917417 0 0.001263656652904096 0.012474550175812041 0 0.0011049874621046165 0.012481399218735069 0 0.00095073798119132144 0.012877474280060501 0 0.00087298176833163551 0.012805405133632018 0 0.00083621145143618152 0.012934991812621038 0 0.00087298176833163551 0.012805405133632018 0 0.00083621145143618152 0.012934991812621038 0 0.00077165458007825071 0.012985367101779175 0 0.00083621145143618152 0.012934991812621038 0 0.00076102474464914726 0.013031461779679133 0 0.00077165458007825071 0.012985367101779175 0 0.00076102474464914726 0.013031461779679133 0 0.00077165458007825071 0.012985367101779175 0 0.00069860286119221703 0.0131260066344621 0 0.00077165458007825071 0.012985367101779175 0 0.00077095211638059037 0.013031951927105871 0 0.00069860286119221703 0.0131260066344621 0 0.00077095211638059037 0.013031951927105871 0 0.00083947809466471471 0.012876233762379374 0 0.00086043946020557119 0.012857483545560128 0 0.00077165458007825071 0.012985367101779175 0 0.00077095211638059037 0.013031951927105871 0 0.00083947809466471471 0.012876233762379374 0 0.00087298176833163551 0.012805405133632018 0 0.00077165458007825071 0.012985367101779175 0 0.00083947809466471471 0.012876233762379374 0 0.00087298176833163551 0.012805405133632018 0 0.00083947809466471471 0.012876233762379374 0 0.00092665167359249647 0.012710363629079322 0 0.00083947809466471471 0.012876233762379374 0 0.00092665167359249647 0.012710363629079322 0 0.00086043946020557119 0.012857483545560128 0 0.00092665167359249647 0.012710363629079322 0 0.00093291119817133397 0.012626386843047739 0 0.00095685848551875638 0.012583084857148754 0 0.00092665167359249647 0.012710363629079322 0 0.0009838739937593332 0.012604851851917417 0 0.00095685848551875638 0.012583084857148754 0 0.00087298176833163551 0.012805405133632018 0 0.00092665167359249647 0.012710363629079322 0 0.0009838739937593332 0.012604851851917417 0 0.00077640032047761787 0.013397203217732953 0 0.00079531209632135069 0.013227029612491692 0 0.00067234477957066991 0.013269037186694282 0 0.00079531209632135069 0.013227029612491692 0 0.00071364026352828511 0.01314776827166517 0 0.00067234477957066991 0.013269037186694282 0 0.00071364026352828511 0.01314776827166517 0 0.00067234477957066991 0.013269037186694282 0 0.00068938628965256523 0.013160687369010819 0 0.00071086232792657363 0.013098511449741052 0 0.00068938628965256523 0.013160687369010819 0 0.00069860286119221703 0.0131260066344621 0 0.00071086232792657363 0.013098511449741052 0 0.00076102474464914726 0.013031461779679133 0 0.00069860286119221703 0.0131260066344621 0 0.00067234477957066991 0.013269037186694282 0 0.00068938628965256523 0.013160687369010819 0 0.00069860286119221703 0.0131260066344621 0 0.00077095211638059037 0.013031951927105871 0 0.00069860286119221703 0.0131260066344621 0 0.00068188752181218065 0.013286458187147038 0 0.00077095211638059037 0.013031951927105871 0 0.00068188752181218065 0.013286458187147038 0 0.00074390229251436891 0.01322536564856468 0 0.00067234477957066991 0.013269037186694282 0 0.00069860286119221703 0.0131260066344621 0 0.00068188752181218065 0.013286458187147038 0 0.00068188752181218065 0.013286458187147038 0 0.00062447294469655638 0.01353582241144982 0 0.00065586991320736596 0.013465119700376773 0 0.00067234477957066991 0.013269037186694282 0 0.00068188752181218065 0.013286458187147038 0 0.00062447294469655638 0.01353582241144982 0 0.00077640032047761787 0.013397203217732953 0 0.00067234477957066991 0.013269037186694282 0 0.00062447294469655638 0.01353582241144982 0 0.00060701096680957636 0.013835043924433009 0 0.00062447294469655638 0.01353582241144982 0 0.00056140579683067226 0.013705792066213968 0 0.00062447294469655638 0.01353582241144982 0 0.00056140579683067226 0.013705792066213968 0 0.00065586991320736596 0.013465119700376773 0 0.00056140579683067226 0.013705792066213968 0 0.00059820137835113918 0.013547475298995498 0 0.00065586991320736596 0.013465119700376773 0 0.00056140579683067226 0.013705792066213968 0 0.00059820137835113918 0.013547475298995498 0 0.00034778506504191671 0.013758922174414405 0 0.00059820137835113918 0.013547475298995498 0 0.00053189725092054165 0.013442864686287217 0 0.00034778506504191671 0.013758922174414405 0 0.00059820137835113918 0.013547475298995498 0 0.00053189725092054165 0.013442864686287217 0 0.00064762571421463284 0.013360287662843329 0 0.00059820137835113918 0.013547475298995498 0 0.00068756201274021314 0.01338709510508067 0 0.00065586991320736596 0.013465119700376773 0 0.00068756201274021314 0.01338709510508067 0 0.00073728558023288242 0.013277964371241515 0 0.00064762571421463284 0.013360287662843329 0 0.00059820137835113918 0.013547475298995498 0 0.00068756201274021314 0.01338709510508067 0 0.00064762571421463284 0.013360287662843329 0 0.00068756201274021314 0.01338709510508067 0 0.00065586991320736596 0.013465119700376773 0 0.00074390229251436891 0.01322536564856468 0 0.00068188752181218065 0.013286458187147038 0 0.00065586991320736596 0.013465119700376773 0 0.00074390229251436891 0.01322536564856468 0 0.00074390229251436891 0.01322536564856468 0 0.00079245246684414789 0.013165426127624495 0 0.00079654794331455612 0.01297287923294746 0 0.00074390229251436891 0.01322536564856468 0 0.00073728558023288242 0.013277964371241515 0 0.00079245246684414789 0.013165426127624495 0 0.00068756201274021314 0.01338709510508067 0 0.00074390229251436891 0.01322536564856468 0 0.00073728558023288242 0.013277964371241515 0 0.00073728558023288242 0.013277964371241515 0 0.00079245246684414789 0.013165426127624495 0 0.00075244565793327017 0.013205815185679887 0 0.00079245246684414789 0.013165426127624495 0 0.00077553406373164283 0.0131720559642569 0 0.00077946287046885322 0.013166671686681588 0 0.00077553406373164283 0.0131720559642569 0 0.00075244565793327017 0.013205815185679887 0 0.00073347427693676618 0.013155711522861175 0 0.00079245246684414789 0.013165426127624495 0 0.00077553406373164283 0.0131720559642569 0 0.00075244565793327017 0.013205815185679887 0 0.00075244565793327017 0.013205815185679887 0 0.00068916877244460458 0.013216513413768163 0 0.00073347427693676618 0.013155711522861175 0 0.00068916877244460458 0.013216513413768163 0 0.00057693836070999717 0.013267797815040923 0 0.00057085453763393323 0.013153032621729368 0 0.00068916877244460458 0.013216513413768163 0 0.00057693836070999717 0.013267797815040923 0 0.00064762571421463284 0.013360287662843329 0 0.00057693836070999717 0.013267797815040923 0 0.00053189725092054165 0.013442864686287217 0 0.00064762571421463284 0.013360287662843329 0 0.00073728558023288242 0.013277964371241515 0 0.00068916877244460458 0.013216513413768163 0 0.00064762571421463284 0.013360287662843329 0 0.00073728558023288242 0.013277964371241515 0 0.00075244565793327017 0.013205815185679887 0 0.00068916877244460458 0.013216513413768163 0 0.00091800475294720734 0.012719679476552516 0 0.00090905222658073967 0.012701648760315362 0 0.00091100749845437177 0.012631100786572163 0 0.00091800475294720734 0.012719679476552516 0 0.00090905222658073967 0.012701648760315362 0 0.00090018423804130406 0.012788876006170338 0 0.00092665167359249647 0.012710363629079322 0 0.00091800475294720734 0.012719679476552516 0 0.00093291119817133397 0.012626386843047739 0 0.00092665167359249647 0.012710363629079322 0 0.00091800475294720734 0.012719679476552516 0 0.00086043946020557119 0.012857483545560128 0 0.00091800475294720734 0.012719679476552516 0 0.00086043946020557119 0.012857483545560128 0 0.00090018423804130406 0.012788876006170338 0 0.00077095211638059037 0.013031951927105871 0 0.00074390229251436891 0.01322536564856468 0 0.00079654794331455612 0.01297287923294746 0 0.00086043946020557119 0.012857483545560128 0 0.00079654794331455612 0.01297287923294746 0 0.00090018423804130406 0.012788876006170338 0 0.00077095211638059037 0.013031951927105871 0 0.00086043946020557119 0.012857483545560128 0 0.00079654794331455612 0.01297287923294746 0 0.00079245246684414789 0.013165426127624495 0 0.00079654794331455612 0.01297287923294746 0 0.00077946287046885322 0.013166671686681588 0 0.00079922023683293923 0.012976261637200925 0 0.00082214958886461418 0.012969269296089396 0 0.0008593724613118898 0.012765398880010138 0 0.00089382987215300667 0.01275479630116489 0 0.00088774745861404272 0.012788941334966568 0 0.00079654794331455612 0.01297287923294746 0 0.0008593724613118898 0.012765398880010138 0 0.00090018423804130406 0.012788876006170338 0 0.00090018423804130406 0.012788876006170338 0 0.00089382987215300667 0.01275479630116489 0 0.00090250823360891108 0.012732854014095399 0 0.0008593724613118898 0.012765398880010138 0 0.00090018423804130406 0.012788876006170338 0 0.00089382987215300667 0.01275479630116489 0 0.00089382987215300667 0.01275479630116489 0 0.00088700440014098159 0.012738468596346654 0 0.00090250823360891108 0.012732854014095399 0 0.00090905222658073967 0.012701648760315362 0 0.00090018423804130406 0.012788876006170338 0 0.00090250823360891108 0.012732854014095399 0 0.00090905222658073967 0.012701648760315362 0 0.00090250823360891108 0.012732854014095399 0 0.0008850840868571756 0.012683043966794453 0 0.00086916532571879469 0.012822918900480786 0 0.00085479085497213564 0.012842994753937229 0 0.00086300693771297935 0.012802035282177113 0 0.00086916532571879469 0.012822918900480786 0 0.0008760007187868453 0.01283423288160798 0 0.00087134549508367765 0.012856919857855786 0 0.00086916532571879469 0.012822918900480786 0 0.00087929627114227975 0.012779514083453075 0 0.0008760007187868453 0.01283423288160798 0 0.00086916532571879469 0.012822918900480786 0 0.00087929627114227975 0.012779514083453075 0 0.00086300693771297935 0.012802035282177113 0 0.00087929627114227975 0.012779514083453075 0 0.00086827810025604966 0.012763058081083183 0 0.00086300693771297935 0.012802035282177113 0 0.00089382987215300667 0.01275479630116489 0 0.00088700440014098159 0.012738468596346654 0 0.00087929627114227975 0.012779514083453075 0 0.00088700440014098159 0.012738468596346654 0 0.00087929627114227975 0.012779514083453075 0 0.00086827810025604966 0.012763058081083183 0 0.00089382987215300667 0.01275479630116489 0 0.00087929627114227975 0.012779514083453075 0 0.00088774745861404272 0.012788941334966568 0 0.00088774745861404272 0.012788941334966568 0 0.0008760007187868453 0.01283423288160798 0 0.00088166076222259216 0.012877751823153691 0 0.00087929627114227975 0.012779514083453075 0 0.00088774745861404272 0.012788941334966568 0 0.0008760007187868453 0.01283423288160798 0 0.00088774745861404272 0.012788941334966568 0 0.00092488560274509924 0.012817322816690868 0 0.00088166076222259216 0.012877751823153691 0 0.0008593724613118898 0.012765398880010138 0 0.00088774745861404272 0.012788941334966568 0 0.00092488560274509924 0.012817322816690868 0 0.00082214958886461418 0.012969269296089396 0 0.00087211182749594596 0.012982325215242523 0 0.00077946287046885322 0.013166671686681588 0 0.00082762399070115012 0.013151018486704105 0 0.00079135262000533022 0.013157622967957019 0 0.00082762399070115012 0.013151018486704105 0 0.00079135262000533022 0.013157622967957019 0 0.00079201040460383416 0.01311426807115891 0 0.00088280343837524099 0.013004539939640654 0 0.00079201040460383416 0.01311426807115891 0 0.00081216965295693067 0.013069506511215558 0 0.00082762399070115012 0.013151018486704105 0 0.00088280343837524099 0.013004539939640654 0 0.00079201040460383416 0.01311426807115891 0 0.00087211182749594596 0.012982325215242523 0 0.00088295323736273018 0.012998380382810051 0 0.00088280343837524099 0.013004539939640654 0 0.00081216965295693067 0.013069506511215558 0 0.00086434472380172544 0.012996025208115009 0 0.00088280343837524099 0.013004539939640654 0 0.00086434472380172544 0.012996025208115009 0 0.00088476827770039357 0.012949983372473918 0 0.00088280343837524099 0.013004539939640654 0 0.00088183180073866442 0.012937095984590526 0 0.00088476827770039357 0.012949983372473918 0 0.00088183180073866442 0.012937095984590526 0 0.00088661960018671581 0.012907325229277729 0 0.00088476827770039357 0.012949983372473918 0 0.00088280343837524099 0.013004539939640654 0 0.00088183180073866442 0.012937095984590526 0 0.00088166076222259216 0.012877751823153691 0 0.00092488560274509924 0.012817322816690868 0 0.00088280343837524099 0.013004539939640654 0 0.00088166076222259216 0.012877751823153691 0 0.00088183180073866442 0.012937095984590526 0 0.00088166076222259216 0.012877751823153691 0 0.0008767688140146145 0.012885412838448193 0 0.0008760007187868453 0.01283423288160798 0 0.00088166076222259216 0.012877751823153691 0 0.0008767688140146145 0.012885412838448193 0 0.0008760007187868453 0.01283423288160798 0 0.0008767688140146145 0.012885412838448193 0 0.00087134549508367765 0.012856919857855786 0 0.0008767688140146145 0.012885412838448193 0 0.00087619816707415964 0.012892773431233755 0 0.00087134549508367765 0.012856919857855786 0 0.0008767688140146145 0.012885412838448193 0 0.00088113720367326298 0.012910001280264809 0 0.00087619816707415964 0.012892773431233755 0 0.00088183180073866442 0.012937095984590526 0 0.0008767688140146145 0.012885412838448193 0 0.00088113720367326298 0.012910001280264809 0 0.00088183180073866442 0.012937095984590526 0 0.00088113720367326298 0.012910001280264809 0 0.00088661960018671581 0.012907325229277729 0 0.00088661960018671581 0.012907325229277729 0 0.0008909621239687667 0.012867826157822518 0 0.00089288607202827816 0.012875275331110938 0 0.00088661960018671581 0.012907325229277729 0 0.00088523509217310525 0.012896181230012833 0 0.0008909621239687667 0.012867826157822518 0 0.00088113720367326298 0.012910001280264809 0 0.00088661960018671581 0.012907325229277729 0 0.00088523509217310525 0.012896181230012833 0 0.00088113720367326298 0.012910001280264809 0 0.00088523509217310525 0.012896181230012833 0 0.00087619816707415964 0.012892773431233755 0 0.00088523509217310525 0.012896181230012833 0 0.00087619816707415964 0.012892773431233755 0 0.00084008220333533546 0.012895957670920168 0 0.00088719400833638985 0.012876109732239427 0 0.00086535469214390169 0.012744206911952648 0 0.00088523509217310525 0.012896181230012833 0 0.00089408078293227945 0.012836043180980979 0 0.00089459015467999246 0.012815827343202706 0 0.00088523509217310525 0.012896181230012833 0 0.0008909621239687667 0.012867826157822518 0 0.00089408078293227945 0.012836043180980979 0 0.0008909621239687667 0.012867826157822518 0 0.00089408078293227945 0.012836043180980979 0 0.00089288607202827816 0.012875275331110938 0 0.00089408078293227945 0.012836043180980979 0 0.00089459015467999246 0.012815827343202706 0 0.0008875103028271711 0.012775906535073812 0 0.00087641402659407975 0.01288684747627665 0 0.00084331989225246888 0.01284285124812719 0 0.00087619816707415964 0.012892773431233755 0 0.00087134549508367765 0.012856919857855786 0 0.00085479085497213564 0.012842994753937229 0 0.00087619816707415964 0.012892773431233755 0 0.00084008220333533546 0.012895957670920168 0 0.00083138535627444552 0.012842887574450871 0 0.00086916532571879469 0.012822918900480786 0 0.00087134549508367765 0.012856919857855786 0 0.00085479085497213564 0.012842994753937229 0 0.0007352885172015823 0.013112062492610058 0 0.0006565397371545731 0.013071193352809329 0 0.00067962023014500801 0.013139669498941343 0 0.0007352885172015823 0.013112062492610058 0 0.00078070209944271381 0.013128178876806222 0 0.00074837961011179764 0.013136350637331897 0 0.00071728500444157104 0.01314010468408811 0 0.00057868990252091322 0.013516046871028536 0 0.00057868990252091322 0.013516046871028536 0 0.00050228331259375054 0.013414913211311623 0 0.00041764283893574891 0.013790910509422452 0 0.00040703735827429317 0.01381487203969182 0 0.00039553987789471784 0.013812212693312226 0 0.00068916877244460458 0.013216513413768163 0 0.00057085453763393323 0.013153032621729368 0 0.00067962023014500801 0.013139669498941343 0 0.0006565397371545731 0.013071193352809329 0 0.00057085453763393323 0.013153032621729368 0 0.00067962023014500801 0.013139669498941343 0 0.0007352885172015823 0.013112062492610058 0 0.00073347427693676618 0.013155711522861175 0 0.00067962023014500801 0.013139669498941343 0 0.00068916877244460458 0.013216513413768163 0 0.00073347427693676618 0.013155711522861175 0 0.00067962023014500801 0.013139669498941343 0 0.00077553406373164283 0.0131720559642569 0 0.00073347427693676618 0.013155711522861175 0 0.00075978881491141825 0.013131244143595348 0 0.00077553406373164283 0.0131720559642569 0 0.00077946287046885322 0.013166671686681588 0 0.00079135262000533022 0.013157622967957019 0 0.00077553406373164283 0.0131720559642569 0 0.00079135262000533022 0.013157622967957019 0 0.00075978881491141825 0.013131244143595348 0 0.00075978881491141825 0.013131244143595348 0 0.00079201040460383416 0.01311426807115891 0 0.00076333586082425484 0.013125603952184595 0 0.00079135262000533022 0.013157622967957019 0 0.00075978881491141825 0.013131244143595348 0 0.00079201040460383416 0.01311426807115891 0 0.0007352885172015823 0.013112062492610058 0 0.00075978881491141825 0.013131244143595348 0 0.00074837961011179764 0.013136350637331897 0 0.0007352885172015823 0.013112062492610058 0 0.00073347427693676618 0.013155711522861175 0 0.00075978881491141825 0.013131244143595348 0 0.00075978881491141825 0.013131244143595348 0 0.00074837961011179764 0.013136350637331897 0 0.00076333586082425484 0.013125603952184595 0 0.00074837961011179764 0.013136350637331897 0 0.00076333586082425484 0.013125603952184595 0 0.00074702142021144914 0.013178737925646788 0 0.00079201040460383416 0.01311426807115891 0 0.00076333586082425484 0.013125603952184595 0 0.00081216965295693067 0.013069506511215558 0 0.00076333586082425484 0.013125603952184595 0 0.00081216965295693067 0.013069506511215558 0 0.00074702142021144914 0.013178737925646788 0 0.00081216965295693067 0.013069506511215558 0 0.00074702142021144914 0.013178737925646788 0 0.0007953161368752143 0.013089188641314477 0 0.00075174704431446885 0.013299807455443164 0 0.00066898334517310478 0.013776329771367392 0 0.00045248869133072386 0.013530908199737813 0 0.00075354486342696803 0.013331455491432132 0 0.00071377544518580493 0.013478279119322497 0 0.00074702142021144914 0.013178737925646788 0 0.00075174704431446885 0.013299807455443164 0 0.00078006670623112224 0.01317170768801689 0 0.00074837961011179764 0.013136350637331897 0 0.00074702142021144914 0.013178737925646788 0 0.00078006670623112224 0.01317170768801689 0 0.00078070209944271381 0.013128178876806222 0 0.00074837961011179764 0.013136350637331897 0 0.00078006670623112224 0.01317170768801689 0 0.00057868990252091322 0.013516046871028536 0 0.00071377544518580493 0.013478279119322497 0 0.00054393442013995553 0.014072853978762758 0 0.00039328625220095306 0.013834191608609532 0 0.0001859868363302323 0.013957908260136117 0 0.00057868990252091322 0.013516046871028536 0 0.00026197454461886178 0.014055795915114478 0 0.00054393442013995553 0.014072853978762758 0 0.00066898334517310478 0.013776329771367392 0 0.00039328625220095306 0.013834191608609532 0 0.00066898334517310478 0.013776329771367392 0 0.00039328625220095306 0.013834191608609532 0 0.00045248869133072386 0.013530908199737813 0 0.00045248869133072386 0.013530908199737813 0 0.00024569790056864783 0.013580734842516059 0 0.00017464400868943641 0.013842980552818332 0 0.00039328625220095306 0.013834191608609532 0 0.00045248869133072386 0.013530908199737813 0 0.00017464400868943641 0.013842980552818332 0 0.00024569790056864783 0.013580734842516059 0 3.8377123729348194e-05 0.013884611288448197 0 0.00011947512896683858 0.013319751427452869 0 0.00024569790056864783 0.013580734842516059 0 0.00017464400868943641 0.013842980552818332 0 3.8377123729348194e-05 0.013884611288448197 0 3.8377123729348194e-05 0.013884611288448197 0 -0.00010344298485107152 0.014041839586151557 0 0.00011947512896683858 0.013319751427452869 0 3.8377123729348194e-05 0.013884611288448197 0 -9.4263297823569099e-05 0.014012034195222057 0 -0.00010344298485107152 0.014041839586151557 0 0.00017804540497214484 0.014367123214530916 0 0.000172436727968463 0.014403167661147643 0 0.00017876296208093207 0.014408138144416983 0 2.8993194462903335e-05 0.0142019821943792 0 0.00026197454461886178 0.014055795915114478 0 3.8377123729348194e-05 0.013884611288448197 0 -9.4263297823569099e-05 0.014012034195222057 0 0.00016804182816205343 0.014058287706255161 0 0.00017804540497214484 0.014367123214530916 0 0.000172436727968463 0.014403167661147643 0 0.00015029157530315436 0.014414340414105265 0 0.00039328625220095306 0.013834191608609532 0 0.00017464400868943641 0.013842980552818332 0 0.0001859868363302323 0.013957908260136117 0 0.00017464400868943641 0.013842980552818332 0 3.8377123729348194e-05 0.013884611288448197 0 0.00016804182816205343 0.014058287706255161 0 0.00019135128398910605 0.013859374987289596 0 0.00026197454461886178 0.014055795915114478 0 0.00026197454461886178 0.014055795915114478 0 0.00026784134552515032 0.014149178174700633 0 0.00041764283893574891 0.013790910509422452 0 0.00039470288106201954 0.013786416149817605 0 0.00039553987789471784 0.013812212693312226 0 0.00017876296208093207 0.014408138144416983 0 0.00016615628835409376 0.014422337865366288 0 0.00014027062754921117 0.01440454175669051 0 0.000172436727968463 0.014403167661147643 0 0.00017876296208093207 0.014408138144416983 0 0.00016615628835409376 0.014422337865366288 0 0.000172436727968463 0.014403167661147643 0 0.00016615628835409376 0.014422337865366288 0 0.00015029157530315436 0.014414340414105265 0 0.00014027062754921117 0.01440454175669051 0 0.00018129913734299586 0.014398202454587195 0 0.00018506914402016057 0.014302626014939741 0 0.00016615628835409376 0.014422337865366288 0 0.00014027062754921117 0.01440454175669051 0 0.00018129913734299586 0.014398202454587195 0 0.00012589201729680476 0.014467667649450167 0 7.9277785958201957e-05 0.014566149904369512 0 0.0001484397192771933 0.01444856192275493 0 0.00016615628835409376 0.014422337865366288 0 0.00018129913734299586 0.014398202454587195 0 0.00012589201729680476 0.014467667649450167 0 0.00018129913734299586 0.014398202454587195 0 0.00012589201729680476 0.014467667649450167 0 0.0001484397192771933 0.01444856192275493 0 0.00016615628835409376 0.014422337865366288 0 0.00012589201729680476 0.014467667649450167 0 0.00015029157530315436 0.014414340414105265 0 0.00012589201729680476 0.014467667649450167 0 0.00015029157530315436 0.014414340414105265 0 0.00010779354046769186 0.014392292147903411 0 0.00012589201729680476 0.014467667649450167 0 5.5914915627674246e-05 0.014415169541547663 0 7.0276056079841579e-05 0.014490982638755966 0 0.00012589201729680476 0.014467667649450167 0 7.0276056079841579e-05 0.014490982638755966 0 7.9277785958201957e-05 0.014566149904369512 0 0.00012589201729680476 0.014467667649450167 0 5.5914915627674246e-05 0.014415169541547663 0 0.00010779354046769186 0.014392292147903411 0 5.5914915627674246e-05 0.014415169541547663 0 3.7730667269778033e-05 0.014247064280346878 0 1.9651950976715488e-05 0.014358433466201866 0 5.5914915627674246e-05 0.014415169541547663 0 0.00010779354046769186 0.014392292147903411 0 3.7730667269778033e-05 0.014247064280346878 0 0.00017804540497214484 0.014367123214530916 0 0.00010779354046769186 0.014392292147903411 0 3.7730667269778033e-05 0.014247064280346878 0 0.00017804540497214484 0.014367123214530916 0 0.00015029157530315436 0.014414340414105265 0 0.00010779354046769186 0.014392292147903411 0 -0.00010344298485107152 0.014041839586151557 0 3.7730667269778033e-05 0.014247064280346878 0 -2.8070074211543324e-05 0.014259361026935851 0 2.8993194462903335e-05 0.0142019821943792 0 2.5387370365048823e-05 0.01422474677087191 0 -9.4263297823569099e-05 0.014012034195222057 0 -0.00010344298485107152 0.014041839586151557 0 3.7730667269778033e-05 0.014247064280346878 0 -0.00010344298485107152 0.014041839586151557 0 -0.00010322182557970479 0.014234047026205482 0 -2.8070074211543324e-05 0.014259361026935851 0 3.7730667269778033e-05 0.014247064280346878 0 1.9651950976715488e-05 0.014358433466201866 0 -1.4840423885823306e-06 0.014289714808750659 0 3.7730667269778033e-05 0.014247064280346878 0 -2.8070074211543324e-05 0.014259361026935851 0 -1.4840423885823306e-06 0.014289714808750659 0 1.9651950976715488e-05 0.014358433466201866 0 -2.0496740864150991e-05 0.014374763030062377 0 3.6215386012988065e-05 0.014514214796788896 0 1.9651950976715488e-05 0.014358433466201866 0 -2.0496740864150991e-05 0.014374763030062377 0 -2.4836317682885512e-05 0.014317287972546174 0 1.9651950976715488e-05 0.014358433466201866 0 -1.4840423885823306e-06 0.014289714808750659 0 -2.4836317682885512e-05 0.014317287972546174 0 -2.0496740864150991e-05 0.014374763030062377 0 -8.9735798475138704e-05 0.014439865207612443 0 -6.0266048555223029e-05 0.014317935810150024 0 -2.0496740864150991e-05 0.014374763030062377 0 3.6215386012988065e-05 0.014514214796788896 0 -8.9735798475138704e-05 0.014439865207612443 0 3.6215386012988065e-05 0.014514214796788896 0 -8.9735798475138704e-05 0.014439865207612443 0 -4.8264929944537002e-05 0.014794756206816131 0 5.5914915627674246e-05 0.014415169541547663 0 3.6215386012988065e-05 0.014514214796788896 0 7.0276056079841579e-05 0.014490982638755966 0 5.5914915627674246e-05 0.014415169541547663 0 1.9651950976715488e-05 0.014358433466201866 0 3.6215386012988065e-05 0.014514214796788896 0 -4.3905551066382549e-05 0.014977979450345813 0 6.6744275125266072e-08 0.014999810000207257 0 -3.283172001140315e-08 0.015000045883124841 0 -6.037096346479283e-05 0.014708051450208901 0 -5.3057061093104822e-05 0.014776788265510776 0 -4.3905551066382549e-05 0.014977979450345813 0 6.6744275125266072e-08 0.014999810000207257 0 -4.8264929944537002e-05 0.014794756206816131 0 6.6744275125266072e-08 0.014999810000207257 0 -4.8264929944537002e-05 0.014794756206816131 0 -1.0296969579035243e-07 0.014999810299126056 0 1.0948633536503114e-05 0.014823502882446283 0 1.6977939275502994e-05 0.01468938852700255 0 4.8541708463248734e-05 0.014679652443786618 0 -4.8264929944537002e-05 0.014794756206816131 0 1.0948633536503114e-05 0.014823502882446283 0 1.6977939275502994e-05 0.01468938852700255 0 -4.8264929944537002e-05 0.014794756206816131 0 1.0948633536503114e-05 0.014823502882446283 0 -1.0296969579035243e-07 0.014999810299126056 0 3.6215386012988065e-05 0.014514214796788896 0 7.0276056079841579e-05 0.014490982638755966 0 7.9277785958201957e-05 0.014566149904369512 0 3.6215386012988065e-05 0.014514214796788896 0 -4.8264929944537002e-05 0.014794756206816131 0 1.6977939275502994e-05 0.01468938852700255 0 3.6215386012988065e-05 0.014514214796788896 0 1.6977939275502994e-05 0.01468938852700255 0 7.9277785958201957e-05 0.014566149904369512 0 1.6977939275502994e-05 0.01468938852700255 0 7.9277785958201957e-05 0.014566149904369512 0 4.8541708463248734e-05 0.014679652443786618 0 7.9277785958201957e-05 0.014566149904369512 0 9.0671368409582246e-05 0.014562088908256832 0 4.8541708463248734e-05 0.014679652443786618 0 7.9277785958201957e-05 0.014566149904369512 0 9.0671368409582246e-05 0.014562088908256832 0 0.0001484397192771933 0.01444856192275493 0 9.0671368409582246e-05 0.014562088908256832 0 8.30525063744048e-05 0.014573311383684926 0 0.0001484397192771933 0.01444856192275493 0 9.0671368409582246e-05 0.014562088908256832 0 4.8541708463248734e-05 0.014679652443786618 0 8.30525063744048e-05 0.014573311383684926 0 4.8541708463248734e-05 0.014679652443786618 0 8.30525063744048e-05 0.014573311383684926 0 3.3692052013414967e-05 0.014769303132501202 0 8.30525063744048e-05 0.014573311383684926 0 0.00012982464441002334 0.014366313882908217 0 0.0001484397192771933 0.01444856192275493 0 1.0948633536503114e-05 0.014823502882446283 0 3.3692052013414967e-05 0.014769303132501202 0 3.0132077340540723e-07 0.01499920699199339 0 1.0948633536503114e-05 0.014823502882446283 0 -1.0296969579035243e-07 0.014999810299126056 0 3.0132077340540723e-07 0.01499920699199339 0 1.0948633536503114e-05 0.014823502882446283 0 4.8541708463248734e-05 0.014679652443786618 0 3.3692052013414967e-05 0.014769303132501202 0 8.30525063744048e-05 0.014573311383684926 0 3.3692052013414967e-05 0.014769303132501202 0 5.9693704338699953e-05 0.014654302678171796 0 3.3692052013414967e-05 0.014769303132501202 0 2.8246780554501866e-05 0.014781634988434204 0 5.9693704338699953e-05 0.014654302678171796 0 3.0132077340540723e-07 0.01499920699199339 0 2.8246780554501866e-05 0.014781634988434204 0 5.0265214687347809e-05 0.014681697559964197 0 3.3692052013414967e-05 0.014769303132501202 0 3.0132077340540723e-07 0.01499920699199339 0 2.8246780554501866e-05 0.014781634988434204 0 1.0428500339258003e-08 0.014999929367231213 0 1.5915221418116707e-05 0.014843075765469416 0 2.1966622528005759e-09 0.014999999058467248 0 -3.9361190649662189e-09 0.015000001185318794 0 -8.028517111999033e-07 0.015000282096071807 0 2.8246780554501866e-05 0.014781634988434204 0 5.0265214687347809e-05 0.014681697559964197 0 5.9693704338699953e-05 0.014654302678171796 0 5.0265214687347809e-05 0.014681697559964197 0 5.9693704338699953e-05 0.014654302678171796 0 4.7398214519902428e-05 0.014692215720104396 0 5.9693704338699953e-05 0.014654302678171796 0 4.7398214519902428e-05 0.014692215720104396 0 7.7617169854768934e-05 0.014698863872331143 0 1.3251348171175551e-05 0.014723642147661418 0 5.0265214687347809e-05 0.014681697559964197 0 4.7398214519902428e-05 0.014692215720104396 0 -9.1324103707702665e-06 0.014997047747205118 0 6.9700020143620371e-09 0.015000000835574902 0 -8.028517111999033e-07 0.015000282096071807 0 6.9700020143620371e-09 0.015000000835574902 0 -3.9361190649662189e-09 0.015000001185318794 0 -8.028517111999033e-07 0.015000282096071807 0 7.3810376532652393e-06 0.014863048715509176 0 1.5915221418116707e-05 0.014843075765469416 0 0.00012982464441002334 0.014366313882908217 0 9.387739226177918e-05 0.014454956469775081 0 0.00010460995711522619 0.014302185890282905 0 8.30525063744048e-05 0.014573311383684926 0 0.00012982464441002334 0.014366313882908217 0 9.387739226177918e-05 0.014454956469775081 0 8.30525063744048e-05 0.014573311383684926 0 5.9693704338699953e-05 0.014654302678171796 0 9.387739226177918e-05 0.014454956469775081 0 6.6859635826793578e-05 0.01462677528005321 0 8.2928843571533186e-05 0.014533574310282443 0 5.9693704338699953e-05 0.014654302678171796 0 9.387739226177918e-05 0.014454956469775081 0 0.00011485481362545578 0.014356361334583258 0 5.1172631203929928e-05 0.014715277625716915 0 4.7398214519902428e-05 0.014692215720104396 0 7.7617169854768934e-05 0.014698863872331143 0 9.387739226177918e-05 0.014454956469775081 0 0.00011485481362545578 0.014356361334583258 0 0.00010460995711522619 0.014302185890282905 0 0.00015656345474070004 0.014259925012095892 0 0.00010460995711522619 0.014302185890282905 0 0.00021739461035713323 0.014143105548402861 0 0.00012982464441002334 0.014366313882908217 0 0.00010460995711522619 0.014302185890282905 0 0.00021739461035713323 0.014143105548402861 0 0.00012982464441002334 0.014366313882908217 0 0.0002139217016242839 0.014216723408716688 0 0.00021739461035713323 0.014143105548402861 0 0.0002139217016242839 0.014216723408716688 0 0.00021739461035713323 0.014143105548402861 0 0.00028651104699099479 0.014027264796001325 0 0.0002139217016242839 0.014216723408716688 0 0.00028651104699099479 0.014027264796001325 0 0.00026249459358213212 0.014117659674185686 0 0.00021739461035713323 0.014143105548402861 0 0.00033161984909912788 0.014030678783381444 0 0.00028651104699099479 0.014027264796001325 0 0.00015656345474070004 0.014259925012095892 0 0.00021739461035713323 0.014143105548402861 0 0.00033161984909912788 0.014030678783381444 0 0.00060701096680957636 0.013835043924433009 0 0.00033161984909912788 0.014030678783381444 0 0.00040355023338010059 0.013862559990844783 0 0.00033161984909912788 0.014030678783381444 0 0.00040355023338010059 0.013862559990844783 0 0.00028651104699099479 0.014027264796001325 0 0.00060701096680957636 0.013835043924433009 0 0.00056140579683067226 0.013705792066213968 0 0.00040355023338010059 0.013862559990844783 0 0.00056140579683067226 0.013705792066213968 0 0.00040355023338010059 0.013862559990844783 0 0.00034778506504191671 0.013758922174414405 0 0.00034778506504191671 0.013758922174414405 0 0.00026506960125769076 0.014010063430371079 0 8.1798146905829046e-05 0.014247235552619943 0 0.00040355023338010059 0.013862559990844783 0 0.00034778506504191671 0.013758922174414405 0 0.00031730036720980674 0.013933897386112828 0 0.00034778506504191671 0.013758922174414405 0 0.00026506960125769076 0.014010063430371079 0 0.00031730036720980674 0.013933897386112828 0 0.00040355023338010059 0.013862559990844783 0 0.00028651104699099479 0.014027264796001325 0 0.00031730036720980674 0.013933897386112828 0 0.00026506960125769076 0.014010063430371079 0 0.00031730036720980674 0.013933897386112828 0 0.00026249459358213212 0.014117659674185686 0 0.00028651104699099479 0.014027264796001325 0 0.00031730036720980674 0.013933897386112828 0 0.00026249459358213212 0.014117659674185686 0 0.00026249459358213212 0.014117659674185686 0 0.00022582313186484139 0.014188456891586805 0 0.00021200096456542604 0.014285519813658274 0 0.00026506960125769076 0.014010063430371079 0 0.00026249459358213212 0.014117659674185686 0 0.00022582313186484139 0.014188456891586805 0 0.00022582313186484139 0.014188456891586805 0 0.00012695134080832865 0.014203074970347883 0 0.00018506914402016057 0.014302626014939741 0 0.00022582313186484139 0.014188456891586805 0 0.00018506914402016057 0.014302626014939741 0 0.00021200096456542604 0.014285519813658274 0 0.00031033474579263642 0.013763881723776379 0 0.00029814317634520613 0.013860638617533106 0 0.00053189725092054165 0.013442864686287217 0 0.00034778506504191671 0.013758922174414405 0 0.00038300022218389361 0.0133250802763641 0 0.00019715198597453602 0.014113009434946543 0 0.00029814317634520613 0.013860638617533106 0 0.00026506960125769076 0.014010063430371079 0 0.00022582313186484139 0.014188456891586805 0 0.00012695134080832865 0.014203074970347883 0 0.00057693836070999717 0.013267797815040923 0 0.00053189725092054165 0.013442864686287217 0 0.00038300022218389361 0.0133250802763641 0 0.00057693836070999717 0.013267797815040923 0 0.00057085453763393323 0.013153032621729368 0 0.00038300022218389361 0.0133250802763641 0 0.00040703735827429317 0.01381487203969182 0 0.00039553987789471784 0.013812212693312226 0 0.0003938993496290441 0.013840220020478021 0 0.00026784134552515032 0.014149178174700633 0 0.00029814317634520613 0.013860638617533106 0 0.00014027062754921117 0.01440454175669051 0 0.00012695134080832865 0.014203074970347883 0 0.00018506914402016057 0.014302626014939741 0 0.00050228331259375054 0.013414913211311623 0 0.00029814317634520613 0.013860638617533106 0 0.00018129913734299586 0.014398202454587195 0 0.00018506914402016057 0.014302626014939741 0 0.00021200096456542604 0.014285519813658274 0 0.00018129913734299586 0.014398202454587195 0 0.0001484397192771933 0.01444856192275493 0 0.00021200096456542604 0.014285519813658274 0 0.00012982464441002334 0.014366313882908217 0 0.0002139217016242839 0.014216723408716688 0 0.0001484397192771933 0.01444856192275493 0 0.0002139217016242839 0.014216723408716688 0 0.0001484397192771933 0.01444856192275493 0 0.00021200096456542604 0.014285519813658274 0 0.0002139217016242839 0.014216723408716688 0 0.00026249459358213212 0.014117659674185686 0 0.00021200096456542604 0.014285519813658274 0 -0.00025227168763179784 0.0028360406800160341 0 0.00020850854892111225 0.0026290472613125205 0 -0.00054425951741592885 0.0024279245199567969 0 -0.00025227168763179784 0.0028360406800160341 0 -0.00067086831029614167 0.0027610180410657212 0 -0.00054425951741592885 0.0024279245199567969 0 0.00030499301325591236 0.0023049327366787076 0 -0.00046673497891935758 0.0026128796478123301 0 -0.00094880826367407681 0.0025392609368898957 0 -0.00067086831029614167 0.0027610180410657212 0 -0.0011241031236851949 0.0030165909792329543 0 -0.00094880826367407681 0.0025392609368898957 0 -0.00067086831029614167 0.0027610180410657212 0 -0.00054425951741592885 0.0024279245199567969 0 -0.00057490526950317066 0.0030773052417807545 0 -0.0013221362186732347 0.0027524138155730913 0 -0.0010173938830655386 0.0034079086437741562 0 -0.00067086831029614167 0.0027610180410657212 0 -0.00057490526950317066 0.0030773052417807545 0 -0.0011241031236851949 0.0030165909792329543 0 -0.00063382760495300479 0.0030496125710907001 0 -0.0012265031757219232 0.0029006589574848366 0 -0.00025227168763179784 0.0028360406800160341 0 -0.00067086831029614167 0.0027610180410657212 0 -0.00057490526950317066 0.0030773052417807545 0 -0.00025227168763179784 0.0028360406800160341 0 -0.00057490526950317066 0.0030773052417807545 0 -5.2844801895222199e-05 0.0032538373008432387 0 -0.00057490526950317066 0.0030773052417807545 0 -5.2844801895222199e-05 0.0032538373008432387 0 -0.00035260978377446507 0.0035745221401338543 0 -5.2844801895222199e-05 0.0032538373008432387 0 0.00043174715102210152 0.0031584445084167378 0 0.00043775357248126138 0.0035463716124581671 0 -5.2844801895222199e-05 0.0032538373008432387 0 8.0606530977789983e-05 0.0029696315999563272 0 0.00043174715102210152 0.0031584445084167378 0 8.0606530977789983e-05 0.0029696315999563272 0 0.00043174715102210152 0.0031584445084167378 0 0.00020850854892111225 0.0026290472613125205 0 -0.00025227168763179784 0.0028360406800160341 0 -5.2844801895222199e-05 0.0032538373008432387 0 8.0606530977789983e-05 0.0029696315999563272 0 0.00043174715102210152 0.0031584445084167378 0 0.0007682385307517058 0.0030854105807217778 0 0.00020850854892111225 0.0026290472613125205 0 0.00071956025414266476 0.0033274407847724216 0 0.00043174715102210152 0.0031584445084167378 0 0.0007682385307517058 0.0030854105807217778 0 0.00071956025414266476 0.0033274407847724216 0 0.00043174715102210152 0.0031584445084167378 0 0.00043775357248126138 0.0035463716124581671 0 0.00082743630063154903 0.002811015651138114 0 0.00039648503937319798 0.003022801503713494 0 0.0014751919484587137 0.0035491316152612643 0 0.00030499301325591236 0.0023049327366787076 0 0.00075606515712318305 0.0066533531830540414 0 0.0007682385307517058 0.0030854105807217778 0 0.00020850854892111225 0.0026290472613125205 0 0.0010427127319558183 0.0029760915874022238 0 0.00082743630063154903 0.002811015651138114 0 0.0014751919484587137 0.0035491316152612643 0 0.0012012989199484136 0.0027373083861243165 0 -0.00025227168763179784 0.0028360406800160341 0 8.0606530977789983e-05 0.0029696315999563272 0 0.00020850854892111225 0.0026290472613125205 0 0.00039648503937319798 0.003022801503713494 0 0.00054881313877768714 0.0025336714203250663 0 -8.4411675375263163e-05 0.0024496376647126401 0 0.00054881313877768714 0.0025336714203250663 0 0.00081202051872302156 0.0020487010583981977 0 -8.4411675375263163e-05 0.0024496376647126401 0 0.00065094281269764459 0.0020058193991801033 0 0.00019971842562173275 0.0021008219544974872 0 -8.4411675375263163e-05 0.0024496376647126401 0 0.00089484183270419049 0.0036115891577461596 0 3.2906371324271722e-06 0.0019682988411041575 0 0.00085416866341935817 0.0024134574782060168 0 0.00090674272765955261 0.0019928581562390674 0 0.0012012989199484136 0.0027373083861243165 0 -8.9838445929303292e-05 0.0065030698701412397 0 0.00096467926785329171 0.0078218665415040935 0 0.00082743630063154903 0.002811015651138114 0 0.00085416866341935817 0.0024134574782060168 0 0.0012012989199484136 0.0027373083861243165 0 0.00082743630063154903 0.002811015651138114 0 0.00039648503937319798 0.003022801503713494 0 0.00054881313877768714 0.0025336714203250663 0 0.00082743630063154903 0.002811015651138114 0 0.00054881313877768714 0.0025336714203250663 0 0.00085416866341935817 0.0024134574782060168 0 0.00054881313877768714 0.0025336714203250663 0 0.00085416866341935817 0.0024134574782060168 0 0.00081202051872302156 0.0020487010583981977 0 0.00085416866341935817 0.0024134574782060168 0 0.00090674272765955261 0.0019928581562390674 0 0.00081202051872302156 0.0020487010583981977 0 -8.9838445929303292e-05 0.0065030698701412397 0 0.00089484183270419049 0.0036115891577461596 0 0.00071484469225387343 0.0019834723476513305 0 0.00063302755265736408 0.0020270794599504278 0 0.00061581001868594651 0.0016914174341489366 0 0.00063302755265736408 0.0020270794599504278 0 0.0002858790153404307 0.0018008046006042302 0 0.00061581001868594651 0.0016914174341489366 0 -8.9838445929303292e-05 0.0065030698701412397 0 -0.00052577172624056895 0.004214653115819777 0 -0.00045806386745001138 0.0057767353629185622 0 -0.00059429435076422939 0.0053836123488405661 0 -0.0005231988283210475 0.0054143544759564979 0 0.00063302755265736408 0.0020270794599504278 0 0.00019971842562173275 0.0021008219544974872 0 0.0002858790153404307 0.0018008046006042302 0 0.00089484183270419049 0.0036115891577461596 0 0.00032037716649814996 0.002235182851019364 0 0.00019971842562173275 0.0021008219544974872 0 0.0002858790153404307 0.0018008046006042302 0 -8.9749214788278212e-05 0.0018150581808565175 0 0.00019971842562173275 0.0021008219544974872 0 -8.9749214788278212e-05 0.0018150581808565175 0 -0.0002902974162143628 0.0021362302736826788 0 -8.9749214788278212e-05 0.0018150581808565175 0 -0.00040026042911254199 0.0018819249166107358 0 -0.00042183251803179977 0.0016016452716762592 0 -0.00040026042911254199 0.0018819249166107358 0 -0.0002902974162143628 0.0021362302736826788 0 -0.00059486840304023131 0.0020446987243191543 0 -8.9749214788278212e-05 0.0018150581808565175 0 -0.00040026042911254199 0.0018819249166107358 0 -0.0002902974162143628 0.0021362302736826788 0 0.00039648503937319798 0.003022801503713494 0 -8.4411675375263163e-05 0.0024496376647126401 0 -0.00054425951741592885 0.0024279245199567969 0 0.00019971842562173275 0.0021008219544974872 0 -0.0002902974162143628 0.0021362302736826788 0 -8.4411675375263163e-05 0.0024496376647126401 0 -0.0002902974162143628 0.0021362302736826788 0 -0.00054425951741592885 0.0024279245199567969 0 -0.00059486840304023131 0.0020446987243191543 0 -0.0002902974162143628 0.0021362302736826788 0 -8.4411675375263163e-05 0.0024496376647126401 0 -0.00054425951741592885 0.0024279245199567969 0 -0.00094880826367407681 0.0025392609368898957 0 -0.00054425951741592885 0.0024279245199567969 0 -0.00088408703825557696 0.0021468630726244743 0 -0.00054425951741592885 0.0024279245199567969 0 -0.00088408703825557696 0.0021468630726244743 0 -0.00059486840304023131 0.0020446987243191543 0 -0.00088408703825557696 0.0021468630726244743 0 -0.00059486840304023131 0.0020446987243191543 0 -0.0007271002501031957 0.0017134948830405201 0 -0.00040026042911254199 0.0018819249166107358 0 -0.00059486840304023131 0.0020446987243191543 0 -0.0007271002501031957 0.0017134948830405201 0 -0.00040026042911254199 0.0018819249166107358 0 -0.0007271002501031957 0.0017134948830405201 0 -0.00042183251803179977 0.0016016452716762592 0 -0.00088408703825557696 0.0021468630726244743 0 -0.0007271002501031957 0.0017134948830405201 0 -0.0010511017325713883 0.0017595680252349003 0 -0.0010511017325713883 0.0017595680252349003 0 -0.0014707201933414115 0.001792485923024432 0 -0.0011996970725744582 0.0022177577988564089 0 -0.00088408703825557696 0.0021468630726244743 0 -0.0010511017325713883 0.0017595680252349003 0 -0.0011996970725744582 0.0022177577988564089 0 -0.0010511017325713883 0.0017595680252349003 0 -0.0014707201933414115 0.001792485923024432 0 -0.001312478065639007 0.0014468818439940761 0 -0.0014707201933414115 0.001792485923024432 0 -0.0015309910221252639 0.0021620918353030647 0 -0.0019298736917790968 0.0018198892943218107 0 -0.0014707201933414115 0.001792485923024432 0 -0.0019298736917790968 0.0018198892943218107 0 -0.0018851554376340749 0.0013858962974230378 0 -0.0014707201933414115 0.001792485923024432 0 -0.0015309910221252639 0.0021620918353030647 0 -0.0011996970725744582 0.0022177577988564089 0 -0.0015309910221252639 0.0021620918353030647 0 -0.0019648292370606142 0.0025038880365317435 0 -0.0016460164255423929 0.0025417514085699605 0 -0.0015309910221252639 0.0021620918353030647 0 -0.0013570344864906147 0.0026001889359791586 0 -0.0016460164255423929 0.0025417514085699605 0 -0.00094880826367407681 0.0025392609368898957 0 -0.0011996970725744582 0.0022177577988564089 0 -0.0013570344864906147 0.0026001889359791586 0 -0.0015309910221252639 0.0021620918353030647 0 -0.0011996970725744582 0.0022177577988564089 0 -0.0013570344864906147 0.0026001889359791586 0 -0.00094880826367407681 0.0025392609368898957 0 -0.00088408703825557696 0.0021468630726244743 0 -0.0011996970725744582 0.0022177577988564089 0 -0.0023716698067710673 0.00078590559472608049 0 -0.0022229846476429318 0.001045011966226986 0 -0.0025333945018310481 0.0010168506438992303 0 -0.0023866026632826101 0.000541464868443971 0 -0.0021852637832147533 0.0017659109093892593 0 -0.0015309910221252639 0.0021620918353030647 0 -0.0019298736917790968 0.0018198892943218107 0 -0.0022789445301775791 0.002101936858554916 0 -0.0025272340499346551 0.0016650122519809712 0 -0.0019298736917790968 0.0018198892943218107 0 -0.0022789445301775791 0.002101936858554916 0 -0.0015309910221252639 0.0021620918353030647 0 -0.0020968098675331437 0.0022108771434851088 0 -0.0021929023967919292 0.0021097288473975804 0 -0.0015856453197470456 0.0022319927090588051 0 -0.0021852637832147533 0.0017659109093892593 0 -0.0015309910221252639 0.0021620918353030647 0 -0.0019648292370606142 0.0025038880365317435 0 -0.0020968098675331437 0.0022108771434851088 0 -0.0020062580025160758 0.0021491522887223551 0 -0.0021852637832147533 0.0017659109093892593 0 -0.0020569347289916434 0.0017776430994201578 0 -0.0022709414965458195 0.0014146927166233231 0 -0.0023004781918627144 0.0017277680743143426 0 -0.0019648292370606142 0.0025038880365317435 0 -0.0020968098675331437 0.0022108771434851088 0 -0.0021944939183596085 0.0021085538437980544 0 -0.0020772833861265154 0.0019626418556574548 0 -0.0021852637832147533 0.0017659109093892593 0 -0.0021852637832147533 0.0017659109093892593 0 -0.0026572111624382534 0.0012014873229657011 0 -0.0022709414965458195 0.0014146927166233231 0 -0.0025328208793667685 0.0016862097123066357 0 -0.0027097716191307095 0.0013846403214833201 0 -0.0022709414965458195 0.0014146927166233231 0 -0.0023004781918627144 0.0017277680743143426 0 -0.0025328208793667685 0.0016862097123066357 0 -0.0025328208793667685 0.0016862097123066357 0 -0.0023416327686078442 0.0020360820368049096 0 -0.0028402730537816626 0.0019258476638101705 0 -0.0024544569075377587 0.0020939776741484097 0 -0.0028100198700383907 0.0019583756531609442 0 -0.0024938955389082859 0.0021882052809485213 0 -0.0026325292473295975 0.0024569848406375949 0 -0.0028402730537816626 0.0019258476638101705 0 -0.0023004781918627144 0.0017277680743143426 0 -0.0025328208793667685 0.0016862097123066357 0 -0.0023416327686078442 0.0020360820368049096 0 -0.0024938955389082859 0.0021882052809485213 0 -0.0022592147577649474 0.0025189024092121008 0 -0.002061395198838272 0.0024711375850923032 0 -0.0020569347289916434 0.0017776430994201578 0 -0.0023416327686078442 0.0020360820368049096 0 -0.0018437900716287718 0.0021467440718545439 0 -0.0024544569075377587 0.0020939776741484097 0 -0.0018855987835829865 0.0024862367856742632 0 -0.0020569347289916434 0.0017776430994201578 0 -0.0023004781918627144 0.0017277680743143426 0 -0.0023416327686078442 0.0020360820368049096 0 -0.0020062580025160758 0.0021491522887223551 0 -0.0018855987835829865 0.0024862367856742632 0 -0.0022592147577649474 0.0025189024092121008 0 -0.0026325292473295975 0.0024569848406375949 0 -0.0020418590475579793 0.0028109133615344399 0 -0.00298145970180435 0.0031627084352415734 0 -0.0020418590475579793 0.0028109133615344399 0 -0.00233048163031843 0.0031967378350897845 0 -0.0027898744720065856 0.0028289915747787484 0 -0.0020411971653335743 0.0027926892248133412 0 -0.0024938955389082859 0.0021882052809485213 0 -0.0022592147577649474 0.0025189024092121008 0 -0.0026325292473295975 0.0024569848406375949 0 -0.00094880826367407681 0.0025392609368898957 0 -0.0013570344864906147 0.0026001889359791586 0 -0.0011241031236851949 0.0030165909792329543 0 -0.0013570344864906147 0.0026001889359791586 0 -0.0017302047507599112 0.0029040525108124816 0 -0.0011241031236851949 0.0030165909792329543 0 -0.0013570344864906147 0.0026001889359791586 0 -0.0016460164255423929 0.0025417514085699605 0 -0.0017302047507599112 0.0029040525108124816 0 -0.0019648292370606142 0.0025038880365317435 0 -0.0016460164255423929 0.0025417514085699605 0 -0.0017302047507599112 0.0029040525108124816 0 -0.0018855987835829865 0.0024862367856742632 0 -0.0012265031757219232 0.0029006589574848366 0 -0.001667122254884577 0.0028393983509480557 0 -0.0020053384259794685 0.0026285077728553981 0 -0.0020418590475579793 0.0028109133615344399 0 -0.0020949224865926801 0.0024597864665555544 0 -0.001667122254884577 0.0028393983509480557 0 -0.0013221362186732347 0.0027524138155730913 0 -0.0020949224865926801 0.0024597864665555544 0 -0.001667122254884577 0.0028393983509480557 0 -0.0020053384259794685 0.0026285077728553981 0 -0.0022592147577649474 0.0025189024092121008 0 -0.0020053384259794685 0.0026285077728553981 0 -0.0020418590475579793 0.0028109133615344399 0 -0.0022592147577649474 0.0025189024092121008 0 -0.002061395198838272 0.0024711375850923032 0 -0.0020053384259794685 0.0026285077728553981 0 -0.0018855987835829865 0.0024862367856742632 0 -0.0019179946827458032 0.0025036045793550643 0 -0.0020418590475579793 0.0028109133615344399 0 -0.0019106891818640485 0.003075676598224034 0 -0.00233048163031843 0.0031967378350897845 0 -0.001667122254884577 0.0028393983509480557 0 -0.0020418590475579793 0.0028109133615344399 0 -0.0019106891818640485 0.003075676598224034 0 -0.001667122254884577 0.0028393983509480557 0 -0.0019106891818640485 0.003075676598224034 0 -0.0015698456334085104 0.0032409154023884702 0 -0.001667122254884577 0.0028393983509480557 0 -0.0013221362186732347 0.0027524138155730913 0 -0.0015698456334085104 0.0032409154023884702 0 -0.0013221362186732347 0.0027524138155730913 0 -0.0015698456334085104 0.0032409154023884702 0 -0.0010173938830655386 0.0034079086437741562 0 -0.0015698456334085104 0.0032409154023884702 0 -0.0013880084731858534 0.0037798566443256478 0 -0.0010173938830655386 0.0034079086437741562 0 -0.0015698456334085104 0.0032409154023884702 0 -0.0018072913159595182 0.0035828799385999683 0 -0.0013880084731858534 0.0037798566443256478 0 -0.0015698456334085104 0.0032409154023884702 0 -0.0019565130109985593 0.0033208493289303572 0 -0.0018072913159595182 0.0035828799385999683 0 -0.0019106891818640485 0.003075676598224034 0 -0.0015698456334085104 0.0032409154023884702 0 -0.0019565130109985593 0.0033208493289303572 0 -0.0019106891818640485 0.003075676598224034 0 -0.0019565130109985593 0.0033208493289303572 0 -0.00233048163031843 0.0031967378350897845 0 -0.0019565130109985593 0.0033208493289303572 0 -0.0021269528870208115 0.0036526116040137826 0 -0.0018072913159595182 0.0035828799385999683 0 -0.0019565130109985593 0.0033208493289303572 0 -0.0021269528870208115 0.0036526116040137826 0 -0.0022975614814761832 0.0034667012807569932 0 -0.0018072913159595182 0.0035828799385999683 0 -0.0019912381309605061 0.0039559443237220694 0 -0.0013880084731858534 0.0037798566443256478 0 -0.0021269528870208115 0.0036526116040137826 0 -0.0019912381309605061 0.0039559443237220694 0 -0.0024485174783713567 0.0038214332544367667 0 -0.0021269528870208115 0.0036526116040137826 0 -0.0018072913159595182 0.0035828799385999683 0 -0.0019912381309605061 0.0039559443237220694 0 -0.0019912381309605061 0.0039559443237220694 0 -0.0022764777012922142 0.0041313058202290479 0 -0.0020747938750384125 0.0044410332757769755 0 -0.0019912381309605061 0.0039559443237220694 0 -0.0013880084731858534 0.0037798566443256478 0 -0.0014784672905694466 0.0042960390508018217 0 -0.0013880084731858534 0.0037798566443256478 0 -0.0014784672905694466 0.0042960390508018217 0 -0.00090102538658064831 0.0043479257336191107 0 -0.00298145970180435 0.0031627084352415734 0 -0.0027566604732635544 0.0034695098897064751 0 -0.00233048163031843 0.0031967378350897845 0 -0.00298145970180435 0.0031627084352415734 0 -0.0027566604732635544 0.0034695098897064751 0 -0.0031835416005948683 0.0037210580875355506 0 -0.0027566604732635544 0.0034695098897064751 0 -0.0022975614814761832 0.0034667012807569932 0 -0.0024485174783713567 0.0038214332544367667 0 -0.0027566604732635544 0.0034695098897064751 0 -0.00233048163031843 0.0031967378350897845 0 -0.0022975614814761832 0.0034667012807569932 0 -0.0019565130109985593 0.0033208493289303572 0 -0.00233048163031843 0.0031967378350897845 0 -0.0022975614814761832 0.0034667012807569932 0 -0.0021269528870208115 0.0036526116040137826 0 -0.0022975614814761832 0.0034667012807569932 0 -0.0024485174783713567 0.0038214332544367667 0 -0.0024485174783713567 0.0038214332544367667 0 -0.0022764777012922142 0.0041313058202290479 0 -0.0025796645397082583 0.0043071796945274628 0 -0.0024485174783713567 0.0038214332544367667 0 -0.0027931452654926703 0.0039489190492292955 0 -0.0025796645397082583 0.0043071796945274628 0 -0.0027566604732635544 0.0034695098897064751 0 -0.0024485174783713567 0.0038214332544367667 0 -0.0027931452654926703 0.0039489190492292955 0 -0.0019912381309605061 0.0039559443237220694 0 -0.0024485174783713567 0.0038214332544367667 0 -0.0022764777012922142 0.0041313058202290479 0 -0.0027566604732635544 0.0034695098897064751 0 -0.0027931452654926703 0.0039489190492292955 0 -0.0031835416005948683 0.0037210580875355506 0 -0.0027931452654926703 0.0039489190492292955 0 -0.002971521883378288 0.0044359905341195965 0 -0.0031835416005948683 0.0037210580875355506 0 -0.0027931452654926703 0.0039489190492292955 0 -0.002971521883378288 0.0044359905341195965 0 -0.0025796645397082583 0.0043071796945274628 0 -0.002971521883378288 0.0044359905341195965 0 -0.0025796645397082583 0.0043071796945274628 0 -0.0027810727455157332 0.0046430427879153007 0 -0.0025796645397082583 0.0043071796945274628 0 -0.0025924997629819171 0.0047753353577046726 0 -0.0027810727455157332 0.0046430427879153007 0 -0.0022764777012922142 0.0041313058202290479 0 -0.0025796645397082583 0.0043071796945274628 0 -0.0020747938750384125 0.0044410332757769755 0 -0.0025796645397082583 0.0043071796945274628 0 -0.0025924997629819171 0.0047753353577046726 0 -0.0020747938750384125 0.0044410332757769755 0 -0.0025924997629819171 0.0047753353577046726 0 -0.0020747938750384125 0.0044410332757769755 0 -0.0020416051965051313 0.0051912207061135885 0 -0.0025924997629819171 0.0047753353577046726 0 -0.0020416051965051313 0.0051912207061135885 0 -0.002594583144733667 0.0053590558377901876 0 -0.0025924997629819171 0.0047753353577046726 0 -0.0031400753508880981 0.0053200080695871453 0 -0.002594583144733667 0.0053590558377901876 0 -0.0028797989678574559 0.0049059739021835103 0 -0.0033766183326043122 0.0043506620088069516 0 -0.0029279558557633654 0.005019748169678661 0 -0.002971521883378288 0.0044359905341195965 0 -0.0028797989678574559 0.0049059739021835103 0 -0.0033766183326043122 0.0043506620088069516 0 -0.002971521883378288 0.0044359905341195965 0 -0.0027810727455157332 0.0046430427879153007 0 -0.0028797989678574559 0.0049059739021835103 0 -0.0025924997629819171 0.0047753353577046726 0 -0.0027810727455157332 0.0046430427879153007 0 -0.0028797989678574559 0.0049059739021835103 0 -0.0025924997629819171 0.0047753353577046726 0 -0.0028797989678574559 0.0049059739021835103 0 -0.0028797949196624939 0.0049429381460124652 0 -0.0027033797799032662 0.0048571146065489092 0 -0.0029833121827111467 0.0048106125684609004 0 -0.0029774041106409854 0.0048298295579874322 0 -0.0029833121827111467 0.0048106125684609004 0 -0.0014784672905694466 0.0042960390508018217 0 -0.0011058488494316324 0.0048433718311039391 0 -0.00090102538658064831 0.0043479257336191107 0 -0.0014784672905694466 0.0042960390508018217 0 -0.0016238125420761211 0.0048286854184857514 0 -0.0011058488494316324 0.0048433718311039391 0 -0.0014784672905694466 0.0042960390508018217 0 -0.0020747938750384125 0.0044410332757769755 0 -0.0016238125420761211 0.0048286854184857514 0 -0.0019912381309605061 0.0039559443237220694 0 -0.0014784672905694466 0.0042960390508018217 0 -0.0020747938750384125 0.0044410332757769755 0 -0.0020416051965051313 0.0051912207061135885 0 -0.0014278332969543286 0.0053840776608626364 0 -0.0016238125420761211 0.0048286854184857514 0 -0.0020747938750384125 0.0044410332757769755 0 -0.0020416051965051313 0.0051912207061135885 0 -0.0016238125420761211 0.0048286854184857514 0 -0.0014278332969543286 0.0053840776608626364 0 -0.0016238125420761211 0.0048286854184857514 0 -0.0011058488494316324 0.0048433718311039391 0 -0.0014278332969543286 0.0053840776608626364 0 -0.0011058488494316324 0.0048433718311039391 0 -0.00076349742819070232 0.005586179873561456 0 -0.0011058488494316324 0.0048433718311039391 0 -0.00044871047977994202 0.0046902088406547303 0 -0.00076349742819070232 0.005586179873561456 0 -0.00014866635426615988 0.0052948737632452069 0 -0.00044871047977994202 0.0046902088406547303 0 -0.00076349742819070232 0.005586179873561456 0 -0.00044871047977994202 0.0046902088406547303 0 -0.00033522082376948286 0.0041032928925460359 0 0.00011417514182271279 0.0044287119771927019 0 -0.00044871047977994202 0.0046902088406547303 0 -0.00090102538658064831 0.0043479257336191107 0 -0.00033522082376948286 0.0041032928925460359 0 -0.00014866635426615988 0.0052948737632452069 0 -0.00044871047977994202 0.0046902088406547303 0 0.00011417514182271279 0.0044287119771927019 0 -0.0011058488494316324 0.0048433718311039391 0 -0.00044871047977994202 0.0046902088406547303 0 -0.00090102538658064831 0.0043479257336191107 0 -0.0013880084731858534 0.0037798566443256478 0 -0.00090102538658064831 0.0043479257336191107 0 -0.0007554079518934197 0.0038610116617861863 0 -0.00090102538658064831 0.0043479257336191107 0 -0.0007554079518934197 0.0038610116617861863 0 -0.00033522082376948286 0.0041032928925460359 0 -0.0007554079518934197 0.0038610116617861863 0 -0.00033522082376948286 0.0041032928925460359 0 -0.00035260978377446507 0.0035745221401338543 0 -0.00033522082376948286 0.0041032928925460359 0 -0.00035260978377446507 0.0035745221401338543 0 8.1477030120827957e-05 0.0038041591389201025 0 -5.2844801895222199e-05 0.0032538373008432387 0 -0.00035260978377446507 0.0035745221401338543 0 8.1477030120827957e-05 0.0038041591389201025 0 -0.00057490526950317066 0.0030773052417807545 0 -0.00035260978377446507 0.0035745221401338543 0 -0.0010173938830655386 0.0034079086437741562 0 -0.0007554079518934197 0.0038610116617861863 0 -0.00035260978377446507 0.0035745221401338543 0 -0.0010173938830655386 0.0034079086437741562 0 -0.0013880084731858534 0.0037798566443256478 0 -0.0007554079518934197 0.0038610116617861863 0 -0.0010173938830655386 0.0034079086437741562 0 0.00043775357248126138 0.0035463716124581671 0 0.00045274353799226139 0.0039734842230475719 0 0.00086034442342655421 0.0036884347185184795 0 0.00071956025414266476 0.0033274407847724216 0 0.00043775357248126138 0.0035463716124581671 0 0.00086034442342655421 0.0036884347185184795 0 -5.2844801895222199e-05 0.0032538373008432387 0 0.00043775357248126138 0.0035463716124581671 0 8.1477030120827957e-05 0.0038041591389201025 0 0.00043775357248126138 0.0035463716124581671 0 8.1477030120827957e-05 0.0038041591389201025 0 0.00045274353799226139 0.0039734842230475719 0 8.1477030120827957e-05 0.0038041591389201025 0 0.00045274353799226139 0.0039734842230475719 0 0.00011417514182271279 0.0044287119771927019 0 -0.00033522082376948286 0.0041032928925460359 0 8.1477030120827957e-05 0.0038041591389201025 0 0.00011417514182271279 0.0044287119771927019 0 0.00070176248914883058 0.005327112164353354 0 0.001001047148182069 0.0041516204914589239 0 0.00045274353799226139 0.0039734842230475719 0 0.00070079482098676308 0.0044293403169137309 0 0.00086034442342655421 0.0036884347185184795 0 0.00045274353799226139 0.0039734842230475719 0 0.00070079482098676308 0.0044293403169137309 0 0.00011417514182271279 0.0044287119771927019 0 0.00079484331229458943 0.00586854642156705 0 0.00090561632830178369 0.0061254032176846652 0 0.00077508956039384035 0.0059414850982813872 0 0.00070079482098676308 0.0044293403169137309 0 0.00011417514182271279 0.0044287119771927019 0 0.00050527421260317693 0.0052863088329344566 0 0.00070176248914883058 0.005327112164353354 0 0.00052386668228202233 0.0055864196070258571 0 -0.00014866635426615988 0.0052948737632452069 0 0.00011417514182271279 0.0044287119771927019 0 0.00050527421260317693 0.0052863088329344566 0 0.00079484331229458943 0.00586854642156705 0 0.00055000148528793727 0.005901929425857386 0 0.0008123214908279929 0.00588017800523524 0 0.0010201620835428363 0.0067329457508827307 0 0.0010701201633327058 0.0065799839510784427 0 0.0011489290704852048 0.0067182226111378047 0 0.0010201620835428363 0.0067329457508827307 0 0.0010701201633327058 0.0065799839510784427 0 0.00096057789171198214 0.0064444749372048792 0 0.00091637640530344152 0.0063091823054384757 0 0.00087873303841198933 0.0061899363720792754 0 0.00079484331229458943 0.00586854642156705 0 0.0008123214908279929 0.00588017800523524 0 0.00077508956039384035 0.0059414850982813872 0 0.0010701201633327058 0.0065799839510784427 0 0.0012318777301709991 0.0066193165954028729 0 0.0010510155591883156 0.0062892494022521398 0 0.0010701201633327058 0.0065799839510784427 0 0.0012318777301709991 0.0066193165954028729 0 0.0011489290704852048 0.0067182226111378047 0 0.0012318777301709991 0.0066193165954028729 0 0.001351583994714879 0.0069069057394897521 0 0.0012224532214121793 0.0068335426181290772 0 0.0010201620835428363 0.0067329457508827307 0 0.0011489290704852048 0.0067182226111378047 0 0.0012224532214121793 0.0068335426181290772 0 0.0012318777301709991 0.0066193165954028729 0 0.0011489290704852048 0.0067182226111378047 0 0.0012224532214121793 0.0068335426181290772 0 0.00062691316001014944 0.012634344378015075 0 0.00066832178947512247 0.012680699905222782 0 0.00062876721470664474 0.012694378314958059 0 0.00051549059203806371 0.012850672069822948 0 0.00083777203567629468 0.010387880053939457 0 0.00066861637556746907 0.012453803725251197 0 0.00060327660765958956 0.012384480341109241 0 0.00065022066258244027 0.012242427794957548 0 0.00094129641936470561 0.0093183624083296272 0 0.00083777203567629468 0.010387880053939457 0 0.00062691316001014944 0.012634344378015075 0 0.00071004530753212972 0.012643948286868959 0 0.00066832178947512247 0.012680699905222782 0 0.00071004530753212972 0.012643948286868959 0 0.00066832178947512247 0.012680699905222782 0 0.00072975245333711629 0.012712689931329327 0 0.00071004530753212972 0.012643948286868959 0 0.00064036718651562725 0.012513972011698529 0 0.00076966539079124116 0.012580148071828168 0 0.00062691316001014944 0.012634344378015075 0 0.00071004530753212972 0.012643948286868959 0 0.00064036718651562725 0.012513972011698529 0 0.00064036718651562725 0.012513972011698529 0 0.00065144046844732985 0.012484340460806192 0 0.00076966539079124116 0.012580148071828168 0 0.00051549059203806371 0.012850672069822948 0 0.00067045531498570433 0.012389343992659082 0 0.00060327660765958956 0.012384480341109241 0 0.00063684206392033049 0.012458470560226602 0 0.00064036718651562725 0.012513972011698529 0 0.00066861637556746907 0.012453803725251197 0 0.00060327660765958956 0.012384480341109241 0 0.00063684206392033049 0.012458470560226602 0 0.00063684206392033049 0.012458470560226602 0 0.00064036718651562725 0.012513972011698529 0 0.00063643669156858841 0.012481182888762151 0 0.00066861637556746907 0.012453803725251197 0 0.00063684206392033049 0.012458470560226602 0 0.00063643669156858841 0.012481182888762151 0 0.00066861637556746907 0.012453803725251197 0 0.00063643669156858841 0.012481182888762151 0 0.00062973552507307061 0.012462825562325123 0 0.00063643669156858841 0.012481182888762151 0 0.00065039803982585968 0.012467515781181993 0 0.00062973552507307061 0.012462825562325123 0 0.00063643669156858841 0.012481182888762151 0 0.00065039803982585968 0.012467515781181993 0 0.00065144046844732985 0.012484340460806192 0 0.00064036718651562725 0.012513972011698529 0 0.00063643669156858841 0.012481182888762151 0 0.00065144046844732985 0.012484340460806192 0 0.00065039803982585968 0.012467515781181993 0 0.00062973552507307061 0.012462825562325123 0 0.00063805399056792887 0.012453843523342977 0 0.00065144046844732985 0.012484340460806192 0 0.00067051291109430043 0.012468978768952822 0 0.00069579747059990427 0.012472811305336893 0 0.00065357593192250335 0.012491972886147586 0 0.00073347286019304612 0.012543414395150766 0 0.00065144046844732985 0.012484340460806192 0 0.00070683780790380102 0.012509579975536325 0 0.00069579747059990427 0.012472811305336893 0 0.00065039803982585968 0.012467515781181993 0 0.00065144046844732985 0.012484340460806192 0 0.00067051291109430043 0.012468978768952822 0 0.00065039803982585968 0.012467515781181993 0 0.00067051291109430043 0.012468978768952822 0 0.00066651480896556337 0.012459124823334663 0 0.00069668513390910597 0.012461101648818047 0 0.00068333745505161911 0.012461459081594073 0 0.00069579747059990427 0.012472811305336893 0 0.00067051291109430043 0.012468978768952822 0 0.00068333745505161911 0.012461459081594073 0 0.00069579747059990427 0.012472811305336893 0 0.00069668513390910597 0.012461101648818047 0 0.00068333745505161911 0.012461459081594073 0 0.00069166252641298146 0.012456101914529829 0 0.00066651480896556337 0.012459124823334663 0 0.00067742866243098885 0.012451996139317471 0 0.00065265847409856355 0.012447993836750413 0 0.00068333745505161911 0.012461459081594073 0 0.00066651480896556337 0.012459124823334663 0 0.00067742866243098885 0.012451996139317471 0 0.00067051291109430043 0.012468978768952822 0 0.00068333745505161911 0.012461459081594073 0 0.00066651480896556337 0.012459124823334663 0 0.00066707961333056299 0.012438449869770456 0 0.00067742866243098885 0.012451996139317471 0 0.00069533330697233971 0.01245018951535236 0 0.00066707961333056299 0.012438449869770456 0 0.00067742866243098885 0.012451996139317471 0 0.00065265847409856355 0.012447993836750413 0 0.00067742866243098885 0.012451996139317471 0 0.00069166252641298146 0.012456101914529829 0 0.00069533330697233971 0.01245018951535236 0 0.00068333745505161911 0.012461459081594073 0 0.00067742866243098885 0.012451996139317471 0 0.00069166252641298146 0.012456101914529829 0 0.00069166252641298146 0.012456101914529829 0 0.00070417689075756812 0.012457675143719095 0 0.00069533330697233971 0.01245018951535236 0 0.00069668513390910597 0.012461101648818047 0 0.00069166252641298146 0.012456101914529829 0 0.00070417689075756812 0.012457675143719095 0 0.00063805399056792887 0.012453843523342977 0 0.00065265847409856355 0.012447993836750413 0 0.00061749431423127794 0.012431973447753984 0 0.00062973552507307061 0.012462825562325123 0 0.00063805399056792887 0.012453843523342977 0 0.00061749431423127794 0.012431973447753984 0 0.00065039803982585968 0.012467515781181993 0 0.00063805399056792887 0.012453843523342977 0 0.00065265847409856355 0.012447993836750413 0 0.00065039803982585968 0.012467515781181993 0 0.00066651480896556337 0.012459124823334663 0 0.00065265847409856355 0.012447993836750413 0 0.00066707961333056299 0.012438449869770456 0 0.00065265847409856355 0.012447993836750413 0 0.00063839476915103228 0.01241894018846282 0 0.00065265847409856355 0.012447993836750413 0 0.00061749431423127794 0.012431973447753984 0 0.00063839476915103228 0.01241894018846282 0 0.00061749431423127794 0.012431973447753984 0 0.0005783689071449425 0.012390544842635083 0 0.00058119732294394067 0.012371846586944908 0 0.00062973552507307061 0.012462825562325123 0 0.00061749431423127794 0.012431973447753984 0 0.0005846332282162033 0.012438211281411437 0 0.00061749431423127794 0.012431973447753984 0 0.0005846332282162033 0.012438211281411437 0 0.0005783689071449425 0.012390544842635083 0 0.0005846332282162033 0.012438211281411437 0 0.0005783689071449425 0.012390544842635083 0 0.00052515711148508673 0.012318176798967396 0 0.00081816328741566799 0.0096059428062625855 0 0.00094914210598209012 0.0082767985369610452 0 0.0010510155591883156 0.0062892494022521398 0 0.00091804410485908758 0.0061837263544726358 0 0.00096057789171198214 0.0064444749372048792 0 0.00091804410485908758 0.0061837263544726358 0 0.00090561632830178369 0.0061254032176846652 0 0.00077508956039384035 0.0059414850982813872 0 0.00091804410485908758 0.0061837263544726358 0 0.00090561632830178369 0.0061254032176846652 0 0.00089354873979652523 0.006162789944351061 0 0.0010510155591883156 0.0062892494022521398 0 0.00091804410485908758 0.0061837263544726358 0 0.00089354873979652523 0.006162789944351061 0 0.00090663398266857141 0.0061714785732576013 0 0.00087873303841198933 0.0061899363720792754 0 0.0010701201633327058 0.0065799839510784427 0 0.0010510155591883156 0.0062892494022521398 0 0.00096057789171198214 0.0064444749372048792 0 0.00094129641936470561 0.0093183624083296272 0 0.00081816328741566799 0.0096059428062625855 0 0.00066861637556746907 0.012453803725251197 0 0.00062973552507307061 0.012462825562325123 0 0.0005846332282162033 0.012438211281411437 0 0.0008352611704049509 0.012560908197296708 0 0.00081135097565329238 0.012553670581768392 0 0.00078978082087617391 0.012506040000088899 0 0.00086535469214390169 0.012744206911952648 0 0.0007700903871470235 0.012651019180944533 0 0.00084008220333533546 0.012895957670920168 0 0.00083138535627444552 0.012842887574450871 0 0.00077861813298295626 0.012819801583511991 0 0.00086535469214390169 0.012744206911952648 0 0.00084141857888370131 0.012674544279961278 0 0.00089408078293227945 0.012836043180980979 0 0.0008875103028271711 0.012775906535073812 0 0.00088078989942046864 0.012801446071852714 0 0.0008875103028271711 0.012775906535073812 0 0.00088078989942046864 0.012801446071852714 0 0.00086828898812971677 0.012755409865839592 0 0.0008875103028271711 0.012775906535073812 0 0.00086828898812971677 0.012755409865839592 0 0.00084492597925995953 0.012676034156823581 0 0.00086828898812971677 0.012755409865839592 0 0.00085562728815802487 0.012764288994003978 0 0.00084492597925995953 0.012676034156823581 0 0.00088078989942046864 0.012801446071852714 0 0.00086828898812971677 0.012755409865839592 0 0.00085562728815802487 0.012764288994003978 0 0.00075145969973879621 0.012530993728037468 0 0.0007551239531205558 0.012495480463163079 0 0.00078978082087617391 0.012506040000088899 0 0.00084141857888370131 0.012674544279961278 0 0.00079534414488571434 0.012601959530557941 0 0.00081135097565329238 0.012553670581768392 0 0.00075145969973879621 0.012530993728037468 0 0.00078978082087617391 0.012506040000088899 0 0.00084492597925995953 0.012676034156823581 0 0.00080208076590609673 0.012710695031983152 0 0.00076966539079124116 0.012580148071828168 0 0.00075145969973879621 0.012530993728037468 0 0.00070683780790380102 0.012509579975536325 0 0.00073241979549647934 0.012488628508699447 0 0.00079534414488571434 0.012601959530557941 0 0.00073347286019304612 0.012543414395150766 0 0.00085562728815802487 0.012764288994003978 0 0.00084492597925995953 0.012676034156823581 0 0.00080208076590609673 0.012710695031983152 0 0.00071004530753212972 0.012643948286868959 0 0.00080208076590609673 0.012710695031983152 0 0.00076966539079124116 0.012580148071828168 0 0.00071004530753212972 0.012643948286868959 0 0.00080208076590609673 0.012710695031983152 0 0.00072975245333711629 0.012712689931329327 0 0.00070683780790380102 0.012509579975536325 0 0.00069579747059990427 0.012472811305336893 0 0.00071472556756842459 0.012470943261790806 0 0.00069579747059990427 0.012472811305336893 0 0.0007065635042119143 0.012462102669796405 0 0.00071472556756842459 0.012470943261790806 0 0.00069668513390910597 0.012461101648818047 0 0.00069579747059990427 0.012472811305336893 0 0.0007065635042119143 0.012462102669796405 0 0.00069668513390910597 0.012461101648818047 0 0.0007065635042119143 0.012462102669796405 0 0.00070417689075756812 0.012457675143719095 0 0.0007065635042119143 0.012462102669796405 0 0.00071266792457887228 0.01246034216587715 0 0.00070417689075756812 0.012457675143719095 0 0.00071311567636577389 0.012460629474237801 0 0.00071136235493776364 0.012454825976732534 0 0.00071448516222667074 0.012460128794743881 0 0.00071266792457887228 0.01246034216587715 0 0.00071311567636577389 0.012460629474237801 0 0.00071448516222667074 0.012460128794743881 0 0.0007065635042119143 0.012462102669796405 0 0.00071266792457887228 0.01246034216587715 0 0.00071311567636577389 0.012460629474237801 0 0.0007065635042119143 0.012462102669796405 0 0.00071311567636577389 0.012460629474237801 0 0.00071472556756842459 0.012470943261790806 0 0.00071311567636577389 0.012460629474237801 0 0.00071472556756842459 0.012470943261790806 0 0.00072239224648305692 0.012465588428134607 0 0.00082348350300261131 0.012740283895330551 0 0.000825210968961834 0.012650932186310318 0 0.00079062690139273964 0.012673740909218344 0 0.00071472556756842459 0.012470943261790806 0 0.00072239224648305692 0.012465588428134607 0 0.00073241979549647934 0.012488628508699447 0 0.00071311567636577389 0.012460629474237801 0 0.00072239224648305692 0.012465588428134607 0 0.00071136235493776364 0.012454825976732534 0 0.00072239224648305692 0.012465588428134607 0 0.00074656061048766276 0.012464870684438936 0 0.00071136235493776364 0.012454825976732534 0 0.0007728873391628716 0.012638851172222068 0 0.00079916697788950291 0.012626416545305228 0 0.00082506826578352061 0.012613446991302858 0 0.00077715713312921208 0.012574136103477348 0 0.00078972251226271713 0.012571511891343097 0 0.0007728873391628716 0.012638851172222068 0 0.00074110461639774483 0.012508559131214006 0 0.00072239224648305692 0.012465588428134607 0 0.00073241979549647934 0.012488628508699447 0 0.00074656061048766276 0.012464870684438936 0 0.00070683780790380102 0.012509579975536325 0 0.00071472556756842459 0.012470943261790806 0 0.00073241979549647934 0.012488628508699447 0 0.00075145969973879621 0.012530993728037468 0 0.00073241979549647934 0.012488628508699447 0 0.0007551239531205558 0.012495480463163079 0 0.00073241979549647934 0.012488628508699447 0 0.0007551239531205558 0.012495480463163079 0 0.00074656061048766276 0.012464870684438936 0 0.0007551239531205558 0.012495480463163079 0 0.00074656061048766276 0.012464870684438936 0 0.00078978082087617391 0.012506040000088899 0 0.0007728873391628716 0.012638851172222068 0 0.0007700903871470235 0.012651019180944533 0 0.0007130941488379675 0.012737675312883561 0 0.00077861813298295626 0.012819801583511991 0 0.00077394567798642672 0.012791130769418476 0 0.0007728873391628716 0.012638851172222068 0 0.00081759689710098017 0.012803322286087769 0 0.00082348350300261131 0.012740283895330551 0 0.00085252404532008591 0.012744297423382711 0 0.00085586188649053763 0.012679530429489043 0 0.00082348350300261131 0.012740283895330551 0 0.00085252404532008591 0.012744297423382711 0 0.0008469818901218147 0.01279171652673522 0 0.00085252404532008591 0.012744297423382711 0 0.000868463095344946 0.012723651079960305 0 0.00085586188649053763 0.012679530429489043 0 0.00085252404532008591 0.012744297423382711 0 0.00086827810025604966 0.012763058081083183 0 0.0008469818901218147 0.01279171652673522 0 0.00085252404532008591 0.012744297423382711 0 0.000868463095344946 0.012723651079960305 0 0.00086827810025604966 0.012763058081083183 0 0.00088700440014098159 0.012738468596346654 0 0.000868463095344946 0.012723651079960305 0 0.00086827810025604966 0.012763058081083183 0 0.00085479085497213564 0.012842994753937229 0 0.00086300693771297935 0.012802035282177113 0 0.0008469818901218147 0.01279171652673522 0 0.00083138535627444552 0.012842887574450871 0 0.00077861813298295626 0.012819801583511991 0 0.00077394567798642672 0.012791130769418476 0 0.00084331989225246888 0.01284285124812719 0 0.00081759689710098017 0.012803322286087769 0 0.00086827810025604966 0.012763058081083183 0 0.00086300693771297935 0.012802035282177113 0 0.0008469818901218147 0.01279171652673522 0 0.0008850840868571756 0.012683043966794453 0 0.0008713974249048756 0.012630630051186593 0 0.00089357303529239416 0.012645156135154319 0 0.00090905222658073967 0.012701648760315362 0 0.0008850840868571756 0.012683043966794453 0 0.00089357303529239416 0.012645156135154319 0 0.000868463095344946 0.012723651079960305 0 0.0008850840868571756 0.012683043966794453 0 0.00085586188649053763 0.012679530429489043 0 0.00088700440014098159 0.012738468596346654 0 0.000868463095344946 0.012723651079960305 0 0.0008850840868571756 0.012683043966794453 0 0.00088700440014098159 0.012738468596346654 0 0.00090250823360891108 0.012732854014095399 0 0.0008850840868571756 0.012683043966794453 0 0.00082348350300261131 0.012740283895330551 0 0.00085586188649053763 0.012679530429489043 0 0.000825210968961834 0.012650932186310318 0 0.0008850840868571756 0.012683043966794453 0 0.00085586188649053763 0.012679530429489043 0 0.0008713974249048756 0.012630630051186593 0 0.00085586188649053763 0.012679530429489043 0 0.0008416527301349239 0.012597014049478704 0 0.000825210968961834 0.012650932186310318 0 0.0008416527301349239 0.012597014049478704 0 0.0008713974249048756 0.012630630051186593 0 0.00086743863326135427 0.012580454998122378 0 0.0008416527301349239 0.012597014049478704 0 0.00083209339709238567 0.01254612948373179 0 0.00086743863326135427 0.012580454998122378 0 0.00085586188649053763 0.012679530429489043 0 0.0008416527301349239 0.012597014049478704 0 0.0008713974249048756 0.012630630051186593 0 0.0008713974249048756 0.012630630051186593 0 0.00086743863326135427 0.012580454998122378 0 0.00089357303529239416 0.012645156135154319 0 0.0008416527301349239 0.012597014049478704 0 0.00083209339709238567 0.01254612948373179 0 0.00080018939240195867 0.012531960449967164 0 0.00083209339709238567 0.01254612948373179 0 0.00080018939240195867 0.012531960449967164 0 0.0008080769764596612 0.012486430296178611 0 0.00080018939240195867 0.012531960449967164 0 0.00080599292694014243 0.012585957398290826 0 0.00075520170327803829 0.012523927207753886 0 0.0008416527301349239 0.012597014049478704 0 0.00080018939240195867 0.012531960449967164 0 0.00080599292694014243 0.012585957398290826 0 0.0008416527301349239 0.012597014049478704 0 0.000825210968961834 0.012650932186310318 0 0.00080599292694014243 0.012585957398290826 0 0.000825210968961834 0.012650932186310318 0 0.00079598359640138618 0.012609615464188361 0 0.00080599292694014243 0.012585957398290826 0 0.000825210968961834 0.012650932186310318 0 0.00079062690139273964 0.012673740909218344 0 0.00079598359640138618 0.012609615464188361 0 0.00077715713312921208 0.012574136103477348 0 0.00078972251226271713 0.012571511891343097 0 0.00075520170327803829 0.012523927207753886 0 0.00079062690139273964 0.012673740909218344 0 0.00079598359640138618 0.012609615464188361 0 0.00075520170327803829 0.012523927207753886 0 0.00079598359640138618 0.012609615464188361 0 0.00080599292694014243 0.012585957398290826 0 0.00075520170327803829 0.012523927207753886 0 0.00079916697788950291 0.012626416545305228 0 0.0007558354742025937 0.012546451958579353 0 0.00077715713312921208 0.012574136103477348 0 0.00075520170327803829 0.012523927207753886 0 0.00072847271451863813 0.012492204416714645 0 0.00074110461639774483 0.012508559131214006 0 0.00073458684840114628 0.012500304349379099 0 0.00071136235493776364 0.012454825976732534 0 0.00071886157342255055 0.012467425388915158 0 0.00072847271451863813 0.012492204416714645 0 0.00071136235493776364 0.012454825976732534 0 0.00071886157342255055 0.012467425388915158 0 0.00071448516222667074 0.012460128794743881 0 0.00071266792457887228 0.01246034216587715 0 0.00071886157342255055 0.012467425388915158 0 0.00071448516222667074 0.012460128794743881 0 0.00071266792457887228 0.01246034216587715 0 0.00070417689075756812 0.012457675143719095 0 0.00071541418682091328 0.012462860266176492 0 0.00071266792457887228 0.01246034216587715 0 0.00071886157342255055 0.012467425388915158 0 0.00071541418682091328 0.012462860266176492 0 0.00071886157342255055 0.012467425388915158 0 0.00071541418682091328 0.012462860266176492 0 0.00072847271451863813 0.012492204416714645 0 0.00071541418682091328 0.012462860266176492 0 0.00072847271451863813 0.012492204416714645 0 0.00070172831521475576 0.012443062036135053 0 0.00075520170327803829 0.012523927207753886 0 0.00072847271451863813 0.012492204416714645 0 0.00075401492886403474 0.012465248588715297 0 0.00072847271451863813 0.012492204416714645 0 0.00075401492886403474 0.012465248588715297 0 0.00072057578827146025 0.012451003423040102 0 0.00080018939240195867 0.012531960449967164 0 0.00075520170327803829 0.012523927207753886 0 0.00075401492886403474 0.012465248588715297 0 0.00080018939240195867 0.012531960449967164 0 0.00075401492886403474 0.012465248588715297 0 0.0008080769764596612 0.012486430296178611 0 0.00075401492886403474 0.012465248588715297 0 0.00073415100502627155 0.012388915742809467 0 0.0008080769764596612 0.012486430296178611 0 0.00076099416131625395 0.012401904730048046 0 0.0008319937194206107 0.012556427900078016 0 0.0008080769764596612 0.012486430296178611 0 0.00076636688946568653 0.012488935365537895 0 0.00081685138549145305 0.012495681984748441 0 0.00073415100502627155 0.012388915742809467 0 0.0008080769764596612 0.012486430296178611 0 0.00075448578681753587 0.012245166938939848 0 0.00076636688946568653 0.012488935365537895 0 0.000773161424818209 0.012433570142260384 0 0.00080953374705355766 0.012450039160992857 0 0.000773161424818209 0.012433570142260384 0 0.00080953374705355766 0.012450039160992857 0 0.00079291162710755576 0.012389588005247351 0 0.00076636688946568653 0.012488935365537895 0 0.00080953374705355766 0.012450039160992857 0 0.00081685138549145305 0.012495681984748441 0 0.00080953374705355766 0.012450039160992857 0 0.00081685138549145305 0.012495681984748441 0 0.00084366196501777218 0.012481491607621201 0 0.00081685138549145305 0.012495681984748441 0 0.00084366196501777218 0.012481491607621201 0 0.00084876249465735151 0.012528736558228965 0 0.00080953374705355766 0.012450039160992857 0 0.00084366196501777218 0.012481491607621201 0 0.00085383695484975988 0.012427596512235472 0 0.00084366196501777218 0.012481491607621201 0 0.00087988796561379074 0.01248624062388062 0 0.00085383695484975988 0.012427596512235472 0 0.00084366196501777218 0.012481491607621201 0 0.00087988796561379074 0.01248624062388062 0 0.00084876249465735151 0.012528736558228965 0 0.00083209339709238567 0.01254612948373179 0 0.0008080769764596612 0.012486430296178611 0 0.00084876249465735151 0.012528736558228965 0 0.00083209339709238567 0.01254612948373179 0 0.00084876249465735151 0.012528736558228965 0 0.00086743863326135427 0.012580454998122378 0 0.0008080769764596612 0.012486430296178611 0 0.00081685138549145305 0.012495681984748441 0 0.00084876249465735151 0.012528736558228965 0 0.00086743863326135427 0.012580454998122378 0 0.00089850369432536786 0.012558336725692076 0 0.00091100749845437177 0.012631100786572163 0 0.00086743863326135427 0.012580454998122378 0 0.00091100749845437177 0.012631100786572163 0 0.00089357303529239416 0.012645156135154319 0 0.00084876249465735151 0.012528736558228965 0 0.00086743863326135427 0.012580454998122378 0 0.00089850369432536786 0.012558336725692076 0 0.00089850369432536786 0.012558336725692076 0 0.00093291119817133397 0.012626386843047739 0 0.00092832091648243666 0.01249600151689889 0 0.00087988796561379074 0.01248624062388062 0 0.00084876249465735151 0.012528736558228965 0 0.00089850369432536786 0.012558336725692076 0 0.00087988796561379074 0.01248624062388062 0 0.00089850369432536786 0.012558336725692076 0 0.00092832091648243666 0.01249600151689889 0 0.00091800475294720734 0.012719679476552516 0 0.00093291119817133397 0.012626386843047739 0 0.00091100749845437177 0.012631100786572163 0 0.00089850369432536786 0.012558336725692076 0 0.00093291119817133397 0.012626386843047739 0 0.00091100749845437177 0.012631100786572163 0 0.00090905222658073967 0.012701648760315362 0 0.00091100749845437177 0.012631100786572163 0 0.00089357303529239416 0.012645156135154319 0 0.00056070346346145949 0.012294386694562955 0 0.00061828490711391673 0.012303821418603327 0 0.00052389188414871774 0.012218360221598466 0 0.00056070346346145949 0.012294386694562955 0 0.00048782238920120876 0.01226780858594868 0 0.00052389188414871774 0.012218360221598466 0 0.00054492823921393932 0.012320362066642859 0 0.00056070346346145949 0.012294386694562955 0 0.00048782238920120876 0.01226780858594868 0 0.00054492823921393932 0.012320362066642859 0 0.00056070346346145949 0.012294386694562955 0 0.00061590003673987759 0.012363447681047551 0 0.00048782238920120876 0.01226780858594868 0 0.00052389188414871774 0.012218360221598466 0 0.00043310930722579585 0.012204390864386154 0 0.00075606515712318305 0.0066533531830540414 0 0.00096467926785329171 0.0078218665415040935 0 0.00048782238920120876 0.01226780858594868 0 0.00048489534791450368 0.012268415911636769 0 0.00043310930722579585 0.012204390864386154 0 0.00054492823921393932 0.012320362066642859 0 0.00048782238920120876 0.01226780858594868 0 0.00046978170903838899 0.012327134625958072 0 0.00048782238920120876 0.01226780858594868 0 0.00048595400023247797 0.012266832552105512 0 0.00048489534791450368 0.012268415911636769 0 9.3555022777944415e-05 0.012287718027184686 0 0.00094914210598209012 0.0082767985369610452 0 0.00071956025414266476 0.0033274407847724216 0 0.00086034442342655421 0.0036884347185184795 0 0.0010579750918578237 0.0030277327802146706 0 0.001001047148182069 0.0041516204914589239 0 0.00094914210598209012 0.0082767985369610452 0 0.00094914210598209012 0.0082767985369610452 0 0.00075606515712318305 0.0066533531830540414 0 0.0007682385307517058 0.0030854105807217778 0 0.0010579750918578237 0.0030277327802146706 0 0.0010427127319558183 0.0029760915874022238 0 0.00071956025414266476 0.0033274407847724216 0 0.0007682385307517058 0.0030854105807217778 0 0.0010579750918578237 0.0030277327802146706 0 0.00061749431423127794 0.012431973447753984 0 0.00058119732294394067 0.012371846586944908 0 0.00063839476915103228 0.01241894018846282 0 0.0005783689071449425 0.012390544842635083 0 0.00052515711148508673 0.012318176798967396 0 0.00058119732294394067 0.012371846586944908 0 0.00054492823921393932 0.012320362066642859 0 0.00046978170903838899 0.012327134625958072 0 0.00058119732294394067 0.012371846586944908 0 0.00094914210598209012 0.0082767985369610452 0 0.00084986157731546956 0.01226730030889533 0 0.00054492823921393932 0.012320362066642859 0 0.00058119732294394067 0.012371846586944908 0 0.00061590003673987759 0.012363447681047551 0 0.00066707961333056299 0.012438449869770456 0 0.00063839476915103228 0.01241894018846282 0 0.00066758048458148418 0.012422766868068704 0 0.00063839476915103228 0.01241894018846282 0 0.00066758048458148418 0.012422766868068704 0 0.00061590003673987759 0.012363447681047551 0 0.00066758048458148418 0.012422766868068704 0 0.00066602926239568564 0.012399366300305328 0 0.00061590003673987759 0.012363447681047551 0 0.00058119732294394067 0.012371846586944908 0 0.00063839476915103228 0.01241894018846282 0 0.00061590003673987759 0.012363447681047551 0 0.00070417689075756812 0.012457675143719095 0 0.00071541418682091328 0.012462860266176492 0 0.00069533330697233971 0.01245018951535236 0 0.00071541418682091328 0.012462860266176492 0 0.00069533330697233971 0.01245018951535236 0 0.00070172831521475576 0.012443062036135053 0 0.00066707961333056299 0.012438449869770456 0 0.00066758048458148418 0.012422766868068704 0 0.00069533330697233971 0.01245018951535236 0 0.00066758048458148418 0.012422766868068704 0 0.00069533330697233971 0.01245018951535236 0 0.00070172831521475576 0.012443062036135053 0 0.00066758048458148418 0.012422766868068704 0 0.00070172831521475576 0.012443062036135053 0 0.00066602926239568564 0.012399366300305328 0 0.00072847271451863813 0.012492204416714645 0 0.00070172831521475576 0.012443062036135053 0 0.00072057578827146025 0.012451003423040102 0 0.00069451601698325741 0.01239558388641188 0 0.00061828490711391673 0.012303821418603327 0 0.00068604430848103783 0.012321643261303993 0 0.00070172831521475576 0.012443062036135053 0 0.00072057578827146025 0.012451003423040102 0 0.00069451601698325741 0.01239558388641188 0 0.00075401492886403474 0.012465248588715297 0 0.00072057578827146025 0.012451003423040102 0 0.00069451601698325741 0.01239558388641188 0 0.00070172831521475576 0.012443062036135053 0 0.00066602926239568564 0.012399366300305328 0 0.00069451601698325741 0.01239558388641188 0 0.00075401492886403474 0.012465248588715297 0 0.00073415100502627155 0.012388915742809467 0 0.00069451601698325741 0.01239558388641188 0 0.00066602926239568564 0.012399366300305328 0 0.00069451601698325741 0.01239558388641188 0 0.00061828490711391673 0.012303821418603327 0 0.00066602926239568564 0.012399366300305328 0 0.00061590003673987759 0.012363447681047551 0 0.00061828490711391673 0.012303821418603327 0 0.00056070346346145949 0.012294386694562955 0 0.00061590003673987759 0.012363447681047551 0 0.00061828490711391673 0.012303821418603327 0 0.00061828490711391673 0.012303821418603327 0 0.00065366434632329923 0.012237037521714671 0 0.00068604430848103783 0.012321643261303993 0 0.00061828490711391673 0.012303821418603327 0 0.00065366434632329923 0.012237037521714671 0 0.00058020683425612316 0.012205205993849869 0 0.00075448578681753587 0.012245166938939848 0 0.00065366434632329923 0.012237037521714671 0 0.00068604430848103783 0.012321643261303993 0 0.00073415100502627155 0.012388915742809467 0 0.00069451601698325741 0.01239558388641188 0 0.00068604430848103783 0.012321643261303993 0 0.00073415100502627155 0.012388915742809467 0 0.00075448578681753587 0.012245166938939848 0 0.00068604430848103783 0.012321643261303993 0 0.0008319937194206107 0.012556427900078016 0 0.00083092325599185988 0.010902864837906813 0 0.00076636688946568653 0.012488935365537895 0 0.000773161424818209 0.012433570142260384 0 0.00068400499122820248 0.0123954168664749 0 0.00075448578681753587 0.012245166938939848 0 0.00065366434632329923 0.012237037521714671 0 0.00067716851010259863 0.012116955711255185 0 0.0006306435118400833 0.010883512887363804 0 0.00083092325599185988 0.010902864837906813 0 0.00053699713953907235 0.012110747478631867 0 0.00058020683425612316 0.012205205993849869 0 0.00067716851010259863 0.012116955711255185 0 0.00065366434632329923 0.012237037521714671 0 0.00058020683425612316 0.012205205993849869 0 0.00067716851010259863 0.012116955711255185 0 0.00053699713953907235 0.012110747478631867 0 0.00052389188414871774 0.012218360221598466 0 0.00047104986905623845 0.0121513964772735 0 0.00053699713953907235 0.012110747478631867 0 0.00052389188414871774 0.012218360221598466 0 0.00058020683425612316 0.012205205993849869 0 0.00061828490711391673 0.012303821418603327 0 0.00052389188414871774 0.012218360221598466 0 0.00058020683425612316 0.012205205993849869 0 0.00052389188414871774 0.012218360221598466 0 0.00047104986905623845 0.0121513964772735 0 0.00043310930722579585 0.012204390864386154 0 0.00038452226896914935 0.012065804505866289 0 0.00047104986905623845 0.0121513964772735 0 0.00043310930722579585 0.012204390864386154 0 -0.00045806386745001138 0.0057767353629185622 0 0.00043159532387108799 0.0052666620018469862 0 -0.0005231988283210475 0.0054143544759564979 0 -8.9838445929303292e-05 0.0065030698701412397 0 0.00058270853102268289 0.0068667413043181661 0 -8.9838445929303292e-05 0.0065030698701412397 0 0.0006306435118400833 0.010883512887363804 0 0.00038452226896914935 0.012065804505866289 0 0.00053699713953907235 0.012110747478631867 0 0.00047104986905623845 0.0121513964772735 0 0.00044201023185029017 0.0087026749781582112 0 0.00062290523758384755 0.0087259742320468948 0 0.00058212138530848987 0.0086670882134100308 0 0.00043159532387108799 0.0052666620018469862 0 -0.00014062626402884423 0.004997258234442286 0 -0.0005231988283210475 0.0054143544759564979 0 0.00043159532387108799 0.0052666620018469862 0 -0.00014062626402884423 0.004997258234442286 0 0.00022013761180227241 0.0045962340975399009 0 -0.00014062626402884423 0.004997258234442286 0 0.00022013761180227241 0.0045962340975399009 0 -0.0004906477046842338 0.0046252973532380321 0 0.00022013761180227241 0.0045962340975399009 0 0.0010181337407500074 0.004425302925372002 0 1.658604890131019e-05 0.0038706955197116057 0 0.00022013761180227241 0.0045962340975399009 0 1.658604890131019e-05 0.0038706955197116057 0 -0.0004906477046842338 0.0046252973532380321 0 0.00043159532387108799 0.0052666620018469862 0 0.00022013761180227241 0.0045962340975399009 0 0.0010181337407500074 0.004425302925372002 0 0.00043159532387108799 0.0052666620018469862 0 0.0010181337407500074 0.004425302925372002 0 0.0013093968050855416 0.0047824360351729966 0 0.00062290523758384755 0.0087259742320468948 0 0.00058212138530848987 0.0086670882134100308 0 0.0007332448955076578 0.0085940407744205648 0 0.00058270853102268289 0.0068667413043181661 0 0.00084468076350747675 0.0080921967630567422 0 0.00062290523758384755 0.0087259742320468948 0 0.00082101682282155442 0.0087120192248045288 0 0.0007332448955076578 0.0085940407744205648 0 0.0007463485690376669 0.010647646183201973 0 0.00035602247889223018 0.010174311895508711 0 0.00050148649160205528 0.010092011469723791 0 0.00083092325599185988 0.010902864837906813 0 0.00084468076350747675 0.0080921967630567422 0 0.00060733358154762976 0.010332599173256738 0 0.00097052066113685609 0.011754601546256809 0 0.0007463485690376669 0.010647646183201973 0 0.00050148649160205528 0.010092011469723791 0 0.001340922664987466 0.010532474862330042 0 0.00083092325599185988 0.010902864837906813 0 0.00097052066113685609 0.011754601546256809 0 0.000773161424818209 0.012433570142260384 0 0.00068400499122820248 0.0123954168664749 0 0.0007770444152815695 0.012381166813353125 0 0.00085180961912887699 0.011932986184858144 0 0.00081184161472165346 0.011946745673920395 0 0.00082593808430579435 0.012225693844082243 0 0.00081184161472165346 0.011946745673920395 0 0.00079578043296638296 0.011945501383673032 0 0.00082593808430579435 0.012225693844082243 0 0.00085180961912887699 0.011932986184858144 0 0.00081184161472165346 0.011946745673920395 0 0.00092809789580207446 0.011619163666626285 0 0.00085180961912887699 0.011932986184858144 0 0.00074842791602257905 0.011913266950187698 0 0.00081673730892730767 0.01204429306042082 0 -3.0352614794718688e-05 0.0088699799754041863 0 0.00084468076350747675 0.0080921967630567422 0 -4.0921288182632925e-05 0.0090274648361596301 0 0.00048042148534762399 0.0096400067495361671 0 0.00080704344804272664 0.0094510059546620735 0 -3.0352614794718688e-05 0.0088699799754041863 0 0.00060733358154762976 0.010332599173256738 0 0.00084468076350747675 0.0080921967630567422 0 0.00060733358154762976 0.010332599173256738 0 0.00041728370645404442 0.010784188006434372 0 0.00060733358154762976 0.010332599173256738 0 0.00081184161472165346 0.011946745673920395 0 0.00062286509219517338 0.012114627155888397 0 0.00048779352616142545 0.011706324886620274 0 0.00081184161472165346 0.011946745673920395 0 0.00048779352616142545 0.011706324886620274 0 0.00092809789580207446 0.011619163666626285 0 -0.00018660685408826913 0.011782394415421072 0 0.00062286509219517338 0.012114627155888397 0 0.00048779352616142545 0.011706324886620274 0 -0.00018660685408826913 0.011782394415421072 0 0.00048779352616142545 0.011706324886620274 0 1.6391590948791759e-05 0.010768258094358961 0 1.6391590948791759e-05 0.010768258094358961 0 0.00092809789580207446 0.011619163666626285 0 0.00031212636556051586 0.0093752003972114185 0 0.00048779352616142545 0.011706324886620274 0 1.6391590948791759e-05 0.010768258094358961 0 0.00092809789580207446 0.011619163666626285 0 0.00094265839565582839 0.011533296084260512 0 0.0010759487696296983 0.010361745563374752 0 0.00092809789580207446 0.011619163666626285 0 0.00074842791602257905 0.011913266950187698 0 0.00063457287998858788 0.011956953437061648 0 0.00085180961912887699 0.011932986184858144 0 0.00092809789580207446 0.011619163666626285 0 0.00074842791602257905 0.011913266950187698 0 0.00074842791602257905 0.011913266950187698 0 0.00063457287998858788 0.011956953437061648 0 0.00072644521487574018 0.011980255187561102 0 0.00092809789580207446 0.011619163666626285 0 0.0015575911953908091 0.0087648141136250791 0 0.00031212636556051586 0.0093752003972114185 0 0.0015575911953908091 0.0087648141136250791 0 0.00031212636556051586 0.0093752003972114185 0 0.00060417699335708148 0.0076500999768935969 0 -0.00063352886419332612 0.009488954053959435 0 -0.0018199886009956959 0.0088331319428527465 0 -0.00049530618643487149 0.0083480951819380964 0 0.00031212636556051586 0.0093752003972114185 0 -0.00063352886419332612 0.009488954053959435 0 -0.00049530618643487149 0.0083480951819380964 0 -0.0018199886009956959 0.0088331319428527465 0 -0.0017798403565903505 0.0096323970430271487 0 -0.0023486942285858466 0.0087231330472574663 0 -0.00063352886419332612 0.009488954053959435 0 -0.0018199886009956959 0.0088331319428527465 0 -0.0011301743421089014 0.010367838910880865 0 -0.0018278458314338825 0.0089205133444762857 0 -0.001032243354990211 0.010164103292600478 0 -0.0018199886009956959 0.0088331319428527465 0 -0.0017798403565903505 0.0096323970430271487 0 -0.0012239104976042266 0.0095116109791583484 0 -3.0352614794718688e-05 0.0088699799754041863 0 -0.00097017677571911471 0.0068542594116708872 0 -0.0006472296203860272 0.010143185449684599 0 -0.0017798403565903505 0.0096323970430271487 0 -0.0012239104976042266 0.0095116109791583484 0 -0.00018660685408826913 0.011782394415421072 0 1.6391590948791759e-05 0.010768258094358961 0 -0.0011301743421089014 0.010367838910880865 0 -3.0352614794718688e-05 0.0088699799754041863 0 -0.001032243354990211 0.010164103292600478 0 1.6391590948791759e-05 0.010768258094358961 0 -0.00063352886419332612 0.009488954053959435 0 -0.0011301743421089014 0.010367838910880865 0 1.6391590948791759e-05 0.010768258094358961 0 0.00031212636556051586 0.0093752003972114185 0 -0.00063352886419332612 0.009488954053959435 0 0.0009838739937593332 0.012604851851917417 0 0.00099690984961703648 0.012505818793065665 0 0.00095685848551875638 0.012583084857148754 0 0.00093291119817133397 0.012626386843047739 0 0.00095685848551875638 0.012583084857148754 0 0.00092832091648243666 0.01249600151689889 0 0.00099690984961703648 0.012505818793065665 0 0.00095685848551875638 0.012583084857148754 0 0.00092832091648243666 0.01249600151689889 0 0.00087988796561379074 0.01248624062388062 0 0.00092832091648243666 0.01249600151689889 0 0.00087864598821572296 0.012423197880681594 0 0.00092832091648243666 0.01249600151689889 0 0.00092218112495381845 0.01238083644804509 0 0.00088617254131100238 0.012362839128222758 0 0.00099690984961703648 0.012505818793065665 0 0.00092832091648243666 0.01249600151689889 0 0.00092218112495381845 0.01238083644804509 0 0.00099690984961703648 0.012505818793065665 0 0.00092218112495381845 0.01238083644804509 0 0.0009247207609227485 0.012270829647179845 0 0.00092218112495381845 0.01238083644804509 0 0.00085031811541616607 0.012226725334595533 0 0.0009247207609227485 0.012270829647179845 0 0.00085031811541616607 0.012226725334595533 0 0.00088617254131100238 0.012362839128222758 0 0.00085037941243328919 0.012278148926867632 0 0.00085031811541616607 0.012226725334595533 0 0.00085037941243328919 0.012278148926867632 0 0.00083235133473646451 0.012192430413370519 0 0.00092218112495381845 0.01238083644804509 0 0.00085031811541616607 0.012226725334595533 0 0.00088617254131100238 0.012362839128222758 0 0.00092832091648243666 0.01249600151689889 0 0.00088617254131100238 0.012362839128222758 0 0.00087864598821572296 0.012423197880681594 0 0.00088617254131100238 0.012362839128222758 0 0.00087864598821572296 0.012423197880681594 0 0.00085914996248474785 0.01235831053641207 0 0.00087988796561379074 0.01248624062388062 0 0.00087864598821572296 0.012423197880681594 0 0.00085383695484975988 0.012427596512235472 0 0.00080953374705355766 0.012450039160992857 0 0.00083186309880352706 0.012393872365659416 0 0.00085383695484975988 0.012427596512235472 0 0.00087864598821572296 0.012423197880681594 0 0.00085383695484975988 0.012427596512235472 0 0.00085914996248474785 0.01235831053641207 0 0.00083186309880352706 0.012393872365659416 0 0.00085383695484975988 0.012427596512235472 0 0.00085914996248474785 0.01235831053641207 0 0.00083186309880352706 0.012393872365659416 0 0.00085914996248474785 0.01235831053641207 0 0.00082976789485789517 0.012302006940393092 0 0.00088617254131100238 0.012362839128222758 0 0.00085914996248474785 0.01235831053641207 0 0.00085037941243328919 0.012278148926867632 0 0.00085914996248474785 0.01235831053641207 0 0.00085037941243328919 0.012278148926867632 0 0.00082976789485789517 0.012302006940393092 0 0.00085037941243328919 0.012278148926867632 0 0.00082976789485789517 0.012302006940393092 0 0.00083235133473646451 0.012192430413370519 0 0.00082976789485789517 0.012302006940393092 0 0.00082593808430579435 0.012225693844082243 0 0.00083235133473646451 0.012192430413370519 0 0.00083186309880352706 0.012393872365659416 0 0.00082976789485789517 0.012302006940393092 0 0.00079291162710755576 0.012389588005247351 0 0.00082976789485789517 0.012302006940393092 0 0.00079291162710755576 0.012389588005247351 0 0.00069181212532850819 0.012336647733865639 0 0.00077563427707436322 0.012022327647928203 0 0.00097052066113685609 0.011754601546256809 0 0.00095356145804096899 0.011957658006999159 0 0.00097052066113685609 0.011754601546256809 0 0.00080953374705355766 0.012450039160992857 0 0.00083186309880352706 0.012393872365659416 0 0.00079291162710755576 0.012389588005247351 0 0.000773161424818209 0.012433570142260384 0 0.00079291162710755576 0.012389588005247351 0 0.0007770444152815695 0.012381166813353125 0 0.00082593808430579435 0.012225693844082243 0 0.00083235133473646451 0.012192430413370519 0 0.00081673730892730767 0.01204429306042082 0 0.00085031811541616607 0.012226725334595533 0 0.00081673730892730767 0.01204429306042082 0 0.00079296860274083556 0.012079221387308325 0 0.00085031811541616607 0.012226725334595533 0 0.00083235133473646451 0.012192430413370519 0 0.00081673730892730767 0.01204429306042082 0 0.00085180961912887699 0.011932986184858144 0 0.00082593808430579435 0.012225693844082243 0 0.00081673730892730767 0.01204429306042082 0 0.00074842791602257905 0.011913266950187698 0 0.00081673730892730767 0.01204429306042082 0 0.00079296860274083556 0.012079221387308325 0 0.00074842791602257905 0.011913266950187698 0 0.00079296860274083556 0.012079221387308325 0 0.00072644521487574018 0.011980255187561102 0 0.00072644521487574018 0.011980255187561102 0 0.0008237467526028973 0.012035622604312115 0 0.00073032430344544712 0.011800466091558628 0 0.00063457287998858788 0.011956953437061648 0 0.00072644521487574018 0.011980255187561102 0 0.00073032430344544712 0.011800466091558628 0 0.00079296860274083556 0.012079221387308325 0 0.00072644521487574018 0.011980255187561102 0 0.0008237467526028973 0.012035622604312115 0 0.0008237467526028973 0.012035622604312115 0 0.0009247207609227485 0.012270829647179845 0 0.00093935624217022303 0.011927088470961777 0 0.00079296860274083556 0.012079221387308325 0 0.0008237467526028973 0.012035622604312115 0 0.0009247207609227485 0.012270829647179845 0 0.00085031811541616607 0.012226725334595533 0 0.00079296860274083556 0.012079221387308325 0 0.0009247207609227485 0.012270829647179845 0 0.0010922507344081809 0.012459199582191884 0 0.0012671810505364459 0.011791291368613359 0 0.00093935624217022303 0.011927088470961777 0 0.001606056274167485 0.012080668448278844 0 0.0010922507344081809 0.012459199582191884 0 0.0012671810505364459 0.011791291368613359 0 0.00099690984961703648 0.012505818793065665 0 0.0009247207609227485 0.012270829647179845 0 0.0010922507344081809 0.012459199582191884 0 0.0009247207609227485 0.012270829647179845 0 0.0010922507344081809 0.012459199582191884 0 0.00093935624217022303 0.011927088470961777 0 0.0009838739937593332 0.012604851851917417 0 0.00099690984961703648 0.012505818793065665 0 0.0010922507344081809 0.012459199582191884 0 0.0012671810505364459 0.011791291368613359 0 0.0010628957715805706 0.011577696287587797 0 0.0013083840356457712 0.011274636873673353 0 0.0016093399179112908 0.011578571865891805 0 0.0012671810505364459 0.011791291368613359 0 0.0013083840356457712 0.011274636873673353 0 0.0012671810505364459 0.011791291368613359 0 0.00093935624217022303 0.011927088470961777 0 0.0010628957715805706 0.011577696287587797 0 0.00093935624217022303 0.011927088470961777 0 0.0010628957715805706 0.011577696287587797 0 0.0008391494310991403 0.01159445685225281 0 0.0010628957715805706 0.011577696287587797 0 0.0008391494310991403 0.01159445685225281 0 0.00094791147453357233 0.011314127093481518 0 0.0008391494310991403 0.01159445685225281 0 0.00073032430344544712 0.011800466091558628 0 0.00064972963545425664 0.011547471398393133 0 0.0008391494310991403 0.01159445685225281 0 0.00064972963545425664 0.011547471398393133 0 0.0007103403047806281 0.01135173422091823 0 0.00093935624217022303 0.011927088470961777 0 0.0008391494310991403 0.01159445685225281 0 0.00073032430344544712 0.011800466091558628 0 0.0008237467526028973 0.012035622604312115 0 0.00093935624217022303 0.011927088470961777 0 0.00073032430344544712 0.011800466091558628 0 0.00064972963545425664 0.011547471398393133 0 0.0005482545523226083 0.011361941245656496 0 0.00045129021421040345 0.011590225030103452 0 0.00073032430344544712 0.011800466091558628 0 0.00064972963545425664 0.011547471398393133 0 0.00045129021421040345 0.011590225030103452 0 0.00064972963545425664 0.011547471398393133 0 0.0005482545523226083 0.011361941245656496 0 0.0007103403047806281 0.01135173422091823 0 0.0005482545523226083 0.011361941245656496 0 0.00059898703493064165 0.011164303223336327 0 0.0007103403047806281 0.01135173422091823 0 0.0005482545523226083 0.011361941245656496 0 0.00059898703493064165 0.011164303223336327 0 0.00035711992812578031 0.011087603371435136 0 0.00059898703493064165 0.011164303223336327 0 0.00035711992812578031 0.011087603371435136 0 0.00059693460086073197 0.010896300471344898 0 0.00059898703493064165 0.011164303223336327 0 0.00078059191357500478 0.011101803407995405 0 0.00059693460086073197 0.010896300471344898 0 0.00078059191357500478 0.011101803407995405 0 0.00080413877407821627 0.010855700257492426 0 0.00059693460086073197 0.010896300471344898 0 0.00078059191357500478 0.011101803407995405 0 0.0010227524375514803 0.010994984804973877 0 0.00080413877407821627 0.010855700257492426 0 0.00078059191357500478 0.011101803407995405 0 0.0007103403047806281 0.01135173422091823 0 0.00094791147453357233 0.011314127093481518 0 0.0008391494310991403 0.01159445685225281 0 0.0007103403047806281 0.01135173422091823 0 0.00094791147453357233 0.011314127093481518 0 0.00059898703493064165 0.011164303223336327 0 0.00078059191357500478 0.011101803407995405 0 0.0007103403047806281 0.01135173422091823 0 0.0010628957715805706 0.011577696287587797 0 0.00094791147453357233 0.011314127093481518 0 0.0013083840356457712 0.011274636873673353 0 0.00094791147453357233 0.011314127093481518 0 0.0010227524375514803 0.010994984804973877 0 0.0013083840356457712 0.011274636873673353 0 0.00078059191357500478 0.011101803407995405 0 0.00094791147453357233 0.011314127093481518 0 0.0010227524375514803 0.010994984804973877 0 0.0010227524375514803 0.010994984804973877 0 0.0013083840356457712 0.011274636873673353 0 0.0013268356326914435 0.010756268797092792 0 0.0016134585276491088 0.010942578012295048 0 0.0013083840356457712 0.011274636873673353 0 0.0013268356326914435 0.010756268797092792 0 -0.00011651018450782983 0.0070028372768917114 0 -0.00075430729129455159 0.0063837915599314994 0 -0.0012694924729446662 0.0073453365275818784 0 -0.00011651018450782983 0.0070028372768917114 0 -0.00075430729129455159 0.0063837915599314994 0 -0.00012738437973426286 0.0059930474935334255 0 -0.00075430729129455159 0.0063837915599314994 0 -0.0015025637141460335 0.0061240548167412487 0 -0.0012694924729446662 0.0073453365275818784 0 -0.0015025637141460335 0.0061240548167412487 0 -0.0012694924729446662 0.0073453365275818784 0 -0.0021206611124074425 0.0066912281208902288 0 -0.0018199886009956959 0.0088331319428527465 0 -0.0012694924729446662 0.0073453365275818784 0 -0.0022185719642710553 0.0077216768610176706 0 -0.0018199886009956959 0.0088331319428527465 0 -0.0012694924729446662 0.0073453365275818784 0 -0.00049530618643487149 0.0083480951819380964 0 -0.0012694924729446662 0.0073453365275818784 0 -0.0021206611124074425 0.0066912281208902288 0 -0.0022185719642710553 0.0077216768610176706 0 -0.00011651018450782983 0.0070028372768917114 0 -0.00049530618643487149 0.0083480951819380964 0 0.00060417699335708148 0.0076500999768935969 0 -0.00011651018450782983 0.0070028372768917114 0 -0.0012694924729446662 0.0073453365275818784 0 -0.00049530618643487149 0.0083480951819380964 0 0.00031212636556051586 0.0093752003972114185 0 -0.00049530618643487149 0.0083480951819380964 0 0.00060417699335708148 0.0076500999768935969 0 0.00063457287998858788 0.011956953437061648 0 0.00073032430344544712 0.011800466091558628 0 0.00045129021421040345 0.011590225030103452 0 0.0010759487696296983 0.010361745563374752 0 0.0010003890823158958 0.0091165632970687145 0 0.0015575911953908091 0.0087648141136250791 0 0.00060417699335708148 0.0076500999768935969 0 0.0015661151098381916 0.0066044557663886656 0 0.00060417699335708148 0.0076500999768935969 0 0.0015661151098381916 0.0066044557663886656 0 0.00064480189916582336 0.0063348931496535329 0 -0.00011651018450782983 0.0070028372768917114 0 0.00060417699335708148 0.0076500999768935969 0 0.00064480189916582336 0.0063348931496535329 0 -0.00011651018450782983 0.0070028372768917114 0 0.00064480189916582336 0.0063348931496535329 0 -0.00012738437973426286 0.0059930474935334255 0 0.00064480189916582336 0.0063348931496535329 0 0.00060396623148879325 0.0054912231300459384 0 0.0011796514817982568 0.005450345681652485 0 0.00064480189916582336 0.0063348931496535329 0 0.00060396623148879325 0.0054912231300459384 0 -0.00012738437973426286 0.0059930474935334255 0 0.0015661151098381916 0.0066044557663886656 0 0.0011796514817982568 0.005450345681652485 0 0.0013954701340930728 0.0052506121561737389 0 0.0005482545523226083 0.011361941245656496 0 0.00045129021421040345 0.011590225030103452 0 0.00035711992812578031 0.011087603371435136 0 0.0015661151098381916 0.0066044557663886656 0 0.00064480189916582336 0.0063348931496535329 0 0.0011796514817982568 0.005450345681652485 0 0.0010003890823158958 0.0091165632970687145 0 0.00094301129778649002 0.0081587063814425927 0 0.0011539958516519006 0.0054263506070478624 0 0.00090681482448723286 0.0048602464009414011 0 0.0011796514817982568 0.005450345681652485 0 0.0013954701340930728 0.0052506121561737389 0 0.0011280658394549252 0.0049254783706062458 0 0.00060396623148879325 0.0054912231300459384 0 0.00063316603523582316 0.0050737118733306524 0 0.00028925986421465328 0.0048473426742912731 0 0.0011796514817982568 0.005450345681652485 0 0.00063316603523582316 0.0050737118733306524 0 0.00066605597776369079 0.0046961853421126935 0 0.00057065085203106291 0.00541045680588994 0 4.5824587611542202e-05 0.0044161102769772814 0 0.00060396623148879325 0.0054912231300459384 0 0.0011796514817982568 0.005450345681652485 0 0.00063316603523582316 0.0050737118733306524 0 0.00060396623148879325 0.0054912231300459384 0 -0.00073800370903945593 0.0052469161574339651 0 -0.00021615783766811494 0.0039043439994622376 0 -0.00073800370903945593 0.0052469161574339651 0 -0.0015145218204430024 0.0041962344540160384 0 -0.00021615783766811494 0.0039043439994622376 0 -0.00075430729129455159 0.0063837915599314994 0 -0.00073800370903945593 0.0052469161574339651 0 -0.00012738437973426286 0.0059930474935334255 0 0.00060396623148879325 0.0054912231300459384 0 -0.00073800370903945593 0.0052469161574339651 0 -0.00012738437973426286 0.0059930474935334255 0 -0.00075430729129455159 0.0063837915599314994 0 -0.0015025637141460335 0.0061240548167412487 0 -0.00073800370903945593 0.0052469161574339651 0 -0.0015025637141460335 0.0061240548167412487 0 -0.00073800370903945593 0.0052469161574339651 0 -0.0017167784963004397 0.005151304073904084 0 -0.00073800370903945593 0.0052469161574339651 0 -0.0017167784963004397 0.005151304073904084 0 -0.0015145218204430024 0.0041962344540160384 0 -0.0015145218204430024 0.0041962344540160384 0 -0.0022881161642420724 0.0045887290174332351 0 -0.0024449859036142479 0.0036866755980335055 0 -0.0017167784963004397 0.005151304073904084 0 -0.0015145218204430024 0.0041962344540160384 0 -0.0022881161642420724 0.0045887290174332351 0 -0.0022881161642420724 0.0045887290174332351 0 -0.0029247712848665072 0.0042459335085190579 0 -0.0024449859036142479 0.0036866755980335055 0 -0.0029247712848665072 0.0042459335085190579 0 -0.0032771303053345034 0.004079407554583827 0 -0.0030354789014919227 0.0036537570408795663 0 -0.0032771303053345034 0.004079407554583827 0 -0.0033219075211730134 0.0036224953334871978 0 -0.0030354789014919227 0.0036537570408795663 0 -0.0029247712848665072 0.0042459335085190579 0 -0.0032771303053345034 0.004079407554583827 0 -0.0032250936950448199 0.0045325339753891506 0 -0.0032250936950448199 0.0045325339753891506 0 -0.0027846567936208673 0.0048638453966314008 0 -0.0033619373381519047 0.0050897312934761541 0 -0.0032771303053345034 0.004079407554583827 0 -0.0032250936950448199 0.0045325339753891506 0 -0.0038336336001856606 0.0044037166073299765 0 -0.0032250936950448199 0.0045325339753891506 0 -0.0033619373381519047 0.0050897312934761541 0 -0.0038336336001856606 0.0044037166073299765 0 -0.0029247712848665072 0.0042459335085190579 0 -0.0032250936950448199 0.0045325339753891506 0 -0.0027846567936208673 0.0048638453966314008 0 -0.0022881161642420724 0.0045887290174332351 0 -0.0029247712848665072 0.0042459335085190579 0 -0.0027846567936208673 0.0048638453966314008 0 -0.0027846567936208673 0.0048638453966314008 0 -0.0033619373381519047 0.0050897312934761541 0 -0.0025251209509469822 0.0056543606060555432 0 -0.0033619373381519047 0.0050897312934761541 0 -0.0025251209509469822 0.0056543606060555432 0 -0.0037409984785217215 0.0059844875388136085 0 -0.0022881161642420724 0.0045887290174332351 0 -0.0027846567936208673 0.0048638453966314008 0 -0.0025251209509469822 0.0056543606060555432 0 -0.0015025637141460335 0.0061240548167412487 0 -0.0017167784963004397 0.005151304073904084 0 -0.0025251209509469822 0.0056543606060555432 0 -0.0017167784963004397 0.005151304073904084 0 -0.0022881161642420724 0.0045887290174332351 0 -0.0025251209509469822 0.0056543606060555432 0 -0.0019995538671157493 -0.0021395118303764076 0 -0.0019130350407234702 -0.0022632295557722128 0 -0.0018946912733779778 -0.0023194548077214812 0 -0.0019995538671157493 -0.0021395118303764076 0 -0.0018946912733779778 -0.0023194548077214812 0 -0.0019583648248239936 -0.0022615900369773755 0 -0.0019995538671157493 -0.0021395118303764076 0 -0.0020400128400324116 -0.0020796241106617003 0 -0.0019583648248239936 -0.0022615900369773755 0 -0.0019995538671157493 -0.0021395118303764076 0 -0.0020400128400324116 -0.0020796241106617003 0 -0.0020681784460466674 -0.0019753579218378253 0 -0.0019995538671157493 -0.0021395118303764076 0 -0.0020681784460466674 -0.0019753579218378253 0 -0.0019130350407234702 -0.0022632295557722128 0 -0.0028074591488961033 -0.00081618099213889405 0 -0.0023320646663240055 -0.0016296853618099896 0 -0.002913021751876846 0.002354498042270536 0 -0.0024390063514690792 -0.0016242412005259992 0 -0.0024065311470448537 -0.00011956271575059031 0 -0.0020400128400324116 -0.0020796241106617003 0 -0.0023320646663240055 -0.0016296853618099896 0 -0.0018754823971891483 -0.0023434371672043206 0 -0.0020400128400324116 -0.0020796241106617003 0 -0.0020681784460466674 -0.0019753579218378253 0 -0.0023320646663240055 -0.0016296853618099896 0 -0.0038336336001856606 0.0044037166073299765 0 -0.0033915570741162018 0.0034390725486156213 0 -0.0033219075211730134 0.0036224953334871978 0 -0.0032771303053345034 0.004079407554583827 0 -0.0038336336001856606 0.0044037166073299765 0 -0.0033219075211730134 0.0036224953334871978 0 -0.0033619373381519047 0.0050897312934761541 0 -0.0038336336001856606 0.0044037166073299765 0 -0.0037409984785217215 0.0059844875388136085 0 -0.0023320646663240055 -0.0016296853618099896 0 -0.0022733495079199648 -0.0024142945459092865 0 -0.0024528821742702193 -0.002587557110562023 0 -0.0023320646663240055 -0.0016296853618099896 0 -0.0020723095367004662 -0.0021236554501059875 0 -0.0022733495079199648 -0.0024142945459092865 0 -0.0032828186358985602 0.0019248808838280319 0 -0.0030881214264564371 0.0017784617274560299 0 -0.0028074591488961033 -0.00081618099213889405 0 -0.0023320646663240055 -0.0016296853618099896 0 -0.0024528821742702193 -0.002587557110562023 0 -0.0020681784460466674 -0.0019753579218378253 0 -0.0023320646663240055 -0.0016296853618099896 0 -0.0020723095367004662 -0.0021236554501059875 0 -0.0019578610714940546 -0.0022100148758654238 0 -0.0019089069383222219 -0.0022479979729638009 0 -0.0019130350407234702 -0.0022632295557722128 0 -0.0020681784460466674 -0.0019753579218378253 0 -0.0020723095367004662 -0.0021236554501059875 0 -0.0019578610714940546 -0.0022100148758654238 0 -0.0020723095367004662 -0.0021236554501059875 0 -0.0019578610714940546 -0.0022100148758654238 0 -0.0019832678190668269 -0.0022576747734938643 0 -0.0020681784460466674 -0.0019753579218378253 0 -0.0019578610714940546 -0.0022100148758654238 0 -0.0019130350407234702 -0.0022632295557722128 0 -0.0011252373974037146 -0.00091892829751240236 0 -0.0014993582371980014 -0.0008700663615299007 0 -0.0014492240898152512 -0.0011266891329105987 0 -0.0021504019359879791 -0.0023013541916001566 0 -0.001900305780869031 -0.0020089473369292359 0 -0.0019832678190668269 -0.0022576747734938643 0 -0.0020245061095224893 -0.0023687583878207832 0 -0.0019089069383222219 -0.0022479979729638009 0 -0.0020723095367004662 -0.0021236554501059875 0 -0.0019832678190668269 -0.0022576747734938643 0 -0.0020245061095224893 -0.0023687583878207832 0 -0.001900305780869031 -0.0020089473369292359 0 -0.0016099644535591243 -0.0015896254591165355 0 -0.0019578610714940546 -0.0022100148758654238 0 -0.0019832678190668269 -0.0022576747734938643 0 -0.0019089069383222219 -0.0022479979729638009 0 -0.0020723095367004662 -0.0021236554501059875 0 -0.0022733495079199648 -0.0024142945459092865 0 -0.0023324992837594448 -0.0025320602463499132 0 -0.0022733495079199648 -0.0024142945459092865 0 -0.0023449820256722814 -0.0024809902119943003 0 -0.0023324992837594448 -0.0025320602463499132 0 -0.0022733495079199648 -0.0024142945459092865 0 -0.0023449820256722814 -0.0024809902119943003 0 -0.0024528821742702193 -0.002587557110562023 0 -0.0023825775098840988 -0.0023587620830818681 0 -0.0020297319816445169 -0.0022774443870019969 0 -0.0022361096977798539 -0.0018163120387615092 0 -0.0023825775098840988 -0.0023587620830818681 0 -0.0026342769847897641 -0.0020539653312878943 0 -0.0022361096977798539 -0.0018163120387615092 0 -0.0023449820256722814 -0.0024809902119943003 0 -0.0023825775098840988 -0.0023587620830818681 0 -0.0020297319816445169 -0.0022774443870019969 0 -0.0023449820256722814 -0.0024809902119943003 0 -0.0023825775098840988 -0.0023587620830818681 0 -0.0023324992837594448 -0.0025320602463499132 0 -0.0023825775098840988 -0.0023587620830818681 0 -0.0026091778632679119 -0.0024877355602926717 0 -0.0026342769847897641 -0.0020539653312878943 0 -0.0023968681271907197 -0.0023460314308246084 0 -0.001900305780869031 -0.0020089473369292359 0 -0.0011252373974037146 -0.00091892829751240236 0 -0.0011378596184274739 -0.00069554768141804897 0 -0.0014993582371980014 -0.0008700663615299007 0 -0.00060463470157488342 -0.00035856563892725624 0 -0.0010466741382951627 -0.00029490473242532598 0 -0.0012593124531364388 -0.00070071775683474234 0 -0.0017807854607486231 -9.1921137600560777e-05 0 -0.0012268755977061824 -0.00080099064733894765 0 -0.001900305780869031 -0.0020089473369292359 0 -0.0017807854607486231 -9.1921137600560777e-05 0 -0.0025251209509469822 0.0056543606060555432 0 -0.0021206611124074425 0.0066912281208902288 0 -0.0028525343992684984 0.0068211357185906096 0 -0.0015025637141460335 0.0061240548167412487 0 -0.0025251209509469822 0.0056543606060555432 0 -0.0021206611124074425 0.0066912281208902288 0 -0.0021206611124074425 0.0066912281208902288 0 -0.0028525343992684984 0.0068211357185906096 0 -0.0022185719642710553 0.0077216768610176706 0 -0.0030881214264564371 0.0017784617274560299 0 -0.0028747790815245545 0.0026216662556797859 0 -0.0023449820256722814 -0.0024809902119943003 0 -0.0024528821742702193 -0.002587557110562023 0 -0.0020297319816445169 -0.0022774443870019969 0 -0.0037409984785217215 0.0059844875388136085 0 -0.0028525343992684984 0.0068211357185906096 0 -0.0035175485657135946 0.0075461043320593935 0 -0.0025251209509469822 0.0056543606060555432 0 -0.0037409984785217215 0.0059844875388136085 0 -0.0028525343992684984 0.0068211357185906096 0 -0.0028525343992684984 0.0068211357185906096 0 -0.0035175485657135946 0.0075461043320593935 0 -0.0028319742053274388 0.0081650503401997122 0 -0.0028525343992684984 0.0068211357185906096 0 -0.0028319742053274388 0.0081650503401997122 0 -0.0022185719642710553 0.0077216768610176706 0 -0.0028319742053274388 0.0081650503401997122 0 -0.0022185719642710553 0.0077216768610176706 0 -0.0023486942285858466 0.0087231330472574663 0 -0.0018199886009956959 0.0088331319428527465 0 -0.0022185719642710553 0.0077216768610176706 0 -0.0023486942285858466 0.0087231330472574663 0 -0.0017798403565903505 0.0096323970430271487 0 -0.0023486942285858466 0.0087231330472574663 0 -0.003129604648014683 0.008980384945533746 0 -0.0028319742053274388 0.0081650503401997122 0 -0.0023486942285858466 0.0087231330472574663 0 -0.003129604648014683 0.008980384945533746 0 1.658604890131019e-05 0.0038706955197116057 0 -0.00089033071577495531 0.0037012894128789164 0 -0.00099638757697486442 0.0033131085419168525 0 1.658604890131019e-05 0.0038706955197116057 0 -0.00089033071577495531 0.0037012894128789164 0 -0.00060310327620080638 0.0041298204919333033 0 -0.00097017677571911471 0.0068542594116708872 0 -0.0012747452506532394 0.0036719498684743244 0 -0.0011619659209154858 0.004034121129989853 0 -0.001371881224064771 0.0035822930118958162 0 -0.0017350014781761288 0.0040751286299203406 0 -0.0011619659209154858 0.004034121129989853 0 -0.00089033071577495531 0.0037012894128789164 0 -0.001371881224064771 0.0035822930118958162 0 -0.0011619659209154858 0.004034121129989853 0 -0.00089033071577495531 0.0037012894128789164 0 -0.00060310327620080638 0.0041298204919333033 0 -0.00089033071577495531 0.0037012894128789164 0 -0.001371881224064771 0.0035822930118958162 0 -0.00099209387137785734 0.0032549464806900857 0 -0.0010747377891098568 0.0035990521356273376 0 -0.0012747452506532394 0.0036719498684743244 0 -0.0035175485657135946 0.0075461043320593935 0 -0.0028319742053274388 0.0081650503401997122 0 -0.003129604648014683 0.008980384945533746 0 -0.0028747790815245545 0.0026216662556797859 0 -0.0012747452506532394 0.0036719498684743244 0 -0.001371881224064771 0.0035822930118958162 0 -0.00099209387137785734 0.0032549464806900857 0 -0.0016334210266257844 0.0029043161895542231 0 -0.0020297319816445169 -0.0022774443870019969 0 -0.0017636713856623533 -0.0015284193316750093 0 -0.0022361096977798539 -0.0018163120387615092 0 -0.0012747452506532394 0.0036719498684743244 0 -0.002202044458227605 0.000463226753089628 0 -0.001371881224064771 0.0035822930118958162 0 -0.0016334210266257844 0.0029043161895542231 0 -0.0023136073359892916 0.0036274847060709815 0 -0.0022836946706831195 0.0025560089001781983 0 -0.0016334210266257844 0.0029043161895542231 0 -0.0023136073359892916 0.0036274847060709815 0 -0.0017807854607486231 -9.1921137600560777e-05 0 -0.002202044458227605 0.000463226753089628 0 -0.0017807854607486231 -9.1921137600560777e-05 0 -0.0015049404902014237 0.0023791354963150603 0 -0.00060463470157488342 -0.00035856563892725624 0 -0.00095170245364835262 1.8712338236617289e-05 0 -0.00062925366125403284 0.00034162190982000554 0 -0.00060463470157488342 -0.00035856563892725624 0 -0.00095170245364835262 1.8712338236617289e-05 0 -0.0010466741382951627 -0.00029490473242532598 0 -0.00095170245364835262 1.8712338236617289e-05 0 -0.00062925366125403284 0.00034162190982000554 0 -0.001113866391453999 0.00038148649210566324 0 -0.00062925366125403284 0.00034162190982000554 0 -0.00092359657628792477 0.00062933269457965467 0 -0.001113866391453999 0.00038148649210566324 0 -0.001371881224064771 0.0035822930118958162 0 -0.0023136073359892916 0.0036274847060709815 0 -0.0017350014781761288 0.0040751286299203406 0 -0.0017350014781761288 0.0040751286299203406 0 -0.0015199243321439154 0.004491490654423792 0 -0.00233297116255087 0.0046369011905560914 0 -0.0023136073359892916 0.0036274847060709815 0 -0.0017350014781761288 0.0040751286299203406 0 -0.00233297116255087 0.0046369011905560914 0 -0.0015199243321439154 0.004491490654423792 0 -0.00233297116255087 0.0046369011905560914 0 -0.001453647493096639 0.0050146753461678354 0 -0.00057790447494661032 0.0011155154416386036 0 -0.0010109714472800154 0.0011568407544990883 0 -0.001231338430628483 0.00079179840804391444 0 -0.00062925366125403284 0.00034162190982000554 0 -0.00092359657628792477 0.00062933269457965467 0 -0.00065669850534542972 0.001040825713833831 0 -0.0015049404902014237 0.0023791354963150603 0 -0.00087759834966123437 0.0020618780748176491 0 -0.00087759834966123437 0.0020618780748176491 0 -0.0012674501253457835 0.00067501256249020178 0 -0.00092359657628792477 0.00062933269457965467 0 -0.00065669850534542972 0.001040825713833831 0 -0.0012938170132837474 0.0007540433206573888 0 -0.00080055922031583193 0.0012936676447800226 0 -0.00077746687542005533 0.0014867725370308886 0 -0.001024697334797008 0.0013855239327047394 0 -0.00057790447494661032 0.0011155154416386036 0 -0.00080055922031583193 0.0012936676447800226 0 -0.0010109714472800154 0.0011568407544990883 0 -0.00080055922031583193 0.0012936676447800226 0 -0.001024697334797008 0.0013855239327047394 0 -0.0010109714472800154 0.0011568407544990883 0 -0.00080055922031583193 0.0012936676447800226 0 -0.00059768565365367777 0.0013489323047188536 0 -0.00077746687542005533 0.0014867725370308886 0 -0.00057790447494661032 0.0011155154416386036 0 -0.00080055922031583193 0.0012936676447800226 0 -0.00059768565365367777 0.0013489323047188536 0 -0.00087759834966123437 0.0020618780748176491 0 -0.00074780343192782999 0.0013576740378851821 0 -0.0007271002501031957 0.0017134948830405201 0 -0.00077746687542005533 0.0014867725370308886 0 -0.00042183251803179977 0.0016016452716762592 0 -0.00059768565365367777 0.0013489323047188536 0 -0.00077746687542005533 0.0014867725370308886 0 -0.00042183251803179977 0.0016016452716762592 0 -0.0010511017325713883 0.0017595680252349003 0 -0.00077746687542005533 0.0014867725370308886 0 -0.001024697334797008 0.0013855239327047394 0 -0.0007271002501031957 0.0017134948830405201 0 -0.0010511017325713883 0.0017595680252349003 0 -0.00077746687542005533 0.0014867725370308886 0 -0.00059768565365367777 0.0013489323047188536 0 -0.00042183251803179977 0.0016016452716762592 0 2.9835990993502188e-06 0.0014064592741034176 0 -0.00058982059295355064 0.0011398782599694416 0 -0.00059768565365367777 0.0013489323047188536 0 2.9835990993502188e-06 0.0014064592741034176 0 -0.00087759834966123437 0.0020618780748176491 0 -0.00072871100082486876 0.0032215842646147368 0 -8.9749214788278212e-05 0.0018150581808565175 0 -0.00042183251803179977 0.0016016452716762592 0 2.9835990993502188e-06 0.0014064592741034176 0 -0.00072871100082486876 0.0032215842646147368 0 -0.00052577172624056895 0.004214653115819777 0 -0.001453647493096639 0.0050146753461678354 0 -0.00090665739311684187 0.0047974968390445205 0 -0.00069053899652937181 0.0051131462815609532 0 -0.001453647493096639 0.0050146753461678354 0 -0.00059640479059481621 0.0053777270801624233 0 -0.00069053899652937181 0.0051131462815609532 0 0.0002858790153404307 0.0018008046006042302 0 2.9835990993502188e-06 0.0014064592741034176 0 0.00061581001868594651 0.0016914174341489366 0 0.0002858790153404307 0.0018008046006042302 0 -8.9749214788278212e-05 0.0018150581808565175 0 2.9835990993502188e-06 0.0014064592741034176 0 -0.00059684347438595305 0.0053833897461586511 0 -0.0005231988283210475 0.0054143544759564979 0 -0.00047817940595675613 0.005170492911232367 0 -0.00052577172624056895 0.004214653115819777 0 -0.0004879170302162763 0.0042722090509579886 0 -0.00052577172624056895 0.004214653115819777 0 -0.00043419935952031865 0.0049585430507071097 0 -0.00059684347438595305 0.0053833897461586511 0 -0.00069053899652937181 0.0051131462815609532 0 -0.00047817940595675613 0.005170492911232367 0 -0.00014062626402884423 0.004997258234442286 0 -0.0005231988283210475 0.0054143544759564979 0 -0.00047817940595675613 0.005170492911232367 0 -0.00014062626402884423 0.004997258234442286 0 -0.00047817940595675613 0.005170492911232367 0 -0.0004906477046842338 0.0046252973532380321 0 -0.00090665739311684187 0.0047974968390445205 0 -0.00069053899652937181 0.0051131462815609532 0 -0.0004906477046842338 0.0046252973532380321 0 -0.00069053899652937181 0.0051131462815609532 0 -0.00047817940595675613 0.005170492911232367 0 -0.0004906477046842338 0.0046252973532380321 0 -0.00090665739311684187 0.0047974968390445205 0 -0.0004906477046842338 0.0046252973532380321 0 -0.00099589693832029215 0.0044385970453554181 0 1.658604890131019e-05 0.0038706955197116057 0 -0.0004906477046842338 0.0046252973532380321 0 -0.00060310327620080638 0.0041298204919333033 0 -0.0004906477046842338 0.0046252973532380321 0 -0.00060310327620080638 0.0041298204919333033 0 -0.00099589693832029215 0.0044385970453554181 0 -0.0011619659209154858 0.004034121129989853 0 -0.00060310327620080638 0.0041298204919333033 0 -0.00099589693832029215 0.0044385970453554181 0 -0.0011619659209154858 0.004034121129989853 0 -0.0017350014781761288 0.0040751286299203406 0 -0.0015199243321439154 0.004491490654423792 0 -0.0011619659209154858 0.004034121129989853 0 -0.0015199243321439154 0.004491490654423792 0 -0.00099589693832029215 0.0044385970453554181 0 -0.0015199243321439154 0.004491490654423792 0 -0.001453647493096639 0.0050146753461678354 0 -0.00099589693832029215 0.0044385970453554181 0 -0.001453647493096639 0.0050146753461678354 0 -0.00090665739311684187 0.0047974968390445205 0 -0.00099589693832029215 0.0044385970453554181 0 -0.0024622102430008953 0.00094136116303351447 0 -0.0019583465310880829 0.0013065109381700114 0 -0.0017071002723700827 0.00087744408786479846 0 -0.0024622102430008953 0.00094136116303351447 0 -0.0017071002723700827 0.00087744408786479846 0 -0.0019126505357208981 0.00047447566171584523 0 -0.0024622102430008953 0.00094136116303351447 0 -0.0025362325754756743 0.00030796037704947787 0 -0.0028444949764617907 0.00058991305802762542 0 -0.0024622102430008953 0.00094136116303351447 0 -0.0028444949764617907 0.00058991305802762542 0 -0.0029899242817560553 0.0009836133548000519 0 -0.0024622102430008953 0.00094136116303351447 0 -0.0027636961627693938 0.0013451278051407412 0 -0.0029899242817560553 0.0009836133548000519 0 -0.0026292051854052787 0.0015773693477281862 0 -0.0024622102430008953 0.00094136116303351447 0 -0.0027636961627693938 0.0013451278051407412 0 -0.0023866026632826101 0.000541464868443971 0 -0.0026485003417173586 -3.4712586071019429e-05 0 -0.0023866026632826101 0.000541464868443971 0 -0.0019984935705580948 0.0014836011747969011 0 -0.0025272340499346551 0.0016650122519809712 0 -0.0019298736917790968 0.0018198892943218107 0 -0.0018851554376340749 0.0013858962974230378 0 -0.0026292051854052787 0.0015773693477281862 0 -0.0024622102430008953 0.00094136116303351447 0 -0.0019583465310880829 0.0013065109381700114 0 -0.0019984935705580948 0.0014836011747969011 0 -0.0012566200871831138 0.0010445602747226881 0 -0.0014707201933414115 0.001792485923024432 0 -0.0018851554376340749 0.0013858962974230378 0 -0.001312478065639007 0.0014468818439940761 0 -0.0018851554376340749 0.0013858962974230378 0 -0.001312478065639007 0.0014468818439940761 0 -0.0012625717591896145 0.0010710289041939889 0 -0.0010511017325713883 0.0017595680252349003 0 -0.001312478065639007 0.0014468818439940761 0 -0.001024697334797008 0.0013855239327047394 0 -0.001312478065639007 0.0014468818439940761 0 -0.0011527924874215755 0.0012656904658007104 0 -0.0012625717591896145 0.0010710289041939889 0 -0.001312478065639007 0.0014468818439940761 0 -0.0011527924874215755 0.0012656904658007104 0 -0.001024697334797008 0.0013855239327047394 0 -0.0011527924874215755 0.0012656904658007104 0 -0.001024697334797008 0.0013855239327047394 0 -0.0010109714472800154 0.0011568407544990883 0 -0.0010109714472800154 0.0011568407544990883 0 -0.0012625717591896145 0.0010710289041939889 0 -0.001231338430628483 0.00079179840804391444 0 -0.0011527924874215755 0.0012656904658007104 0 -0.0010109714472800154 0.0011568407544990883 0 -0.0012625717591896145 0.0010710289041939889 0 -0.0012625717591896145 0.0010710289041939889 0 -0.001231338430628483 0.00079179840804391444 0 -0.0017071002723700827 0.00087744408786479846 0 -0.001231338430628483 0.00079179840804391444 0 -0.0017071002723700827 0.00087744408786479846 0 -0.0019126505357208981 0.00047447566171584523 0 -0.0019583465310880829 0.0013065109381700114 0 -0.0012625717591896145 0.0010710289041939889 0 -0.0017071002723700827 0.00087744408786479846 0 -0.0012674501253457835 0.00067501256249020178 0 -0.001862772868252611 0.00051768217027452906 0 -0.0012938170132837474 0.0007540433206573888 0 -0.0019126505357208981 0.00047447566171584523 0 -0.0014899904535788857 0.0003259019204261386 0 -0.0019126505357208981 0.00047447566171584523 0 -0.0017367360226229183 -4.0270273803182434e-06 0 -0.0021656908204238435 -1.8934303032074028e-05 0 -0.0019126505357208981 0.00047447566171584523 0 -0.0014899904535788857 0.0003259019204261386 0 -0.0017367360226229183 -4.0270273803182434e-06 0 -0.00092359657628792477 0.00062933269457965467 0 -0.0012938170132837474 0.0007540433206573888 0 -0.001113866391453999 0.00038148649210566324 0 -0.0012938170132837474 0.0007540433206573888 0 -0.0014899904535788857 0.0003259019204261386 0 -0.001113866391453999 0.00038148649210566324 0 -0.0014899904535788857 0.0003259019204261386 0 -0.001113866391453999 0.00038148649210566324 0 -0.0013631341625421562 2.4945458601489889e-05 0 -0.00095170245364835262 1.8712338236617289e-05 0 -0.001113866391453999 0.00038148649210566324 0 -0.0013631341625421562 2.4945458601489889e-05 0 -0.0013631341625421562 2.4945458601489889e-05 0 -0.0010466741382951627 -0.00029490473242532598 0 -0.0014634329055176333 -0.00034801726100730935 0 -0.00095170245364835262 1.8712338236617289e-05 0 -0.0013631341625421562 2.4945458601489889e-05 0 -0.0010466741382951627 -0.00029490473242532598 0 -0.0014899904535788857 0.0003259019204261386 0 -0.0013631341625421562 2.4945458601489889e-05 0 -0.0017367360226229183 -4.0270273803182434e-06 0 -0.0013631341625421562 2.4945458601489889e-05 0 -0.0017367360226229183 -4.0270273803182434e-06 0 -0.0014634329055176333 -0.00034801726100730935 0 -0.0017367360226229183 -4.0270273803182434e-06 0 -0.0014634329055176333 -0.00034801726100730935 0 -0.0018648256079856114 -0.00045449459348234438 0 -0.0017367360226229183 -4.0270273803182434e-06 0 -0.0021656908204238435 -1.8934303032074028e-05 0 -0.0018648256079856114 -0.00045449459348234438 0 -0.0021656908204238435 -1.8934303032074028e-05 0 -0.0026593092004184612 -0.00023448525189198916 0 -0.002332017809570739 -0.00063674133715625975 0 -0.0019126505357208981 0.00047447566171584523 0 -0.0021656908204238435 -1.8934303032074028e-05 0 -0.0025362325754756743 0.00030796037704947787 0 -0.0024622102430008953 0.00094136116303351447 0 -0.0019126505357208981 0.00047447566171584523 0 -0.0025362325754756743 0.00030796037704947787 0 -0.0025362325754756743 0.00030796037704947787 0 -0.0028444949764617907 0.00058991305802762542 0 -0.0030294879362343036 0.0001190901118108372 0 -0.0025362325754756743 0.00030796037704947787 0 -0.0026593092004184612 -0.00023448525189198916 0 -0.0030294879362343036 0.0001190901118108372 0 -0.0021656908204238435 -1.8934303032074028e-05 0 -0.0025362325754756743 0.00030796037704947787 0 -0.0026593092004184612 -0.00023448525189198916 0 -0.0026593092004184612 -0.00023448525189198916 0 -0.0028162149575413505 -0.00072749715282244298 0 -0.002332017809570739 -0.00063674133715625975 0 -0.002332017809570739 -0.00063674133715625975 0 -0.0018648256079856114 -0.00045449459348234438 0 -0.0019381036846649216 -0.0010443726312215622 0 -0.0021656908204238435 -1.8934303032074028e-05 0 -0.002332017809570739 -0.00063674133715625975 0 -0.0018648256079856114 -0.00045449459348234438 0 -0.002332017809570739 -0.00063674133715625975 0 -0.0019381036846649216 -0.0010443726312215622 0 -0.0025375743051426879 -0.0012435700118656459 0 -0.0028162149575413505 -0.00072749715282244298 0 -0.002332017809570739 -0.00063674133715625975 0 -0.0025375743051426879 -0.0012435700118656459 0 -0.0010466741382951627 -0.00029490473242532598 0 -0.0014634329055176333 -0.00034801726100730935 0 -0.0012593124531364388 -0.00070071775683474234 0 -0.0014634329055176333 -0.00034801726100730935 0 -0.0012593124531364388 -0.00070071775683474234 0 -0.0016315131103024944 -0.00063623933238377462 0 -0.0016315131103024944 -0.00063623933238377462 0 -0.0018648256079856114 -0.00045449459348234438 0 -0.0019381036846649216 -0.0010443726312215622 0 -0.0014634329055176333 -0.00034801726100730935 0 -0.0016315131103024944 -0.00063623933238377462 0 -0.0018648256079856114 -0.00045449459348234438 0 -0.0012268755977061824 -0.00080099064733894765 0 -0.0019637317794978281 -0.0010417349307816142 0 -0.0012593124531364388 -0.00070071775683474234 0 -0.0016315131103024944 -0.00063623933238377462 0 -0.0019381036846649216 -0.0010443726312215622 0 -0.0019381036846649216 -0.0010443726312215622 0 -0.0014492240898152512 -0.0011266891329105987 0 -0.001839260778954086 -0.0013974485679417769 0 -0.0014993582371980014 -0.0008700663615299007 0 -0.0019381036846649216 -0.0010443726312215622 0 -0.0014492240898152512 -0.0011266891329105987 0 -0.0019089069383222219 -0.0022479979729638009 0 -0.0019130350407234702 -0.0022632295557722128 0 -0.0019171355406331452 -0.0022546846730943332 0 -0.0019124963262259047 -0.0023385564996379663 0 -0.0017527435887272637 -0.0022643648516016946 0 -0.0016099644535591243 -0.0015896254591165355 0 -0.0017527435887272637 -0.0022643648516016946 0 -0.0017252388559120093 -0.002636939269598956 0 -0.0016980479789655562 -0.0026369555842910607 0 -0.0017864453279735804 -0.0024794894010478821 0 -0.0016980479789655562 -0.0026369555842910607 0 -0.0016741953001414857 -0.0027583294038656843 0 -0.0017174863731671463 -0.0026031052654776278 0 -0.0016980479789655562 -0.0026369555842910607 0 -0.0017864453279735804 -0.0024794894010478821 0 -0.0017174863731671463 -0.0026031052654776278 0 -0.0019130350407234702 -0.0022632295557722128 0 -0.0017252388559120093 -0.002636939269598956 0 -0.0017864453279735804 -0.0024794894010478821 0 -0.0017864453279735804 -0.0024794894010478821 0 -0.0018946912733779778 -0.0023194548077214812 0 -0.0017598158742541941 -0.002495513862709959 0 -0.0019130350407234702 -0.0022632295557722128 0 -0.0017864453279735804 -0.0024794894010478821 0 -0.0018946912733779778 -0.0023194548077214812 0 -0.0016778832326039736 -0.0026025661650116911 0 -0.0016422834501251032 -0.0027463505880724244 0 -0.0018478839496985984 -0.0028280416863656569 0 -0.0017527435887272637 -0.0022643648516016946 0 -0.0016343230056140177 -0.0027887357557847352 0 -0.0019381036846649216 -0.0010443726312215622 0 -0.001839260778954086 -0.0013974485679417769 0 -0.0025375743051426879 -0.0012435700118656459 0 -0.0017527435887272637 -0.0022643648516016946 0 -0.0020957574014538972 -0.0018971442609490175 0 -0.0015090149375178523 -0.0026612980830565064 0 -0.0016778832326039736 -0.0026025661650116911 0 -0.0016422834501251032 -0.0027463505880724244 0 -0.0016422834501251032 -0.0027463505880724244 0 -0.0016882627268335409 -0.0029358309962094643 0 -0.0016741953001414857 -0.0027583294038656843 0 -0.0016980479789655562 -0.0026369555842910607 0 -0.0016422834501251032 -0.0027463505880724244 0 -0.0016741953001414857 -0.0027583294038656843 0 -0.0017252388559120093 -0.002636939269598956 0 -0.0016980479789655562 -0.0026369555842910607 0 -0.0016422834501251032 -0.0027463505880724244 0 -0.0016422834501251032 -0.0027463505880724244 0 -0.0016882627268335409 -0.0029358309962094643 0 -0.0018478839496985984 -0.0028280416863656569 0 -0.0016882627268335409 -0.0029358309962094643 0 -0.0016808404433383988 -0.0029712388496028418 0 -0.0017287032715148204 -0.0032094103171490182 0 -0.0016882627268335409 -0.0029358309962094643 0 -0.0016741953001414857 -0.0027583294038656843 0 -0.0016808404433383988 -0.0029712388496028418 0 -0.0016741953001414857 -0.0027583294038656843 0 -0.0016808404433383988 -0.0029712388496028418 0 -0.0016787366778743685 -0.0026886373678208821 0 -0.0016808404433383988 -0.0029712388496028418 0 -0.0016502799220505353 -0.0028295817167498637 0 -0.0016787366778743685 -0.0026886373678208821 0 -0.0016808404433383988 -0.0029712388496028418 0 -0.0017287032715148204 -0.0032094103171490182 0 -0.0016029095923354444 -0.0031410435271968995 0 -0.0016808404433383988 -0.0029712388496028418 0 -0.0016201601552647165 -0.0030735190180548261 0 -0.0016029095923354444 -0.0031410435271968995 0 -0.0016808404433383988 -0.0029712388496028418 0 -0.0016303966491406259 -0.0030018992209646599 0 -0.0016502799220505353 -0.0028295817167498637 0 -0.0016808404433383988 -0.0029712388496028418 0 -0.0016303966491406259 -0.0030018992209646599 0 -0.0016201601552647165 -0.0030735190180548261 0 -0.0016201601552647165 -0.0030735190180548261 0 -0.0015636381917873286 -0.0031211929868811381 0 -0.0015867423196951746 -0.0031038000646357112 0 -0.0016303966491406259 -0.0030018992209646599 0 -0.0016201601552647165 -0.0030735190180548261 0 -0.0015867423196951746 -0.0031038000646357112 0 -0.0016201601552647165 -0.0030735190180548261 0 -0.0015728344418285002 -0.0031259228558095007 0 -0.0016029095923354444 -0.0031410435271968995 0 -0.0016201601552647165 -0.0030735190180548261 0 -0.0015728344418285002 -0.0031259228558095007 0 -0.0015636381917873286 -0.0031211929868811381 0 -0.0016078542347635265 -0.0016162250330789725 0 -0.0014445876553489515 -0.0020487977246636873 0 -0.0017884556358186878 -0.0020333077559113104 0 -0.0016078542347635265 -0.0016162250330789725 0 -0.0017884556358186878 -0.0020333077559113104 0 -0.0019620910493664098 -0.0017176484825360129 0 -0.0016484348017328605 -0.002038844843260649 0 -0.0015373478139278009 -0.0022934288945340472 0 -0.0014441078288247151 -0.0020054661463789944 0 -0.0015785229673893129 -0.0024992014406520734 0 -0.0015201559608196437 -0.002582228065250795 0 -0.0015227879999608626 -0.0020248286101290751 0 -0.0015785229673893129 -0.0024992014406520734 0 -0.0016303966491406259 -0.0030018992209646599 0 -0.0015526561153085385 -0.0029930123549666127 0 -0.0015867423196951746 -0.0031038000646357112 0 -0.0015785229673893129 -0.0024992014406520734 0 -0.0015583977710396145 -0.0029471301846957071 0 -0.0016303966491406259 -0.0030018992209646599 0 -0.0015526561153085385 -0.0029930123549666127 0 -0.0016502799220505353 -0.0028295817167498637 0 -0.0014445876553489515 -0.0020487977246636873 0 -0.0017884556358186878 -0.0020333077559113104 0 -0.0018111052746333308 -0.0022797256590795381 0 -0.0018111052746333308 -0.0022797256590795381 0 -0.0016786775420177542 -0.0025403397655167485 0 -0.0019307711932973471 -0.0023359685242497156 0 -0.0014445876553489515 -0.0020487977246636873 0 -0.0018111052746333308 -0.0022797256590795381 0 -0.0016786775420177542 -0.0025403397655167485 0 -0.0015726078119283177 -0.0029743038850548356 0 -0.0016786775420177542 -0.0025403397655167485 0 -0.0016502799220505353 -0.0028295817167498637 0 -0.0015785229673893129 -0.0024992014406520734 0 -0.0016382996948644936 -0.0025582123548877952 0 -0.0016786775420177542 -0.0025403397655167485 0 -0.0016502799220505353 -0.0028295817167498637 0 -0.0016787366778743685 -0.0026886373678208821 0 -0.0016786775420177542 -0.0025403397655167485 0 -0.0016787366778743685 -0.0026886373678208821 0 -0.0017598158742541941 -0.002495513862709959 0 -0.0017864453279735804 -0.0024794894010478821 0 -0.0017174863731671463 -0.0026031052654776278 0 -0.0017598158742541941 -0.002495513862709959 0 -0.0016787366778743685 -0.0026886373678208821 0 -0.0017174863731671463 -0.0026031052654776278 0 -0.0017598158742541941 -0.002495513862709959 0 -0.0016741953001414857 -0.0027583294038656843 0 -0.0016787366778743685 -0.0026886373678208821 0 -0.0017174863731671463 -0.0026031052654776278 0 -0.0016786775420177542 -0.0025403397655167485 0 -0.0018700059558977779 -0.0023887007262058577 0 -0.0019307711932973471 -0.0023359685242497156 0 -0.0016786775420177542 -0.0025403397655167485 0 -0.0018700059558977779 -0.0023887007262058577 0 -0.0017598158742541941 -0.002495513862709959 0 -0.0018946912733779778 -0.0023194548077214812 0 -0.0018700059558977779 -0.0023887007262058577 0 -0.0017598158742541941 -0.002495513862709959 0 -0.0018946912733779778 -0.0023194548077214812 0 -0.0018700059558977779 -0.0023887007262058577 0 -0.0019583648248239936 -0.0022615900369773755 0 -0.0018700059558977779 -0.0023887007262058577 0 -0.0019362787130600247 -0.0023251221574771466 0 -0.0019583648248239936 -0.0022615900369773755 0 -0.0018700059558977779 -0.0023887007262058577 0 -0.0019362787130600247 -0.0023251221574771466 0 -0.0019307711932973471 -0.0023359685242497156 0 -0.0019362787130600247 -0.0023251221574771466 0 -0.0018754823971891483 -0.0023434371672043206 0 -0.0019307711932973471 -0.0023359685242497156 0 -0.0020400128400324116 -0.0020796241106617003 0 -0.0019569092113339956 -0.0022564334684244737 0 -0.0018754823971891483 -0.0023434371672043206 0 -0.0019362787130600247 -0.0023251221574771466 0 -0.0019569092113339956 -0.0022564334684244737 0 -0.0018754823971891483 -0.0023434371672043206 0 -0.0019362787130600247 -0.0023251221574771466 0 -0.0019569092113339956 -0.0022564334684244737 0 -0.0019583648248239936 -0.0022615900369773755 0 -0.0020400128400324116 -0.0020796241106617003 0 -0.0019569092113339956 -0.0022564334684244737 0 -0.0019583648248239936 -0.0022615900369773755 0 -0.0038336336001856606 0.0044037166073299765 0 -0.0033915570741162018 0.0034390725486156213 0 -0.0032736056729864055 0.0027295342793941055 0 -0.0032828186358985602 0.0019248808838280319 0 -0.0032128153697228122 0.0027809775447289148 0 -0.0028074591488961033 -0.00081618099213889405 0 -0.0032736056729864055 0.0027295342793941055 0 -0.002913021751876846 0.002354498042270536 0 -0.0033915570741162018 0.0034390725486156213 0 -0.0033219075211730134 0.0036224953334871978 0 -0.003231348947971246 0.0031171335830348693 0 -0.0033219075211730134 0.0036224953334871978 0 -0.003231348947971246 0.0031171335830348693 0 -0.0030354789014919227 0.0036537570408795663 0 -0.003231348947971246 0.0031171335830348693 0 -0.0032736056729864055 0.0027295342793941055 0 -0.0032220756556474452 0.0029631059467573203 0 -0.003231348947971246 0.0031171335830348693 0 -0.0032220756556474452 0.0029631059467573203 0 -0.0029607488896559149 0.0031523328609582334 0 -0.0033915570741162018 0.0034390725486156213 0 -0.003231348947971246 0.0031171335830348693 0 -0.0032736056729864055 0.0027295342793941055 0 -0.0032736056729864055 0.0027295342793941055 0 -0.002913021751876846 0.002354498042270536 0 -0.0032906577341623891 0.0028900328382817806 0 -0.0032906577341623891 0.0028900328382817806 0 -0.0032220756556474452 0.0029631059467573203 0 -0.0031616886032223967 0.0028115376023993728 0 -0.0032736056729864055 0.0027295342793941055 0 -0.0032906577341623891 0.0028900328382817806 0 -0.0032220756556474452 0.0029631059467573203 0 -0.0032906577341623891 0.0028900328382817806 0 -0.003317606029702074 0.0029739450205359444 0 -0.0031616886032223967 0.0028115376023993728 0 -0.0032220756556474452 0.0029631059467573203 0 -0.0029607488896559149 0.0031523328609582334 0 -0.0031616886032223967 0.0028115376023993728 0 -0.0024065311470448537 -0.00011956271575059031 0 -0.0026395030117233763 0.0003493510749530149 0 -0.0018754823971891483 -0.0023434371672043206 0 -0.0019307711932973471 -0.0023359685242497156 0 -0.0020080772272786721 -0.0022367784473376279 0 -0.002913021751876846 0.002354498042270536 0 -0.0032906577341623891 0.0028900328382817806 0 -0.003317606029702074 0.0029739450205359444 0 -0.0018111052746333308 -0.0022797256590795381 0 -0.0019307711932973471 -0.0023359685242497156 0 -0.0020080772272786721 -0.0022367784473376279 0 -0.0015145218204430024 0.0041962344540160384 0 -0.0018240057624575271 0.0032237276360993282 0 -0.0024449859036142479 0.0036866755980335055 0 -0.0018240057624575271 0.0032237276360993282 0 -0.0024449859036142479 0.0036866755980335055 0 -0.0024500258591055629 0.0029576109546975032 0 -0.0024449859036142479 0.0036866755980335055 0 -0.0029607488896559149 0.0031523328609582334 0 -0.0024500258591055629 0.0029576109546975032 0 -0.0024449859036142479 0.0036866755980335055 0 -0.0030354789014919227 0.0036537570408795663 0 -0.0029607488896559149 0.0031523328609582334 0 -0.0029247712848665072 0.0042459335085190579 0 -0.0024449859036142479 0.0036866755980335055 0 -0.0030354789014919227 0.0036537570408795663 0 -0.003231348947971246 0.0031171335830348693 0 -0.0030354789014919227 0.0036537570408795663 0 -0.0029607488896559149 0.0031523328609582334 0 -0.0029607488896559149 0.0031523328609582334 0 -0.0024500258591055629 0.0029576109546975032 0 -0.0029846674024620054 0.0023985085925916083 0 -0.0029517416586356468 0.003126201591099863 0 -0.0030578419616882281 0.0026232066342917479 0 -0.0024500258591055629 0.0029576109546975032 0 -0.0022305190051873096 0.0024351488501011638 0 -0.0029846674024620054 0.0023985085925916083 0 -0.0018240057624575271 0.0032237276360993282 0 -0.0024500258591055629 0.0029576109546975032 0 -0.0022305190051873096 0.0024351488501011638 0 -0.0022305190051873096 0.0024351488501011638 0 -0.0026448591385116868 0.0019359796259334797 0 -0.0022547313398241899 0.0020059154954745872 0 -0.0022305190051873096 0.0024351488501011638 0 -0.0022547313398241899 0.0020059154954745872 0 -0.0017440582108175827 0.0019653146934657745 0 -0.0022305190051873096 0.0024351488501011638 0 -0.0026448591385116868 0.0019359796259334797 0 -0.0029846674024620054 0.0023985085925916083 0 -0.0026448591385116868 0.0019359796259334797 0 -0.0024593500796062169 0.0017433297975661564 0 -0.0026476364503383058 0.0015893171203012083 0 -0.0026448591385116868 0.0019359796259334797 0 -0.0024593500796062169 0.0017433297975661564 0 -0.0022547313398241899 0.0020059154954745872 0 0.00018932246025367658 0.0044744120614403707 0 0.00016652124243438923 0.0044495292039043186 0 0.0001564441590284962 0.0044192810828081203 0 -0.0022464584689447348 0.0016470814836773854 0 -0.0022295308660631136 0.0014077345932646829 0 -0.0017440582108175827 0.0019653146934657745 0 -0.0016361439610673826 0.0024518949543795043 0 -0.00068018760335112304 0.0033292685520111081 0 -0.0024593500796062169 0.0017433297975661564 0 -0.0022547313398241899 0.0020059154954745872 0 -0.0022464584689447348 0.0016470814836773854 0 -0.0024593500796062169 0.0017433297975661564 0 -0.0022464584689447348 0.0016470814836773854 0 -0.0024291708966949063 0.0015737317056547019 0 -0.0022547313398241899 0.0020059154954745872 0 -0.0022464584689447348 0.0016470814836773854 0 -0.0017440582108175827 0.0019653146934657745 0 -0.0017884556358186878 -0.0020333077559113104 0 -0.0020080772272786721 -0.0022367784473376279 0 -0.0019620910493664098 -0.0017176484825360129 0 -0.0026395030117233763 0.0003493510749530149 0 -0.0027831567873018402 0.00043087600975733173 0 -0.0017884556358186878 -0.0020333077559113104 0 -0.0018111052746333308 -0.0022797256590795381 0 -0.0020080772272786721 -0.0022367784473376279 0 -0.003317606029702074 0.0029739450205359444 0 -0.0031616886032223967 0.0028115376023993728 0 -0.0031508949545369399 0.002463217081758862 0 -0.0026448591385116868 0.0019359796259334797 0 -0.0029846674024620054 0.0023985085925916083 0 -0.0029931591478139052 0.0017912448677641182 0 -0.0030578419616882281 0.0026232066342917479 0 -0.0030791549460552833 0.0021285547523228658 0 -0.0026448591385116868 0.0019359796259334797 0 -0.0029931591478139052 0.0017912448677641182 0 -0.0026476364503383058 0.0015893171203012083 0 -0.003317606029702074 0.0029739450205359444 0 -0.0031508949545369399 0.002463217081758862 0 -0.0035633429891721055 0.0024143551709775155 0 -0.0035633429891721055 0.0024143551709775155 0 -0.0033159989477673439 0.001839563897097335 0 -0.0037704661054185256 0.0017301747204435177 0 -0.0031508949545369399 0.002463217081758862 0 -0.0035633429891721055 0.0024143551709775155 0 -0.0033159989477673439 0.001839563897097335 0 -0.0030791549460552833 0.0021285547523228658 0 -0.0031721064795449463 0.0016119650213154248 0 -0.0029931591478139052 0.0017912448677641182 0 -0.0030049557751865583 0.0013769810715391886 0 -0.0028194890277226207 0.001452210237955408 0 -0.0029931591478139052 0.0017912448677641182 0 -0.0028194890277226207 0.001452210237955408 0 -0.0026476364503383058 0.0015893171203012083 0 -0.0028194890277226207 0.001452210237955408 0 -0.0026476364503383058 0.0015893171203012083 0 -0.0026512816840757068 0.0013345661088939535 0 -0.0030049557751865583 0.0013769810715391886 0 -0.0028194890277226207 0.001452210237955408 0 -0.0028072647943639091 0.0012302214277625069 0 -0.0030049557751865583 0.0013769810715391886 0 -0.0028072647943639091 0.0012302214277625069 0 -0.0029477346404003782 0.0011789358486175097 0 -0.0028194890277226207 0.001452210237955408 0 -0.0028072647943639091 0.0012302214277625069 0 -0.0026512816840757068 0.0013345661088939535 0 -0.0028072647943639091 0.0012302214277625069 0 -0.0026084991459535893 0.0011177070147399054 0 -0.0028206352353044467 0.0010895161378363289 0 -0.0028072647943639091 0.0012302214277625069 0 -0.0026512816840757068 0.0013345661088939535 0 -0.0026084991459535893 0.0011177070147399054 0 -0.0028072647943639091 0.0012302214277625069 0 -0.0029477346404003782 0.0011789358486175097 0 -0.0028206352353044467 0.0010895161378363289 0 -0.0031721064795449463 0.0016119650213154248 0 -0.0031776734023396553 0.0011281648334416161 0 -0.0033159989477673439 0.001839563897097335 0 -0.0035369825325795652 0.0012034287269952219 0 -0.0037704661054185256 0.0017301747204435177 0 -0.0030049557751865583 0.0013769810715391886 0 -0.0029477346404003782 0.0011789358486175097 0 -0.0030215230261699294 0.0010509207877710863 0 0.00018932246025367658 0.0044744120614403707 0 0.00017313873051403634 0.004493817595490327 0 0.00017136103003744261 0.0045115464267655976 0 -0.0022464584689447348 0.0016470814836773854 0 -0.0022772670626308804 0.0015037409062309787 0 -0.0024291708966949063 0.0015737317056547019 0 -0.0018989380449281111 0.0016247110030085297 0 -0.0016361439610673826 0.0024518949543795043 0 -0.0022772670626308804 0.0015037409062309787 0 -0.0024941088536143689 0.0014421307082001862 0 -0.0024750067130813102 0.0012479622441687298 0 -0.0022772670626308804 0.0015037409062309787 0 -0.0024941088536143689 0.0014421307082001862 0 -0.0024291708966949063 0.0015737317056547019 0 -0.0024941088536143689 0.0014421307082001862 0 -0.0024291708966949063 0.0015737317056547019 0 -0.0026476364503383058 0.0015893171203012083 0 -0.0024593500796062169 0.0017433297975661564 0 -0.0024291708966949063 0.0015737317056547019 0 -0.0026476364503383058 0.0015893171203012083 0 -0.0024941088536143689 0.0014421307082001862 0 -0.0026476364503383058 0.0015893171203012083 0 -0.0026512816840757068 0.0013345661088939535 0 -0.0024750067130813102 0.0012479622441687298 0 -0.0022464638467401552 0.0012468478929756734 0 -0.0026084991459535893 0.0011177070147399054 0 -0.0026512816840757068 0.0013345661088939535 0 -0.0024750067130813102 0.0012479622441687298 0 -0.0026084991459535893 0.0011177070147399054 0 -0.0024941088536143689 0.0014421307082001862 0 -0.0026512816840757068 0.0013345661088939535 0 -0.0024750067130813102 0.0012479622441687298 0 -0.0016361439610673826 0.0024518949543795043 0 -0.0026607472474854208 0.00092452192767250401 0 -0.002285370053803725 0.0016136858899812357 0 -0.0024750067130813102 0.0012479622441687298 0 -0.0022464638467401552 0.0012468478929756734 0 -0.0016361439610673826 0.0024518949543795043 0 -0.00088337694492182097 0.0033240227996997069 0 -0.00088337694492182097 0.0033240227996997069 0 0.0005632264486854124 0.0049470617590361022 0 -0.0010284603466862877 0.0034435515700048549 0 -0.0014867637126909508 0.0029563548527938963 0 -0.00093417851529053119 0.0028307442847185535 0 -0.00088337694492182097 0.0033240227996997069 0 -0.0004084578481924588 0.0040642471759068672 0 -0.00088337694492182097 0.0033240227996997069 0 -0.0020329794625031099 0.001860337756653313 0 -0.0022464638467401552 0.0012468478929756734 0 -0.0026084991459535893 0.0011177070147399054 0 -0.0026113696594894688 0.00091000023039461701 0 -0.00068221698597688697 0.0031244474924931099 0 -0.00070921950733091618 0.003206117643616291 0 -0.00057686590666173611 0.0031496877952124093 0 -0.00068221698597688697 0.0031244474924931099 0 -0.00070921950733091618 0.003206117643616291 0 -0.00083831546210486323 0.0031048866939283439 0 -0.0020329794625031099 0.001860337756653313 0 -0.0004084578481924588 0.0040642471759068672 0 -0.00068221698597688697 0.0031244474924931099 0 -0.00057686590666173611 0.0031496877952124093 0 -0.000603496456862263 0.0030963455407669329 0 -0.002951673397905771 0.0010233825575754456 0 -0.0030215230261699294 0.0010509207877710863 0 -0.0029162372850200574 0.001041611878954534 0 -0.0028720814025553604 0.00072151924191538096 0 -0.0027439454091998643 0.0010127243487410916 0 -0.0027189258446344029 0.00083283445048084833 0 -0.0031776734023396553 0.0011281648334416161 0 -0.002882255867250931 0.00096054643702968496 0 -0.0028252395213769067 0.00082029467548262638 0 -0.0029162372850200574 0.001041611878954534 0 -0.0027439454091998643 0.0010127243487410916 0 -0.0031776734023396553 0.0011281648334416161 0 -0.0029425812264343315 0.00095594274374131668 0 -0.0029477346404003782 0.0011789358486175097 0 -0.0030215230261699294 0.0010509207877710863 0 -0.0029494868669097604 0.001089286979876408 0 -0.0029477346404003782 0.0011789358486175097 0 -0.0029494868669097604 0.001089286979876408 0 -0.0028206352353044467 0.0010895161378363289 0 -0.002951673397905771 0.0010233825575754456 0 -0.0029494868669097604 0.001089286979876408 0 -0.0028206352353044467 0.0010895161378363289 0 -0.002951673397905771 0.0010233825575754456 0 -0.0030215230261699294 0.0010509207877710863 0 -0.0029494868669097604 0.001089286979876408 0 -0.0026113696594894688 0.00091000023039461701 0 -0.002951673397905771 0.0010233825575754456 0 -0.0028206352353044467 0.0010895161378363289 0 -0.0020329794625031099 0.001860337756653313 0 -0.0032479042796306175 0.00085291088870767388 0 -0.0026084991459535893 0.0011177070147399054 0 -0.0026113696594894688 0.00091000023039461701 0 -0.0028206352353044467 0.0010895161378363289 0 -0.0031286688584446325 0.0010702176031539895 0 -0.0029653822557913845 0.0011045867369753194 0 -0.0030313208748612634 0.0012191859999294923 0 -0.0031286688584446325 0.0010702176031539895 0 -0.002951673397905771 0.0010233825575754456 0 -0.0029653822557913845 0.0011045867369753194 0 -0.0020329794625031099 0.001860337756653313 0 -0.0020013308206286548 0.0021280904392779526 0 -0.0029653822557913845 0.0011045867369753194 0 -0.0028358128681753047 0.0012605042325938792 0 -0.0030313208748612634 0.0012191859999294923 0 -0.0029653822557913845 0.0011045867369753194 0 -0.0028205187811408943 0.0011326755439569618 0 -0.0028358128681753047 0.0012605042325938792 0 -0.0029653822557913845 0.0011045867369753194 0 -0.0029162372850200574 0.001041611878954534 0 -0.0028205187811408943 0.0011326755439569618 0 -0.002951673397905771 0.0010233825575754456 0 -0.0029653822557913845 0.0011045867369753194 0 -0.0029162372850200574 0.001041611878954534 0 -0.0029162372850200574 0.001041611878954534 0 -0.0028205187811408943 0.0011326755439569618 0 -0.0027439454091998643 0.0010127243487410916 0 -0.0028205187811408943 0.0011326755439569618 0 -0.0026118648420820384 0.0012390004258380394 0 -0.0028358128681753047 0.0012605042325938792 0 -0.0015585684092876307 -0.0007870205738243661 0 -0.00091888250611873426 -0.0011288842376825936 0 -0.0020616271844803489 0.0005870931538266539 0 -0.0015585684092876307 -0.0007870205738243661 0 -0.0028205187811408943 0.0011326755439569618 0 -0.0026118648420820384 0.0012390004258380394 0 -0.0027439454091998643 0.0010127243487410916 0 -0.0013893695903853377 -0.00037691355406696992 0 -0.0013434987979788152 -0.00059712603763882957 0 -0.0012705592108449703 -0.00035173650941932 0 -0.0026118648420820384 0.0012390004258380394 0 -0.0026288051224045671 0.0009696948078227629 0 -0.0025008176458991612 0.00090036961637239533 0 -0.0026118648420820384 0.0012390004258380394 0 -0.0026288051224045671 0.0009696948078227629 0 -0.0027439454091998643 0.0010127243487410916 0 -0.0027189258446344029 0.00083283445048084833 0 -0.0025447013675205807 0.00086685870690016587 0 -0.0026589619996914521 0.00024510088676360406 0 -0.0025447013675205807 0.00086685870690016587 0 -0.0024943795367520934 0.000860780855761893 0 -0.0026589619996914521 0.00024510088676360406 0 -0.0028720814025553604 0.00072151924191538096 0 -0.0027189258446344029 0.00083283445048084833 0 -0.0026589619996914521 0.00024510088676360406 0 -0.0026288051224045671 0.0009696948078227629 0 -0.0027439454091998643 0.0010127243487410916 0 -0.0027189258446344029 0.00083283445048084833 0 -0.0026288051224045671 0.0009696948078227629 0 -0.0027189258446344029 0.00083283445048084833 0 -0.0025447013675205807 0.00086685870690016587 0 -0.0016027927785401371 -0.0015810113984363438 0 -0.0016064868476526098 -0.0015924138245605479 0 -0.0015520781173698659 -0.0016484851425213937 0 -0.0026288051224045671 0.0009696948078227629 0 -0.0025008176458991612 0.00090036961637239533 0 -0.0025447013675205807 0.00086685870690016587 0 -0.0015585684092876307 -0.0007870205738243661 0 -0.0016396500618378058 -0.00068208283092248921 0 -0.0024832844868168859 0.00089490188647913178 0 -0.0025447013675205807 0.00086685870690016587 0 -0.0024943795367520934 0.000860780855761893 0 -0.0015585684092876307 -0.0007870205738243661 0 -0.0016727268029898205 -0.00084432663222940626 0 -0.0016727268029898205 -0.00084432663222940626 0 -0.0015936352835118882 -0.0017263854808295864 0 -0.0016064868476526098 -0.0015924138245605479 0 -0.0015520781173698659 -0.0016484851425213937 0 -0.0015927597898586605 -0.0017188869414649581 0 -0.0016027927785401371 -0.0015810113984363438 0 -0.0014717687326905691 -0.0016366524339555464 0 -0.0015520781173698659 -0.0016484851425213937 0 -0.0016027927785401371 -0.0015810113984363438 0 -0.0014717687326905691 -0.0016366524339555464 0 -0.0014359026362557056 -0.0015085556180837703 0 -0.0014717687326905691 -0.0016366524339555464 0 -0.0015520781173698659 -0.0016484851425213937 0 -0.001512312567328078 -0.0017587879932713241 0 -0.00069637555829679774 -0.0020520636826738452 0 -0.00047419575327394876 -0.0019578482780901497 0 -0.00062694335694203661 -0.0018451776213953891 0 -0.0015585684092876307 -0.0007870205738243661 0 -0.0008874717814870807 -0.0017773767886498234 0 -0.0008874717814870807 -0.0017773767886498234 0 -0.00094978874387115035 -0.001958575348245126 0 -0.0014359026362557056 -0.0015085556180837703 0 -0.0013392229732863802 -0.0015963430466734865 0 -0.0012806207121364766 -0.0014389592402886016 0 -0.0015623342855297557 -0.0029877108416707177 0 -0.001512599468915615 -0.0026642013611912325 0 -0.0012555624138500365 -0.0028181824875540395 0 -0.0014966244198762963 -0.0023219693758753674 0 -0.00094978874387115035 -0.001958575348245126 0 -0.0015623342855297557 -0.0029877108416707177 0 -0.0013643293253319602 -0.0030075940331832068 0 -0.0012555624138500365 -0.0028181824875540395 0 -0.0015623342855297557 -0.0029877108416707177 0 -0.0014971442228707888 -0.0030972245043847275 0 -0.0013643293253319602 -0.0030075940331832068 0 -0.0014717687326905691 -0.0016366524339555464 0 -0.0013392229732863802 -0.0015963430466734865 0 -0.0013888465450736329 -0.0017702181782503143 0 -0.0014717687326905691 -0.0016366524339555464 0 -0.0014359026362557056 -0.0015085556180837703 0 -0.0013392229732863802 -0.0015963430466734865 0 -0.0014966244198762963 -0.0023219693758753674 0 -0.0014795657797974627 -0.0024161321577540213 0 -0.0015623342855297557 -0.0029877108416707177 0 -0.0015844023911201334 -0.0030861715458294879 0 -0.0014971442228707888 -0.0030972245043847275 0 -0.0015844023911201334 -0.0030861715458294879 0 -0.0014971442228707888 -0.0030972245043847275 0 -0.0015636381917873286 -0.0031211929868811381 0 -0.0014971442228707888 -0.0030972245043847275 0 -0.0015636381917873286 -0.0031211929868811381 0 -0.0014987810650961839 -0.0031375758959593129 0 -0.0015728344418285002 -0.0031259228558095007 0 -0.0015636381917873286 -0.0031211929868811381 0 -0.0014987810650961839 -0.0031375758959593129 0 -0.0015844023911201334 -0.0030861715458294879 0 -0.0015636381917873286 -0.0031211929868811381 0 -0.0015867423196951746 -0.0031038000646357112 0 -0.0014795657797974627 -0.0024161321577540213 0 -0.0015201559608196437 -0.002582228065250795 0 -0.0016484348017328605 -0.002038844843260649 0 -0.0014441078288247151 -0.0020054661463789944 0 -0.001590730782378843 -0.0018552734879447523 0 -0.0013888465450736329 -0.0017702181782503143 0 -0.0014441078288247151 -0.0020054661463789944 0 -0.001512312567328078 -0.0017587879932713241 0 -0.0014441078288247151 -0.0020054661463789944 0 -0.001590730782378843 -0.0018552734879447523 0 -0.001512312567328078 -0.0017587879932713241 0 -0.0016484348017328605 -0.002038844843260649 0 -0.001590730782378843 -0.0018552734879447523 0 -0.0018147214677817572 -0.0017275288682460251 0 -0.0027831567873018402 0.00043087600975733173 0 -0.0024684770371604333 -0.00014522092248787065 0 -0.0015227879999608626 -0.0020248286101290751 0 -0.0024684770371604333 -0.00014522092248787065 0 -0.0016078542347635265 -0.0016162250330789725 0 -0.0019620910493664098 -0.0017176484825360129 0 -0.0018192340163801233 -0.001132310923329967 0 -0.001590730782378843 -0.0018552734879447523 0 -0.0018147214677817572 -0.0017275288682460251 0 -0.0016260473437254854 -0.0015509189567635031 0 -0.0031776734023396553 0.0011281648334416161 0 -0.0024684770371604333 -0.00014522092248787065 0 -0.0016895122314315677 -0.0012295953746136023 0 -0.0018147214677817572 -0.0017275288682460251 0 -0.0016260473437254854 -0.0015509189567635031 0 -0.0016727268029898205 -0.00084432663222940626 0 -0.0024684770371604333 -0.00014522092248787065 0 -0.0015931094075985754 -0.0017978386007620009 0 -0.0015936352835118882 -0.0017263854808295864 0 -0.0014717687326905691 -0.0016366524339555464 0 -0.0013888465450736329 -0.0017702181782503143 0 -0.001512312567328078 -0.0017587879932713241 0 -0.0015520781173698659 -0.0016484851425213937 0 -0.0015927597898586605 -0.0017188869414649581 0 -0.001512312567328078 -0.0017587879932713241 0 -0.001590730782378843 -0.0018552734879447523 0 -0.0015927597898586605 -0.0017188869414649581 0 -0.001512312567328078 -0.0017587879932713241 0 0.00148022463915047 0.0099831560831725157 0 0.0011253865150393371 0.0098409042993359737 0 0.0014162637513325707 0.0097117597121155474 0 0.00148022463915047 0.0099831560831725157 0 0.0011253865150393371 0.0098409042993359737 0 0.001224067288240475 0.010123749180004771 0 0.0011253865150393371 0.0098409042993359737 0 0.0009672153838347743 0.010090350841982195 0 0.00075630155491782764 0.0098645048352483024 0 0.0011253865150393371 0.0098409042993359737 0 0.00075630155491782764 0.0098645048352483024 0 0.00098946529328598504 0.0096069364889337198 0 0.0011253865150393371 0.0098409042993359737 0 0.0009672153838347743 0.010090350841982195 0 0.001224067288240475 0.010123749180004771 0 0.0009672153838347743 0.010090350841982195 0 0.0011069135048422162 0.010371865428715873 0 0.00071504923431089148 0.010257369553140551 0 0.0009672153838347743 0.010090350841982195 0 0.001224067288240475 0.010123749180004771 0 0.0011069135048422162 0.010371865428715873 0 0.001455101847273764 0.010338534955126648 0 0.001224067288240475 0.010123749180004771 0 0.0011069135048422162 0.010371865428715873 0 0.001455101847273764 0.010338534955126648 0 0.00148022463915047 0.0099831560831725157 0 0.001224067288240475 0.010123749180004771 0 0.001455101847273764 0.010338534955126648 0 0.0013268356326914435 0.010756268797092792 0 0.0011069135048422162 0.010371865428715873 0 0.0010227524375514803 0.010994984804973877 0 0.0013268356326914435 0.010756268797092792 0 0.00094776300225512091 0.010646510059115872 0 0.0010227524375514803 0.010994984804973877 0 0.00094776300225512091 0.010646510059115872 0 0.00080413877407821627 0.010855700257492426 0 0.00094776300225512091 0.010646510059115872 0 0.0011069135048422162 0.010371865428715873 0 0.00071504923431089148 0.010257369553140551 0 0.0013268356326914435 0.010756268797092792 0 0.00094776300225512091 0.010646510059115872 0 0.0011069135048422162 0.010371865428715873 0 0.00094776300225512091 0.010646510059115872 0 0.00071504923431089148 0.010257369553140551 0 0.00066563353309465241 0.01062140233026319 0 0.00094776300225512091 0.010646510059115872 0 0.00066563353309465241 0.01062140233026319 0 0.00080413877407821627 0.010855700257492426 0 0.00066563353309465241 0.01062140233026319 0 0.00080413877407821627 0.010855700257492426 0 0.00059693460086073197 0.010896300471344898 0 0.00066563353309465241 0.01062140233026319 0 0.00059693460086073197 0.010896300471344898 0 0.00025702408970421 0.010540910807040138 0 0.00087664284990689081 0.01164190154292908 0 0.0005054033921357866 0.0077969515908209277 0 0.00035711992812578031 0.011087603371435136 0 0.00059693460086073197 0.010896300471344898 0 0.00038820479475845692 0.010558122705433364 0 0.00071504923431089148 0.010257369553140551 0 0.00025702408970421 0.010540910807040138 0 0.00027614230062884511 0.0099179299460673675 0 0.0005054033921357866 0.0077969515908209277 0 0.00032695070811983133 0.0077950777244644035 0 0.00071504923431089148 0.010257369553140551 0 0.00066563353309465241 0.01062140233026319 0 0.00025702408970421 0.010540910807040138 0 0.00071916463302141177 0.010221278079407224 0 0.00078814565459126929 0.0096868819876544266 0 0.00071504923431089148 0.010257369553140551 0 0.00027614230062884511 0.0099179299460673675 0 0.00082998706554317963 0.0094947789954869799 0 0.0009672153838347743 0.010090350841982195 0 0.00071504923431089148 0.010257369553140551 0 0.00075630155491782764 0.0098645048352483024 0 0.00027614230062884511 0.0099179299460673675 0 0.00082998706554317963 0.0094947789954869799 0 0.00037498294975530494 0.0091878658785216494 0 0.00032695070811983133 0.0077950777244644035 0 0.00039311021311143769 0.0071780982139005006 0 0.0004295834179610374 0.0054911156731049021 0 0.00028627136036394739 0.005381781047339944 0 0.00040226652189009323 0.0051873015067944103 0 0.00028627136036394739 0.005381781047339944 0 0.00023762411801861669 0.0052457961699859711 0 0.00040226652189009323 0.0051873015067944103 0 0.00028627136036394739 0.005381781047339944 0 0.00016896116864832268 0.0053393687867431322 0 0.00016310384967579641 0.0055103678231715886 0 0.00028627136036394739 0.005381781047339944 0 0.00023762411801861669 0.0052457961699859711 0 0.00016896116864832268 0.0053393687867431322 0 0.00023762411801861669 0.0052457961699859711 0 0.00015309656800089811 0.00522902804217029 0 0.00016896116864832268 0.0053393687867431322 0 0.00015309656800089811 0.00522902804217029 0 5.0702707536314615e-05 0.0052015834956448499 0 0.00016896116864832268 0.0053393687867431322 0 0.0003809636104233867 0.0047627732996511352 0 0.00063379078643454885 0.0046090322735627626 0 0.0003809636104233867 0.0047627732996511352 0 0.00070896527901208501 0.0044422625407791643 0 0.00016354013522106286 0.0044251880478377815 0 0.00034609020660501518 0.0044313018704959847 0 0.0001859224092030215 0.0044230728719584387 0 5.0702707536314615e-05 0.0052015834956448499 0 0.00016896116864832268 0.0053393687867431322 0 0.00016310384967579641 0.0055103678231715886 0 0.00094091610229426819 0.0042957927509137336 0 0.0010379551639922819 0.004601748492104432 0 0.0011478472430725597 0.0045541971812989362 0 0.0010379551639922819 0.004601748492104432 0 0.0011478472430725597 0.0045541971812989362 0 0.0011720812118651638 0.0047442310076201881 0 0.0004295834179610374 0.0054911156731049021 0 0.00028627136036394739 0.005381781047339944 0 0.00016310384967579641 0.0055103678231715886 0 0.00038859302822061265 0.0058898015160125054 0 0.0004295834179610374 0.0054911156731049021 0 0.00016310384967579641 0.0055103678231715886 0 0.0005054033921357866 0.0077969515908209277 0 0.00063379078643454885 0.0046090322735627626 0 0.0013833059035356832 0.0048417168346168585 0 0.0011478472430725597 0.0045541971812989362 0 0.0011720812118651638 0.0047442310076201881 0 0.0013833059035356832 0.0048417168346168585 0 0.0011720812118651638 0.0047442310076201881 0 0.0011280658394549252 0.0049254783706062458 0 0.00094301129778649002 0.0081587063814425927 0 0.0005054033921357866 0.0077969515908209277 0 0.0013954701340930728 0.0052506121561737389 0 0.0013833059035356832 0.0048417168346168585 0 0.0011280658394549252 0.0049254783706062458 0 0.00066605597776369079 0.0046961853421126935 0 0.00035748853584901527 0.0045822812254058725 0 0.00028925986421465328 0.0048473426742912731 0 0.00063316603523582316 0.0050737118733306524 0 0.00066605597776369079 0.0046961853421126935 0 0.00028925986421465328 0.0048473426742912731 0 0.00034609020660501518 0.0044313018704959847 0 0.00066605597776369079 0.0046961853421126935 0 0.00035748853584901527 0.0045822812254058725 0 0.0010379551639922819 0.004601748492104432 0 0.0011720812118651638 0.0047442310076201881 0 0.0011280658394549252 0.0049254783706062458 0 0.00034609020660501518 0.0044313018704959847 0 0.00035748853584901527 0.0045822812254058725 0 0.00026468800326514636 0.0044801080287759304 0 0.00070896527901208501 0.0044422625407791643 0 0.00090681482448723286 0.0048602464009414011 0 0.00035748853584901527 0.0045822812254058725 0 0.00026468800326514636 0.0044801080287759304 0 0.00016131817492086206 0.0045076694090067414 0 0.00035748853584901527 0.0045822812254058725 0 0.00028925986421465328 0.0048473426742912731 0 0.00016131817492086206 0.0045076694090067414 0 -0.00021615783766811494 0.0039043439994622376 0 -0.0011657767574226371 0.0034984157367856251 0 -0.0010811297714232529 0.0027344144186808575 0 4.5824587611542202e-05 0.0044161102769772814 0 -0.00047136289726072456 0.0036079180507823656 0 -0.0015145218204430024 0.0041962344540160384 0 -0.0018240057624575271 0.0032237276360993282 0 -0.0011657767574226371 0.0034984157367856251 0 -0.0015145218204430024 0.0041962344540160384 0 -0.00021615783766811494 0.0039043439994622376 0 -0.0011657767574226371 0.0034984157367856251 0 -0.0018240057624575271 0.0032237276360993282 0 -0.0022305190051873096 0.0024351488501011638 0 -0.0010811297714232529 0.0027344144186808575 0 -0.0018240057624575271 0.0032237276360993282 0 -0.0011657767574226371 0.0034984157367856251 0 -0.0010811297714232529 0.0027344144186808575 0 0.00016131817492086206 0.0045076694090067414 0 0.00019951859608596619 0.0044341046380507662 0 0.0001564441590284962 0.0044192810828081203 0 -0.0022305190051873096 0.0024351488501011638 0 -0.0010811297714232529 0.0027344144186808575 0 -0.0017440582108175827 0.0019653146934657745 0 -0.00047136289726072456 0.0036079180507823656 0 -0.00068018760335112304 0.0033292685520111081 0 0.00034609020660501518 0.0044313018704959847 0 0.00019951859608596619 0.0044341046380507662 0 0.0001859224092030215 0.0044230728719584387 0 0.00034609020660501518 0.0044313018704959847 0 0.00026468800326514636 0.0044801080287759304 0 0.00019951859608596619 0.0044341046380507662 0 0.00026468800326514636 0.0044801080287759304 0 0.00016131817492086206 0.0045076694090067414 0 0.00019951859608596619 0.0044341046380507662 0 0.00019951859608596619 0.0044341046380507662 0 0.0001859224092030215 0.0044230728719584387 0 0.00016752614622061427 0.0044276934881135772 0 0.00016354013522106286 0.0044251880478377815 0 0.0001859224092030215 0.0044230728719584387 0 0.00014575458049434484 0.0044497109000768914 0 0.0001859224092030215 0.0044230728719584387 0 0.00016752614622061427 0.0044276934881135772 0 0.00014575458049434484 0.0044497109000768914 0 0.00019951859608596619 0.0044341046380507662 0 0.0001564441590284962 0.0044192810828081203 0 0.00016752614622061427 0.0044276934881135772 0 0.00016652124243438923 0.0044495292039043186 0 0.00016752614622061427 0.0044276934881135772 0 0.00014575458049434484 0.0044497109000768914 0 0.00016652124243438923 0.0044495292039043186 0 0.0001564441590284962 0.0044192810828081203 0 0.00016752614622061427 0.0044276934881135772 0 0.00017136103003744261 0.0045115464267655976 0 0.00014575458049434484 0.0044497109000768914 0 7.7711068524887887e-05 0.0045307202846402413 0 0.00018932246025367658 0.0044744120614403707 0 0.00016652124243438923 0.0044495292039043186 0 0.00017136103003744261 0.0045115464267655976 0 0.00016652124243438923 0.0044495292039043186 0 0.00017136103003744261 0.0045115464267655976 0 0.00014575458049434484 0.0044497109000768914 0 7.2121799059440491e-05 0.0051409398593684512 0 6.7922420549113496e-05 0.0050657612815244802 0 4.1068158041217463e-05 0.0050139829817979686 0 0.0003809636104233867 0.0047627732996511352 0 5.7454065354326798e-05 0.004770139292293688 0 0.00016354013522106286 0.0044251880478377815 0 0.00014575458049434484 0.0044497109000768914 0 7.7711068524887887e-05 0.0045307202846402413 0 0.0003809636104233867 0.0047627732996511352 0 0.00018843762786471276 0.0051177403438321537 0 6.7922420549113496e-05 0.0050657612815244802 0 8.2896374180850896e-05 0.0049988905240711768 0 0.00012524866309234444 0.0050347555163218682 0 6.7922420549113496e-05 0.0050657612815244802 0 4.1068158041217463e-05 0.0050139829817979686 0 8.2896374180850896e-05 0.0049988905240711768 0 4.1068158041217463e-05 0.0050139829817979686 0 8.0042688122578223e-05 0.0049269735617427021 0 0.00010613117493503078 0.0048121564129785773 0 4.1068158041217463e-05 0.0050139829817979686 0 8.2896374180850896e-05 0.0049988905240711768 0 8.0042688122578223e-05 0.0049269735617427021 0 8.0042688122578223e-05 0.0049269735617427021 0 8.6188363726063871e-05 0.0048914165093407059 0 0.00010543307907342145 0.0049523969514885672 0 8.2896374180850896e-05 0.0049988905240711768 0 8.0042688122578223e-05 0.0049269735617427021 0 0.00010543307907342145 0.0049523969514885672 0 8.0042688122578223e-05 0.0049269735617427021 0 0.00010613117493503078 0.0048121564129785773 0 8.6188363726063871e-05 0.0048914165093407059 0 0.00017136103003744261 0.0045115464267655976 0 7.7711068524887887e-05 0.0045307202846402413 0 0.00010613117493503078 0.0048121564129785773 0 0.00026706693393174308 0.0047337288493559601 0 0.00017136103003744261 0.0045115464267655976 0 0.00010613117493503078 0.0048121564129785773 0 5.7454065354326798e-05 0.004770139292293688 0 0.00011583902023387074 0.0048332341254524198 0 0.00026706693393174308 0.0047337288493559601 0 0.00016468790984443659 0.004925726012200691 0 0.00010613117493503078 0.0048121564129785773 0 0.00016468790984443659 0.004925726012200691 0 0.00010613117493503078 0.0048121564129785773 0 9.6462598205070181e-05 0.0048833261376995604 0 -0.00069946812509694319 0.0049949770465573251 0 -0.00030572045069304755 0.0049154137428329856 0 -0.00043287458608443069 0.0047149505683463091 0 -0.0004084578481924588 0.0040642471759068672 0 -9.4116306482847352e-05 0.0050011973613477449 0 0.00016468790984443659 0.004925726012200691 0 9.6462598205070181e-05 0.0048833261376995604 0 8.3502764194721041e-05 0.0048833411941344856 0 9.6462598205070181e-05 0.0048833261376995604 0 8.3502764194721041e-05 0.0048833411941344856 0 9.9103665870831485e-05 0.0048897716781307332 0 9.9103665870831485e-05 0.0048897716781307332 0 8.6188363726063871e-05 0.0048914165093407059 0 0.00012973541655342616 0.0049240019552848286 0 9.6462598205070181e-05 0.0048833261376995604 0 9.9103665870831485e-05 0.0048897716781307332 0 8.6188363726063871e-05 0.0048914165093407059 0 0.00010613117493503078 0.0048121564129785773 0 9.6462598205070181e-05 0.0048833261376995604 0 8.6188363726063871e-05 0.0048914165093407059 0 8.6188363726063871e-05 0.0048914165093407059 0 0.00012973541655342616 0.0049240019552848286 0 0.00010543307907342145 0.0049523969514885672 0 0.00012973541655342616 0.0049240019552848286 0 0.00021262808656188429 0.0049674249124436083 0 0.00015717207297949511 0.0049836400872438919 0 0.00012973541655342616 0.0049240019552848286 0 0.00017558717545935787 0.0049194330971096042 0 0.00021262808656188429 0.0049674249124436083 0 0.00012973541655342616 0.0049240019552848286 0 0.00013559835825686369 0.0048796553737539671 0 0.00017558717545935787 0.0049194330971096042 0 9.9103665870831485e-05 0.0048897716781307332 0 0.00012973541655342616 0.0049240019552848286 0 0.00013559835825686369 0.0048796553737539671 0 -9.4116306482847352e-05 0.0050011973613477449 0 0.00012096655294565333 0.0048018611885406797 0 8.3502764194721041e-05 0.0048833411941344856 0 9.9103665870831485e-05 0.0048897716781307332 0 0.00013559835825686369 0.0048796553737539671 0 8.3502764194721041e-05 0.0048833411941344856 0 0.00013559835825686369 0.0048796553737539671 0 0.00013144186371528524 0.0048191399504819536 0 0.00013559835825686369 0.0048796553737539671 0 0.00023566743014515789 0.0048449688074920973 0 0.00023202245794730453 0.004906919392051394 0 0.00013559835825686369 0.0048796553737539671 0 0.00023566743014515789 0.0048449688074920973 0 0.00013144186371528524 0.0048191399504819536 0 0.00013559835825686369 0.0048796553737539671 0 0.00023202245794730453 0.004906919392051394 0 0.00017558717545935787 0.0049194330971096042 0 0.00023202245794730453 0.004906919392051394 0 0.00017558717545935787 0.0049194330971096042 0 0.00021262808656188429 0.0049674249124436083 0 0.00023202245794730453 0.004906919392051394 0 0.00021262808656188429 0.0049674249124436083 0 0.00028251919743395369 0.0049612296053679252 0 0.00021262808656188429 0.0049674249124436083 0 0.00028951485150900702 0.0050457524111538997 0 0.00028251919743395369 0.0049612296053679252 0 0.00028951485150900702 0.0050457524111538997 0 0.0002091947144037796 0.0050470813018977084 0 0.00025826375396729903 0.0051273268680367568 0 0.00021262808656188429 0.0049674249124436083 0 0.0002091947144037796 0.0050470813018977084 0 0.00015717207297949511 0.0049836400872438919 0 0.00021262808656188429 0.0049674249124436083 0 0.00028951485150900702 0.0050457524111538997 0 0.0002091947144037796 0.0050470813018977084 0 0.00012973541655342616 0.0049240019552848286 0 0.00015717207297949511 0.0049836400872438919 0 0.00010543307907342145 0.0049523969514885672 0 8.2896374180850896e-05 0.0049988905240711768 0 0.00010543307907342145 0.0049523969514885672 0 0.00012524866309234444 0.0050347555163218682 0 0.00015717207297949511 0.0049836400872438919 0 0.00010543307907342145 0.0049523969514885672 0 0.00012524866309234444 0.0050347555163218682 0 0.0002091947144037796 0.0050470813018977084 0 0.00015717207297949511 0.0049836400872438919 0 0.00012524866309234444 0.0050347555163218682 0 0.0002091947144037796 0.0050470813018977084 0 0.00012524866309234444 0.0050347555163218682 0 0.00015625061000896611 0.0051316906535243062 0 6.7922420549113496e-05 0.0050657612815244802 0 0.00012524866309234444 0.0050347555163218682 0 0.00015625061000896611 0.0051316906535243062 0 5.0702707536314615e-05 0.0052015834956448499 0 6.7922420549113496e-05 0.0050657612815244802 0 0.00015625061000896611 0.0051316906535243062 0 0.00015309656800089811 0.00522902804217029 0 5.0702707536314615e-05 0.0052015834956448499 0 0.00015625061000896611 0.0051316906535243062 0 0.00023762411801861669 0.0052457961699859711 0 0.00015309656800089811 0.00522902804217029 0 0.00015625061000896611 0.0051316906535243062 0 0.00023762411801861669 0.0052457961699859711 0 0.00015625061000896611 0.0051316906535243062 0 0.00025826375396729903 0.0051273268680367568 0 0.00023762411801861669 0.0052457961699859711 0 0.00025826375396729903 0.0051273268680367568 0 0.00040226652189009323 0.0051873015067944103 0 0.0002091947144037796 0.0050470813018977084 0 0.00015625061000896611 0.0051316906535243062 0 0.00025826375396729903 0.0051273268680367568 0 0.00028951485150900702 0.0050457524111538997 0 0.00025826375396729903 0.0051273268680367568 0 0.00040226652189009323 0.0051873015067944103 0 0.00075630155491782764 0.0098645048352483024 0 0.00077474537670544805 0.0094107963151449335 0 0.00098946529328598504 0.0096069364889337198 0 0.00078814565459126929 0.0096868819876544266 0 0.00082169782225248466 0.0091137948026620147 0 0.00082998706554317963 0.0094947789954869799 0 0.00037498294975530494 0.0091878658785216494 0 0.0008730336762364368 0.0088173477849451103 0 0.0008730336762364368 0.0088173477849451103 0 0.00049226599782402813 0.0085875651931151646 0 0.00088709917797549396 0.0083045795656117201 0 0.00037498294975530494 0.0091878658785216494 0 0.0008730336762364368 0.0088173477849451103 0 0.00049226599782402813 0.0085875651931151646 0 0.00039311021311143769 0.0071780982139005006 0 0.00042511857832309573 0.0067972814546150432 0 0.00028951485150900702 0.0050457524111538997 0 0.00040226652189009323 0.0051873015067944103 0 0.00035633419745788385 0.0050072281877965941 0 0.00028951485150900702 0.0050457524111538997 0 0.00035633419745788385 0.0050072281877965941 0 0.00028251919743395369 0.0049612296053679252 0 0.00042511857832309573 0.0067972814546150432 0 0.00046600631959799882 0.0065633847321962717 0 0.00035633419745788385 0.0050072281877965941 0 0.00028251919743395369 0.0049612296053679252 0 0.00035192083950572002 0.0048820909263418031 0 0.00023202245794730453 0.004906919392051394 0 0.00028251919743395369 0.0049612296053679252 0 0.00035192083950572002 0.0048820909263418031 0 0.00023566743014515789 0.0048449688074920973 0 0.00023202245794730453 0.004906919392051394 0 0.00035192083950572002 0.0048820909263418031 0 0.00023566743014515789 0.0048449688074920973 0 0.00035192083950572002 0.0048820909263418031 0 0.00030845426171465895 0.0048017374914150973 0 0.00057757144085189875 0.0081441867507155256 0 0.00088709917797549396 0.0083045795656117201 0 0.00072348972925942087 0.007974796609663418 0 0.00082169782225248466 0.0091137948026620147 0 0.0008423658730866211 0.0085392660977823519 0 0.00049226599782402813 0.0085875651931151646 0 0.00057757144085189875 0.0081441867507155256 0 0.00088709917797549396 0.0083045795656117201 0 0.0010595450069264673 0.0090071230267988675 0 0.00078136578602938764 0.0087918480568750408 0 0.0013150099521249451 0.0084957347558387939 0 0.00077474537670544805 0.0094107963151449335 0 0.0010595450069264673 0.0090071230267988675 0 0.00078136578602938764 0.0087918480568750408 0 0.0008423658730866211 0.0085392660977823519 0 0.00091636677132189042 0.0079682496905329071 0 0.00078136578602938764 0.0087918480568750408 0 0.0011537578707967089 0.0081984343589495898 0 0.0013150099521249451 0.0084957347558387939 0 0.00078136578602938764 0.0087918480568750408 0 0.0011537578707967089 0.0081984343589495898 0 0.00092236823248538729 0.0079281884396850844 0 0.00088709917797549396 0.0083045795656117201 0 0.00092236823248538729 0.0079281884396850844 0 0.00072348972925942087 0.007974796609663418 0 0.0017171543411394292 0.0083203257985428793 0 0.0013150099521249451 0.0084957347558387939 0 0.0014717099158011056 0.0080471281420891605 0 0.0011537578707967089 0.0081984343589495898 0 0.0013150099521249451 0.0084957347558387939 0 0.0014717099158011056 0.0080471281420891605 0 0.0017171543411394292 0.0083203257985428793 0 0.0013150099521249451 0.0084957347558387939 0 0.0016594735503279771 0.0087169932408669801 0 0.0010595450069264673 0.0090071230267988675 0 0.0013150099521249451 0.0084957347558387939 0 0.0016594735503279771 0.0087169932408669801 0 0.0010873942705386921 0.0090011934759079114 0 0.0015340136880663095 0.0088308297538215123 0 0.0010595450069264673 0.0090071230267988675 0 0.0014035063904005904 0.0089528121062741085 0 0.0013185315999670317 0.009207351295688667 0 0.0015701163869951548 0.0095198999794314267 0 0.0013185315999670317 0.009207351295688667 0 0.0012344322557464149 0.009521860523060208 0 0.0010595450069264673 0.0090071230267988675 0 0.0013185315999670317 0.009207351295688667 0 0.0010653110425855414 0.0093681860782937783 0 0.0013185315999670317 0.009207351295688667 0 0.0010653110425855414 0.0093681860782937783 0 0.0012344322557464149 0.009521860523060208 0 0.00077474537670544805 0.0094107963151449335 0 0.0010595450069264673 0.0090071230267988675 0 0.0010653110425855414 0.0093681860782937783 0 0.00077474537670544805 0.0094107963151449335 0 0.0010653110425855414 0.0093681860782937783 0 0.00098946529328598504 0.0096069364889337198 0 0.0011253865150393371 0.0098409042993359737 0 0.00098946529328598504 0.0096069364889337198 0 0.0012344322557464149 0.009521860523060208 0 0.0010653110425855414 0.0093681860782937783 0 0.00098946529328598504 0.0096069364889337198 0 0.0012344322557464149 0.009521860523060208 0 0.0011253865150393371 0.0098409042993359737 0 0.0014162637513325707 0.0097117597121155474 0 0.0012344322557464149 0.009521860523060208 0 0.0015701163869951548 0.0095198999794314267 0 0.0014162637513325707 0.0097117597121155474 0 0.0012344322557464149 0.009521860523060208 0 0.0011365953448786447 0.0065569072330699226 0 0.00078948798221949851 0.0066373239260041801 0 0.0011064292881218679 0.0062002490254177952 0 0.0011365953448786447 0.0065569072330699226 0 0.00078948798221949851 0.0066373239260041801 0 0.0011592043179412311 0.0069248156019149024 0 0.0014919863272906716 0.0066027684226276154 0 0.0011365953448786447 0.0065569072330699226 0 0.0011592043179412311 0.0069248156019149024 0 0.0014541909853440298 0.0062463877364330022 0 0.0014919863272906716 0.0066027684226276154 0 0.0011365953448786447 0.0065569072330699226 0 0.00078948798221949851 0.0066373239260041801 0 0.00047494018069999807 0.0063252276221535146 0 0.0007758606498648482 0.0061156303017629067 0 0.00078948798221949851 0.0066373239260041801 0 0.00074036460085893127 0.0070118169408072729 0 0.0011592043179412311 0.0069248156019149024 0 0.00078948798221949851 0.0066373239260041801 0 0.00074036460085893127 0.0070118169408072729 0 0.00040247682466252964 0.0068389732199053569 0 0.00056489752067627019 0.0067835168970521243 0 0.0004783385242545814 0.0055716074552260965 0 0.00074036460085893127 0.0070118169408072729 0 0.0011592043179412311 0.0069248156019149024 0 0.0010275929145549714 0.0073295170890330212 0 0.0014256083820288531 0.0072727080259977683 0 0.0010586205449053107 0.0072718767568998571 0 0.0016752742037164307 0.0075863351982514956 0 0.0012866470234143177 0.0075106275320966261 0 0.0012347236576360481 0.0077998664475762668 0 0.00143638444940129 0.0072480026434583135 0 0.0011592043179412311 0.0069248156019149024 0 0.0010275929145549714 0.0073295170890330212 0 0.0016752742037164307 0.0075863351982514956 0 0.0012347236576360481 0.0077998664475762668 0 0.0014717099158011056 0.0080471281420891605 0 0.0011537578707967089 0.0081984343589495898 0 0.0012347236576360481 0.0077998664475762668 0 0.0014717099158011056 0.0080471281420891605 0 0.0011537578707967089 0.0081984343589495898 0 0.0012347236576360481 0.0077998664475762668 0 0.00092236823248538729 0.0079281884396850844 0 0.0012347236576360481 0.0077998664475762668 0 0.00092236823248538729 0.0079281884396850844 0 0.00088433834948784429 0.0076320790168238053 0 0.00092236823248538729 0.0079281884396850844 0 0.00088433834948784429 0.0076320790168238053 0 0.00078233506180627472 0.007823460959810952 0 0.00074036460085893127 0.0070118169408072729 0 0.0010275929145549714 0.0073295170890330212 0 0.00033011555571131764 0.0073218075685653299 0 0.00092939876289141238 0.0065881405277390202 0 0.0007515473522784926 0.0066232859729981998 0 0.00058638784636058021 0.0065779084913590042 0 0.0010586205449053107 0.0072718767568998571 0 0.00046274589650861336 0.0059029298351902012 0 0.0012866470234143177 0.0075106275320966261 0 0.0012347236576360481 0.0077998664475762668 0 0.00088433834948784429 0.0076320790168238053 0 0.0010586205449053107 0.0072718767568998571 0 0.00080922371934036611 0.0070880018144846508 0 0.00039997679827421514 0.0046333956583213664 0 0.00035583811126297505 0.0045958771215432476 0 0.000417291520101094 0.0045195197404312871 0 0.00046274589650861336 0.0059029298351902012 0 0.00044008046561091915 0.0059922721827263339 0 0.0007515473522784926 0.0066232859729981998 0 0.00058638784636058021 0.0065779084913590042 0 0.00057383780879489814 0.0066591706660008602 0 0.00080922371934036611 0.0070880018144846508 0 0.00044008046561091915 0.0059922721827263339 0 0.00046600631959799882 0.0065633847321962717 0 0.00044008046561091915 0.0059922721827263339 0 0.00088433834948784429 0.0076320790168238053 0 0.00078233506180627472 0.007823460959810952 0 0.0006175512264676718 0.0077368636695622607 0 0.00078233506180627472 0.007823460959810952 0 0.0006175512264676718 0.0077368636695622607 0 0.00072348972925942087 0.007974796609663418 0 0.00057757144085189875 0.0081441867507155256 0 0.0006175512264676718 0.0077368636695622607 0 0.00072348972925942087 0.007974796609663418 0 0.00092236823248538729 0.0079281884396850844 0 0.00078233506180627472 0.007823460959810952 0 0.00072348972925942087 0.007974796609663418 0 0.00044008046561091915 0.0059922721827263339 0 0.00034913669979902081 0.0046207735112587436 0 0.00037533845733036045 0.0047387253142368848 0 0.00030845426171465895 0.0048017374914150973 0 0.00026032984111284442 0.0047457222994335005 0 0.00035192083950572002 0.0048820909263418031 0 0.00037533845733036045 0.0047387253142368848 0 0.00030845426171465895 0.0048017374914150973 0 0.00023566743014515789 0.0048449688074920973 0 0.00030845426171465895 0.0048017374914150973 0 0.00026032984111284442 0.0047457222994335005 0 0.00044034164207531221 0.0047067951673070256 0 0.00026032984111284442 0.0047457222994335005 0 0.0003121531511218368 0.0046342606526477165 0 0.00046274589650861336 0.0059029298351902012 0 0.00033145460818970326 0.004799283173056999 0 0.00044998604279650504 0.0046424485986854324 0 0.00044034164207531221 0.0047067951673070256 0 0.0003121531511218368 0.0046342606526477165 0 0.00039997679827421514 0.0046333956583213664 0 0.0003121531511218368 0.0046342606526477165 0 0.00035583811126297505 0.0045958771215432476 0 0.0003121531511218368 0.0046342606526477165 0 0.00035583811126297505 0.0045958771215432476 0 0.00030636736593807801 0.0045545101457646585 0 0.00030222301360919625 0.0043368161318523678 0 0.00036608282802991254 0.004161462845250821 0 0.00054402085938620194 0.0042139302312499656 0 0.00035583811126297505 0.0045958771215432476 0 0.00030636736593807801 0.0045545101457646585 0 0.000417291520101094 0.0045195197404312871 0 0.0003733808624442757 0.0043464523878587718 0 0.0004783385242545814 0.0055716074552260965 0 0.00030222301360919625 0.0043368161318523678 0 0.00036608282802991254 0.004161462845250821 0 0.00019193821988187579 0.0041988800977316772 0 0.00046274589650861336 0.0059029298351902012 0 0.0004783385242545814 0.0055716074552260965 0 0.00074036460085893127 0.0070118169408072729 0 0.00033011555571131764 0.0073218075685653299 0 0.00040247682466252964 0.0068389732199053569 0 0.00054402085938620194 0.0042139302312499656 0 0.00043588043867507389 0.0040272224549906194 0 0.00058401423139080734 0.003926317202532714 0 0.0004783385242545814 0.0055716074552260965 0 0.00052238778647146263 0.0051603932025405452 0 0.00036608282802991254 0.004161462845250821 0 0.00054402085938620194 0.0042139302312499656 0 0.00043588043867507389 0.0040272224549906194 0 0.00078948798221949851 0.0066373239260041801 0 0.00040373237998069867 0.006822172344056205 0 0.00047494018069999807 0.0063252276221535146 0 0.00043588043867507389 0.0040272224549906194 0 0.00029520428054128614 0.0040130853551127669 0 0.00038914862675890147 0.0038195935900249044 0 0.00036608282802991254 0.004161462845250821 0 0.00029520428054128614 0.0040130853551127669 0 0.00019193821988187579 0.0041988800977316772 0 0.00036608282802991254 0.004161462845250821 0 0.00043588043867507389 0.0040272224549906194 0 0.00029520428054128614 0.0040130853551127669 0 0.00011737493758880094 0.0039967828712152917 0 -5.9008029378491625e-05 0.004017587073049755 0 4.3553882669432156e-07 0.004209461468888169 0 0.00011737493758880094 0.0039967828712152917 0 4.3553882669432156e-07 0.004209461468888169 0 0.00019193821988187579 0.0041988800977316772 0 0.00029520428054128614 0.0040130853551127669 0 0.00011737493758880094 0.0039967828712152917 0 0.00019193821988187579 0.0041988800977316772 0 0.00029520428054128614 0.0040130853551127669 0 0.00011737493758880094 0.0039967828712152917 0 0.00018635327474895915 0.003803287942366459 0 0.00011737493758880094 0.0039967828712152917 0 -5.9008029378491625e-05 0.004017587073049755 0 -2.0640131537375775e-05 0.0038267702670441496 0 -5.9008029378491625e-05 0.004017587073049755 0 -0.00022527764210615144 0.0038836031594281961 0 -2.0640131537375775e-05 0.0038267702670441496 0 -5.9008029378491625e-05 0.004017587073049755 0 4.3553882669432156e-07 0.004209461468888169 0 -0.00023461981643734824 0.0041626716683706814 0 -5.9008029378491625e-05 0.004017587073049755 0 -0.00023461981643734824 0.0041626716683706814 0 -0.00022527764210615144 0.0038836031594281961 0 4.3553882669432156e-07 0.004209461468888169 0 6.6086804658826499e-05 0.0044747142425899684 0 -0.00013572235212323171 0.0043935248837562108 0 4.3553882669432156e-07 0.004209461468888169 0 -0.00013572235212323171 0.0043935248837562108 0 -0.00023461981643734824 0.0041626716683706814 0 4.3553882669432156e-07 0.004209461468888169 0 0.00019193821988187579 0.0041988800977316772 0 6.6086804658826499e-05 0.0044747142425899684 0 0.00030222301360919625 0.0043368161318523678 0 0.00019193821988187579 0.0041988800977316772 0 6.6086804658826499e-05 0.0044747142425899684 0 0.0003733808624442757 0.0043464523878587718 0 7.040096119518954e-05 0.0045475227354717374 0 0.0003121531511218368 0.0046342606526477165 0 0.00030636736593807801 0.0045545101457646585 0 0.00013601776701134132 0.0045828748498533203 0 0.00026032984111284442 0.0047457222994335005 0 0.0003121531511218368 0.0046342606526477165 0 0.00013601776701134132 0.0045828748498533203 0 0.00026032984111284442 0.0047457222994335005 0 0.00013601776701134132 0.0045828748498533203 0 0.00013144186371528524 0.0048191399504819536 0 0.00023566743014515789 0.0048449688074920973 0 0.00026032984111284442 0.0047457222994335005 0 0.00013144186371528524 0.0048191399504819536 0 -0.00030572045069304755 0.0049154137428329856 0 0.00013144186371528524 0.0048191399504819536 0 -0.00015858252578476698 0.0046400556329907836 0 0.00013601776701134132 0.0045828748498533203 0 0.00013144186371528524 0.0048191399504819536 0 -0.00015858252578476698 0.0046400556329907836 0 7.040096119518954e-05 0.0045475227354717374 0 -0.00013310234886925755 0.0046328253913658956 0 6.6086804658826499e-05 0.0044747142425899684 0 -0.00015858252578476698 0.0046400556329907836 0 -0.00013572235212323171 0.0043935248837562108 0 -0.00015858252578476698 0.0046400556329907836 0 -0.00013572235212323171 0.0043935248837562108 0 -0.00038234151859280207 0.0044708258985869239 0 -0.00015858252578476698 0.0046400556329907836 0 -0.00038234151859280207 0.0044708258985869239 0 -0.00043287458608443069 0.0047149505683463091 0 -0.00030572045069304755 0.0049154137428329856 0 -0.00015858252578476698 0.0046400556329907836 0 -0.00043287458608443069 0.0047149505683463091 0 -0.00069946812509694319 0.0049949770465573251 0 -0.00043287458608443069 0.0047149505683463091 0 -0.00064838808677510594 0.0046335572547189681 0 -0.00065273912575347518 0.0038877661941471532 0 -0.00061426397388994914 0.0037546068255764294 0 -0.00038234151859280207 0.0044708258985869239 0 -0.00064838808677510594 0.0046335572547189681 0 -0.00060159109551468249 0.0042734116811034752 0 -0.00038234151859280207 0.0044708258985869239 0 -0.00043287458608443069 0.0047149505683463091 0 -0.00064838808677510594 0.0046335572547189681 0 -0.00013572235212323171 0.0043935248837562108 0 -0.00038234151859280207 0.0044708258985869239 0 -0.00023461981643734824 0.0041626716683706814 0 -0.00038234151859280207 0.0044708258985869239 0 -0.00060159109551468249 0.0042734116811034752 0 -0.00023461981643734824 0.0041626716683706814 0 -0.00023461981643734824 0.0041626716683706814 0 -0.00056661247403099173 0.0039234658377281621 0 -0.00022527764210615144 0.0038836031594281961 0 -0.00060159109551468249 0.0042734116811034752 0 -0.00023461981643734824 0.0041626716683706814 0 -0.00056661247403099173 0.0039234658377281621 0 -0.00063331551917628298 0.0032412962266980469 0 -0.00061267033173345044 0.0033730127498886211 0 -0.00055628312873417065 0.0033432248275245108 0 -0.00061426397388994914 0.0037546068255764294 0 -0.00058375795128778613 0.003641298545868052 0 -0.00061267033173345044 0.0033730127498886211 0 -0.00052022052794576063 0.0035156234419585842 0 -0.00055035597377705713 0.0034343768508487958 0 -0.00056661247403099173 0.0039234658377281621 0 -0.00037409240663417964 0.0037226522416518707 0 -0.00052022052794576063 0.0035156234419585842 0 -0.00058375795128778613 0.003641298545868052 0 -0.00053174027203070433 0.0035164732859603726 0 -0.00037409240663417964 0.0037226522416518707 0 -0.00022527764210615144 0.0038836031594281961 0 -0.00021278520335290708 0.0036151835138492059 0 -0.00056661247403099173 0.0039234658377281621 0 -0.00037409240663417964 0.0037226522416518707 0 -0.00022527764210615144 0.0038836031594281961 0 -0.00037409240663417964 0.0037226522416518707 0 -0.00052022052794576063 0.0035156234419585842 0 -0.00021278520335290708 0.0036151835138492059 0 -0.00052022052794576063 0.0035156234419585842 0 -0.00034648383118214034 0.0033551989526387923 0 -0.00021278520335290708 0.0036151835138492059 0 -0.00052022052794576063 0.0035156234419585842 0 -0.00034648383118214034 0.0033551989526387923 0 -0.00057193341631524351 0.0034565538004708777 0 -0.00052022052794576063 0.0035156234419585842 0 -0.00055035597377705713 0.0034343768508487958 0 -0.00057193341631524351 0.0034565538004708777 0 -0.00013615203407331148 0.0037754069257492592 0 -0.00028638661622249606 0.0034444262915073196 0 3.8106269858454227e-06 0.0038539766848747423 0 -9.0768182174875797e-06 0.004168188153297862 0 -2.4375728061253463e-05 0.0034666781881234877 0 3.8106269858454227e-06 0.0038539766848747423 0 8.7241672644506677e-08 0.0038017230197342736 0 2.874710702745717e-07 0.0046833456628372809 0 3.8106269858454227e-06 0.0038539766848747423 0 2.874710702745717e-07 0.0046833456628372809 0 -9.0768182174875797e-06 0.004168188153297862 0 -0.00013615203407331148 0.0037754069257492592 0 4.6293271299992473e-05 0.0039389294858429022 0 -0.00034648383118214034 0.0033551989526387923 0 -0.00010845382027350851 0.003460100510536863 0 6.6170250789219373e-05 0.0032889443356029658 0 2.874710702745717e-07 0.0046833456628372809 0 -9.0768182174875797e-06 0.004168188153297862 0 3.3433738218988736e-05 0.0048734910174555767 0 2.874710702745717e-07 0.0046833456628372809 0 -7.8904049281788751e-07 0.0055630586690655313 0 3.3433738218988736e-05 0.0048734910174555767 0 6.6170250789219373e-05 0.0032889443356029658 0 6.1368914624427762e-05 0.0035722058252344699 0 0.00025795779045525394 0.0034251263764160525 0 -0.00010845382027350851 0.003460100510536863 0 6.6170250789219373e-05 0.0032889443356029658 0 6.1368914624427762e-05 0.0035722058252344699 0 6.1368914624427762e-05 0.0035722058252344699 0 0.00018635327474895915 0.003803287942366459 0 0.0002702712959425105 0.0035931074314598664 0 6.1368914624427762e-05 0.0035722058252344699 0 0.0002702712959425105 0.0035931074314598664 0 0.00025795779045525394 0.0034251263764160525 0 -0.00010845382027350851 0.003460100510536863 0 6.1368914624427762e-05 0.0035722058252344699 0 -0.00021278520335290708 0.0036151835138492059 0 -0.00034648383118214034 0.0033551989526387923 0 -0.00010845382027350851 0.003460100510536863 0 -0.00021278520335290708 0.0036151835138492059 0 6.1368914624427762e-05 0.0035722058252344699 0 -0.00021278520335290708 0.0036151835138492059 0 -2.0640131537375775e-05 0.0038267702670441496 0 -0.00022527764210615144 0.0038836031594281961 0 -0.00021278520335290708 0.0036151835138492059 0 -2.0640131537375775e-05 0.0038267702670441496 0 6.1368914624427762e-05 0.0035722058252344699 0 -2.0640131537375775e-05 0.0038267702670441496 0 0.00018635327474895915 0.003803287942366459 0 0.00011737493758880094 0.0039967828712152917 0 -2.0640131537375775e-05 0.0038267702670441496 0 0.00018635327474895915 0.003803287942366459 0 0.00018635327474895915 0.003803287942366459 0 0.00038914862675890147 0.0038195935900249044 0 0.0002702712959425105 0.0035931074314598664 0 0.00029520428054128614 0.0040130853551127669 0 0.00018635327474895915 0.003803287942366459 0 0.00038914862675890147 0.0038195935900249044 0 0.00038914862675890147 0.0038195935900249044 0 0.00058401423139080734 0.003926317202532714 0 0.00061911014410982116 0.003641030949239748 0 0.00043588043867507389 0.0040272224549906194 0 0.00038914862675890147 0.0038195935900249044 0 0.00058401423139080734 0.003926317202532714 0 0.00052238778647146263 0.0051603932025405452 0 0.00063268394062274374 0.0044942032401821489 0 0.00061911014410982116 0.003641030949239748 0 0.0002702712959425105 0.0035931074314598664 0 0.00044756294673254336 0.003444950199477821 0 0.00038914862675890147 0.0038195935900249044 0 0.00061911014410982116 0.003641030949239748 0 0.0002702712959425105 0.0035931074314598664 0 0.00025795779045525394 0.0034251263764160525 0 0.00043690516133621177 0.0032345287858572473 0 0.00044756294673254336 0.003444950199477821 0 6.6170250789219373e-05 0.0032889443356029658 0 0.00025795779045525394 0.0034251263764160525 0 0.00043690516133621177 0.0032345287858572473 0 0.0002702712959425105 0.0035931074314598664 0 0.00025795779045525394 0.0034251263764160525 0 0.00044756294673254336 0.003444950199477821 0 4.6293271299992473e-05 0.0039389294858429022 0 2.9941367503643054e-05 0.0051018280797396872 0 -6.518479991761432e-08 0.0055647876368590419 0 2.9941367503643054e-05 0.0051018280797396872 0 -1.2167397750412212e-07 0.0055649228094283854 0 1.2292537048041773e-07 0.0061346636305318961 0 -6.1107480423683613e-06 0.0062013633905924374 0 -7.8904049281788751e-07 0.0055630586690655313 0 3.3433738218988736e-05 0.0048734910174555767 0 -0.00061576646942278332 0.0051920453735296917 0 1.2292537048041773e-07 0.0061346636305318961 0 -1.2696396333147318e-07 0.0067040162122683471 0 1.0943510134607091e-05 0.0065265038942825503 0 1.2292537048041773e-07 0.0061346636305318961 0 -6.1107480423683613e-06 0.0062013633905924374 0 1.0943510134607091e-05 0.0065265038942825503 0 0.00015786027546223902 0.0058006906466531102 0 -2.5216514229783162e-05 0.0056942528360749717 0 -5.0720455759107343e-05 0.0058578831126247033 0 2.9941367503643054e-05 0.0051018280797396872 0 -0.00018722397633621287 0.0068030566492344267 0 0.00043690516133621177 0.0032345287858572473 0 0.00044756294673254336 0.003444950199477821 0 0.00065371561234580365 0.0033712089922257327 0 2.9941367503643054e-05 0.0051018280797396872 0 0.00023166854260971603 0.0055069812563778558 0 0.00061911014410982116 0.003641030949239748 0 0.00044756294673254336 0.003444950199477821 0 0.00065371561234580365 0.0033712089922257327 0 0.00063268394062274374 0.0044942032401821489 0 0.00023166854260971603 0.0055069812563778558 0 -0.00059131794883752825 0.0078492192642458259 0 -0.00023090695424251477 0.0077473394839074209 0 -3.7002605613888481e-05 0.008155422464640948 0 0.00023166854260971603 0.0055069812563778558 0 0.00058599648859211195 0.007087421947974337 0 0.00023166854260971603 0.0055069812563778558 0 -0.00018722397633621287 0.0068030566492344267 0 -0.00059131794883752825 0.0078492192642458259 0 -0.00058911539674030313 0.0074306927702539969 0 -0.00023090695424251477 0.0077473394839074209 0 -0.00058911539674030313 0.0074306927702539969 0 -3.1943452026455697e-05 0.0072358735368045846 0 -0.00023090695424251477 0.0077473394839074209 0 -3.8654891265998351e-07 0.0067052919697532321 0 -6.3018225650980949e-06 0.0067403163990879715 0 -3.1943452026455697e-05 0.0072358735368045846 0 -0.00018722397633621287 0.0068030566492344267 0 -8.0187692057066639e-05 0.0071586876557845798 0 -2.1902251452662479e-07 0.0067046333445082793 0 -0.00018722397633621287 0.0068030566492344267 0 4.7307060070676966e-08 0.0075453926173608713 0 -3.8654891265998351e-07 0.0067052919697532321 0 -3.1943452026455697e-05 0.0072358735368045846 0 4.7307060070676966e-08 0.0075453926173608713 0 -3.1943452026455697e-05 0.0072358735368045846 0 1.5739692503024281e-05 0.007815369598386834 0 -3.1943452026455697e-05 0.0072358735368045846 0 1.5739692503024281e-05 0.007815369598386834 0 -0.00023090695424251477 0.0077473394839074209 0 1.5739692503024281e-05 0.007815369598386834 0 -0.00023090695424251477 0.0077473394839074209 0 -3.7002605613888481e-05 0.008155422464640948 0 0.00054815637938682876 0.005813608893316816 0 0.00062198730814336689 0.0053075248012172827 0 0.0012303037135904229 0.0056721429678353533 0 0.00054815637938682876 0.005813608893316816 0 0.0012303037135904229 0.0056721429678353533 0 0.0007758606498648482 0.0061156303017629067 0 0.00047494018069999807 0.0063252276221535146 0 0.00054815637938682876 0.005813608893316816 0 0.0007758606498648482 0.0061156303017629067 0 0.00078948798221949851 0.0066373239260041801 0 0.0007758606498648482 0.0061156303017629067 0 0.0011064292881218679 0.0062002490254177952 0 0.0012303037135904229 0.0056721429678353533 0 0.0007758606498648482 0.0061156303017629067 0 0.0011064292881218679 0.0062002490254177952 0 0.0014541909853440298 0.0062463877364330022 0 0.0012303037135904229 0.0056721429678353533 0 0.0011064292881218679 0.0062002490254177952 0 0.0014541909853440298 0.0062463877364330022 0 0.0011365953448786447 0.0065569072330699226 0 0.0011064292881218679 0.0062002490254177952 0 -0.00067519154864680963 -0.001093412213104493 0 -0.00046748622863853934 -0.0010235457040487573 0 -0.00053057795597697723 -0.00073255801997834289 0 -0.00067519154864680963 -0.001093412213104493 0 -0.00046748622863853934 -0.0010235457040487573 0 -0.00054770930206470513 -0.0012522753285928812 0 -0.00046748622863853934 -0.0010235457040487573 0 -0.00054770930206470513 -0.0012522753285928812 0 -0.00036438264910943586 -0.0012715120206996788 0 -0.00054770930206470513 -0.0012522753285928812 0 -0.00071555652347779627 -0.0013431980237656117 0 -0.00056660366108500721 -0.0014757029474990301 0 -0.00054770930206470513 -0.0012522753285928812 0 -0.00036438264910943586 -0.0012715120206996788 0 -0.00056660366108500721 -0.0014757029474990301 0 -0.00067519154864680963 -0.001093412213104493 0 -0.00071555652347779627 -0.0013431980237656117 0 -0.0009050583818662316 -0.0011747512851249184 0 -0.00067519154864680963 -0.001093412213104493 0 -0.00054770930206470513 -0.0012522753285928812 0 -0.00071555652347779627 -0.0013431980237656117 0 -0.00071555652347779627 -0.0013431980237656117 0 -0.0009050583818662316 -0.0011747512851249184 0 -0.0009361222638092783 -0.0014240790549690462 0 -0.0009050583818662316 -0.0011747512851249184 0 -0.0013020676811567565 -0.0011478966952292587 0 -0.0009361222638092783 -0.0014240790549690462 0 -0.0009050583818662316 -0.0011747512851249184 0 -0.0013020676811567565 -0.0011478966952292587 0 -0.00093415721290551756 -0.00083136128411218904 0 -0.00067519154864680963 -0.001093412213104493 0 -0.0009050583818662316 -0.0011747512851249184 0 -0.00093415721290551756 -0.00083136128411218904 0 -0.0013020676811567565 -0.0011478966952292587 0 -0.00093415721290551756 -0.00083136128411218904 0 -0.0015727306554920635 -0.00032015212698789766 0 -0.00093415721290551756 -0.00083136128411218904 0 -0.00081128961868216082 -0.0003005927674779142 0 -0.0015727306554920635 -0.00032015212698789766 0 -0.00081128961868216082 -0.0003005927674779142 0 -0.00053057795597697723 -0.00073255801997834289 0 -0.00041037246927187054 -0.00023104046760941875 0 -0.00093415721290551756 -0.00083136128411218904 0 -0.00081128961868216082 -0.0003005927674779142 0 -0.00053057795597697723 -0.00073255801997834289 0 -0.00067519154864680963 -0.001093412213104493 0 -0.00093415721290551756 -0.00083136128411218904 0 -0.00053057795597697723 -0.00073255801997834289 0 -0.00046748622863853934 -0.0010235457040487573 0 -0.00053057795597697723 -0.00073255801997834289 0 -0.00027145431925711903 -0.00076570906870784979 0 -0.00053057795597697723 -0.00073255801997834289 0 -0.00027145431925711903 -0.00076570906870784979 0 -0.00041037246927187054 -0.00023104046760941875 0 -0.00027145431925711903 -0.00076570906870784979 0 -0.00013404323229467149 -0.0012339132622092143 0 -7.2437132949340418e-05 -0.00077140780723356395 0 -0.00013404323229467149 -0.0012339132622092143 0 -0.00036438264910943586 -0.0012715120206996788 0 -0.00022520687356832956 -0.0015424878102079499 0 -0.00013404323229467149 -0.0012339132622092143 0 -0.00022520687356832956 -0.0015424878102079499 0 -0.000106649985736341 -0.0015947793056157386 0 -0.00027145431925711903 -0.00076570906870784979 0 -0.00013404323229467149 -0.0012339132622092143 0 -0.00036438264910943586 -0.0012715120206996788 0 -0.00046748622863853934 -0.0010235457040487573 0 -0.00027145431925711903 -0.00076570906870784979 0 -0.00036438264910943586 -0.0012715120206996788 0 -0.00036438264910943586 -0.0012715120206996788 0 -0.00022520687356832956 -0.0015424878102079499 0 -0.00056660366108500721 -0.0014757029474990301 0 -0.00022520687356832956 -0.0015424878102079499 0 -0.00058145398434821492 -0.0015175955625572511 0 -0.00056660366108500721 -0.0014757029474990301 0 -0.00022520687356832956 -0.0015424878102079499 0 -0.00026578261766645769 -0.0017299660223207911 0 -0.00041606876113966883 -0.0017507173066765235 0 -0.00022520687356832956 -0.0015424878102079499 0 -0.00041606876113966883 -0.0017507173066765235 0 -0.00056554674859058166 -0.0016118396259481242 0 -0.00013183295607922484 -0.0016304812842782028 0 -0.00087065058256762949 -0.001133705342494373 0 -0.00022520687356832956 -0.0015424878102079499 0 -0.000106649985736341 -0.0015947793056157386 0 -0.00016361262115116893 -0.001766500535976835 0 -0.00022520687356832956 -0.0015424878102079499 0 -0.00019571451254733443 -0.0017331243633646779 0 -0.00016361262115116893 -0.001766500535976835 0 -0.00022520687356832956 -0.0015424878102079499 0 -0.00019571451254733443 -0.0017331243633646779 0 -0.00026578261766645769 -0.0017299660223207911 0 -0.00019571451254733443 -0.0017331243633646779 0 -0.00023083501825734348 -0.0018071006183683969 0 -0.00016696467472669552 -0.0017842297916659075 0 -0.00019571451254733443 -0.0017331243633646779 0 -0.00026578261766645769 -0.0017299660223207911 0 -0.00023083501825734348 -0.0018071006183683969 0 -0.00026578261766645769 -0.0017299660223207911 0 -0.00023083501825734348 -0.0018071006183683969 0 -0.00032575963367579051 -0.0018015575081540205 0 -0.00024567596530061634 -0.0018509963184152303 0 -0.00023083501825734348 -0.0018071006183683969 0 -0.00032575963367579051 -0.0018015575081540205 0 -0.00094978874387115035 -0.001958575348245126 0 -0.00081577172767806436 -0.0018369410912807093 0 -0.001512599468915615 -0.0026642013611912325 0 -0.0010815529396849268 -0.0023073032628490374 0 -0.0012555624138500365 -0.0028181824875540395 0 -0.00094978874387115035 -0.001958575348245126 0 -0.00060489914861129124 -0.002071971275153732 0 -0.00023761654858461755 -0.0018251564574528071 0 -0.00023083501825734348 -0.0018071006183683969 0 -0.00016696467472669552 -0.0017842297916659075 0 -0.00047419575327394876 -0.0019578482780901497 0 -0.00041606876113966883 -0.0017507173066765235 0 -0.00032575963367579051 -0.0018015575081540205 0 -0.00047419575327394876 -0.0019578482780901497 0 -0.00024567596530061634 -0.0018509963184152303 0 -0.00032575963367579051 -0.0018015575081540205 0 -0.00026578261766645769 -0.0017299660223207911 0 -0.00041606876113966883 -0.0017507173066765235 0 -0.00032575963367579051 -0.0018015575081540205 0 -0.00047419575327394876 -0.0019578482780901497 0 -0.00041606876113966883 -0.0017507173066765235 0 -0.00062694335694203661 -0.0018451776213953891 0 -0.00041606876113966883 -0.0017507173066765235 0 -0.00062694335694203661 -0.0018451776213953891 0 -0.00056554674859058166 -0.0016118396259481242 0 -0.00091888250611873426 -0.0011288842376825936 0 -0.00087065058256762949 -0.001133705342494373 0 -0.00059736239241636269 -0.0015878405494781493 0 -0.00079214438860891203 -0.0015116083130813161 0 -0.00056660366108500721 -0.0014757029474990301 0 -0.00071555652347779627 -0.0013431980237656117 0 -0.00079214438860891203 -0.0015116083130813161 0 -0.00056660366108500721 -0.0014757029474990301 0 -0.00071555652347779627 -0.0013431980237656117 0 -0.00079214438860891203 -0.0015116083130813161 0 -0.0009361222638092783 -0.0014240790549690462 0 -0.00087065058256762949 -0.001133705342494373 0 -0.0008539120201345214 -0.0012543392906812357 0 -0.00059736239241636269 -0.0015878405494781493 0 -0.00079214438860891203 -0.0015116083130813161 0 -0.0011407675391296019 -0.0017199704193064903 0 -0.00035232326893492791 0.0032079339276702744 0 -0.00034003791549602866 0.0031017998202705339 0 -0.0003793773465110118 0.0031655832539473506 0 -0.0013020676811567565 -0.0011478966952292587 0 -0.0009361222638092783 -0.0014240790549690462 0 -0.0011407675391296019 -0.0017199704193064903 0 -0.00087065058256762949 -0.001133705342494373 0 -0.0012875717603108103 0.00080853545405040847 0 -0.00079200022779003928 0.00099417574090750953 0 -0.0012875717603108103 0.00080853545405040847 0 -0.00079214438860891203 -0.0015116083130813161 0 -0.0009361222638092783 -0.0014240790549690462 0 -0.0011407675391296019 -0.0017199704193064903 0 -0.0020616271844803489 0.0005870931538266539 0 -0.0012875717603108103 0.00080853545405040847 0 -0.0013893695903853377 -0.00037691355406696992 0 -0.0012705592108449703 -0.00035173650941932 0 -0.0014245270668508845 -0.00015915742242910482 0 -0.0012705592108449703 -0.00035173650941932 0 -0.0011986269430998046 -0.00011715516157118148 0 -0.0014245270668508845 -0.00015915742242910482 0 -0.0026118648420820384 0.0012390004258380394 0 -0.0026586372155473787 0.0015039220289731218 0 -0.0027341151733195641 0.0013683976236351051 0 -0.0026118648420820384 0.0012390004258380394 0 -0.0028358128681753047 0.0012605042325938792 0 -0.0027341151733195641 0.0013683976236351051 0 -0.0026586372155473787 0.0015039220289731218 0 -0.0027341151733195641 0.0013683976236351051 0 -0.0028322264576549913 0.0014670599981259531 0 -0.0028358128681753047 0.0012605042325938792 0 -0.0027341151733195641 0.0013683976236351051 0 -0.0028322264576549913 0.0014670599981259531 0 -0.0012313875582123709 0.0024712769941124097 0 -0.0020013308206286548 0.0021280904392779526 0 -0.0028358128681753047 0.0012605042325938792 0 -0.0028322264576549913 0.0014670599981259531 0 -0.0030313208748612634 0.0012191859999294923 0 -0.00099308828774270666 0.0029471695680690943 0 -0.00077420701733040269 0.0030088230535233055 0 -0.00083831546210486323 0.0031048866939283439 0 -0.0012313875582123709 0.0024712769941124097 0 -0.00050274068128729036 0.0031178597492636595 0 -0.00068221698597688697 0.0031244474924931099 0 -0.00077420701733040269 0.0030088230535233055 0 -0.00083831546210486323 0.0031048866939283439 0 -0.00039377353117624284 0.0031091034267896121 0 -0.00048013119685285787 0.0031022189183242685 0 -0.00045700078626017404 0.0031498154595568056 0 -0.00048013119685285787 0.0031022189183242685 0 -0.00045700078626017404 0.0031498154595568056 0 -0.00054232993429168496 0.0031313788606000927 0 -0.00045700078626017404 0.0031498154595568056 0 -0.00052559497153470609 0.0031885269115367655 0 -0.00045769057669579666 0.0032066123580494384 0 -0.00045700078626017404 0.0031498154595568056 0 -0.00042002626309688233 0.0031752389367960369 0 -0.00045769057669579666 0.0032066123580494384 0 -0.00045700078626017404 0.0031498154595568056 0 -0.00042002626309688233 0.0031752389367960369 0 -0.00040536962617214938 0.0031431195887596901 0 -0.00042002626309688233 0.0031752389367960369 0 -0.0003793773465110118 0.0031655832539473506 0 -0.00040536962617214938 0.0031431195887596901 0 -0.00039377353117624284 0.0031091034267896121 0 -0.00045700078626017404 0.0031498154595568056 0 -0.00040536962617214938 0.0031431195887596901 0 -0.0003793773465110118 0.0031655832539473506 0 -0.00037723436798113824 0.0031182090844451248 0 -0.00040536962617214938 0.0031431195887596901 0 -0.00039377353117624284 0.0031091034267896121 0 -0.00037723436798113824 0.0031182090844451248 0 -0.00040536962617214938 0.0031431195887596901 0 -0.00034003791549602866 0.0031017998202705339 0 -0.0004059639863587396 0.0030857277792878833 0 -0.00037723436798113824 0.0031182090844451248 0 -0.00034003791549602866 0.0031017998202705339 0 -0.0003793773465110118 0.0031655832539473506 0 -0.00037723436798113824 0.0031182090844451248 0 -0.0012875717603108103 0.00080853545405040847 0 -0.0012313875582123709 0.0024712769941124097 0 -0.0012313875582123709 0.0024712769941124097 0 -0.00062845868645029193 0.0030288446320251199 0 -0.0004084578481924588 0.0040642471759068672 0 -0.00065273912575347518 0.0038877661941471532 0 -0.00061690703512586433 0.0031224900892524209 0 -0.000603496456862263 0.0030963455407669329 0 -0.00057738291240304427 0.0031669402097885264 0 -0.000603496456862263 0.0030963455407669329 0 -0.00054232993429168496 0.0031313788606000927 0 -0.00057738291240304427 0.0031669402097885264 0 -0.00057686590666173611 0.0031496877952124093 0 -0.00061690703512586433 0.0031224900892524209 0 -0.000603496456862263 0.0030963455407669329 0 -0.00050274068128729036 0.0031178597492636595 0 -0.00065628631527617058 0.0030710354525822141 0 -0.00048013119685285787 0.0031022189183242685 0 -0.000603496456862263 0.0030963455407669329 0 -0.00054232993429168496 0.0031313788606000927 0 -0.00068221698597688697 0.0031244474924931099 0 -0.00077420701733040269 0.0030088230535233055 0 -0.000603496456862263 0.0030963455407669329 0 -0.00052559497153470609 0.0031885269115367655 0 -0.00057738291240304427 0.0031669402097885264 0 -0.00055573328339891229 0.0032545408731870333 0 -0.00045700078626017404 0.0031498154595568056 0 -0.00054232993429168496 0.0031313788606000927 0 -0.00052559497153470609 0.0031885269115367655 0 -0.00054232993429168496 0.0031313788606000927 0 -0.00052559497153470609 0.0031885269115367655 0 -0.00057738291240304427 0.0031669402097885264 0 -0.00061690703512586433 0.0031224900892524209 0 -0.00063331551917628298 0.0032412962266980469 0 -0.00057738291240304427 0.0031669402097885264 0 -0.00063331551917628298 0.0032412962266980469 0 -0.00057738291240304427 0.0031669402097885264 0 -0.00055573328339891229 0.0032545408731870333 0 -0.00063331551917628298 0.0032412962266980469 0 -0.00055573328339891229 0.0032545408731870333 0 -0.00055628312873417065 0.0033432248275245108 0 -0.00055573328339891229 0.0032545408731870333 0 -0.00049986882469361135 0.0032497691291870261 0 -0.00050124264888709276 0.003320272997089074 0 -0.00052559497153470609 0.0031885269115367655 0 -0.00055573328339891229 0.0032545408731870333 0 -0.00049986882469361135 0.0032497691291870261 0 -0.00052559497153470609 0.0031885269115367655 0 -0.00049986882469361135 0.0032497691291870261 0 -0.00045769057669579666 0.0032066123580494384 0 -0.00055573328339891229 0.0032545408731870333 0 -0.00050124264888709276 0.003320272997089074 0 -0.00055628312873417065 0.0033432248275245108 0 -0.00050124264888709276 0.003320272997089074 0 -0.00055628312873417065 0.0033432248275245108 0 -0.00049532704305980154 0.0033898724461521043 0 -0.00035232326893492791 0.0032079339276702744 0 -0.00040418031603082702 0.0032206314619185857 0 -0.00036671755931343321 0.0033098034046334999 0 -0.00035232326893492791 0.0032079339276702744 0 -0.0003793773465110118 0.0031655832539473506 0 -0.00040418031603082702 0.0032206314619185857 0 -0.00042002626309688233 0.0031752389367960369 0 -0.0003793773465110118 0.0031655832539473506 0 -0.00040418031603082702 0.0032206314619185857 0 -0.00042002626309688233 0.0031752389367960369 0 -0.00040418031603082702 0.0032206314619185857 0 -0.00045769057669579666 0.0032066123580494384 0 -0.00040418031603082702 0.0032206314619185857 0 -0.00045769057669579666 0.0032066123580494384 0 -0.0004287676957934452 0.0032764056102321101 0 -0.00049986882469361135 0.0032497691291870261 0 -0.00045769057669579666 0.0032066123580494384 0 -0.0004287676957934452 0.0032764056102321101 0 -0.00050124264888709276 0.003320272997089074 0 -0.0004287676957934452 0.0032764056102321101 0 -0.00044426757443878845 0.0033439787043634678 0 -0.00049986882469361135 0.0032497691291870261 0 -0.00050124264888709276 0.003320272997089074 0 -0.0004287676957934452 0.0032764056102321101 0 -0.0004287676957934452 0.0032764056102321101 0 -0.00041211568123827896 0.0033214305237126564 0 -0.00044426757443878845 0.0033439787043634678 0 -0.00079200022779003928 0.00099417574090750953 0 -0.00098008718368574059 0.0015644822655777406 0 -0.0004287676957934452 0.0032764056102321101 0 -0.00041211568123827896 0.0033214305237126564 0 -0.00036671755931343321 0.0033098034046334999 0 -0.00040418031603082702 0.0032206314619185857 0 -0.0004287676957934452 0.0032764056102321101 0 -0.00036671755931343321 0.0033098034046334999 0 -0.0015727306554920635 -0.00032015212698789766 0 -0.0018152516890148334 0.0010964337997419272 0 -0.00087192619488872742 0.00085661444402052912 0 -0.00036671755931343321 0.0033098034046334999 0 -0.0004079279401225739 0.0033541194399796916 0 -0.00038576081618976385 0.0034011727235559396 0 -0.00098008718368574059 0.0015644822655777406 0 -0.00099555220382339894 0.0020194531272969113 0 -0.0004079279401225739 0.0033541194399796916 0 -0.00044589160342403818 0.0033869681922016064 0 -0.00038576081618976385 0.0034011727235559396 0 -0.00041211568123827896 0.0033214305237126564 0 -0.00036671755931343321 0.0033098034046334999 0 -0.0004079279401225739 0.0033541194399796916 0 -0.00041211568123827896 0.0033214305237126564 0 -0.0004079279401225739 0.0033541194399796916 0 -0.00044426757443878845 0.0033439787043634678 0 -0.00044589160342403818 0.0033869681922016064 0 -0.00049532704305980154 0.0033898724461521043 0 -0.00049137892488186694 0.0034421296019388689 0 -0.0004079279401225739 0.0033541194399796916 0 -0.00044426757443878845 0.0033439787043634678 0 -0.00044589160342403818 0.0033869681922016064 0 -0.00044426757443878845 0.0033439787043634678 0 -0.00044589160342403818 0.0033869681922016064 0 -0.00049532704305980154 0.0033898724461521043 0 -0.00062978638752577657 0.002243183658862937 0 -0.00077901500694041632 0.0019396389410798133 0 -0.00030029099446510183 0.0028546026112499542 0 -0.00099555220382339894 0.0020194531272969113 0 -0.00027772854511526714 0.0032025326752886025 0 -0.00044589160342403818 0.0033869681922016064 0 -0.00038576081618976385 0.0034011727235559396 0 -0.00049137892488186694 0.0034421296019388689 0 -0.00062978638752577657 0.002243183658862937 0 -0.00075562281091712746 0.0019176673755286261 0 -0.00077816207544524976 0.0019467585402806662 0 -0.00062978638752577657 0.002243183658862937 0 -0.00075562281091712746 0.0019176673755286261 0 -0.00066432083356041593 0.0021236405860595997 0 -0.00077816207544524976 0.0019467585402806662 0 -0.00082200439287774963 0.0016301080842066286 0 -0.00080643616239204252 0.0018775495846163042 0 -0.00075562281091712746 0.0019176673755286261 0 -0.00077816207544524976 0.0019467585402806662 0 -0.00082200439287774963 0.0016301080842066286 0 -0.00098767496626770519 0.0020052192926831402 0 -0.00099555220382339894 0.0020194531272969113 0 -0.00062978638752577657 0.002243183658862937 0 -0.00077816207544524976 0.0019467585402806662 0 -0.00077901500694041632 0.0019396389410798133 0 -0.00061267033173345044 0.0033730127498886211 0 -0.00055628312873417065 0.0033432248275245108 0 -0.00055035597377705713 0.0034343768508487958 0 -0.00055628312873417065 0.0033432248275245108 0 -0.00055035597377705713 0.0034343768508487958 0 -0.00049532704305980154 0.0033898724461521043 0 -0.00050124264888709276 0.003320272997089074 0 -0.00044426757443878845 0.0033439787043634678 0 -0.00049532704305980154 0.0033898724461521043 0 -0.00055035597377705713 0.0034343768508487958 0 -0.00049532704305980154 0.0033898724461521043 0 -0.00049137892488186694 0.0034421296019388689 0 -0.00027772854511526714 0.0032025326752886025 0 -0.00028638661622249606 0.0034444262915073196 0 -0.00055035597377705713 0.0034343768508487958 0 -0.00049137892488186694 0.0034421296019388689 0 -0.00057193341631524351 0.0034565538004708777 0 3.8106269858454227e-06 0.0038539766848747423 0 -2.4375728061253463e-05 0.0034666781881234877 0 -8.1091978472016749e-05 0.0031774408891211718 0 -0.00030029099446510183 0.0028546026112499542 0 -2.4375728061253463e-05 0.0034666781881234877 0 -8.1091978472016749e-05 0.0031774408891211718 0 -0.00030029099446510183 0.0028546026112499542 0 -8.1091978472016749e-05 0.0031774408891211718 0 -0.00032327747038170268 0.0027847346284412527 0 -8.1091978472016749e-05 0.0031774408891211718 0 -6.8517358096138632e-07 0.0029214651625179503 0 -0.00032327747038170268 0.0027847346284412527 0 3.8106269858454227e-06 0.0038539766848747423 0 8.7241672644506677e-08 0.0038017230197342736 0 -8.1091978472016749e-05 0.0031774408891211718 0 8.7241672644506677e-08 0.0038017230197342736 0 -8.1091978472016749e-05 0.0031774408891211718 0 -6.8517358096138632e-07 0.0029214651625179503 0 -0.0005200206869642388 0.0025531033998838397 0 -0.00066432083356041593 0.0021236405860595997 0 -0.00065807085573261982 0.0018246489916323033 0 -0.00062978638752577657 0.002243183658862937 0 -0.0005200206869642388 0.0025531033998838397 0 -0.00066432083356041593 0.0021236405860595997 0 -0.00031319047453953037 0.0021246295073434171 0 -0.00041339452598853108 0.0012525119392434102 0 -0.00062978638752577657 0.002243183658862937 0 -0.0005200206869642388 0.0025531033998838397 0 -0.00032327747038170268 0.0027847346284412527 0 -0.00062978638752577657 0.002243183658862937 0 -0.00030029099446510183 0.0028546026112499542 0 -0.00032327747038170268 0.0027847346284412527 0 -4.5855651761297563e-07 0.0029202023959900426 0 -0.00016063835942278776 0.0017031996094598004 0 -1.617888472047128e-07 0.0020328417460240399 0 -6.8517358096138632e-07 0.0029214651625179503 0 -0.0005200206869642388 0.0025531033998838397 0 -0.00032327747038170268 0.0027847346284412527 0 -9.3170650128271449e-08 0.0029205738115365689 0 -0.00031319047453953037 0.0021246295073434171 0 -0.00016063835942278776 0.0017031996094598004 0 -1.617888472047128e-07 0.0020328417460240399 0 -6.1114181287162309e-05 0.0013381657995734362 0 -1.617888472047128e-07 0.0020328417460240399 0 -6.1114181287162309e-05 0.0013381657995734362 0 -3.3079845027708184e-08 0.0011453175664559642 0 -6.1114181287162309e-05 0.0013381657995734362 0 -3.3079845027708184e-08 0.0011453175664559642 0 -6.5681474856245942e-05 0.00088334179220968484 0 -3.3079845027708184e-08 0.0011453175664559642 0 -3.9340144876904438e-05 0.0004974310045831507 0 -6.5681474856245942e-05 0.00088334179220968484 0 -3.9340144876904438e-05 0.0004974310045831507 0 -6.5681474856245942e-05 0.00088334179220968484 0 -0.00015145227993051608 0.00073228379168522012 0 -0.00016063835942278776 0.0017031996094598004 0 -6.1114181287162309e-05 0.0013381657995734362 0 -0.00015145227993051608 0.00073228379168522012 0 -6.1114181287162309e-05 0.0013381657995734362 0 -6.5681474856245942e-05 0.00088334179220968484 0 -0.00015145227993051608 0.00073228379168522012 0 -0.00075562281091712746 0.0019176673755286261 0 -0.00066432083356041593 0.0021236405860595997 0 -0.00065807085573261982 0.0018246489916323033 0 -0.00082200439287774963 0.0016301080842066286 0 -0.00065807085573261982 0.0018246489916323033 0 -0.00087192619488872742 0.00085661444402052912 0 -0.00075562281091712746 0.0019176673755286261 0 -0.00082200439287774963 0.0016301080842066286 0 -0.00065807085573261982 0.0018246489916323033 0 -0.00099555220382339894 0.0020194531272969113 0 -0.00082911948623449409 0.0011447073846719341 0 -0.00082200439287774963 0.0016301080842066286 0 -0.00080643616239204252 0.0018775495846163042 0 -0.00087192619488872742 0.00085661444402052912 0 -0.00065807085573261982 0.0018246489916323033 0 -0.00015845188660165648 0.00010698799915900477 0 -0.00087192619488872742 0.00085661444402052912 0 -0.00041339452598853108 0.0012525119392434102 0 -0.00014406570950538882 0.00027521451252701424 0 -3.9340144876904438e-05 0.0004974310045831507 0 -0.00015145227993051608 0.00073228379168522012 0 -0.00015845188660165648 0.00010698799915900477 0 -0.00027145431925711903 -0.00076570906870784979 0 -0.00015845188660165648 0.00010698799915900477 0 -0.00041037246927187054 -0.00023104046760941875 0 -0.00015845188660165648 0.00010698799915900477 0 -0.00041037246927187054 -0.00023104046760941875 0 -0.00087192619488872742 0.00085661444402052912 0 -0.00081128961868216082 -0.0003005927674779142 0 -0.00041037246927187054 -0.00023104046760941875 0 -0.00087192619488872742 0.00085661444402052912 0 -0.00081128961868216082 -0.0003005927674779142 0 -0.0015727306554920635 -0.00032015212698789766 0 -0.00087192619488872742 0.00085661444402052912 0 -7.2437132949340418e-05 -0.00077140780723356395 0 -2.7378514427748593e-05 -0.00016962465930086225 0 1.5557685888631129e-05 -0.00091883935310124341 0 -0.00027145431925711903 -0.00076570906870784979 0 -0.00015845188660165648 0.00010698799915900477 0 -7.2437132949340418e-05 -0.00077140780723356395 0 -0.00015845188660165648 0.00010698799915900477 0 -7.2437132949340418e-05 -0.00077140780723356395 0 -2.7378514427748593e-05 -0.00016962465930086225 0 -3.9340144876904438e-05 0.0004974310045831507 0 -0.00015845188660165648 0.00010698799915900477 0 -2.7378514427748593e-05 -0.00016962465930086225 0 -3.9340144876904438e-05 0.0004974310045831507 0 -2.7378514427748593e-05 -0.00016962465930086225 0 4.6532156487533741e-08 0.00025762268787527285 0 -2.7378514427748593e-05 -0.00016962465930086225 0 4.6532156487533741e-08 0.00025762268787527285 0 3.3219368396350082e-05 -0.00034282581050475549 0 -3.3079845027708184e-08 0.0011453175664559642 0 -3.9340144876904438e-05 0.0004974310045831507 0 4.6532156487533741e-08 0.00025762268787527285 0 4.6532156487533741e-08 0.00025762268787527285 0 2.3180253010212543e-07 -0.0006287271861096233 0 3.3219368396350082e-05 -0.00034282581050475549 0 2.3180253010212543e-07 -0.0006287271861096233 0 5.2710807568529106e-05 -0.00070490835871183711 0 3.3219368396350082e-05 -0.00034282581050475549 0 2.3180253010212543e-07 -0.0006287271861096233 0 5.2710807568529106e-05 -0.00070490835871183711 0 0.00018617128389767783 -0.00087439387818142504 0 5.2710807568529106e-05 -0.00070490835871183711 0 0.00016346915017828072 -0.0012862231747684794 0 4.2420076719958095e-05 -0.00073882163566386233 0 5.2710807568529106e-05 -0.00070490835871183711 0 3.3219368396350082e-05 -0.00034282581050475549 0 4.2420076719958095e-05 -0.00073882163566386233 0 -2.7378514427748593e-05 -0.00016962465930086225 0 3.3219368396350082e-05 -0.00034282581050475549 0 4.2420076719958095e-05 -0.00073882163566386233 0 -4.5178760863906677e-08 -0.0014258644728042914 0 3.6049493199750666e-05 -0.0020239407123569175 0 -8.9710502826031876e-05 -0.001707643928406717 0 -4.5178760863906677e-08 -0.0014258644728042914 0 3.6049493199750666e-05 -0.0020239407123569175 0 2.3697523829383979e-07 -0.0022216566080050311 0 8.5004170556495861e-08 -0.00062994376152583273 0 8.0440844202298909e-05 -0.0013119145062371468 0 -3.3692610760858862e-07 -0.00063022526517254743 0 -4.5178760863906677e-08 -0.0014258644728042914 0 -8.9710502826031876e-05 -0.001707643928406717 0 5.2710807568529106e-05 -0.00070490835871183711 0 0.00018617128389767783 -0.00087439387818142504 0 0.00016346915017828072 -0.0012862231747684794 0 0.00018617128389767783 -0.00087439387818142504 0 0.00016346915017828072 -0.0012862231747684794 0 0.00034933972781262511 -0.0016283773647643484 0 3.6049493199750666e-05 -0.0020239407123569175 0 -8.9710502826031876e-05 -0.001707643928406717 0 7.264360646317234e-05 -0.0024415561447034642 0 8.0440844202298909e-05 -0.0013119145062371468 0 0.00018559782945386959 -0.0020209699223649514 0 0.00016346915017828072 -0.0012862231747684794 0 0.00028363725138628835 -0.0020804456126861672 0 0.00034933972781262511 -0.0016283773647643484 0 0.00016346915017828072 -0.0012862231747684794 0 0.00012055095503049191 -0.0014475842609028252 0 0.00028363725138628835 -0.0020804456126861672 0 -2.7378514427748593e-05 -0.00016962465930086225 0 4.2420076719958095e-05 -0.00073882163566386233 0 1.5557685888631129e-05 -0.00091883935310124341 0 0.00016346915017828072 -0.0012862231747684794 0 0.00012055095503049191 -0.0014475842609028252 0 4.2420076719958095e-05 -0.00073882163566386233 0 0.00012055095503049191 -0.0014475842609028252 0 4.2420076719958095e-05 -0.00073882163566386233 0 1.5557685888631129e-05 -0.00091883935310124341 0 0.00012055095503049191 -0.0014475842609028252 0 1.5557685888631129e-05 -0.00091883935310124341 0 2.4884382365570309e-05 -0.0013863213344164746 0 -7.2437132949340418e-05 -0.00077140780723356395 0 1.5557685888631129e-05 -0.00091883935310124341 0 2.4884382365570309e-05 -0.0013863213344164746 0 -0.00013404323229467149 -0.0012339132622092143 0 -7.2437132949340418e-05 -0.00077140780723356395 0 -8.3606852309372126e-06 -0.0014104534901941803 0 -9.4218328784208028e-05 -0.00087441981652624937 0 1.4327765099623563e-05 -0.0013769321982289254 0 -0.00013404323229467149 -0.0012339132622092143 0 -0.000106649985736341 -0.0015947793056157386 0 -8.3606852309372126e-06 -0.0014104534901941803 0 -0.000106649985736341 -0.0015947793056157386 0 -8.7443008237439738e-05 -0.0018374943226456804 0 -0.00016361262115116893 -0.001766500535976835 0 -8.7443008237439738e-05 -0.0018374943226456804 0 -8.3606852309372126e-06 -0.0014104534901941803 0 9.578954574663495e-05 -0.0018914565572498894 0 -0.000106649985736341 -0.0015947793056157386 0 -8.7443008237439738e-05 -0.0018374943226456804 0 -8.3606852309372126e-06 -0.0014104534901941803 0 0.00012055095503049191 -0.0014475842609028252 0 2.4884382365570309e-05 -0.0013863213344164746 0 0.00017461449408242075 -0.0019836681242891511 0 1.4327765099623563e-05 -0.0013769321982289254 0 0.00013624060780753093 -0.0019491202442296716 0 0.00012055095503049191 -0.0014475842609028252 0 0.00028363725138628835 -0.0020804456126861672 0 0.00017461449408242075 -0.0019836681242891511 0 0.00028363725138628835 -0.0020804456126861672 0 0.00017461449408242075 -0.0019836681242891511 0 0.00023911944797825531 -0.0024483948841844427 0 0.00013624060780753093 -0.0019491202442296716 0 0.00024669163496250282 -0.0023651774961242602 0 9.578954574663495e-05 -0.0018914565572498894 0 6.5407835824559106e-05 -0.0021765575481245791 0 0.00023911944797825531 -0.0024483948841844427 0 -8.7443008237439738e-05 -0.0018374943226456804 0 9.578954574663495e-05 -0.0018914565572498894 0 6.5407835824559106e-05 -0.0021765575481245791 0 6.5407835824559106e-05 -0.0021765575481245791 0 0.00013212369637504744 -0.0025451130909676088 0 -5.5273715172502468e-05 -0.0023559334080811532 0 6.5407835824559106e-05 -0.0021765575481245791 0 0.00021711894442035486 -0.0026165337406571718 0 0.00023911944797825531 -0.0024483948841844427 0 6.5407835824559106e-05 -0.0021765575481245791 0 0.00013212369637504744 -0.0025451130909676088 0 0.00021711894442035486 -0.0026165337406571718 0 0.00013212369637504744 -0.0025451130909676088 0 0.00011906020865816638 -0.0027865735529756328 0 0.00021033891776343702 -0.0028043442009607184 0 0.00013212369637504744 -0.0025451130909676088 0 0.00021711894442035486 -0.0026165337406571718 0 0.00021033891776343702 -0.0028043442009607184 0 0.00013212369637504744 -0.0025451130909676088 0 -5.5273715172502468e-05 -0.0023559334080811532 0 -3.8423864170845764e-05 -0.0026811962327001667 0 0.00013212369637504744 -0.0025451130909676088 0 -3.8423864170845764e-05 -0.0026811962327001667 0 0.00011906020865816638 -0.0027865735529756328 0 -5.5273715172502468e-05 -0.0023559334080811532 0 -0.00040451813684909627 -0.002508662525729022 0 -3.8423864170845764e-05 -0.0026811962327001667 0 -5.5273715172502468e-05 -0.0023559334080811532 0 -0.00040451813684909627 -0.002508662525729022 0 -0.00024887934740015473 -0.0020043007401339152 0 -0.00040451813684909627 -0.002508662525729022 0 -0.0010815529396849268 -0.0023073032628490374 0 -0.0012555624138500365 -0.0028181824875540395 0 -0.00060489914861129124 -0.002071971275153732 0 -0.00030315507041020229 -0.0019808913100184942 0 -0.00040451813684909627 -0.002508662525729022 0 -0.0010815529396849268 -0.0023073032628490374 0 -0.00024887934740015473 -0.0020043007401339152 0 -0.00016696467472669552 -0.0017842297916659075 0 -0.00016361262115116893 -0.001766500535976835 0 -0.00024887934740015473 -0.0020043007401339152 0 -0.00019571451254733443 -0.0017331243633646779 0 -0.00016696467472669552 -0.0017842297916659075 0 -0.00016361262115116893 -0.001766500535976835 0 -8.7443008237439738e-05 -0.0018374943226456804 0 6.5407835824559106e-05 -0.0021765575481245791 0 -0.00024887934740015473 -0.0020043007401339152 0 6.5407835824559106e-05 -0.0021765575481245791 0 -5.5273715172502468e-05 -0.0023559334080811532 0 -0.00024887934740015473 -0.0020043007401339152 0 -8.7443008237439738e-05 -0.0018374943226456804 0 -0.00016361262115116893 -0.001766500535976835 0 -0.00024887934740015473 -0.0020043007401339152 0 4.7993808797419852e-05 -0.0031763136700879804 0 0.00019835336575687332 -0.0028470576945138523 0 9.600345233133509e-05 -0.0031777672772488894 0 4.7993808797419852e-05 -0.0031763136700879804 0 9.600345233133509e-05 -0.0031777672772488894 0 -7.1256789252070949e-05 -0.0034250585292417875 0 4.7993808797419852e-05 -0.0031763136700879804 0 -7.1256789252070949e-05 -0.0034250585292417875 0 -0.00025650228533816816 -0.0034046789013694877 0 4.7993808797419852e-05 -0.0031763136700879804 0 0.00013325550038652034 -0.0029973768674946711 0 6.8512337208475929e-05 -0.0029877081457045829 0 4.7993808797419852e-05 -0.0031763136700879804 0 0.00013325550038652034 -0.0029973768674946711 0 0.00020581376016918501 -0.0028563997511178931 0 0.00013325550038652034 -0.0029973768674946711 0 0.00020581376016918501 -0.0028563997511178931 0 0.00019835266685898606 -0.0028951668265824204 0 0.00020581376016918501 -0.0028563997511178931 0 0.00021033891776343702 -0.0028043442009607184 0 0.00019835266685898606 -0.0028951668265824204 0 0.00020581376016918501 -0.0028563997511178931 0 0.00021711894442035486 -0.0026165337406571718 0 0.00021033891776343702 -0.0028043442009607184 0 0.00021711894442035486 -0.0026165337406571718 0 0.00019835336575687332 -0.0028470576945138523 0 0.00023911944797825531 -0.0024483948841844427 0 0.00020581376016918501 -0.0028563997511178931 0 0.00021711894442035486 -0.0026165337406571718 0 0.00019835336575687332 -0.0028470576945138523 0 4.7993808797419852e-05 -0.0031763136700879804 0 0.00020581376016918501 -0.0028563997511178931 0 0.00019835336575687332 -0.0028470576945138523 0 0.00019835336575687332 -0.0028470576945138523 0 0.00023911944797825531 -0.0024483948841844427 0 0.00022612574274418921 -0.0027607464342188424 0 0.00028363725138628835 -0.0020804456126861672 0 0.00023911944797825531 -0.0024483948841844427 0 0.00022612574274418921 -0.0027607464342188424 0 0.00022612574274418921 -0.0027607464342188424 0 9.600345233133509e-05 -0.0031777672772488894 0 9.5625965263407256e-05 -0.0033448137455803057 0 0.00019835336575687332 -0.0028470576945138523 0 0.00022612574274418921 -0.0027607464342188424 0 9.600345233133509e-05 -0.0031777672772488894 0 0.00022612574274418921 -0.0027607464342188424 0 9.5625965263407256e-05 -0.0033448137455803057 0 0.00017438347145526647 -0.00302529550086121 0 9.5625965263407256e-05 -0.0033448137455803057 0 0.00017438347145526647 -0.00302529550086121 0 0.00010719229284187311 -0.0034395552374014635 0 0.00022612574274418921 -0.0027607464342188424 0 0.00017438347145526647 -0.00302529550086121 0 0.00026024308670099454 -0.0026070989270683253 0 0.00017438347145526647 -0.00302529550086121 0 0.00026024308670099454 -0.0026070989270683253 0 0.00012986664677016124 -0.0030600971476652081 0 0.00017438347145526647 -0.00302529550086121 0 0.00010719229284187311 -0.0034395552374014635 0 0.00012986664677016124 -0.0030600971476652081 0 0.00028363725138628835 -0.0020804456126861672 0 0.00022612574274418921 -0.0027607464342188424 0 0.00026024308670099454 -0.0026070989270683253 0 0.00028363725138628835 -0.0020804456126861672 0 0.00026024308670099454 -0.0026070989270683253 0 0.00034933972781262511 -0.0016283773647643484 0 0.00025116838379172205 -0.0025018249821235671 0 0.00018559782945386959 -0.0020209699223649514 0 0.00026024308670099454 -0.0026070989270683253 0 7.264360646317234e-05 -0.0024415561447034642 0 0.00013802923832522223 -0.0026027986635972144 0 3.6049493199750666e-05 -0.0020239407123569175 0 7.264360646317234e-05 -0.0024415561447034642 0 0.00013802923832522223 -0.0026027986635972144 0 0.00026024308670099454 -0.0026070989270683253 0 0.00013802923832522223 -0.0026027986635972144 0 0.00012986664677016124 -0.0030600971476652081 0 0.00013802923832522223 -0.0026027986635972144 0 2.3697523829383979e-07 -0.0022216566080050311 0 2.429349622175617e-07 -0.0030174812998329673 0 3.6049493199750666e-05 -0.0020239407123569175 0 0.00013802923832522223 -0.0026027986635972144 0 2.3697523829383979e-07 -0.0022216566080050311 0 0.00010719229284187311 -0.0034395552374014635 0 7.9670733140610342e-05 -0.0034940880845205653 0 0.00012986664677016124 -0.0030600971476652081 0 0.00013802923832522223 -0.0026027986635972144 0 0.00012986664677016124 -0.0030600971476652081 0 2.429349622175617e-07 -0.0030174812998329673 0 7.9670733140610342e-05 -0.0034940880845205653 0 0.00012986664677016124 -0.0030600971476652081 0 2.429349622175617e-07 -0.0030174812998329673 0 7.9670733140610342e-05 -0.0034940880845205653 0 2.429349622175617e-07 -0.0030174812998329673 0 4.3792696277463465e-08 -0.0038131688818627634 0 7.9670733140610342e-05 -0.0034940880845205653 0 4.3792696277463465e-08 -0.0038131688818627634 0 6.9587742301640196e-05 -0.0039182968467180923 0 4.3792696277463465e-08 -0.0038131688818627634 0 6.9587742301640196e-05 -0.0039182968467180923 0 4.2762591023943166e-07 -0.0046093772235654591 0 0.00010719229284187311 -0.0034395552374014635 0 7.9670733140610342e-05 -0.0034940880845205653 0 6.9587742301640196e-05 -0.0039182968467180923 0 6.9587742301640196e-05 -0.0039182968467180923 0 4.2762591023943166e-07 -0.0046093772235654591 0 -3.3716099923333649e-06 -0.0041883180096598293 0 4.2762591023943166e-07 -0.0046093772235654591 0 -9.3896958285507289e-07 -0.0054033435507413741 0 -3.099341607064594e-05 -0.0045828707845762349 0 1.1102881017553322e-08 -0.0054053551424351155 0 -8.2631989571199386e-05 -0.0054682035048397538 0 -9.3896958285507289e-07 -0.0054033435507413741 0 -3.099341607064594e-05 -0.0045828707845762349 0 -0.00029086013343822227 -0.0045798986831949873 0 -3.099341607064594e-05 -0.0045828707845762349 0 -0.00015292602661329572 -0.0043804145696095956 0 -0.00029086013343822227 -0.0045798986831949873 0 -3.099341607064594e-05 -0.0045828707845762349 0 -3.3716099923333649e-06 -0.0041883180096598293 0 -0.00015292602661329572 -0.0043804145696095956 0 4.2762591023943166e-07 -0.0046093772235654591 0 -3.099341607064594e-05 -0.0045828707845762349 0 -3.3716099923333649e-06 -0.0041883180096598293 0 -3.3716099923333649e-06 -0.0041883180096598293 0 -0.00015292602661329572 -0.0043804145696095956 0 -4.9516320480710409e-05 -0.0040616822970066377 0 -3.3716099923333649e-06 -0.0041883180096598293 0 -4.9516320480710409e-05 -0.0040616822970066377 0 5.076946308345233e-05 -0.0037847852617049343 0 -0.00015292602661329572 -0.0043804145696095956 0 -4.9516320480710409e-05 -0.0040616822970066377 0 -4.9861214033674907e-05 -0.0043843667976486214 0 -4.9516320480710409e-05 -0.0040616822970066377 0 5.076946308345233e-05 -0.0037847852617049343 0 1.1045275176728697e-05 -0.003748149414256617 0 9.5625965263407256e-05 -0.0033448137455803057 0 5.076946308345233e-05 -0.0037847852617049343 0 1.1045275176728697e-05 -0.003748149414256617 0 9.5625965263407256e-05 -0.0033448137455803057 0 0.00010719229284187311 -0.0034395552374014635 0 5.076946308345233e-05 -0.0037847852617049343 0 0.00010719229284187311 -0.0034395552374014635 0 6.9587742301640196e-05 -0.0039182968467180923 0 5.076946308345233e-05 -0.0037847852617049343 0 6.9587742301640196e-05 -0.0039182968467180923 0 -3.3716099923333649e-06 -0.0041883180096598293 0 5.076946308345233e-05 -0.0037847852617049343 0 0.00013321360266965222 -0.0066073840022008376 0 4.4149073555102573e-07 -0.006356505037171281 0 7.2924445483594099e-07 -0.0076503114040281555 0 0.00013321360266965222 -0.0066073840022008376 0 0.000105366687824522 -0.0066589063598821328 0 7.2924445483594099e-07 -0.0076503114040281555 0 0.000105366687824522 -0.0066589063598821328 0 7.2924445483594099e-07 -0.0076503114040281555 0 0.00010011081172218712 -0.007099678044029562 0 -5.7228231320081247e-07 -0.0054063966272322565 0 4.4149073555102573e-07 -0.006356505037171281 0 1.9026775282196789e-05 -0.0063129749522556379 0 0.00013321360266965222 -0.0066073840022008376 0 0.00027073249460614134 -0.006549538477874455 0 0.000105366687824522 -0.0066589063598821328 0 0.00013321360266965222 -0.0066073840022008376 0 1.9026775282196789e-05 -0.0063129749522556379 0 0.00027073249460614134 -0.006549538477874455 0 0.00013321360266965222 -0.0066073840022008376 0 4.4149073555102573e-07 -0.006356505037171281 0 1.9026775282196789e-05 -0.0063129749522556379 0 -8.2631989571199386e-05 -0.0054682035048397538 0 4.0744428373101485e-05 -0.0055273842810834566 0 -0.00015292602661329572 -0.0043804145696095956 0 -0.00010073176218603496 -0.0047496282776800635 0 -0.00010614675867280893 -0.0045346223207889938 0 -0.00015292602661329572 -0.0043804145696095956 0 -0.00029086013343822227 -0.0045798986831949873 0 -0.00010614675867280893 -0.0045346223207889938 0 -0.00015292602661329572 -0.0043804145696095956 0 -0.00010073176218603496 -0.0047496282776800635 0 -4.9861214033674907e-05 -0.0043843667976486214 0 -0.00010073176218603496 -0.0047496282776800635 0 -4.8737133736271987e-05 -0.0047375997706056525 0 -4.9861214033674907e-05 -0.0043843667976486214 0 -0.00010073176218603496 -0.0047496282776800635 0 1.6851304189986193e-05 -0.0055662967661571621 0 -4.8737133736271987e-05 -0.0047375997706056525 0 -0.00010073176218603496 -0.0047496282776800635 0 -0.00010614675867280893 -0.0045346223207889938 0 1.6851304189986193e-05 -0.0055662967661571621 0 0.00027073249460614134 -0.006549538477874455 0 0.000105366687824522 -0.0066589063598821328 0 8.0803228376967476e-05 -0.0063050238478064152 0 4.0744428373101485e-05 -0.0055273842810834566 0 2.4415760807969865e-06 -0.0055136297901293577 0 0.00027073249460614134 -0.006549538477874455 0 8.0803228376967476e-05 -0.0063050238478064152 0 1.6851304189986193e-05 -0.0055662967661571621 0 0.000105366687824522 -0.0066589063598821328 0 5.5488083539510509e-05 -0.0063364771951775981 0 0.00012583991065502308 -0.0065844378162387956 0 0.000105366687824522 -0.0066589063598821328 0 5.5488083539510509e-05 -0.0063364771951775981 0 8.0803228376967476e-05 -0.0063050238478064152 0 5.5488083539510509e-05 -0.0063364771951775981 0 8.0803228376967476e-05 -0.0063050238478064152 0 -1.9678275856405935e-05 -0.0058206445497341018 0 -1.9678275856405935e-05 -0.0058206445497341018 0 1.6851304189986193e-05 -0.0055662967661571621 0 -0.00034134024197234953 -0.0044571198590563485 0 8.0803228376967476e-05 -0.0063050238478064152 0 -1.9678275856405935e-05 -0.0058206445497341018 0 1.6851304189986193e-05 -0.0055662967661571621 0 -1.9678275856405935e-05 -0.0058206445497341018 0 0.0001576842151654607 -0.0062430174894180512 0 0.00014352148679448859 -0.0062758751640029 0 0.0001576842151654607 -0.0062430174894180512 0 0.00014352148679448859 -0.0062758751640029 0 0.00022532951728385334 -0.006419898471414328 0 5.5488083539510509e-05 -0.0063364771951775981 0 -1.9678275856405935e-05 -0.0058206445497341018 0 0.00014352148679448859 -0.0062758751640029 0 5.5488083539510509e-05 -0.0063364771951775981 0 0.00014352148679448859 -0.0062758751640029 0 0.00012583991065502308 -0.0065844378162387956 0 0.00014352148679448859 -0.0062758751640029 0 0.00019496895359034602 -0.0064987169408033587 0 0.00012583991065502308 -0.0065844378162387956 0 0.00014352148679448859 -0.0062758751640029 0 0.00019496895359034602 -0.0064987169408033587 0 0.00022532951728385334 -0.006419898471414328 0 0.00019496895359034602 -0.0064987169408033587 0 0.00021917181274467204 -0.0065653512749023176 0 0.00017427652548058608 -0.0067691734957834523 0 0.00019496895359034602 -0.0064987169408033587 0 0.00012583991065502308 -0.0065844378162387956 0 0.00017427652548058608 -0.0067691734957834523 0 0.000105366687824522 -0.0066589063598821328 0 0.00012583991065502308 -0.0065844378162387956 0 0.00010011081172218712 -0.007099678044029562 0 0.00012583991065502308 -0.0065844378162387956 0 0.00010011081172218712 -0.007099678044029562 0 0.00017427652548058608 -0.0067691734957834523 0 0.00024517801589993466 -0.0064014857902736349 0 0.00021547158540406351 -0.0063197635519752276 0 0.00020834154142388076 -0.0064821775317190295 0 0.00024517801589993466 -0.0064014857902736349 0 0.00024164497662289072 -0.0064745691929111639 0 0.00023289106951804379 -0.0064598541854999957 0 0.00024517801589993466 -0.0064014857902736349 0 0.00024164497662289072 -0.0064745691929111639 0 0.00020834154142388076 -0.0064821775317190295 0 0.00024164497662289072 -0.0064745691929111639 0 0.00021917181274467204 -0.0065653512749023176 0 0.00020834154142388076 -0.0064821775317190295 0 0.00019496895359034602 -0.0064987169408033587 0 0.00021917181274467204 -0.0065653512749023176 0 0.00022532951728385334 -0.006419898471414328 0 0.00024164497662289072 -0.0064745691929111639 0 0.00021917181274467204 -0.0065653512749023176 0 0.00022532951728385334 -0.006419898471414328 0 0.00024164497662289072 -0.0064745691929111639 0 0.00022532951728385334 -0.006419898471414328 0 0.00023289106951804379 -0.0064598541854999957 0 0.00022532951728385334 -0.006419898471414328 0 0.00015413681401148119 -0.0065028822678658152 0 0.00023289106951804379 -0.0064598541854999957 0 -4.2993467018329011e-05 -0.0057426832631066564 0 -5.7894661734805161e-05 -0.0054589574009477277 0 -1.9678275856405935e-05 -0.0058206445497341018 0 0.0001576842151654607 -0.0062430174894180512 0 0.00015413681401148119 -0.0065028822678658152 0 0.0001576842151654607 -0.0062430174894180512 0 0.00022532951728385334 -0.006419898471414328 0 0.00015413681401148119 -0.0065028822678658152 0 0.00015413681401148119 -0.0065028822678658152 0 0.00023289106951804379 -0.0064598541854999957 0 0.00037929741825329236 -0.0063518046998343554 0 0.00024517801589993466 -0.0064014857902736349 0 0.00023289106951804379 -0.0064598541854999957 0 0.00027909821573007056 -0.0063603567897889332 0 0.00023289106951804379 -0.0064598541854999957 0 0.00037929741825329236 -0.0063518046998343554 0 0.00027909821573007056 -0.0063603567897889332 0 -5.7894661734805161e-05 -0.0054589574009477277 0 4.9896860514921917e-05 -0.0052688702030853274 0 -0.00011097337330980357 -0.0042753112246259068 0 -0.00012162668577500138 -0.0040700935445457187 0 -0.00024719860248836059 -0.004123489824852597 0 -0.00034134024197234953 -0.0044571198590563485 0 -0.00011097337330980357 -0.0042753112246259068 0 -0.00024719860248836059 -0.004123489824852597 0 -0.00034134024197234953 -0.0044571198590563485 0 -0.00011097337330980357 -0.0042753112246259068 0 -4.8737133736271987e-05 -0.0047375997706056525 0 1.6851304189986193e-05 -0.0055662967661571621 0 -0.00034134024197234953 -0.0044571198590563485 0 -4.8737133736271987e-05 -0.0047375997706056525 0 -0.00011097337330980357 -0.0042753112246259068 0 -4.8737133736271987e-05 -0.0047375997706056525 0 -4.9861214033674907e-05 -0.0043843667976486214 0 -0.00011097337330980357 -0.0042753112246259068 0 -6.5353123954152751e-05 -0.0040517068396128944 0 -0.00012162668577500138 -0.0040700935445457187 0 -0.00011097337330980357 -0.0042753112246259068 0 -4.9861214033674907e-05 -0.0043843667976486214 0 -6.5353123954152751e-05 -0.0040517068396128944 0 -6.5353123954152751e-05 -0.0040517068396128944 0 -0.00012162668577500138 -0.0040700935445457187 0 -9.4661910171626239e-05 -0.0040504005272964253 0 0.000103434465319973 -0.0043523409350849753 0 -9.4661910171626239e-05 -0.0040504005272964253 0 -3.7399853943283509e-05 -0.0043818446951985135 0 -0.00012162668577500138 -0.0040700935445457187 0 -0.00017990641636854001 -0.0040079229874810021 0 -9.4661910171626239e-05 -0.0040504005272964253 0 0.00016489269992167607 -0.0048661585362882766 0 -0.00021357838355118161 -0.0038868885559481974 0 0.000103434465319973 -0.0043523409350849753 0 7.2704283445005694e-05 -0.0045955570589968223 0 -3.7399853943283509e-05 -0.0043818446951985135 0 8.3805793679651868e-05 -0.004795334377288297 0 3.74001192394941e-05 -0.0047828360216327715 0 7.2704283445005694e-05 -0.0045955570589968223 0 0.00016489269992167607 -0.0048661585362882766 0 0.00011620523701326397 -0.0045461514613075391 0 0.00046096010829346491 -0.006054404638068266 0 0.00037929741825329236 -0.0063518046998343554 0 0.00035795920650653071 -0.0061480879995264824 0 0.00016489269992167607 -0.0048661585362882766 0 4.9896860514921917e-05 -0.0052688702030853274 0 -0.00012162668577500138 -0.0040700935445457187 0 -0.00017990641636854001 -0.0040079229874810021 0 -0.00024719860248836059 -0.004123489824852597 0 0.00037929741825329236 -0.0063518046998343554 0 0.00031535160356685948 -0.0062740120546961901 0 0.00027909821573007056 -0.0063603567897889332 0 0.00031535160356685948 -0.0062740120546961901 0 0.00027909821573007056 -0.0063603567897889332 0 0.00026844874446892375 -0.0062664953923719739 0 0.00031535160356685948 -0.0062740120546961901 0 0.00035795920650653071 -0.0061480879995264824 0 0.00026844874446892375 -0.0062664953923719739 0 0.00037929741825329236 -0.0063518046998343554 0 0.00031535160356685948 -0.0062740120546961901 0 0.00035795920650653071 -0.0061480879995264824 0 8.3805793679651868e-05 -0.004795334377288297 0 3.74001192394941e-05 -0.0047828360216327715 0 9.6399319460711621e-06 -0.0049128681005234966 0 0.00046096010829346491 -0.006054404638068266 0 0.00035795920650653071 -0.0061480879995264824 0 0.00020789357056144481 -0.0059139276111122539 0 0.00016489269992167607 -0.0048661585362882766 0 0.00011917809873347187 -0.005448409131465398 0 9.6399319460711621e-06 -0.0049128681005234966 0 1.2249110539173895e-05 -0.0050260553837256187 0 -4.8131487572217306e-06 -0.0051816962589743172 0 0.00011917809873347187 -0.005448409131465398 0 -3.6259649253271479e-05 -0.0054532978549414928 0 0.00035795920650653071 -0.0061480879995264824 0 0.00020789357056144481 -0.0059139276111122539 0 7.650294883299173e-05 -0.0058719813988181366 0 0.00036317884287657038 -0.0061357527189407762 0 0.00016361634252665521 -0.0060346621371157472 0 0.00020789357056144481 -0.0059139276111122539 0 7.650294883299173e-05 -0.0058719813988181366 0 1.8686953442903456e-05 -0.0057270644072602702 0 0.00035795920650653071 -0.0061480879995264824 0 0.00021834565427053106 -0.0062105642030607314 0 0.00026844874446892375 -0.0062664953923719739 0 0.00021834565427053106 -0.0062105642030607314 0 0.00026844874446892375 -0.0062664953923719739 0 0.00021547158540406351 -0.0063197635519752276 0 0.00024517801589993466 -0.0064014857902736349 0 0.00026844874446892375 -0.0062664953923719739 0 0.00021547158540406351 -0.0063197635519752276 0 0.00024517801589993466 -0.0064014857902736349 0 0.00027909821573007056 -0.0063603567897889332 0 0.00026844874446892375 -0.0062664953923719739 0 -3.8462263404529864e-06 -0.0035356953552811211 0 -2.8371082426423549e-05 -0.00388225037992696 0 -9.3658644672079436e-05 -0.0036827073852055631 0 9.600345233133509e-05 -0.0031777672772488894 0 -3.8462263404529864e-06 -0.0035356953552811211 0 -7.1256789252070949e-05 -0.0034250585292417875 0 9.600345233133509e-05 -0.0031777672772488894 0 9.5625965263407256e-05 -0.0033448137455803057 0 -3.8462263404529864e-06 -0.0035356953552811211 0 9.5625965263407256e-05 -0.0033448137455803057 0 -3.8462263404529864e-06 -0.0035356953552811211 0 1.1045275176728697e-05 -0.003748149414256617 0 -3.8462263404529864e-06 -0.0035356953552811211 0 1.1045275176728697e-05 -0.003748149414256617 0 -2.8371082426423549e-05 -0.00388225037992696 0 -4.9516320480710409e-05 -0.0040616822970066377 0 1.1045275176728697e-05 -0.003748149414256617 0 -2.8371082426423549e-05 -0.00388225037992696 0 -4.9516320480710409e-05 -0.0040616822970066377 0 -4.9861214033674907e-05 -0.0043843667976486214 0 -2.8371082426423549e-05 -0.00388225037992696 0 -6.5353123954152751e-05 -0.0040517068396128944 0 -2.8371082426423549e-05 -0.00388225037992696 0 -7.9329945280023621e-05 -0.003890936497084223 0 -4.9861214033674907e-05 -0.0043843667976486214 0 -6.5353123954152751e-05 -0.0040517068396128944 0 -2.8371082426423549e-05 -0.00388225037992696 0 -2.8371082426423549e-05 -0.00388225037992696 0 -7.9329945280023621e-05 -0.003890936497084223 0 -9.3658644672079436e-05 -0.0036827073852055631 0 -6.5353123954152751e-05 -0.0040517068396128944 0 -7.9329945280023621e-05 -0.003890936497084223 0 -9.4661910171626239e-05 -0.0040504005272964253 0 -7.9329945280023621e-05 -0.003890936497084223 0 -9.4661910171626239e-05 -0.0040504005272964253 0 -0.00016694000354723154 -0.003930568888132824 0 -7.9329945280023621e-05 -0.003890936497084223 0 -9.3658644672079436e-05 -0.0036827073852055631 0 -0.00016694000354723154 -0.003930568888132824 0 -0.00016514297170389016 -0.0036381615988952472 0 -9.3658644672079436e-05 -0.0036827073852055631 0 -7.1256789252070949e-05 -0.0034250585292417875 0 -0.00016514297170389016 -0.0036381615988952472 0 -9.3658644672079436e-05 -0.0036827073852055631 0 -0.00016694000354723154 -0.003930568888132824 0 -3.8462263404529864e-06 -0.0035356953552811211 0 -9.3658644672079436e-05 -0.0036827073852055631 0 -7.1256789252070949e-05 -0.0034250585292417875 0 -0.00016514297170389016 -0.0036381615988952472 0 -7.1256789252070949e-05 -0.0034250585292417875 0 -0.00025650228533816816 -0.0034046789013694877 0 -0.00025650228533816816 -0.0034046789013694877 0 -0.00041757690463101275 -0.0037254271619538972 0 -0.00023287373380505665 -0.0037754296369328089 0 -0.00016514297170389016 -0.0036381615988952472 0 -0.00025650228533816816 -0.0034046789013694877 0 -0.00023287373380505665 -0.0037754296369328089 0 -0.00041757690463101275 -0.0037254271619538972 0 -0.00023287373380505665 -0.0037754296369328089 0 -0.00032400187899540096 -0.0039614503063673647 0 -0.00024438359419778568 -0.004084033722024716 0 -0.00023287373380505665 -0.0037754296369328089 0 -0.00032400187899540096 -0.0039614503063673647 0 -0.00024438359419778568 -0.004084033722024716 0 -0.00023287373380505665 -0.0037754296369328089 0 -0.00016694000354723154 -0.003930568888132824 0 -0.00016514297170389016 -0.0036381615988952472 0 -0.00023287373380505665 -0.0037754296369328089 0 -0.00016694000354723154 -0.003930568888132824 0 -9.4661910171626239e-05 -0.0040504005272964253 0 -0.00016694000354723154 -0.003930568888132824 0 -0.00011942458142406413 -0.0043866800245520804 0 -0.00016694000354723154 -0.003930568888132824 0 -0.00019710668504301174 -0.0042115475432985237 0 -0.00011942458142406413 -0.0043866800245520804 0 -0.00019710668504301174 -0.0042115475432985237 0 -0.00011942458142406413 -0.0043866800245520804 0 -0.0001587748219898687 -0.0045976487005346929 0 -0.00024438359419778568 -0.004084033722024716 0 -0.00016694000354723154 -0.003930568888132824 0 -0.00019710668504301174 -0.0042115475432985237 0 -0.00024438359419778568 -0.004084033722024716 0 -0.00019710668504301174 -0.0042115475432985237 0 -0.00028583555854196817 -0.0043480244771456943 0 -0.00028583555854196817 -0.0043480244771456943 0 -0.00029732457942068473 -0.004210173641731191 0 -0.00028375974244891899 -0.0041294152418024956 0 -0.00019710668504301174 -0.0042115475432985237 0 -0.00028583555854196817 -0.0043480244771456943 0 -0.0001587748219898687 -0.0045976487005346929 0 -0.00028583555854196817 -0.0043480244771456943 0 -0.00025829363637222471 -0.0048722207211219781 0 -0.0001587748219898687 -0.0045976487005346929 0 -0.0002959561786019872 -0.004383016968096949 0 -0.00032052192819903162 -0.0045292203136297294 0 -0.00028583555854196817 -0.0043480244771456943 0 -0.00039246658758782741 -0.0042050871648687937 0 -0.00029732457942068473 -0.004210173641731191 0 -0.00029732457942068473 -0.004210173641731191 0 -0.00031054061541527358 -0.0041994720701315942 0 -0.00033693827611636524 -0.004153668507528587 0 -0.00029732457942068473 -0.004210173641731191 0 -0.00033693827611636524 -0.004153668507528587 0 -0.00028375974244891899 -0.0041294152418024956 0 -0.00031054061541527358 -0.0041994720701315942 0 -0.00033693827611636524 -0.004153668507528587 0 -0.00053073129767186188 -0.004204979386767776 0 -0.00033693827611636524 -0.004153668507528587 0 -0.00043477372065064084 -0.0039941117475281399 0 -0.00053073129767186188 -0.004204979386767776 0 -0.00033693827611636524 -0.004153668507528587 0 -0.00043477372065064084 -0.0039941117475281399 0 -0.00028375974244891899 -0.0041294152418024956 0 -0.00041757690463101275 -0.0037254271619538972 0 -0.00032400187899540096 -0.0039614503063673647 0 -0.00043477372065064084 -0.0039941117475281399 0 -0.00032400187899540096 -0.0039614503063673647 0 -0.00043477372065064084 -0.0039941117475281399 0 -0.00028375974244891899 -0.0041294152418024956 0 -0.00024438359419778568 -0.004084033722024716 0 -0.00032400187899540096 -0.0039614503063673647 0 -0.00028375974244891899 -0.0041294152418024956 0 -0.00024438359419778568 -0.004084033722024716 0 -0.00028583555854196817 -0.0043480244771456943 0 -0.00028375974244891899 -0.0041294152418024956 0 2.1373101780655559e-05 -0.0050158675850650548 0 5.6833984779437144e-05 -0.0049700239576001238 0 -2.6064970308787535e-05 -0.0051392699226142143 0 2.1373101780655559e-05 -0.0050158675850650548 0 3.1806982859198007e-05 -0.004856882089862259 0 5.6833984779437144e-05 -0.0049700239576001238 0 2.1373101780655559e-05 -0.0050158675850650548 0 1.2249110539173895e-05 -0.0050260553837256187 0 -7.9276364905176745e-06 -0.0051375800136276434 0 9.6399319460711621e-06 -0.0049128681005234966 0 1.2249110539173895e-05 -0.0050260553837256187 0 3.1806982859198007e-05 -0.004856882089862259 0 2.1373101780655559e-05 -0.0050158675850650548 0 1.2249110539173895e-05 -0.0050260553837256187 0 3.1806982859198007e-05 -0.004856882089862259 0 3.1806982859198007e-05 -0.004856882089862259 0 2.0695189987619723e-05 -0.0047562247868370962 0 7.2704283445005694e-05 -0.0045955570589968223 0 3.74001192394941e-05 -0.0047828360216327715 0 3.1806982859198007e-05 -0.004856882089862259 0 7.2704283445005694e-05 -0.0045955570589968223 0 3.74001192394941e-05 -0.0047828360216327715 0 9.6399319460711621e-06 -0.0049128681005234966 0 3.1806982859198007e-05 -0.004856882089862259 0 2.0695189987619723e-05 -0.0047562247868370962 0 -6.8482471540666186e-05 -0.0048531993702697019 0 5.6833984779437144e-05 -0.0049700239576001238 0 3.1806982859198007e-05 -0.004856882089862259 0 2.0695189987619723e-05 -0.0047562247868370962 0 5.6833984779437144e-05 -0.0049700239576001238 0 2.0695189987619723e-05 -0.0047562247868370962 0 -2.431306608411439e-05 -0.0045931203813875084 0 -6.8482471540666186e-05 -0.0048531993702697019 0 2.0695189987619723e-05 -0.0047562247868370962 0 7.2704283445005694e-05 -0.0045955570589968223 0 -2.431306608411439e-05 -0.0045931203813875084 0 7.2704283445005694e-05 -0.0045955570589968223 0 -2.431306608411439e-05 -0.0045931203813875084 0 -3.7399853943283509e-05 -0.0043818446951985135 0 -9.4661910171626239e-05 -0.0040504005272964253 0 -3.7399853943283509e-05 -0.0043818446951985135 0 -0.00011942458142406413 -0.0043866800245520804 0 -2.431306608411439e-05 -0.0045931203813875084 0 -3.7399853943283509e-05 -0.0043818446951985135 0 -0.00011942458142406413 -0.0043866800245520804 0 -2.431306608411439e-05 -0.0045931203813875084 0 -0.00011942458142406413 -0.0043866800245520804 0 -6.8482471540666186e-05 -0.0048531993702697019 0 -0.00011942458142406413 -0.0043866800245520804 0 -0.0001587748219898687 -0.0045976487005346929 0 -6.8482471540666186e-05 -0.0048531993702697019 0 -0.0001587748219898687 -0.0045976487005346929 0 -0.00014023862016910918 -0.0049195231850895091 0 -6.8482471540666186e-05 -0.0048531993702697019 0 -0.00025829363637222471 -0.0048722207211219781 0 -0.0001587748219898687 -0.0045976487005346929 0 -0.00014023862016910918 -0.0049195231850895091 0 -0.00014023862016910918 -0.0049195231850895091 0 -0.00025956443250104582 -0.005118752012329226 0 -0.00020458202627525416 -0.0050364532548319175 0 -0.00014023862016910918 -0.0049195231850895091 0 -6.8482471540666186e-05 -0.0048531993702697019 0 -0.00025956443250104582 -0.005118752012329226 0 -9.2351217784121138e-05 -0.0049018044443709333 0 -0.00017105895802851188 -0.0051223164149002296 0 -6.8482471540666186e-05 -0.0048531993702697019 0 -0.00025956443250104582 -0.005118752012329226 0 -0.00037781969293595091 -0.0053064761059906703 0 -0.00025956443250104582 -0.005118752012329226 0 -0.00043436952942676224 -0.0052357489746316863 0 -0.0005241021482120297 -0.0053379056234572732 0 -0.00025956443250104582 -0.005118752012329226 0 -0.00037781969293595091 -0.0053064761059906703 0 -0.0005241021482120297 -0.0053379056234572732 0 -0.00045759289633359837 -0.0049773455686105651 0 -0.00038096488648337224 -0.0050910555072960764 0 -0.0006582243617794108 -0.0053641605683564337 0 -0.00040981899489548587 -0.0050257091016326005 0 -0.00038096488648337224 -0.0050910555072960764 0 -0.00033812220844830864 -0.0050304637274187266 0 -0.00040981899489548587 -0.0050257091016326005 0 -0.00033812220844830864 -0.0050304637274187266 0 -0.00032192594643801263 -0.004959245321262574 0 -0.00087786166959668102 -0.0053632866702856856 0 -0.00067064343778112337 -0.0052350140452055135 0 -0.00087786166959668102 -0.0053632866702856856 0 -0.00061498827126523739 -0.0052938841144301889 0 -0.00038096488648337224 -0.0050910555072960764 0 -0.00043436952942676224 -0.0052357489746316863 0 -0.0006582243617794108 -0.0053641605683564337 0 -0.00043436952942676224 -0.0052357489746316863 0 -0.0005241021482120297 -0.0053379056234572732 0 -0.0006582243617794108 -0.0053641605683564337 0 -0.00038096488648337224 -0.0050910555072960764 0 -0.00043436952942676224 -0.0052357489746316863 0 -0.00028500786908879815 -0.0051063563907792478 0 -0.00025956443250104582 -0.005118752012329226 0 -0.00028500786908879815 -0.0051063563907792478 0 -0.00020458202627525416 -0.0050364532548319175 0 -0.00025956443250104582 -0.005118752012329226 0 -0.00043436952942676224 -0.0052357489746316863 0 -0.00028500786908879815 -0.0051063563907792478 0 -0.00028500786908879815 -0.0051063563907792478 0 -0.00030277620317256085 -0.0050667589896961213 0 -0.00021729767652811232 -0.005035644831980767 0 -0.00028500786908879815 -0.0051063563907792478 0 -0.00021729767652811232 -0.005035644831980767 0 -0.00020458202627525416 -0.0050364532548319175 0 -0.0002862890210232508 -0.0050175945111365161 0 -0.00021729767652811232 -0.005035644831980767 0 -0.00025213239265989317 -0.0049858931535759089 0 -0.00030277620317256085 -0.0050667589896961213 0 -0.0002862890210232508 -0.0050175945111365161 0 -0.00021729767652811232 -0.005035644831980767 0 -0.00038096488648337224 -0.0050910555072960764 0 -0.00030277620317256085 -0.0050667589896961213 0 -0.00033812220844830864 -0.0050304637274187266 0 -0.00038096488648337224 -0.0050910555072960764 0 -0.00028500786908879815 -0.0051063563907792478 0 -0.00030277620317256085 -0.0050667589896961213 0 -0.00030277620317256085 -0.0050667589896961213 0 -0.00033812220844830864 -0.0050304637274187266 0 -0.0002862890210232508 -0.0050175945111365161 0 -0.00033812220844830864 -0.0050304637274187266 0 -0.0002862890210232508 -0.0050175945111365161 0 -0.00032192594643801263 -0.004959245321262574 0 -0.00022249528821004195 -0.0050527952790349389 0 -0.00027771720318493868 -0.0049484456749392088 0 -0.00021045461575919963 -0.0050249770226302006 0 -0.00021729767652811232 -0.005035644831980767 0 -0.00022449811801965346 -0.0050211219221465188 0 -0.00021045461575919963 -0.0050249770226302006 0 -0.00021729767652811232 -0.005035644831980767 0 -0.00018664483895362431 -0.0049977050439801197 0 -0.00014023862016910918 -0.0049195231850895091 0 -0.00020458202627525416 -0.0050364532548319175 0 -0.00018664483895362431 -0.0049977050439801197 0 -0.00021729767652811232 -0.005035644831980767 0 -0.00020458202627525416 -0.0050364532548319175 0 -0.00018664483895362431 -0.0049977050439801197 0 -0.00025829363637222471 -0.0048722207211219781 0 -0.00018664483895362431 -0.0049977050439801197 0 -0.0002177730123523521 -0.0050251953060703094 0 -0.00025829363637222471 -0.0048722207211219781 0 -0.00014023862016910918 -0.0049195231850895091 0 -0.00018664483895362431 -0.0049977050439801197 0 -0.00021045461575919963 -0.0050249770226302006 0 -0.0002177730123523521 -0.0050251953060703094 0 -0.00021796050790036796 -0.0050158130913762434 0 -0.00021045461575919963 -0.0050249770226302006 0 -0.00018664483895362431 -0.0049977050439801197 0 -0.0002177730123523521 -0.0050251953060703094 0 -0.00038991959984348892 -0.0041892902138702184 0 -0.0003893142426739618 -0.0041837945237053606 0 -0.00038312086961962157 -0.0041888107360421867 0 -0.00038991959984348892 -0.0041892902138702184 0 -0.0003893142426739618 -0.0041837945237053606 0 -0.00039883262232309692 -0.0041859115576820972 0 -0.00062815947387919217 -0.0040100784067075047 0 -0.00072764011994865994 -0.0046414078447580961 0 -0.00024889537163630702 -0.0046180317862182492 0 -0.00072764011994865994 -0.0046414078447580961 0 -0.00082769621073073489 -0.0039160091278148132 0 -0.0008150528881618928 -0.0039601551453166467 0 -0.00083063078918747433 -0.0039480777403642911 0 -0.0023634381745395788 -0.0057687816097105942 0 -0.0023548214244257073 -0.0042878401644867257 0 -0.003713304606783735 -0.0057501849954326115 0 -0.0041297312036383468 -0.0048322520039204677 0 -0.0042933322417496641 -0.0054099908187875871 0 -0.003713304606783735 -0.0057501849954326115 0 -0.002550103573335931 -0.0055682097533787311 0 -0.0041297312036383468 -0.0048322520039204677 0 -0.0008209755050595294 -0.0039894201171807664 0 -0.0008150528881618928 -0.0039601551453166467 0 -0.00083063078918747433 -0.0039480777403642911 0 -0.0020291481014321103 -0.0055094995214275558 0 -0.00072764011994865994 -0.0046414078447580961 0 -0.0008209755050595294 -0.0039894201171807664 0 -0.00081843806840713456 -0.0039875332791059611 0 -0.0008150528881618928 -0.0039601551453166467 0 -0.0024981260139219858 -0.006186808143197592 0 -0.0023634381745395788 -0.0057687816097105942 0 -0.0024981260139219858 -0.006186808143197592 0 -0.0020291481014321103 -0.0055094995214275558 0 -0.0024284589067510723 -0.0058426026325113511 0 -0.0021590480060305686 -0.0059828384131767644 0 -0.0022788415289864603 -0.0061024001769514136 0 -0.0023634381745395788 -0.0057687816097105942 0 -0.0020291481014321103 -0.0055094995214275558 0 -0.0023025763876374549 -0.0064025546893823745 0 -0.0023515680940666391 -0.0063143462096855495 0 -0.002244835739636443 -0.0063214772438439336 0 -0.0023515680940666391 -0.0063143462096855495 0 -0.002244835739636443 -0.0063214772438439336 0 -0.0022401746546540325 -0.0062708723063440762 0 -0.0023025763876374549 -0.0064025546893823745 0 -0.002244835739636443 -0.0063214772438439336 0 -0.0021430346102247551 -0.0063112279871063628 0 -0.002244835739636443 -0.0063214772438439336 0 -0.0022401746546540325 -0.0062708723063440762 0 -0.0021889678398203851 -0.0062961665033218405 0 -0.0013669949224799057 -0.0052062360509116971 0 -0.0013784770365678277 -0.0052185330582466974 0 -0.0013467881098479986 -0.0052308840887309209 0 -0.0022401746546540325 -0.0062708723063440762 0 -0.0021998946552188453 -0.0062429643925025115 0 -0.0021889678398203851 -0.0062961665033218405 0 -0.00023351195948949273 -0.0050109381794879925 0 -0.00021796050790036796 -0.0050158130913762434 0 -0.00023462447236459019 -0.0050127412396424875 0 -0.0020291481014321103 -0.0055094995214275558 0 -0.001392718231845121 -0.0056319120992988567 0 -0.001392718231845121 -0.0056319120992988567 0 -0.00072764011994865994 -0.0046414078447580961 0 -0.0022401746546540325 -0.0062708723063440762 0 -0.0022156069306742106 -0.0061795549634581486 0 -0.0021998946552188453 -0.0062429643925025115 0 -0.0023515680940666391 -0.0063143462096855495 0 -0.0022401746546540325 -0.0062708723063440762 0 -0.0022156069306742106 -0.0061795549634581486 0 -0.00021045461575919963 -0.0050249770226302006 0 -0.00021796050790036796 -0.0050158130913762434 0 -0.00022449811801965346 -0.0050211219221465188 0 -0.00021796050790036796 -0.0050158130913762434 0 -0.00022449811801965346 -0.0050211219221465188 0 -0.00023462447236459019 -0.0050127412396424875 0 -0.00027771720318493868 -0.0049484456749392088 0 -0.0012060537689587872 -0.0055028524415306149 0 -0.00025213239265989317 -0.0049858931535759089 0 -0.00032192594643801263 -0.004959245321262574 0 -0.00027353911565066932 -0.0049150243752481022 0 -0.0002862890210232508 -0.0050175945111365161 0 -0.00025213239265989317 -0.0049858931535759089 0 -0.00032192594643801263 -0.004959245321262574 0 -0.001687848007070206 -0.0058722716752876852 0 -0.0016884605704960401 -0.0060445912223320878 0 -0.0015565051426106305 -0.0059328582642257186 0 -0.001687848007070206 -0.0058722716752876852 0 -0.0018528447166783887 -0.0060379486386604089 0 -0.0016884605704960401 -0.0060445912223320878 0 -0.0010020190413334495 -0.005410032640776199 0 -0.0012060537689587872 -0.0055028524415306149 0 -0.0018528447166783887 -0.0060379486386604089 0 -0.0018458259556213569 -0.0060874667759404947 0 -0.0016884605704960401 -0.0060445912223320878 0 -0.0012060537689587872 -0.0055028524415306149 0 -0.0016934892373786561 -0.0059716773588266931 0 -0.0014776462808966044 -0.0057866864869895174 0 -0.001536905801214407 -0.0058456773554557018 0 -0.0015531649188147605 -0.0057449162410752831 0 -0.001392718231845121 -0.0056319120992988567 0 -0.0012060537689587872 -0.0055028524415306149 0 -0.001392718231845121 -0.0056319120992988567 0 -0.0016934892373786561 -0.0059716773588266931 0 -0.0022156069306742106 -0.0061795549634581486 0 -0.0021565075535123234 -0.0062132250932925024 0 -0.0021998946552188453 -0.0062429643925025115 0 -0.0016934892373786561 -0.0059716773588266931 0 -0.002373686688199597 -0.0068513260600772882 0 -0.0021565075535123234 -0.0062132250932925024 0 -0.0021889678398203851 -0.0062961665033218405 0 -0.0021424220941271884 -0.006311076114548857 0 -0.0021565075535123234 -0.0062132250932925024 0 -0.0021998946552188453 -0.0062429643925025115 0 -0.0021889678398203851 -0.0062961665033218405 0 -0.002244835739636443 -0.0063214772438439336 0 -0.0021889678398203851 -0.0062961665033218405 0 -0.0021430346102247551 -0.0063112279871063628 0 -0.0032123479529987749 -0.0078729519975549913 0 -0.0031602983322918106 -0.0078996060856293075 0 -0.0032101637571806587 -0.0079066479869510584 0 -0.002078970414799295 -0.0067271723868114119 0 -0.0020894766170355037 -0.0066670914975552956 0 -0.0023181921196155264 -0.0066052860217260482 0 -0.0023634369686903502 -0.0068316618894965556 0 -0.002373686688199597 -0.0068513260600772882 0 -0.0023025763876374549 -0.0064025546893823745 0 -0.0021430346102247551 -0.0063112279871063628 0 -0.0021151934974597076 -0.0065051512881392449 0 -0.002373686688199597 -0.0068513260600772882 0 -0.002824725997011039 -0.0072789987046464446 0 -0.0024981260139219858 -0.006186808143197592 0 -0.002824725997011039 -0.0072789987046464446 0 -0.0016934892373786561 -0.0059716773588266931 0 -0.0025452150550773342 -0.0071493829631657782 0 -0.002373686688199597 -0.0068513260600772882 0 -0.0025452150550773342 -0.0071493829631657782 0 -0.0018458259556213569 -0.0060874667759404947 0 -0.0016884605704960401 -0.0060445912223320878 0 -0.0016273388251150317 -0.0062170297937987461 0 -0.0016884605704960401 -0.0060445912223320878 0 -0.0016273388251150317 -0.0062170297937987461 0 -0.0015084330882606661 -0.0060973245905777806 0 -0.0015513950446418858 -0.0062418389769075232 0 -0.0015084330882606661 -0.0060973245905777806 0 -0.0012374695273188235 -0.0061825254289186423 0 -0.0016884605704960401 -0.0060445912223320878 0 -0.0015084330882606661 -0.0060973245905777806 0 -0.0015565051426106305 -0.0059328582642257186 0 -0.0015513950446418858 -0.0062418389769075232 0 -0.0016273388251150317 -0.0062170297937987461 0 -0.0015084330882606661 -0.0060973245905777806 0 -0.0022872044053341149 -0.0072413385411792533 0 -0.0025452150550773342 -0.0071493829631657782 0 -0.0015084330882606661 -0.0060973245905777806 0 -0.0015565051426106305 -0.0059328582642257186 0 -0.0013778443701513937 -0.0059439777122259202 0 -0.0015193458309069785 -0.0057045776975429459 0 -0.001687848007070206 -0.0058722716752876852 0 -0.0015565051426106305 -0.0059328582642257186 0 -0.00087786166959668102 -0.0053632866702856856 0 -0.0010020190413334495 -0.005410032640776199 0 -0.00087786166959668102 -0.0053632866702856856 0 -0.0010943102185457607 -0.0058358554614947235 0 -0.0015193458309069785 -0.0057045776975429459 0 -0.0015565051426106305 -0.0059328582642257186 0 -0.0013778443701513937 -0.0059439777122259202 0 -0.0012495171545672239 -0.0036357242357319872 0 -0.0012707876947139754 -0.0035032179432186194 0 -0.00083173448732532537 -0.0038677666703011144 0 -0.00026546987995148223 -0.0042230448490655961 0 -0.00042704755660450311 -0.004154606447677932 0 -0.00083173448732532537 -0.0038677666703011144 0 -0.0024910232666819441 -0.003868298876325932 0 -0.0029772507589837936 -0.0043439710151105052 0 -0.0012495171545672239 -0.0036357242357319872 0 -0.0013758647857540995 -0.0036629379625827381 0 -0.00091322758915673421 -0.0039230875361789532 0 -0.0046277091565780039 -0.0048549409102834479 0 -0.0048656646547713617 -0.0046717603663536918 0 -0.0047344782767128309 -0.0047043115257357528 0 -0.0015298028623190996 -0.0036634468057390583 0 -0.0024910232666819441 -0.003868298876325932 0 -0.0012495171545672239 -0.0036357242357319872 0 -0.0013029029591395684 -0.0035863804665519387 0 -0.0012887468167063663 -0.0035576507345962002 0 -0.0046277091565780039 -0.0048549409102834479 0 -0.0047344782767128309 -0.0047043115257357528 0 -0.0046354086932977861 -0.0047192773833965558 0 -0.0046277091565780039 -0.0048549409102834479 0 -0.0044929814514514691 -0.0046659917941562152 0 -0.0046354086932977861 -0.0047192773833965558 0 -0.0046277091565780039 -0.0048549409102834479 0 -0.0044929814514514691 -0.0046659917941562152 0 -0.0042598183622791297 -0.0047363444704026725 0 -0.0024910232666819441 -0.003868298876325932 0 -0.002881477671941809 -0.0041259380697154322 0 -0.0013830187922575007 -0.0034725140110403018 0 -0.0013191494173008344 -0.0034977897464826984 0 -0.0012609279642937512 -0.0034210881575890682 0 -0.0013029029591395684 -0.0035863804665519387 0 -0.0013038701809764163 -0.00351220078260379 0 -0.0012887468167063663 -0.0035576507345962002 0 -0.0024910232666819441 -0.003868298876325932 0 -0.0012393396677633033 -0.0037662584638619417 0 -0.0013029029591395684 -0.0035863804665519387 0 -0.0013038701809764163 -0.00351220078260379 0 -0.0013191494173008344 -0.0034977897464826984 0 -0.0013038701809764163 -0.00351220078260379 0 -0.0013191494173008344 -0.0034977897464826984 0 -0.0013173685619068485 -0.0035185200125723826 0 -0.00078177828429006806 -0.0038689762773861103 0 -0.00091750627709181098 -0.0038472602269271909 0 -0.0013038701809764163 -0.00351220078260379 0 -0.0012707876947139754 -0.0035032179432186194 0 -0.0012887468167063663 -0.0035576507345962002 0 -0.00031054061541527358 -0.0041994720701315942 0 -0.00026546987995148223 -0.0042230448490655961 0 -0.00053073129767186188 -0.004204979386767776 0 -0.0013038701809764163 -0.00351220078260379 0 -0.0012707876947139754 -0.0035032179432186194 0 -0.0013173685619068485 -0.0035185200125723826 0 -0.00031054061541527358 -0.0041994720701315942 0 -0.00026546987995148223 -0.0042230448490655961 0 -0.00035533907958145875 -0.0042006576680657746 0 -0.0012495171545672239 -0.0036357242357319872 0 -0.0012707876947139754 -0.0035032179432186194 0 -0.0012887468167063663 -0.0035576507345962002 0 -0.00026546987995148223 -0.0042230448490655961 0 -0.00042704755660450311 -0.004154606447677932 0 -0.00035533907958145875 -0.0042006576680657746 0 -0.00029732457942068473 -0.004210173641731191 0 -0.00031054061541527358 -0.0041994720701315942 0 -0.00035533907958145875 -0.0042006576680657746 0 -0.00039246658758782741 -0.0042050871648687937 0 -0.00029732457942068473 -0.004210173641731191 0 -0.00036458493644603632 -0.0041855035948915121 0 -0.00029732457942068473 -0.004210173641731191 0 -0.00035533907958145875 -0.0042006576680657746 0 -0.00036458493644603632 -0.0041855035948915121 0 -0.00036458493644603632 -0.0041855035948915121 0 -0.00037568634431262477 -0.0041793627732982768 0 -0.00038036743917843689 -0.0041866998408320779 0 -0.00036458493644603632 -0.0041855035948915121 0 -0.00037568634431262477 -0.0041793627732982768 0 -0.0003872034912681353 -0.0041696103333899535 0 -0.00042704755660450311 -0.004154606447677932 0 -0.00035533907958145875 -0.0042006576680657746 0 -0.0003872034912681353 -0.0041696103333899535 0 -0.00035533907958145875 -0.0042006576680657746 0 -0.00036458493644603632 -0.0041855035948915121 0 -0.0003872034912681353 -0.0041696103333899535 0 -0.00039246658758782741 -0.0042050871648687937 0 -0.00038991959984348892 -0.0041892902138702184 0 -0.00038036743917843689 -0.0041866998408320779 0 -0.00032052192819903162 -0.0045292203136297294 0 -0.00024889537163630702 -0.0046180317862182492 0 -0.00039246658758782741 -0.0042050871648687937 0 -0.00036458493644603632 -0.0041855035948915121 0 -0.00038036743917843689 -0.0041866998408320779 0 -0.00062815947387919217 -0.0040100784067075047 0 -0.00058793497221511161 -0.0040612475401061304 0 -0.0003893142426739618 -0.0041837945237053606 0 -0.00038312086961962157 -0.0041888107360421867 0 -0.00037261293880596713 -0.0041917470251884754 0 -0.00082769621073073489 -0.0039160091278148132 0 -0.00083173448732532537 -0.0038677666703011144 0 -0.0008367862511651649 -0.0039065619330975951 0 -0.00038991959984348892 -0.0041892902138702184 0 -0.00038036743917843689 -0.0041866998408320779 0 -0.00038312086961962157 -0.0041888107360421867 0 -0.00038036743917843689 -0.0041866998408320779 0 -0.00038312086961962157 -0.0041888107360421867 0 -0.00037261293880596713 -0.0041917470251884754 0 -0.00042704755660450311 -0.004154606447677932 0 -0.0003872034912681353 -0.0041696103333899535 0 -0.00037261293880596713 -0.0041917470251884754 0 -0.00078177828429006806 -0.0038689762773861103 0 -0.0008255318484238905 -0.0038610585100546709 0 -0.0012495171545672239 -0.0036357242357319872 0 -0.00083173448732532537 -0.0038677666703011144 0 -0.00091322758915673421 -0.0039230875361789532 0 -0.00042704755660450311 -0.004154606447677932 0 -0.00083173448732532537 -0.0038677666703011144 0 -0.0008367862511651649 -0.0039065619330975951 0 -0.00044637377845707036 -0.0041418878989376504 0 -0.00058793497221511161 -0.0040612475401061304 0 -0.00037568634431262477 -0.0041793627732982768 0 -0.00038036743917843689 -0.0041866998408320779 0 -0.00037261293880596713 -0.0041917470251884754 0 -0.00037568634431262477 -0.0041793627732982768 0 -0.0003872034912681353 -0.0041696103333899535 0 -0.00037261293880596713 -0.0041917470251884754 0 -0.0048656646547713617 -0.0046717603663536918 0 -0.004820807855596688 -0.0047481753525199996 0 -0.0047344782767128309 -0.0047043115257357528 0 -0.0048656646547713617 -0.0046717603663536918 0 -0.0047488514344410405 -0.0048419193390104778 0 -0.004820807855596688 -0.0047481753525199996 0 -0.00083173448732532537 -0.0038677666703011144 0 -0.00091322758915673421 -0.0039230875361789532 0 -0.00083063078918747433 -0.0039480777403642911 0 -0.0029772507589837936 -0.0043439710151105052 0 -0.0023548214244257073 -0.0042878401644867257 0 -0.00082769621073073489 -0.0039160091278148132 0 -0.00083173448732532537 -0.0038677666703011144 0 -0.00083063078918747433 -0.0039480777403642911 0 -0.0048656646547713617 -0.0046717603663536918 0 -0.0047488514344410405 -0.0048419193390104778 0 -0.0041297312036383468 -0.0048322520039204677 0 -0.0048370786239951774 -0.0050173516551661884 0 -0.0051683369760521505 -0.0062221826458453786 0 -0.0044705504631170701 -0.0061066034612531324 0 -0.0047488514344410405 -0.0048419193390104778 0 -0.0041297312036383468 -0.0048322520039204677 0 -0.0048370786239951774 -0.0050173516551661884 0 -0.0041297312036383468 -0.0048322520039204677 0 -0.0042933322417496641 -0.0054099908187875871 0 -0.0048370786239951774 -0.0050173516551661884 0 -0.0042933322417496641 -0.0054099908187875871 0 -0.0048370786239951774 -0.0050173516551661884 0 -0.0044705504631170701 -0.0061066034612531324 0 -0.003713304606783735 -0.0057501849954326115 0 -0.0042933322417496641 -0.0054099908187875871 0 -0.0044705504631170701 -0.0061066034612531324 0 -0.004820807855596688 -0.0047481753525199996 0 -0.0048370786239951774 -0.0050173516551661884 0 -0.0048062887024864307 -0.0045602697672295911 0 -0.0048370786239951774 -0.0050173516551661884 0 -0.0058266278407091282 -0.0057378287360150401 0 -0.0051683369760521505 -0.0062221826458453786 0 -0.0047488514344410405 -0.0048419193390104778 0 -0.004820807855596688 -0.0047481753525199996 0 -0.0048370786239951774 -0.0050173516551661884 0 -0.0048740228180923642 -0.0049734097646746515 0 -0.0053340304653665318 -0.0051877481008410567 0 -0.004820807855596688 -0.0047481753525199996 0 -0.0046453804438167145 -0.0045083926931880451 0 -0.0046544182985022763 -0.004638981579276614 0 -0.004820807855596688 -0.0047481753525199996 0 -0.0048062887024864307 -0.0045602697672295911 0 -0.0046453804438167145 -0.0045083926931880451 0 -0.004820807855596688 -0.0047481753525199996 0 -0.0046544182985022763 -0.004638981579276614 0 -0.0047344782767128309 -0.0047043115257357528 0 -0.0046544182985022763 -0.004638981579276614 0 -0.0047344782767128309 -0.0047043115257357528 0 -0.0046354086932977861 -0.0047192773833965558 0 -0.0046544182985022763 -0.004638981579276614 0 -0.0044929814514514691 -0.0046659917941562152 0 -0.0046354086932977861 -0.0047192773833965558 0 -0.0046544182985022763 -0.004638981579276614 0 -0.0044929814514514691 -0.0046659917941562152 0 -0.0045024629033886699 -0.0045147121762472561 0 -0.0044929814514514691 -0.0046659917941562152 0 -0.0045024629033886699 -0.0045147121762472561 0 -0.0043057116045390432 -0.0044627781099885284 0 -0.0046453804438167145 -0.0045083926931880451 0 -0.0045024629033886699 -0.0045147121762472561 0 -0.0043902871997662848 -0.0042937999587267595 0 -0.0046453804438167145 -0.0045083926931880451 0 -0.0046544182985022763 -0.004638981579276614 0 -0.0045024629033886699 -0.0045147121762472561 0 -0.004057326996453183 -0.0041942227553976386 0 -0.0043057116045390432 -0.0044627781099885284 0 -0.0043902871997662848 -0.0042937999587267595 0 -0.0045024629033886699 -0.0045147121762472561 0 -0.0043057116045390432 -0.0044627781099885284 0 -0.0043902871997662848 -0.0042937999587267595 0 -0.0040325475141035879 -0.0039822552790515957 0 -0.0043929275506213172 -0.003825184287211987 0 -0.004057326996453183 -0.0041942227553976386 0 -0.0040584781979573614 -0.0044514236910631194 0 -0.0043057116045390432 -0.0044627781099885284 0 -0.0040584781979573614 -0.0044514236910631194 0 -0.0042598183622791297 -0.0047363444704026725 0 -0.0037281408054623084 -0.0044902189633298306 0 -0.004057326996453183 -0.0041942227553976386 0 -0.0040584781979573614 -0.0044514236910631194 0 -0.0035936800752322923 -0.0040319013121318742 0 -0.0044929814514514691 -0.0046659917941562152 0 -0.0043057116045390432 -0.0044627781099885284 0 -0.0042598183622791297 -0.0047363444704026725 0 -0.0040584781979573614 -0.0044514236910631194 0 -0.0043057116045390432 -0.0044627781099885284 0 -0.0042598183622791297 -0.0047363444704026725 0 -0.0013191494173008344 -0.0034977897464826984 0 -0.0012609279642937512 -0.0034210881575890682 0 -0.0012812555810889884 -0.0034770022670911568 0 -0.002881477671941809 -0.0041259380697154322 0 -0.0024418238662497942 -0.003937535981068184 0 -0.0012609279642937512 -0.0034210881575890682 0 -0.0012027709457184653 -0.0034254090347100499 0 -0.0011953744608809175 -0.0034066521998059418 0 -0.0012609279642937512 -0.0034210881575890682 0 -0.0012027709457184653 -0.0034254090347100499 0 -0.0012226614433536681 -0.0034622008233251805 0 -0.0012027709457184653 -0.0034254090347100499 0 -0.0012226614433536681 -0.0034622008233251805 0 -0.001159306757562878 -0.0034513321026401513 0 -0.0012226614433536681 -0.0034622008233251805 0 -0.001159306757562878 -0.0034513321026401513 0 -0.0011637280117100047 -0.0035159441541005691 0 -0.0013191494173008344 -0.0034977897464826984 0 -0.0012812555810889884 -0.0034770022670911568 0 -0.0013173685619068485 -0.0035185200125723826 0 -0.0012609279642937512 -0.0034210881575890682 0 -0.0012226614433536681 -0.0034622008233251805 0 -0.0012812555810889884 -0.0034770022670911568 0 -0.0012226614433536681 -0.0034622008233251805 0 -0.0012812555810889884 -0.0034770022670911568 0 -0.0013173685619068485 -0.0035185200125723826 0 -0.0011845883036471498 -0.003401084072009192 0 -0.0012118287613926517 -0.0033822285632464678 0 -0.0012250310944455544 -0.0033502696577336409 0 -0.0011845883036471498 -0.003401084072009192 0 -0.0011864889214511568 -0.003410567458759384 0 -0.0012118287613926517 -0.0033822285632464678 0 -0.0012027709457184653 -0.0034254090347100499 0 -0.001159306757562878 -0.0034513321026401513 0 -0.0011864889214511568 -0.003410567458759384 0 -0.0011845883036471498 -0.003401084072009192 0 -0.001159306757562878 -0.0034513321026401513 0 -0.0011864889214511568 -0.003410567458759384 0 -0.0011864889214511568 -0.003410567458759384 0 -0.0012118287613926517 -0.0033822285632464678 0 -0.0011953744608809175 -0.0034066521998059418 0 -0.0012027709457184653 -0.0034254090347100499 0 -0.0011864889214511568 -0.003410567458759384 0 -0.0011953744608809175 -0.0034066521998059418 0 -0.0012118287613926517 -0.0033822285632464678 0 -0.0011953744608809175 -0.0034066521998059418 0 -0.0012610491202244478 -0.0033966329330472785 0 -0.0024418238662497942 -0.003937535981068184 0 -0.0021596804942721846 -0.0037652284650281018 0 -0.0037281408054623084 -0.0044902189633298306 0 -0.0035936800752322923 -0.0040319013121318742 0 -0.0030263501633771891 -0.0041311578991303092 0 -0.0040584781979573614 -0.0044514236910631194 0 -0.0037281408054623084 -0.0044902189633298306 0 -0.0035936800752322923 -0.0040319013121318742 0 -0.0040632078584719161 -0.0037384392206129082 0 -0.0035936800752322923 -0.0040319013121318742 0 -0.0035562959180265434 -0.0034431307287239791 0 -0.0040325475141035879 -0.0039822552790515957 0 -0.0036154976397832187 -0.0040526456747082785 0 -0.0035936800752322923 -0.0040319013121318742 0 -0.0030646987158757465 -0.0036138076688004132 0 -0.0030263501633771891 -0.0041311578991303092 0 -0.0035936800752322923 -0.0040319013121318742 0 -0.0030646987158757465 -0.0036138076688004132 0 -0.0035562959180265434 -0.0034431307287239791 0 -0.0030646987158757465 -0.0036138076688004132 0 -0.002338835043107355 -0.0037187100540259405 0 -0.0027494044390808702 -0.0032411113832302584 0 -0.002338835043107355 -0.0037187100540259405 0 -0.0023095723205049656 -0.0030678642498882885 0 -0.0027494044390808702 -0.0032411113832302584 0 -0.0014321508736004412 -0.0033487372986873115 0 -0.0012610491202244478 -0.0033966329330472785 0 -0.0013615446917893774 -0.0032934500224152019 0 -0.0014321508736004412 -0.0033487372986873115 0 -0.0014912243317363155 -0.0032337058085577272 0 -0.0013615446917893774 -0.0032934500224152019 0 -0.0030646987158757465 -0.0036138076688004132 0 -0.002338835043107355 -0.0037187100540259405 0 -0.0030263501633771891 -0.0041311578991303092 0 -0.0018940410682641666 -0.0035194649741605447 0 -0.0021596804942721846 -0.0037652284650281018 0 -0.0016882627268335409 -0.0029358309962094643 0 -0.0017287032715148204 -0.0032094103171490182 0 -0.0018478839496985984 -0.0028280416863656569 0 -0.0018940410682641666 -0.0035194649741605447 0 -0.0017361788776139194 -0.0032642623726048385 0 -0.002338835043107355 -0.0037187100540259405 0 -0.0017287032715148204 -0.0032094103171490182 0 -0.0023095723205049656 -0.0030678642498882885 0 -0.0014321508736004412 -0.0033487372986873115 0 -0.0017287032715148204 -0.0032094103171490182 0 -0.0014912243317363155 -0.0032337058085577272 0 -0.0017287032715148204 -0.0032094103171490182 0 -0.0016029095923354444 -0.0031410435271968995 0 -0.0014912243317363155 -0.0032337058085577272 0 -0.0014912243317363155 -0.0032337058085577272 0 -0.001429948802070176 -0.0032161118891600644 0 -0.0013615446917893774 -0.0032934500224152019 0 -0.0016029095923354444 -0.0031410435271968995 0 -0.0014912243317363155 -0.0032337058085577272 0 -0.001429948802070176 -0.0032161118891600644 0 -0.001429948802070176 -0.0032161118891600644 0 -0.0015013630604746621 -0.0031603842666697362 0 -0.0014215856885509478 -0.0031688891746250942 0 -0.0016029095923354444 -0.0031410435271968995 0 -0.001429948802070176 -0.0032161118891600644 0 -0.0015013630604746621 -0.0031603842666697362 0 -0.0015728344418285002 -0.0031259228558095007 0 -0.0016029095923354444 -0.0031410435271968995 0 -0.0015013630604746621 -0.0031603842666697362 0 -0.0015728344418285002 -0.0031259228558095007 0 -0.0015013630604746621 -0.0031603842666697362 0 -0.0014987810650961839 -0.0031375758959593129 0 -0.0012610491202244478 -0.0033966329330472785 0 -0.0012693432131924778 -0.0033341852823600563 0 -0.0013615446917893774 -0.0032934500224152019 0 -0.0012118287613926517 -0.0033822285632464678 0 -0.0012610491202244478 -0.0033966329330472785 0 -0.0012693432131924778 -0.0033341852823600563 0 -0.001429948802070176 -0.0032161118891600644 0 -0.0013615446917893774 -0.0032934500224152019 0 -0.0013037046190088528 -0.0032787050928772105 0 -0.001429948802070176 -0.0032161118891600644 0 -0.0013037046190088528 -0.0032787050928772105 0 -0.0013573210488843431 -0.0032167865819231313 0 -0.0012693432131924778 -0.0033341852823600563 0 -0.0013615446917893774 -0.0032934500224152019 0 -0.0013037046190088528 -0.0032787050928772105 0 -0.0012693432131924778 -0.0033341852823600563 0 -0.0013037046190088528 -0.0032787050928772105 0 -0.0012250310944455544 -0.0033502696577336409 0 -0.0012118287613926517 -0.0033822285632464678 0 -0.0012693432131924778 -0.0033341852823600563 0 -0.0012250310944455544 -0.0033502696577336409 0 -0.0013037046190088528 -0.0032787050928772105 0 -0.0012941455630865342 -0.0032348964279103822 0 -0.0012243949149508076 -0.003315247453524372 0 -0.0013037046190088528 -0.0032787050928772105 0 -0.0012250310944455544 -0.0033502696577336409 0 -0.0012243949149508076 -0.003315247453524372 0 -0.0013037046190088528 -0.0032787050928772105 0 -0.0013573210488843431 -0.0032167865819231313 0 -0.0012941455630865342 -0.0032348964279103822 0 -0.0013573210488843431 -0.0032167865819231313 0 -0.0012941455630865342 -0.0032348964279103822 0 -0.001347857691394061 -0.0031619449274284967 0 -0.0012689544999987051 -0.0031622269707917549 0 -0.001347857691394061 -0.0031619449274284967 0 -0.0013290037254474597 -0.003065996508693462 0 -0.0012941455630865342 -0.0032348964279103822 0 -0.0012689544999987051 -0.0031622269707917549 0 -0.0012243949149508076 -0.003315247453524372 0 -0.0012941455630865342 -0.0032348964279103822 0 -0.0012689544999987051 -0.0031622269707917549 0 -0.001347857691394061 -0.0031619449274284967 0 -0.0012243949149508076 -0.003315247453524372 0 -0.0011974191586036783 -0.0032761688167499969 0 -0.0011658721575991972 -0.0033898428262305372 0 -0.0012689544999987051 -0.0031622269707917549 0 -0.0012243949149508076 -0.003315247453524372 0 -0.0011974191586036783 -0.0032761688167499969 0 -0.0015013630604746621 -0.0031603842666697362 0 -0.0014987810650961839 -0.0031375758959593129 0 -0.0014215856885509478 -0.0031688891746250942 0 -0.0014987810650961839 -0.0031375758959593129 0 -0.0014215856885509478 -0.0031688891746250942 0 -0.0014063636887915027 -0.0031056767460709376 0 -0.001429948802070176 -0.0032161118891600644 0 -0.0013573210488843431 -0.0032167865819231313 0 -0.0014215856885509478 -0.0031688891746250942 0 -0.0013573210488843431 -0.0032167865819231313 0 -0.0014215856885509478 -0.0031688891746250942 0 -0.001347857691394061 -0.0031619449274284967 0 -0.001347857691394061 -0.0031619449274284967 0 -0.0014063636887915027 -0.0031056767460709376 0 -0.0013290037254474597 -0.003065996508693462 0 -0.0014215856885509478 -0.0031688891746250942 0 -0.001347857691394061 -0.0031619449274284967 0 -0.0014063636887915027 -0.0031056767460709376 0 -0.0014971442228707888 -0.0030972245043847275 0 -0.0014987810650961839 -0.0031375758959593129 0 -0.0014063636887915027 -0.0031056767460709376 0 -0.0014971442228707888 -0.0030972245043847275 0 -0.0014063636887915027 -0.0031056767460709376 0 -0.0013643293253319602 -0.0030075940331832068 0 -0.0014063636887915027 -0.0031056767460709376 0 -0.0013643293253319602 -0.0030075940331832068 0 -0.0013290037254474597 -0.003065996508693462 0 -0.0013290037254474597 -0.003065996508693462 0 -0.0013128121185343733 -0.0029658358255090205 0 -0.0012578565680913276 -0.0030371129199970722 0 -0.0013643293253319602 -0.0030075940331832068 0 -0.0013290037254474597 -0.003065996508693462 0 -0.0013128121185343733 -0.0029658358255090205 0 -0.0008759855440762126 -0.0029433503238731375 0 -0.00057557674632617215 -0.0029854349370800142 0 -0.00040451813684909627 -0.002508662525729022 0 -0.00036073186485714606 -0.002960613267986707 0 -3.8423864170845764e-05 -0.0026811962327001667 0 -0.0008759855440762126 -0.0029433503238731375 0 -0.0012328016602154278 -0.0028237221419917594 0 -0.0013643293253319602 -0.0030075940331832068 0 -0.0013128121185343733 -0.0029658358255090205 0 -0.0012555624138500365 -0.0028181824875540395 0 -0.00040451813684909627 -0.002508662525729022 0 -0.00036073186485714606 -0.002960613267986707 0 -0.0012555624138500365 -0.0028181824875540395 0 -0.00077173136107578093 -0.0032175900888023758 0 -0.00057557674632617215 -0.0029854349370800142 0 -0.0012689544999987051 -0.0031622269707917549 0 -0.0010711226965702909 -0.0031067910804169923 0 -0.0012578565680913276 -0.0030371129199970722 0 -0.0013891150126727463 -0.0032047614948810823 0 -0.00077173136107578093 -0.0032175900888023758 0 0.00017115710368017075 -0.0029199154894268302 0 2.4015617626631384e-05 -0.0029333099056327175 0 0.00011906020865816638 -0.0027865735529756328 0 -0.0012689544999987051 -0.0031622269707917549 0 -0.0013290037254474597 -0.003065996508693462 0 -0.0012578565680913276 -0.0030371129199970722 0 -0.00036073186485714606 -0.002960613267986707 0 2.4015617626631384e-05 -0.0029333099056327175 0 -3.8423864170845764e-05 -0.0026811962327001667 0 2.4015617626631384e-05 -0.0029333099056327175 0 -3.8423864170845764e-05 -0.0026811962327001667 0 0.00011906020865816638 -0.0027865735529756328 0 0.00017115710368017075 -0.0029199154894268302 0 0.00011906020865816638 -0.0027865735529756328 0 0.00021033891776343702 -0.0028043442009607184 0 0.00021033891776343702 -0.0028043442009607184 0 0.00020748183575625956 -0.0028742318798831122 0 0.00019835266685898606 -0.0028951668265824204 0 -0.00077173136107578093 -0.0032175900888023758 0 -0.00039052426741881539 -0.0031721945341499657 0 -0.0011326888643202358 -0.003491685451498402 0 -0.0011057550184003547 -0.0034815322040537364 0 -0.0011127478900717291 -0.0035085837076821598 0 0.00017115710368017075 -0.0029199154894268302 0 0.00021033891776343702 -0.0028043442009607184 0 0.00020748183575625956 -0.0028742318798831122 0 -0.00077173136107578093 -0.0032175900888023758 0 -0.0012526962169999442 -0.0034773693568801397 0 -0.00039052426741881539 -0.0031721945341499657 0 -0.00038430764060238621 -0.0032350816162323402 0 -0.0011057550184003547 -0.0034815322040537364 0 -0.00083973135022455945 -0.0034358783607677194 0 -0.0010065366847087807 -0.003573955474498763 0 -0.0011057550184003547 -0.0034815322040537364 0 -0.0010065366847087807 -0.003573955474498763 0 -0.0011127478900717291 -0.0035085837076821598 0 0.00020748183575625956 -0.0028742318798831122 0 0.00019835266685898606 -0.0028951668265824204 0 6.8512337208475929e-05 -0.0029877081457045829 0 0.00013325550038652034 -0.0029973768674946711 0 0.00019835266685898606 -0.0028951668265824204 0 6.8512337208475929e-05 -0.0029877081457045829 0 -0.00025650228533816816 -0.0034046789013694877 0 -0.00041757690463101275 -0.0037254271619538972 0 -0.00083973135022455945 -0.0034358783607677194 0 4.7993808797419852e-05 -0.0031763136700879804 0 -0.00025650228533816816 -0.0034046789013694877 0 6.8512337208475929e-05 -0.0029877081457045829 0 -0.00026292994261533959 -0.003350500982719279 0 -0.00038430764060238621 -0.0032350816162323402 0 -0.00041757690463101275 -0.0037254271619538972 0 -0.00083973135022455945 -0.0034358783607677194 0 -0.00072985183450209709 -0.0037457059537542962 0 -0.00083973135022455945 -0.0034358783607677194 0 -0.0010065366847087807 -0.003573955474498763 0 -0.00072985183450209709 -0.0037457059537542962 0 -0.0010696793617456543 -0.00367540043208956 0 -0.00072985183450209709 -0.0037457059537542962 0 -0.00053073129767186188 -0.004204979386767776 0 -0.0010065366847087807 -0.003573955474498763 0 -0.0010696793617456543 -0.00367540043208956 0 -0.00072985183450209709 -0.0037457059537542962 0 -0.00041757690463101275 -0.0037254271619538972 0 -0.00043477372065064084 -0.0039941117475281399 0 -0.00072985183450209709 -0.0037457059537542962 0 -0.00043477372065064084 -0.0039941117475281399 0 -0.00072985183450209709 -0.0037457059537542962 0 -0.00053073129767186188 -0.004204979386767776 0 -0.0012226614433536681 -0.0034622008233251805 0 -0.0013173685619068485 -0.0035185200125723826 0 -0.0011637280117100047 -0.0035159441541005691 0 -0.0010616703121274992 -0.0036993977753337765 0 -0.00091750627709181098 -0.0038472602269271909 0 -0.0010696793617456543 -0.00367540043208956 0 -0.0013173685619068485 -0.0035185200125723826 0 -0.0011637280117100047 -0.0035159441541005691 0 -0.001159306757562878 -0.0034513321026401513 0 -0.0011637280117100047 -0.0035159441541005691 0 -0.0011141432026850076 -0.0035290683413297347 0 -0.0010696793617456543 -0.00367540043208956 0 -0.0011637280117100047 -0.0035159441541005691 0 -0.0011141432026850076 -0.0035290683413297347 0 -0.0011845883036471498 -0.003401084072009192 0 -0.001159306757562878 -0.0034513321026401513 0 -0.0011556310291672626 -0.0034297957286597565 0 -0.001159306757562878 -0.0034513321026401513 0 -0.0011141432026850076 -0.0035290683413297347 0 -0.0011556310291672626 -0.0034297957286597565 0 -0.0012250310944455544 -0.0033502696577336409 0 -0.0012243949149508076 -0.003315247453524372 0 -0.0011556310291672626 -0.0034297957286597565 0 -0.0011845883036471498 -0.003401084072009192 0 -0.0012250310944455544 -0.0033502696577336409 0 -0.0011556310291672626 -0.0034297957286597565 0 -0.0012243949149508076 -0.003315247453524372 0 -0.0011556310291672626 -0.0034297957286597565 0 -0.0011658721575991972 -0.0033898428262305372 0 -0.0011974191586036783 -0.0032761688167499969 0 -0.0011658721575991972 -0.0033898428262305372 0 -0.0011127478900717291 -0.0035085837076821598 0 -0.0011556310291672626 -0.0034297957286597565 0 -0.0011658721575991972 -0.0033898428262305372 0 -0.0011127478900717291 -0.0035085837076821598 0 -0.0010696793617456543 -0.00367540043208956 0 -0.0011141432026850076 -0.0035290683413297347 0 -0.0011127478900717291 -0.0035085837076821598 0 -0.0011141432026850076 -0.0035290683413297347 0 -0.0011556310291672626 -0.0034297957286597565 0 -0.0011127478900717291 -0.0035085837076821598 0 -0.0010065366847087807 -0.003573955474498763 0 -0.0010696793617456543 -0.00367540043208956 0 -0.0011127478900717291 -0.0035085837076821598 0 -1.9730169994520704e-05 -0.014981871109415023 0 -6.4386915625388202e-05 -0.014956385240109895 0 -2.4579100295083903e-05 -0.014949813796064138 0 -1.9730169994520704e-05 -0.014981871109415023 0 4.5195059316064585e-08 -0.014999933424205924 0 -2.4579100295083903e-05 -0.014949813796064138 0 -1.9730169994520704e-05 -0.014981871109415023 0 4.5195059316064585e-08 -0.014999933424205924 0 -1.9299168958549967e-08 -0.015000000357567619 0 -1.9730169994520704e-05 -0.014981871109415023 0 -1.9299168958549967e-08 -0.015000000357567619 0 -1.6616852416855666e-05 -0.015009607555486689 0 -1.9730169994520704e-05 -0.014981871109415023 0 -5.6679236799467923e-05 -0.014999974931136405 0 -1.6616852416855666e-05 -0.015009607555486689 0 -1.9730169994520704e-05 -0.014981871109415023 0 -5.6679236799467923e-05 -0.014999974931136405 0 -6.4386915625388202e-05 -0.014956385240109895 0 -7.8755164501704658e-06 -0.015048001887152834 0 -2.4707279180595992e-05 -0.013499210272908558 0 -7.3545733086710844e-05 -0.014830843164693849 0 -0.00017827534515912327 -0.014746450759737255 0 -0.00012320911819391797 -0.014893180605519174 0 -5.6679236799467923e-05 -0.014999974931136405 0 -0.00011004069229950612 -0.014966991887889906 0 -6.4386915625388202e-05 -0.014956385240109895 0 0.00010696900341707507 -0.011663018200196447 0 0.00014113141022422098 -0.011631440809176148 0 0.00013466786133865377 -0.011579301165113067 0 -2.4707279180595992e-05 -0.013499210272908558 0 -2.0260328753401844e-05 -0.013162617677143702 0 0.00010696900341707507 -0.011663018200196447 0 0.00012074486302315662 -0.011678348179441671 0 0.00014113141022422098 -0.011631440809176148 0 -2.4707279180595992e-05 -0.013499210272908558 0 -0.00023144023005348857 -0.013065234830920701 0 -0.00011004069229950612 -0.014966991887889906 0 -0.00012581171572691318 -0.014925242760460431 0 -6.4386915625388202e-05 -0.014956385240109895 0 -2.4707279180595992e-05 -0.013499210272908558 0 -3.5373449995321552e-05 -0.0132690970771731 0 9.9086545529918364e-05 -0.011666752652038922 0 0.00012074486302315662 -0.011678348179441671 0 0.00012019270879042325 -0.011763189784427003 0 -0.00012581171572691318 -0.014925242760460431 0 -6.4386915625388202e-05 -0.014956385240109895 0 -6.9445043092143321e-05 -0.014898335708954435 0 -6.4386915625388202e-05 -0.014956385240109895 0 -6.9445043092143321e-05 -0.014898335708954435 0 -2.4579100295083903e-05 -0.014949813796064138 0 -0.00012581171572691318 -0.014925242760460431 0 -6.9445043092143321e-05 -0.014898335708954435 0 -0.0001383883273187289 -0.014884016973531613 0 0.00011086879124623518 -0.01470594430050302 0 -7.8347678856963875e-06 -0.013785127853978882 0 0.00028401037961256812 -0.014150865395323045 0 0.00030198784211313349 -0.013834292723371527 0 0.00029649610296418258 -0.01394699222643634 0 0.00021526634734839867 -0.014306588613769463 0 0.00028401037961256812 -0.014150865395323045 0 0.00029543736992510683 -0.013979876083856259 0 0.00028401037961256812 -0.014150865395323045 0 0.00029649610296418258 -0.01394699222643634 0 0.00029543736992510683 -0.013979876083856259 0 0.00021526634734839867 -0.014306588613769463 0 0.00028401037961256812 -0.014150865395323045 0 9.9623123607175498e-05 -0.014665154455204958 0 0.00021526634734839867 -0.014306588613769463 0 2.1001547356963317e-05 -0.01488672506279486 0 9.9623123607175498e-05 -0.014665154455204958 0 -6.9445043092143321e-05 -0.014898335708954435 0 -2.4579100295083903e-05 -0.014949813796064138 0 2.1001547356963317e-05 -0.01488672506279486 0 0.00011086879124623518 -0.01470594430050302 0 4.2167856733888949e-05 -0.014813815967211439 0 4.5195059316064585e-08 -0.014999933424205924 0 -2.4579100295083903e-05 -0.014949813796064138 0 2.1001547356963317e-05 -0.01488672506279486 0 4.5195059316064585e-08 -0.014999933424205924 0 2.1001547356963317e-05 -0.01488672506279486 0 5.1999617666002587e-08 -0.014999505855314272 0 2.1001547356963317e-05 -0.01488672506279486 0 5.1999617666002587e-08 -0.014999505855314272 0 9.9623123607175498e-05 -0.014665154455204958 0 5.1999617666002587e-08 -0.014999505855314272 0 9.9623123607175498e-05 -0.014665154455204958 0 6.1333788479774057e-08 -0.014999702245115215 0 2.4807846068812984e-07 -0.014999187983430974 0 0.00014515758833407897 -0.013596963498076597 0 1.0096872089102695e-07 -0.011811958367516518 0 9.9623123607175498e-05 -0.014665154455204958 0 0.00017428862118918062 -0.014523353880176965 0 6.1333788479774057e-08 -0.014999702245115215 0 0.00013428244109989237 -0.014406784852182539 0 6.0836702562850794e-08 -0.014999801763171491 0 7.1681795552372264e-05 -0.014295711513316217 0 2.4807846068812984e-07 -0.014999187983430974 0 0.00014515758833407897 -0.013596963498076597 0 7.1681795552372264e-05 -0.014295711513316217 0 -4.5431502572814401e-08 -0.014998819497822087 0 2.4807846068812984e-07 -0.014999187983430974 0 0.00013428244109989237 -0.014406784852182539 0 0.00022248708486348202 -0.01372102663352716 0 0.00028401037961256812 -0.014150865395323045 0 0.00017428862118918062 -0.014523353880176965 0 0.00032560957624101701 -0.013883836859208678 0 0.00028401037961256812 -0.014150865395323045 0 9.9623123607175498e-05 -0.014665154455204958 0 0.00017428862118918062 -0.014523353880176965 0 0.00028401037961256812 -0.014150865395323045 0 0.00032560957624101701 -0.013883836859208678 0 0.00030198784211313349 -0.013834292723371527 0 0.00032560957624101701 -0.013883836859208678 0 0.00030198784211313349 -0.013834292723371527 0 9.2490570544935221e-05 -0.013010240206119633 0 0.00013620949369394262 -0.013502280618967856 0 9.2490570544935221e-05 -0.013010240206119633 0 -7.8659802495286321e-05 -0.012984842786810313 0 0.00030198784211313349 -0.013834292723371527 0 0.00013620949369394262 -0.013502280618967856 0 9.2490570544935221e-05 -0.013010240206119633 0 0.00022248708486348202 -0.01372102663352716 0 8.379998455517132e-05 -0.013121548373766735 0 0.00014515758833407897 -0.013596963498076597 0 9.2490570544935221e-05 -0.013010240206119633 0 1.0096872089102695e-07 -0.011811958367516518 0 9.2490570544935221e-05 -0.013010240206119633 0 1.0096872089102695e-07 -0.011811958367516518 0 -8.8390778549918476e-05 -0.012231685142343263 0 1.0096872089102695e-07 -0.011811958367516518 0 -8.8390778549918476e-05 -0.012231685142343263 0 -0.00022379087870516508 -0.011494201419554177 0 -8.8390778549918476e-05 -0.012231685142343263 0 -0.0003960729962357525 -0.01268542889246355 0 -7.8659802495286321e-05 -0.012984842786810313 0 -8.8390778549918476e-05 -0.012231685142343263 0 -0.0003960729962357525 -0.01268542889246355 0 -0.00022379087870516508 -0.011494201419554177 0 9.2490570544935221e-05 -0.013010240206119633 0 -8.8390778549918476e-05 -0.012231685142343263 0 -7.8659802495286321e-05 -0.012984842786810313 0 0.00013620949369394262 -0.013502280618967856 0 -7.8659802495286321e-05 -0.012984842786810313 0 1.4019132664755176e-05 -0.013625551653322215 0 -7.8659802495286321e-05 -0.012984842786810313 0 -0.00028328031311067515 -0.013450765650475562 0 1.4019132664755176e-05 -0.013625551653322215 0 -0.00018714190568969952 -0.011539512811937708 0 -0.0001421583438088772 -0.01159309306544643 0 -0.00020841098894264229 -0.011586311985312263 0 -0.00026570877329968999 -0.01207631642550684 0 -0.00018501719697787828 -0.012724225151051436 0 -0.0003960729962357525 -0.01268542889246355 0 -7.8659802495286321e-05 -0.012984842786810313 0 -0.00028328031311067515 -0.013450765650475562 0 0.00082333043397308917 -0.0095774985429339949 0 -0.00039951488267961463 -0.011340849604761141 0 -0.0001421583438088772 -0.01159309306544643 0 -0.00015019925464948615 -0.011634634171779285 0 -0.00020841098894264229 -0.011586311985312263 0 -0.0001421583438088772 -0.01159309306544643 0 -0.00015019925464948615 -0.011634634171779285 0 -0.00010135440171777254 -0.011633576387949986 0 -0.00049984184445563096 -0.010373773970253393 0 -0.00051859070781420219 -0.010330263473943597 0 -0.00031202742654785946 -0.010546246702107652 0 -0.00060114033250581629 -0.0068739217648257278 0 -0.00044974686204752706 -0.0067205553992676342 0 -0.00031845687915636419 -0.0068712222655096704 0 0.0024238682753637561 -0.0079174677026511812 0 0.0023466554748138987 -0.0077956409766662882 0 0.0021136690415102231 -0.0077695973703877643 0 0.00082333043397308917 -0.0095774985429339949 0 0.0004864709688009356 -0.0081088437424127052 0 0.00082333043397308917 -0.0095774985429339949 0 0.00051599210229180583 -0.011360605956024863 0 0.0024238682753637561 -0.0079174677026511812 0 0.0021136690415102231 -0.0077695973703877643 0 0.0018002567632383895 -0.0079503011021606999 0 0.0023466554748138987 -0.0077956409766662882 0 0.0021136690415102231 -0.0077695973703877643 0 0.0018831851402682988 -0.0074110806823466388 0 0.0021136690415102231 -0.0077695973703877643 0 0.0018002567632383895 -0.0079503011021606999 0 0.0018831851402682988 -0.0074110806823466388 0 0.0004864709688009356 -0.0081088437424127052 0 0.0019492683906362476 -0.0074360747060242208 0 -0.00018501719697787828 -0.012724225151051436 0 0.00051599210229180583 -0.011360605956024863 0 -0.00028328031311067515 -0.013450765650475562 0 -6.5513702866697984e-05 -0.013903200317340943 0 1.4019132664755176e-05 -0.013625551653322215 0 0.00013620949369394262 -0.013502280618967856 0 1.4019132664755176e-05 -0.013625551653322215 0 0.00021826640659988194 -0.013780090352038867 0 1.4019132664755176e-05 -0.013625551653322215 0 0.00021826640659988194 -0.013780090352038867 0 0.00019862761103001201 -0.013919873356181533 0 0.00030198784211313349 -0.013834292723371527 0 0.00013620949369394262 -0.013502280618967856 0 0.00021826640659988194 -0.013780090352038867 0 0.00030198784211313349 -0.013834292723371527 0 0.00021826640659988194 -0.013780090352038867 0 0.00029649610296418258 -0.01394699222643634 0 0.00021826640659988194 -0.013780090352038867 0 0.00029649610296418258 -0.01394699222643634 0 0.00019862761103001201 -0.013919873356181533 0 -7.8347678856963875e-06 -0.013785127853978882 0 0.00020563999709816358 -0.0128877520343253 0 0.00014914632642637154 -0.011870557481187198 0 0.00026521570969543676 -0.011855369847477421 0 0.00019756136169529856 -0.01176997231884771 0 0.00029649610296418258 -0.01394699222643634 0 0.00030414716023563384 -0.013971404264578546 0 0.00019862761103001201 -0.013919873356181533 0 0.00012493324391903818 -0.013951615668102669 0 -7.8347678856963875e-06 -0.013785127853978882 0 -3.5373449995321552e-05 -0.0132690970771731 0 -7.8347678856963875e-06 -0.013785127853978882 0 0.00012019270879042325 -0.011763189784427003 0 0.00014914632642637154 -0.011870557481187198 0 0.00019756136169529856 -0.01176997231884771 0 -6.5513702866697984e-05 -0.013903200317340943 0 1.4019132664755176e-05 -0.013625551653322215 0 0.00019862761103001201 -0.013919873356181533 0 0.00051599210229180583 -0.011360605956024863 0 0.00020563999709816358 -0.0128877520343253 0 0.00038649735874567371 -0.011841897882410376 0 0.00026521570969543676 -0.011855369847477421 0 0.00027733375408717351 -0.011681298449020059 0 0.0013406845571653204 -0.007052919621245623 0 0.0014308817500208412 -0.0070103127496376674 0 0.0018831851402682988 -0.0074110806823466388 0 0.00051599210229180583 -0.011360605956024863 0 0.00083209384951342077 -0.0091133160891760066 0 0.00026521570969543676 -0.011855369847477421 0 0.00027733375408717351 -0.011681298449020059 0 0.00019756136169529856 -0.01176997231884771 0 0.00027733375408717351 -0.011681298449020059 0 0.00019756136169529856 -0.01176997231884771 0 0.00017690090011882601 -0.011685423891866399 0 0.00012019270879042325 -0.011763189784427003 0 0.00019756136169529856 -0.01176997231884771 0 0.00017690090011882601 -0.011685423891866399 0 0.00012074486302315662 -0.011678348179441671 0 0.00012019270879042325 -0.011763189784427003 0 0.00017690090011882601 -0.011685423891866399 0 0.00083209384951342077 -0.0091133160891760066 0 0.00065024231871452177 -0.0090417144279398322 0 0.00017690090011882601 -0.011685423891866399 0 0.00014113141022422098 -0.011631440809176148 0 0.00017059603897314808 -0.011564962715247259 0 0.00027733375408717351 -0.011681298449020059 0 0.00017690090011882601 -0.011685423891866399 0 0.00017059603897314808 -0.011564962715247259 0 0.00012074486302315662 -0.011678348179441671 0 0.00017690090011882601 -0.011685423891866399 0 0.00014113141022422098 -0.011631440809176148 0 0.0014308817500208412 -0.0070103127496376674 0 0.0017870079037191143 -0.0070087972364679734 0 0.0014968388337736457 -0.0064429344411898659 0 0.0013406845571653204 -0.007052919621245623 0 0.0014308817500208412 -0.0070103127496376674 0 0.0014968388337736457 -0.0064429344411898659 0 0.0013406845571653204 -0.007052919621245623 0 0.0014968388337736457 -0.0064429344411898659 0 0.0010557384586286471 -0.0063703226850037537 0 0.00049466355848959735 -0.0066309352680714645 0 0.00025051526861199049 -0.0063506409505011659 0 -0.0007657336915971527 -0.0065485223776727162 0 -0.00074035363932706993 -0.0063022224869112237 0 -0.00090200436914076438 -0.0062616788409016423 0 -0.00059398912711629563 -0.0064260162102176511 0 -0.0007657336915971527 -0.0065485223776727162 0 -0.00074035363932706993 -0.0063022224869112237 0 -0.00059398912711629563 -0.0064260162102176511 0 -0.0006223218866894467 -0.0062188903638127242 0 -0.00074035363932706993 -0.0063022224869112237 0 -0.00059398912711629563 -0.0064260162102176511 0 -0.00039773662137261638 -0.0063476896297214045 0 -0.0006223218866894467 -0.0062188903638127242 0 -0.00059398912711629563 -0.0064260162102176511 0 -0.00058011150720571017 -0.0066317694782620914 0 -0.00045368938371797771 -0.0065445128542772485 0 -0.00059398912711629563 -0.0064260162102176511 0 -0.00045368938371797771 -0.0065445128542772485 0 -0.00039773662137261638 -0.0063476896297214045 0 -0.00059398912711629563 -0.0064260162102176511 0 -0.00058011150720571017 -0.0066317694782620914 0 -0.0007657336915971527 -0.0065485223776727162 0 -0.00060114033250581629 -0.0068739217648257278 0 -0.00058011150720571017 -0.0066317694782620914 0 -0.0007657336915971527 -0.0065485223776727162 0 -0.00058011150720571017 -0.0066317694782620914 0 -0.00044974686204752706 -0.0067205553992676342 0 -0.00045368938371797771 -0.0065445128542772485 0 -0.00060114033250581629 -0.0068739217648257278 0 -0.00058011150720571017 -0.0066317694782620914 0 -0.00044974686204752706 -0.0067205553992676342 0 0.0004864709688009356 -0.0081088437424127052 0 0.00049466355848959735 -0.0066309352680714645 0 0.0018002567632383895 -0.0079503011021606999 0 0.0013406845571653204 -0.007052919621245623 0 0.0018831851402682988 -0.0074110806823466388 0 0.0020191955631485522 -0.0074574515985836838 0 0.0017588995730035961 -0.0072321845542452383 0 0.0017870079037191143 -0.0070087972364679734 0 0.0014308817500208412 -0.0070103127496376674 0 0.0017588995730035961 -0.0072321845542452383 0 0.0017870079037191143 -0.0070087972364679734 0 0.0014231300770147072 -0.0070145663721667174 0 0.0019492683906362476 -0.0074360747060242208 0 -0.0004966339653018967 -0.0063086732585710265 0 -0.0004971612432272197 -0.0065938544565691927 0 -0.00027880230000196525 -0.006639968056555489 0 -9.9159794849648926e-05 -0.0064887584006499584 0 1.685051174386771e-05 -0.0069516411942707988 0 -0.00092131564861787233 -0.0060147772463171037 0 -0.00068927217983075066 -0.0061667139481129144 0 -0.00096439369284045972 -0.006614120589244708 0 -0.00044974686204752706 -0.0067205553992676342 0 -0.00027880230000196525 -0.006639968056555489 0 -0.00031845687915636419 -0.0068712222655096704 0 -0.00044974686204752706 -0.0067205553992676342 0 -0.00045368938371797771 -0.0065445128542772485 0 -0.00027880230000196525 -0.006639968056555489 0 -0.00039773662137261638 -0.0063476896297214045 0 -9.9159794849648926e-05 -0.0064887584006499584 0 -0.0002354837055799925 -0.0060754267101187165 0 -0.00027880230000196525 -0.006639968056555489 0 -0.00039773662137261638 -0.0063476896297214045 0 -9.9159794849648926e-05 -0.0064887584006499584 0 -0.00045368938371797771 -0.0065445128542772485 0 -0.00027880230000196525 -0.006639968056555489 0 -0.00039773662137261638 -0.0063476896297214045 0 -0.00036887109126583685 -0.0060741082875530898 0 -0.00068927217983075066 -0.0061667139481129144 0 -0.00067305257394064723 -0.0057440454418198174 0 -0.00092131564861787233 -0.0060147772463171037 0 -0.00068927217983075066 -0.0061667139481129144 0 -0.00067305257394064723 -0.0057440454418198174 0 -0.00048770019742121787 -0.0059591252114566864 0 -0.00067197729903960474 -0.0057575433455886327 0 -0.00060343706270875362 -0.0058308525787068655 0 -0.00055983610633162642 -0.0056962707399762346 0 -0.00067305257394064723 -0.0057440454418198174 0 -0.00036887109126583685 -0.0060741082875530898 0 -0.00068927217983075066 -0.0061667139481129144 0 -0.00055714353771000084 -0.0064446971861333649 0 -0.00036887109126583685 -0.0060741082875530898 0 -0.00055714353771000084 -0.0064446971861333649 0 -0.0003080951213815638 -0.0064006969527417613 0 -0.00068927217983075066 -0.0061667139481129144 0 -0.00055714353771000084 -0.0064446971861333649 0 -0.00096439369284045972 -0.006614120589244708 0 -0.00055714353771000084 -0.0064446971861333649 0 -0.00068434003130411032 -0.0068504037388149967 0 -0.00096439369284045972 -0.006614120589244708 0 -0.00055714353771000084 -0.0064446971861333649 0 -0.00041371214818884878 -0.0068082354081450049 0 -0.0003080951213815638 -0.0064006969527417613 0 -0.00055714353771000084 -0.0064446971861333649 0 -0.00041371214818884878 -0.0068082354081450049 0 -0.00068434003130411032 -0.0068504037388149967 0 -0.00041371214818884878 -0.0068082354081450049 0 -0.00055145699681051691 -0.0071749488507394082 0 -0.00022588679703873025 -0.0071598166479195959 0 -0.00041371214818884878 -0.0068082354081450049 0 -0.00068434003130411032 -0.0068504037388149967 0 -0.00055145699681051691 -0.0071749488507394082 0 -0.00068434003130411032 -0.0068504037388149967 0 -0.00096439369284045972 -0.006614120589244708 0 -0.00095198647363424103 -0.007270782335040929 0 -0.00068434003130411032 -0.0068504037388149967 0 -0.00095198647363424103 -0.007270782335040929 0 -0.00055145699681051691 -0.0071749488507394082 0 -0.0004971612432272197 -0.0065938544565691927 0 -0.0003487889683319205 -0.0082291924069580313 0 -0.00037271254868201126 -0.0090325522932267581 0 -0.0003487889683319205 -0.0082291924069580313 0 1.685051174386771e-05 -0.0069516411942707988 0 -0.00026408748964121151 -0.007161902414201852 0 0.00011231864625824056 -0.0074578942992558376 0 1.685051174386771e-05 -0.0069516411942707988 0 -0.00031845687915636419 -0.0068712222655096704 0 -0.00026408748964121151 -0.007161902414201852 0 -0.00027880230000196525 -0.006639968056555489 0 1.685051174386771e-05 -0.0069516411942707988 0 -0.00031845687915636419 -0.0068712222655096704 0 -0.00060114033250581629 -0.0068739217648257278 0 -0.00031845687915636419 -0.0068712222655096704 0 -0.00026408748964121151 -0.007161902414201852 0 0.0004864709688009356 -0.0081088437424127052 0 -0.00037271254868201126 -0.0090325522932267581 0 -0.00049984184445563096 -0.010373773970253393 0 -0.00031202742654785946 -0.010546246702107652 0 -0.00036723732950457089 -0.01064384364806692 0 -0.00031202742654785946 -0.010546246702107652 0 -0.00036723732950457089 -0.01064384364806692 0 -0.00027549595015223798 -0.010698879816597895 0 1.0096872089102695e-07 -0.011811958367516518 0 -1.422567725385471e-06 -0.0094119741568912691 0 -0.00017382593988348323 -0.0099537470568722784 0 1.0096872089102695e-07 -0.011811958367516518 0 -0.00017382593988348323 -0.0099537470568722784 0 -0.00021455087147127113 -0.010476338271598431 0 -0.00039951488267961463 -0.011340849604761141 0 -0.00022447103065554013 -0.011073445507653117 0 -0.00018714190568969952 -0.011539512811937708 0 -0.00020841098894264229 -0.011586311985312263 0 -0.00027956238017233341 -0.011514841395553694 0 -0.00027549595015223798 -0.010698879816597895 0 -0.00023946075840261435 -0.010785055685868933 0 -0.00021919554747887979 -0.010713518595668436 0 -0.00031202742654785946 -0.010546246702107652 0 -0.00027549595015223798 -0.010698879816597895 0 -0.00021919554747887979 -0.010713518595668436 0 -0.00036723732950457089 -0.01064384364806692 0 -0.00027549595015223798 -0.010698879816597895 0 -0.00023946075840261435 -0.010785055685868933 0 -0.00026570877329968999 -0.01207631642550684 0 -0.00024970251287839977 -0.011632269037563665 0 -0.00018714190568969952 -0.011539512811937708 0 -0.00027956238017233341 -0.011514841395553694 0 -0.00022379087870516508 -0.011494201419554177 0 1.0096872089102695e-07 -0.011811958367516518 0 -0.00022379087870516508 -0.011494201419554177 0 -0.00021455087147127113 -0.010476338271598431 0 -0.00027956238017233341 -0.011514841395553694 0 -0.00022379087870516508 -0.011494201419554177 0 -0.00021455087147127113 -0.010476338271598431 0 -0.00022447103065554013 -0.011073445507653117 0 -0.00024676421678340455 -0.010585875715677429 0 -1.422567725385471e-06 -0.0094119741568912691 0 -0.00017382593988348323 -0.0099537470568722784 0 -0.00027422317891311472 -0.0088780762672048229 0 -0.00017382593988348323 -0.0099537470568722784 0 -0.00021455087147127113 -0.010476338271598431 0 -0.00032535599021046879 -0.010755220202157906 0 -0.00017382593988348323 -0.0099537470568722784 0 -0.00027422317891311472 -0.0088780762672048229 0 -0.0010691306229409601 -0.0082482177780448113 0 -0.00023946075840261435 -0.010785055685868933 0 -0.00021455087147127113 -0.010476338271598431 0 -0.00032535599021046879 -0.010755220202157906 0 -0.00027872133480369627 -0.0098663266196124047 0 -0.00066510868072725796 -0.0096336613543077931 0 -1.422567725385471e-06 -0.0094119741568912691 0 -0.00027422317891311472 -0.0088780762672048229 0 -0.00010145215180887603 -0.0083280850402563372 0 -0.00027422317891311472 -0.0088780762672048229 0 -0.00045569722086077392 -0.0081033325093423942 0 -0.0010691306229409601 -0.0082482177780448113 0 -0.00027422317891311472 -0.0088780762672048229 0 -0.00045569722086077392 -0.0081033325093423942 0 -0.00010145215180887603 -0.0083280850402563372 0 -0.00045569722086077392 -0.0081033325093423942 0 -0.00031596645928267324 -0.0076278027925870493 0 -0.00010145215180887603 -0.0083280850402563372 0 -0.00045569722086077392 -0.0081033325093423942 0 -0.00067765390460317813 -0.0075615208049512224 0 -0.00031596645928267324 -0.0076278027925870493 0 -0.00066510868072725796 -0.0096336613543077931 0 -0.0003487889683319205 -0.0082291924069580313 0 -0.00023946075840261435 -0.010785055685868933 0 -0.00032535599021046879 -0.010755220202157906 0 -0.00021919554747887979 -0.010713518595668436 0 -0.00067765390460317813 -0.0075615208049512224 0 -0.0010691306229409601 -0.0082482177780448113 0 -0.0012532071038773118 -0.0071462339491470206 0 -0.00045569722086077392 -0.0081033325093423942 0 -0.00067765390460317813 -0.0075615208049512224 0 -0.0010691306229409601 -0.0082482177780448113 0 -0.00067765390460317813 -0.0075615208049512224 0 -0.00095198647363424103 -0.007270782335040929 0 -0.00055145699681051691 -0.0071749488507394082 0 -0.0010335997505355108 -0.0073147087125571561 0 -0.0003487889683319205 -0.0082291924069580313 0 -0.00031596645928267324 -0.0076278027925870493 0 -0.00055145699681051691 -0.0071749488507394082 0 -0.00022588679703873025 -0.0071598166479195959 0 -0.00067765390460317813 -0.0075615208049512224 0 -0.00031596645928267324 -0.0076278027925870493 0 -0.00055145699681051691 -0.0071749488507394082 0 -0.00022588679703873025 -0.0071598166479195959 0 -7.8131126634351247e-06 -0.0071568259502615113 0 -3.1581143368225835e-05 -0.0075838551704697343 0 -0.00031596645928267324 -0.0076278027925870493 0 -0.00022588679703873025 -0.0071598166479195959 0 -3.1581143368225835e-05 -0.0075838551704697343 0 -7.8131126634351247e-06 -0.0071568259502615113 0 -3.1581143368225835e-05 -0.0075838551704697343 0 7.6673966682872384e-05 -0.0073277109218596922 0 -3.1581143368225835e-05 -0.0075838551704697343 0 8.6740285318374246e-05 -0.0078103200182775799 0 7.6673966682872384e-05 -0.0073277109218596922 0 -0.00031596645928267324 -0.0076278027925870493 0 -3.1581143368225835e-05 -0.0075838551704697343 0 -0.00010145215180887603 -0.0083280850402563372 0 -1.422567725385471e-06 -0.0094119741568912691 0 -0.00010145215180887603 -0.0083280850402563372 0 8.6740285318374246e-05 -0.0078103200182775799 0 -1.422567725385471e-06 -0.0094119741568912691 0 7.2924445483594099e-07 -0.0076503114040281555 0 8.6740285318374246e-05 -0.0078103200182775799 0 -3.1581143368225835e-05 -0.0075838551704697343 0 -0.00010145215180887603 -0.0083280850402563372 0 8.6740285318374246e-05 -0.0078103200182775799 0 7.2924445483594099e-07 -0.0076503114040281555 0 8.6740285318374246e-05 -0.0078103200182775799 0 0.00010011081172218712 -0.007099678044029562 0 0.00010011081172218712 -0.007099678044029562 0 0.00011965633695358631 -0.0072136857269202419 0 0.00017427652548058608 -0.0067691734957834523 0 8.6740285318374246e-05 -0.0078103200182775799 0 0.00011965633695358631 -0.0072136857269202419 0 7.6673966682872384e-05 -0.0073277109218596922 0 8.6740285318374246e-05 -0.0078103200182775799 0 0.00010011081172218712 -0.007099678044029562 0 0.00011965633695358631 -0.0072136857269202419 0 -7.8131126634351247e-06 -0.0071568259502615113 0 7.6673966682872384e-05 -0.0073277109218596922 0 0.00012694229137906411 -0.0068774414039359149 0 0.00011965633695358631 -0.0072136857269202419 0 7.6673966682872384e-05 -0.0073277109218596922 0 0.00012694229137906411 -0.0068774414039359149 0 0.00012694229137906411 -0.0068774414039359149 0 0.00017427652548058608 -0.0067691734957834523 0 0.0001716810612048722 -0.0066376313126990452 0 0.00011965633695358631 -0.0072136857269202419 0 0.00012694229137906411 -0.0068774414039359149 0 0.00017427652548058608 -0.0067691734957834523 0 0.00021917181274467204 -0.0065653512749023176 0 0.0001716810612048722 -0.0066376313126990452 0 0.00020834154142388076 -0.0064821775317190295 0 0.00021917181274467204 -0.0065653512749023176 0 0.00017427652548058608 -0.0067691734957834523 0 0.0001716810612048722 -0.0066376313126990452 0 0.00020834154142388076 -0.0064821775317190295 0 8.0303071966409875e-05 -0.0065570555810221358 0 0.0001326515373793537 -0.0062883337057694612 0 0.0001716810612048722 -0.0066376313126990452 0 0.00020834154142388076 -0.0064821775317190295 0 8.0303071966409875e-05 -0.0065570555810221358 0 0.00012694229137906411 -0.0068774414039359149 0 0.0001716810612048722 -0.0066376313126990452 0 8.0303071966409875e-05 -0.0065570555810221358 0 0.00012694229137906411 -0.0068774414039359149 0 8.0303071966409875e-05 -0.0065570555810221358 0 -6.3480663297159381e-05 -0.0067793153582983781 0 -0.00022588679703873025 -0.0071598166479195959 0 -7.8131126634351247e-06 -0.0071568259502615113 0 -6.3480663297159381e-05 -0.0067793153582983781 0 -7.8131126634351247e-06 -0.0071568259502615113 0 0.00012694229137906411 -0.0068774414039359149 0 -6.3480663297159381e-05 -0.0067793153582983781 0 -0.00041371214818884878 -0.0068082354081450049 0 -0.00022588679703873025 -0.0071598166479195959 0 -6.3480663297159381e-05 -0.0067793153582983781 0 -0.00041371214818884878 -0.0068082354081450049 0 -6.3480663297159381e-05 -0.0067793153582983781 0 -0.00022035281427182363 -0.0066298570655554424 0 -0.00022035281427182363 -0.0066298570655554424 0 -6.5644301969810211e-05 -0.0064070806703178463 0 -0.0003080951213815638 -0.0064006969527417613 0 -6.3480663297159381e-05 -0.0067793153582983781 0 -0.00022035281427182363 -0.0066298570655554424 0 -6.5644301969810211e-05 -0.0064070806703178463 0 -0.00041371214818884878 -0.0068082354081450049 0 -0.00022035281427182363 -0.0066298570655554424 0 -0.0003080951213815638 -0.0064006969527417613 0 8.0303071966409875e-05 -0.0065570555810221358 0 -6.3480663297159381e-05 -0.0067793153582983781 0 -6.5644301969810211e-05 -0.0064070806703178463 0 6.68748017293208e-05 -0.0065415935545328112 0 -0.00017873344066611854 -0.0063201155951591913 0 -0.00030726781556631978 -0.0062444759539334472 0 -0.0001818849487493459 -0.0060729919486142156 0 -0.00042049073336058513 -0.0057839682949641664 0 8.0303071966409875e-05 -0.0065570555810221358 0 -0.00030726781556631978 -0.0062444759539334472 0 -4.2434000265595272e-05 -0.0062214150454595676 0 -0.00030726781556631978 -0.0062444759539334472 0 -0.0001818849487493459 -0.0060729919486142156 0 -4.2434000265595272e-05 -0.0062214150454595676 0 -0.00036887109126583685 -0.0060741082875530898 0 -6.5644301969810211e-05 -0.0064070806703178463 0 -0.0003080951213815638 -0.0064006969527417613 0 -0.00048770019742121787 -0.0059591252114566864 0 -0.00017873344066611854 -0.0063201155951591913 0 -0.00060343706270875362 -0.0058308525787068655 0 -0.00030726781556631978 -0.0062444759539334472 0 -0.00042049073336058513 -0.0057839682949641664 0 -0.00042049073336058513 -0.0057839682949641664 0 -0.00030180373895824964 -0.0055978758483319234 0 -0.00043323517222601028 -0.0056094729405239078 0 -0.00042049073336058513 -0.0057839682949641664 0 -0.00043323517222601028 -0.0056094729405239078 0 -0.00055983610633162642 -0.0056962707399762346 0 -0.00060343706270875362 -0.0058308525787068655 0 -0.00042049073336058513 -0.0057839682949641664 0 -0.00055983610633162642 -0.0056962707399762346 0 -0.0001818849487493459 -0.0060729919486142156 0 -0.00042049073336058513 -0.0057839682949641664 0 1.4281365790029227e-05 -0.0060473201859924273 0 -0.00042049073336058513 -0.0057839682949641664 0 -0.00015288206936746245 -0.0056349216841002202 0 -0.00030180373895824964 -0.0055978758483319234 0 -0.00042190609130403497 -0.0057840766566212001 0 -8.739453197690526e-05 -0.0058538450583343485 0 -0.00015696517008427149 -0.0055205991176193901 0 -0.00015288206936746245 -0.0056349216841002202 0 -0.00030180373895824964 -0.0055978758483319234 0 -0.00015696517008427149 -0.0055205991176193901 0 -0.00015288206936746245 -0.0056349216841002202 0 1.8686953442903456e-05 -0.0057270644072602702 0 7.650294883299173e-05 -0.0058719813988181366 0 -0.00015288206936746245 -0.0056349216841002202 0 1.8686953442903456e-05 -0.0057270644072602702 0 -0.00017083023326834202 -0.0054963505978442052 0 -3.6259649253271479e-05 -0.0054532978549414928 0 0.00021834565427053106 -0.0062105642030607314 0 1.4281365790029227e-05 -0.0060473201859924273 0 0.0001326515373793537 -0.0062883337057694612 0 0.00016361634252665521 -0.0060346621371157472 0 -8.739453197690526e-05 -0.0058538450583343485 0 0.00021547158540406351 -0.0063197635519752276 0 0.00020834154142388076 -0.0064821775317190295 0 0.0001326515373793537 -0.0062883337057694612 0 0.00021834565427053106 -0.0062105642030607314 0 0.00021547158540406351 -0.0063197635519752276 0 0.0001326515373793537 -0.0062883337057694612 0 1.4281365790029227e-05 -0.0060473201859924273 0 0.0001326515373793537 -0.0062883337057694612 0 -4.2434000265595272e-05 -0.0062214150454595676 0 8.0303071966409875e-05 -0.0065570555810221358 0 0.0001326515373793537 -0.0062883337057694612 0 -4.2434000265595272e-05 -0.0062214150454595676 0 -0.0001818849487493459 -0.0060729919486142156 0 1.4281365790029227e-05 -0.0060473201859924273 0 -4.2434000265595272e-05 -0.0062214150454595676 0 -2.6064970308787535e-05 -0.0051392699226142143 0 -0.00019323929942312965 -0.0053380344182522724 0 -0.00010527344271720431 -0.0051157905190061526 0 5.6833984779437144e-05 -0.0049700239576001238 0 -2.6064970308787535e-05 -0.0051392699226142143 0 -0.00010527344271720431 -0.0051157905190061526 0 -0.00015696517008427149 -0.0055205991176193901 0 -4.8131487572217306e-06 -0.0051816962589743172 0 -6.24409258085875e-05 -0.0052794111444216104 0 -2.6064970308787535e-05 -0.0051392699226142143 0 -7.9276364905176745e-06 -0.0051375800136276434 0 -6.24409258085875e-05 -0.0052794111444216104 0 2.1373101780655559e-05 -0.0050158675850650548 0 -2.6064970308787535e-05 -0.0051392699226142143 0 -7.9276364905176745e-06 -0.0051375800136276434 0 1.2249110539173895e-05 -0.0050260553837256187 0 -4.8131487572217306e-06 -0.0051816962589743172 0 -7.9276364905176745e-06 -0.0051375800136276434 0 -4.8131487572217306e-06 -0.0051816962589743172 0 -7.9276364905176745e-06 -0.0051375800136276434 0 -6.24409258085875e-05 -0.0052794111444216104 0 -2.6064970308787535e-05 -0.0051392699226142143 0 -6.24409258085875e-05 -0.0052794111444216104 0 -0.00019323929942312965 -0.0053380344182522724 0 -0.00015696517008427149 -0.0055205991176193901 0 -6.24409258085875e-05 -0.0052794111444216104 0 -0.00019323929942312965 -0.0053380344182522724 0 -0.00015696517008427149 -0.0055205991176193901 0 -0.00019323929942312965 -0.0053380344182522724 0 -0.00030180373895824964 -0.0055978758483319234 0 -0.00019323929942312965 -0.0053380344182522724 0 -0.00030180373895824964 -0.0055978758483319234 0 -0.00037323574882251617 -0.0054740643445551759 0 -0.00030180373895824964 -0.0055978758483319234 0 -0.00037323574882251617 -0.0054740643445551759 0 -0.00043323517222601028 -0.0056094729405239078 0 -0.00037323574882251617 -0.0054740643445551759 0 -0.00043323517222601028 -0.0056094729405239078 0 -0.00054329995685142786 -0.0055600800942641982 0 -0.00043323517222601028 -0.0056094729405239078 0 -0.00054329995685142786 -0.0055600800942641982 0 -0.00055983610633162642 -0.0056962707399762346 0 -0.00037323574882251617 -0.0054740643445551759 0 -0.00039617161578875035 -0.0053111286513638951 0 -0.00054329995685142786 -0.0055600800942641982 0 -0.00039617161578875035 -0.0053111286513638951 0 -0.00061587726306490626 -0.0055835454646260968 0 -0.00054329995685142786 -0.0055600800942641982 0 -0.00019323929942312965 -0.0053380344182522724 0 -0.00039617161578875035 -0.0053111286513638951 0 -0.00010527344271720431 -0.0051157905190061526 0 -0.00019323929942312965 -0.0053380344182522724 0 -0.00037323574882251617 -0.0054740643445551759 0 -0.00039617161578875035 -0.0053111286513638951 0 -0.00053563874887053227 -0.0054506013521673389 0 -0.00035912292782769306 -0.0053053972932910207 0 -0.00069770344907077778 -0.0055849792285006155 0 -0.00067823360639821906 -0.0057540343976651646 0 -0.00061587726306490626 -0.0055835454646260968 0 -0.00053563874887053227 -0.0054506013521673389 0 -0.00059854504701177373 -0.0055619575499504369 0 -0.00069770344907077778 -0.0055849792285006155 0 -0.00067927297443168234 -0.0056288582949720117 0 -0.00067823360639821906 -0.0057540343976651646 0 -0.00069770344907077778 -0.0055849792285006155 0 -0.00067927297443168234 -0.0056288582949720117 0 -0.00065692320043454462 -0.0055048737532152579 0 -0.00069770344907077778 -0.0055849792285006155 0 -0.00065692320043454462 -0.0055048737532152579 0 -0.00061804358391055097 -0.005495248817681298 0 -0.00017105895802851188 -0.0051223164149002296 0 -0.00035912292782769306 -0.0053053972932910207 0 -0.00037781969293595091 -0.0053064761059906703 0 -0.00061804358391055097 -0.005495248817681298 0 -0.0005241021482120297 -0.0053379056234572732 0 -0.00065692320043454462 -0.0055048737532152579 0 -0.00061804358391055097 -0.005495248817681298 0 -0.0005241021482120297 -0.0053379056234572732 0 -0.00065692320043454462 -0.0055048737532152579 0 -0.0005241021482120297 -0.0053379056234572732 0 -0.0006582243617794108 -0.0053641605683564337 0 -0.00065692320043454462 -0.0055048737532152579 0 -0.0006582243617794108 -0.0053641605683564337 0 -0.00065686312209679691 -0.0055750659262003123 0 -0.00065692320043454462 -0.0055048737532152579 0 -0.00065686312209679691 -0.0055750659262003123 0 -0.00067457802480527752 -0.0057106084657900791 0 -0.00065686312209679691 -0.0055750659262003123 0 -0.00069282998615101616 -0.0056423540469764926 0 -0.00066120526827649325 -0.0057446071629359266 0 -0.00065686312209679691 -0.0055750659262003123 0 -0.00066120526827649325 -0.0057446071629359266 0 -0.00067457802480527752 -0.0057106084657900791 0 -0.0006582243617794108 -0.0053641605683564337 0 -0.00065686312209679691 -0.0055750659262003123 0 -0.00069282998615101616 -0.0056423540469764926 0 -0.00091274910641816424 -0.0056017487265240598 0 -0.0006582243617794108 -0.0053641605683564337 0 -0.00069282998615101616 -0.0056423540469764926 0 -0.00091274910641816424 -0.0056017487265240598 0 -0.00069282998615101616 -0.0056423540469764926 0 -0.00079871599168357063 -0.0057830353554583049 0 -0.00069282998615101616 -0.0056423540469764926 0 -0.00079871599168357063 -0.0057830353554583049 0 -0.0006970558953501364 -0.005789116909215939 0 -0.00069282998615101616 -0.0056423540469764926 0 -0.0006970558953501364 -0.005789116909215939 0 -0.00066120526827649325 -0.0057446071629359266 0 -0.0006970558953501364 -0.005789116909215939 0 -0.00066120526827649325 -0.0057446071629359266 0 -0.00065773214508183333 -0.0058790776511709521 0 -0.0018158139252329856 -0.0067790708075533106 0 -0.0017020819019021877 -0.0066760726575122069 0 -0.0006970558953501364 -0.005789116909215939 0 -0.00073808785286903192 -0.0058683941955130423 0 -0.00065773214508183333 -0.0058790776511709521 0 -0.003050994409683734 -0.0075408048659682796 0 -0.002686577551845295 -0.0074657103772196049 0 -0.0029457628751579988 -0.0077277298149055424 0 -0.0022872044053341149 -0.0072413385411792533 0 -0.0018158139252329856 -0.0067790708075533106 0 -0.00079871599168357063 -0.0057830353554583049 0 -0.0006970558953501364 -0.005789116909215939 0 -0.00073808785286903192 -0.0058683941955130423 0 -0.0015084330882606661 -0.0060973245905777806 0 -0.0013778443701513937 -0.0059439777122259202 0 -0.0012374695273188235 -0.0061825254289186423 0 -0.0010943102185457607 -0.0058358554614947235 0 -0.0018158139252329856 -0.0067790708075533106 0 -0.0017020819019021877 -0.0066760726575122069 0 -0.0013667728988834876 -0.0066737572748919831 0 -0.0025735558696408155 -0.0076090336506248434 0 -0.0022086951202644231 -0.0074509195584596217 0 -0.0022751366323728126 -0.0073701934223265354 0 -0.0041293118964168332 -0.0085213151197013216 0 -0.003133840224585239 -0.0080315366087734662 0 -0.0025735558696408155 -0.0076090336506248434 0 -0.002686577551845295 -0.0074657103772196049 0 -0.0022751366323728126 -0.0073701934223265354 0 -0.0053998064975878599 -0.0093089321028596451 0 -0.0039261497091544889 -0.0085453333778484006 0 -0.0041117083493990205 -0.0097664073837616869 0 -0.0025735558696408155 -0.0076090336506248434 0 -0.002686577551845295 -0.0074657103772196049 0 -0.0028953187446187729 -0.0077449580891945117 0 -0.00066120526827649325 -0.0057446071629359266 0 -0.00065773214508183333 -0.0058790776511709521 0 -0.0006643191053992706 -0.0058815863761008443 0 -0.0006643191053992706 -0.0058815863761008443 0 -0.00067507247269438611 -0.0059709621656658107 0 -0.0006632626027345544 -0.0060608530348535208 0 -0.00065773214508183333 -0.0058790776511709521 0 -0.0006643191053992706 -0.0058815863761008443 0 -0.0006632626027345544 -0.0060608530348535208 0 -0.0006643191053992706 -0.0058815863761008443 0 -0.00067457802480527752 -0.0057106084657900791 0 -0.00067507247269438611 -0.0059709621656658107 0 -0.00066120526827649325 -0.0057446071629359266 0 -0.0006643191053992706 -0.0058815863761008443 0 -0.00067457802480527752 -0.0057106084657900791 0 -0.00067927297443168234 -0.0056288582949720117 0 -0.00065692320043454462 -0.0055048737532152579 0 -0.00067457802480527752 -0.0057106084657900791 0 -0.00067457802480527752 -0.0057106084657900791 0 -0.00067507247269438611 -0.0059709621656658107 0 -0.00067823360639821906 -0.0057540343976651646 0 -0.00067927297443168234 -0.0056288582949720117 0 -0.00067457802480527752 -0.0057106084657900791 0 -0.00067823360639821906 -0.0057540343976651646 0 -0.00063394486105562275 -0.0060294289022291602 0 -0.00067507247269438611 -0.0059709621656658107 0 -0.00067823360639821906 -0.0057540343976651646 0 -0.00063394486105562275 -0.0060294289022291602 0 -0.00059669414065851515 -0.0057967946503715449 0 -0.00067823360639821906 -0.0057540343976651646 0 -0.00063394486105562275 -0.0060294289022291602 0 -0.00043178240124986923 -0.0058757642541577195 0 -0.00059669414065851515 -0.0057967946503715449 0 -0.00063394486105562275 -0.0060294289022291602 0 -0.00063377105288669718 -0.0063092715214798558 0 -0.00050619229373094488 -0.0063962917349139449 0 -0.00063377105288669718 -0.0063092715214798558 0 -0.00056568067553993166 -0.0065725990291669633 0 -0.00050619229373094488 -0.0063962917349139449 0 -0.00063394486105562275 -0.0060294289022291602 0 -0.00067507247269438611 -0.0059709621656658107 0 -0.00063377105288669718 -0.0063092715214798558 0 -0.0015388227927310887 -0.007158564097433112 0 -0.0013667728988834876 -0.0066737572748919831 0 -0.00067507247269438611 -0.0059709621656658107 0 -0.00063377105288669718 -0.0063092715214798558 0 -0.0006632626027345544 -0.0060608530348535208 0 -0.00063377105288669718 -0.0063092715214798558 0 -0.00061463924747837714 -0.0064298520823001335 0 -0.0006632626027345544 -0.0060608530348535208 0 -0.00063377105288669718 -0.0063092715214798558 0 -0.00061463924747837714 -0.0064298520823001335 0 -0.00056568067553993166 -0.0065725990291669633 0 -0.0022784854490129724 -0.0076490044786278301 0 -0.0026161699118576864 -0.0092891166540061132 0 -0.001252432054032227 -0.0084214295378737206 0 -0.0022784854490129724 -0.0076490044786278301 0 -0.0026161699118576864 -0.0092891166540061132 0 -0.0039261497091544889 -0.0085453333778484006 0 -0.0015388227927310887 -0.007158564097433112 0 -0.003133840224585239 -0.0080315366087734662 0 -0.0018023223687786835 -0.0072604234216894787 0 -0.0022086951202644231 -0.0074509195584596217 0 -0.0022751366323728126 -0.0073701934223265354 0 -0.0026161699118576864 -0.0092891166540061132 0 -0.0039261497091544889 -0.0085453333778484006 0 -0.0041117083493990205 -0.0097664073837616869 0 0.00023816622641133147 -0.0085038208892330054 0 -0.001252432054032227 -0.0084214295378737206 0 -0.0010936952865025986 -0.009695163631434793 0 0.00023816622641133147 -0.0085038208892330054 0 -0.001252432054032227 -0.0084214295378737206 0 -0.00044444130548877112 -0.0071340363526519561 0 -0.0026161699118576864 -0.0092891166540061132 0 -0.001252432054032227 -0.0084214295378737206 0 -0.0010936952865025986 -0.009695163631434793 0 -0.00061463924747837714 -0.0064298520823001335 0 -0.00056568067553993166 -0.0065725990291669633 0 -0.00044444130548877112 -0.0071340363526519561 0 -0.0022784854490129724 -0.0076490044786278301 0 -0.001252432054032227 -0.0084214295378737206 0 -0.00044444130548877112 -0.0071340363526519561 0 -0.0015388227927310887 -0.007158564097433112 0 -0.00042317225741212209 -0.0070430676132427969 0 -0.00056568067553993166 -0.0065725990291669633 0 -0.00044444130548877112 -0.0071340363526519561 0 -0.00050619229373094488 -0.0063962917349139449 0 0.00023816622641133147 -0.0085038208892330054 0 -0.00044444130548877112 -0.0071340363526519561 0 0.00066822946044574599 -0.0072223254179239142 0 -0.00044444130548877112 -0.0071340363526519561 0 0.00012877938154092338 -0.0064541822689061952 0 0.00066822946044574599 -0.0072223254179239142 0 -0.00044444130548877112 -0.0071340363526519561 0 0.00012877938154092338 -0.0064541822689061952 0 -0.00050619229373094488 -0.0063962917349139449 0 0.00012877938154092338 -0.0064541822689061952 0 -0.00050619229373094488 -0.0063962917349139449 0 -0.00043178240124986923 -0.0058757642541577195 0 -0.00063394486105562275 -0.0060294289022291602 0 -0.00050619229373094488 -0.0063962917349139449 0 -0.00043178240124986923 -0.0058757642541577195 0 0.00012877938154092338 -0.0064541822689061952 0 -0.00043178240124986923 -0.0058757642541577195 0 0.00047216824483146882 -0.0060115494673055048 0 -0.00042974033525038948 -0.0058789019119120474 0 -2.4622778394269775e-05 -0.0057057702885100923 0 -0.00043178240124986923 -0.0058757642541577195 0 -0.00045862322131382503 -0.0057138555232060248 0 -0.00042822958746134392 -0.0057280174541114223 0 -0.00043178240124986923 -0.0058757642541577195 0 0.00041650488862491177 -0.0056626707928573387 0 0.00047216824483146882 -0.0060115494673055048 0 -0.00045862322131382503 -0.0057138555232060248 0 -0.00042822958746134392 -0.0057280174541114223 0 -0.00050257081921472354 -0.0058979543992047443 0 -0.00042822958746134392 -0.0057280174541114223 0 -0.00059444220032762605 -0.0056357221152857151 0 -0.00053666543125247467 -0.005718606904457281 0 -0.00043178240124986923 -0.0058757642541577195 0 -0.00042822958746134392 -0.0057280174541114223 0 -0.00053666543125247467 -0.005718606904457281 0 -0.00043178240124986923 -0.0058757642541577195 0 -0.00053666543125247467 -0.005718606904457281 0 -0.00059669414065851515 -0.0057967946503715449 0 -0.00053666543125247467 -0.005718606904457281 0 -0.00059669414065851515 -0.0057967946503715449 0 -0.00061587726306490626 -0.0055835454646260968 0 -0.00059669414065851515 -0.0057967946503715449 0 -0.00067823360639821906 -0.0057540343976651646 0 -0.00061587726306490626 -0.0055835454646260968 0 -0.00059444220032762605 -0.0056357221152857151 0 -0.00053666543125247467 -0.005718606904457281 0 -0.00061587726306490626 -0.0055835454646260968 0 -0.00059444220032762605 -0.0056357221152857151 0 -0.00061587726306490626 -0.0055835454646260968 0 -0.00062535373941463145 -0.0056125071244458339 0 -0.00061587726306490626 -0.0055835454646260968 0 -0.00062535373941463145 -0.0056125071244458339 0 -0.00054329995685142786 -0.0055600800942641982 0 -0.00054329995685142786 -0.0055600800942641982 0 -0.00055983610633162642 -0.0056962707399762346 0 -0.00067305257394064723 -0.0057440454418198174 0 -0.00062535373941463145 -0.0056125071244458339 0 -0.00054329995685142786 -0.0055600800942641982 0 -0.00067305257394064723 -0.0057440454418198174 0 -0.00062535373941463145 -0.0056125071244458339 0 -0.00067305257394064723 -0.0057440454418198174 0 -0.00070519362880580279 -0.0056247128293803383 0 -0.00092131564861787233 -0.0060147772463171037 0 -0.00067305257394064723 -0.0057440454418198174 0 -0.00070519362880580279 -0.0056247128293803383 0 -0.0004966339653018967 -0.0063086732585710265 0 -0.00047132771776173179 -0.0058609078180750784 0 -0.00039773662137261638 -0.0063476896297214045 0 -0.0002354837055799925 -0.0060754267101187165 0 -0.00048246776928079807 -0.0061118367461757625 0 -0.0002354837055799925 -0.0060754267101187165 0 -0.00050257081921472354 -0.0058979543992047443 0 -0.00048246776928079807 -0.0061118367461757625 0 -0.00042822958746134392 -0.0057280174541114223 0 -0.0002354837055799925 -0.0060754267101187165 0 -0.00050257081921472354 -0.0058979543992047443 0 -0.00043264471978485107 -0.0057530259334457453 0 -0.00047132771776173179 -0.0058609078180750784 0 -0.00059444220032762605 -0.0056357221152857151 0 -0.00062535373941463145 -0.0056125071244458339 0 -0.00070519362880580279 -0.0056247128293803383 0 -0.00042822958746134392 -0.0057280174541114223 0 -0.00059444220032762605 -0.0056357221152857151 0 -0.00070519362880580279 -0.0056247128293803383 0 -0.0008090103790059722 -0.0060792670929268513 0 -0.00064277572509033852 -0.0060340684332012675 0 -0.00074200683806905645 -0.0058386687147866552 0 -0.00050257081921472354 -0.0058979543992047443 0 -0.00064277572509033852 -0.0060340684332012675 0 -0.00048246776928079807 -0.0061118367461757625 0 -0.00050257081921472354 -0.0058979543992047443 0 -0.00064277572509033852 -0.0060340684332012675 0 -0.00074200683806905645 -0.0058386687147866552 0 -0.00039773662137261638 -0.0063476896297214045 0 -0.00048246776928079807 -0.0061118367461757625 0 -0.0006223218866894467 -0.0062188903638127242 0 -0.00064277572509033852 -0.0060340684332012675 0 -0.00048246776928079807 -0.0061118367461757625 0 -0.0006223218866894467 -0.0062188903638127242 0 -0.0008090103790059722 -0.0060792670929268513 0 -0.00064277572509033852 -0.0060340684332012675 0 -0.0006223218866894467 -0.0062188903638127242 0 -0.0008090103790059722 -0.0060792670929268513 0 -0.0006223218866894467 -0.0062188903638127242 0 -0.00074035363932706993 -0.0063022224869112237 0 -0.0008090103790059722 -0.0060792670929268513 0 -0.00074035363932706993 -0.0063022224869112237 0 -0.00090200436914076438 -0.0062616788409016423 0 0.0014968388337736457 -0.0064429344411898659 0 0.0010557384586286471 -0.0063703226850037537 0 0.0012322694703593071 -0.0059755438571879446 0 0.00025051526861199049 -0.0063506409505011659 0 0.00052408356602877653 -0.006040055720279454 0 -0.0008090103790059722 -0.0060792670929268513 0 -0.00090200436914076438 -0.0062616788409016423 0 -0.0010363873718958418 -0.006013170630279562 0 0.0010557384586286471 -0.0063703226850037537 0 0.0011478899197622989 -0.0060341580176344195 0 0.0012322694703593071 -0.0059755438571879446 0 0.00014113141022422098 -0.011631440809176148 0 0.00017059603897314808 -0.011564962715247259 0 0.00013466786133865377 -0.011579301165113067 0 0.0010557384586286471 -0.0063703226850037537 0 0.0010988577226863465 -0.0059560587977139333 0 0.0010585403713601347 -0.005890187181040233 0 0.0010922793856104611 -0.005833182635319535 0 0.0011198233806414227 -0.0058749441623063593 0 0.0010680941194205291 -0.0058716518894760946 0 0.0010557384586286471 -0.0063703226850037537 0 0.0011478899197622989 -0.0060341580176344195 0 0.0010988577226863465 -0.0059560587977139333 0 0.00065024231871452177 -0.0090417144279398322 0 0.00051346395028808956 -0.0086703122932832964 0 0.0011478899197622989 -0.0060341580176344195 0 0.0012238584545142081 -0.0059831483579716989 0 0.0011421247859578685 -0.0059561926180792769 0 0.0011478899197622989 -0.0060341580176344195 0 0.0011421247859578685 -0.0059561926180792769 0 0.0010988577226863465 -0.0059560587977139333 0 0.00085373813347498079 -0.0059233393363229952 0 0.00052408356602877653 -0.006040055720279454 0 0.0012238584545142081 -0.0059831483579716989 0 0.0011198233806414227 -0.0058749441623063593 0 0.0011421247859578685 -0.0059561926180792769 0 0.00052408356602877653 -0.006040055720279454 0 0.00078344055662176956 -0.006070953567358801 0 0.0011198233806414227 -0.0058749441623063593 0 0.0011421247859578685 -0.0059561926180792769 0 0.0010988577226863465 -0.0059560587977139333 0 0.0011198233806414227 -0.0058749441623063593 0 0.0010988577226863465 -0.0059560587977139333 0 0.001105964234266516 -0.00588685682950603 0 0.0010988577226863465 -0.0059560587977139333 0 0.001105964234266516 -0.00588685682950603 0 0.0010585403713601347 -0.005890187181040233 0 0.00052408356602877653 -0.006040055720279454 0 -3.2978160005878056e-05 -0.0057926353888902351 0 -0.0008090103790059722 -0.0060792670929268513 0 -0.0010363873718958418 -0.006013170630279562 0 -0.00074200683806905645 -0.0058386687147866552 0 0.0010922793856104611 -0.005833182635319535 0 0.0010680941194205291 -0.0058716518894760946 0 0.00089517308573880785 -0.005736689630434025 0 0.0010680941194205291 -0.0058716518894760946 0 0.00096547022816227776 -0.0059190783967729369 0 0.00089517308573880785 -0.005736689630434025 0 0.0011198233806414227 -0.0058749441623063593 0 0.0010680941194205291 -0.0058716518894760946 0 0.001105964234266516 -0.00588685682950603 0 0.0010680941194205291 -0.0058716518894760946 0 0.001105964234266516 -0.00588685682950603 0 0.0011389915964456524 -0.0059256245904954078 0 0.0011389915964456524 -0.0059256245904954078 0 0.001067708613528525 -0.0060057424739301986 0 0.0012220017227555955 -0.0060870827208605021 0 0.0010680941194205291 -0.0058716518894760946 0 0.0011389915964456524 -0.0059256245904954078 0 0.001067708613528525 -0.0060057424739301986 0 0.001067708613528525 -0.0060057424739301986 0 0.00096547022816227776 -0.0059190783967729369 0 0.00092848252982879868 -0.0060967671970971124 0 0.0010680941194205291 -0.0058716518894760946 0 0.001067708613528525 -0.0060057424739301986 0 0.00096547022816227776 -0.0059190783967729369 0 0.00096547022816227776 -0.0059190783967729369 0 0.00085510736716844368 -0.0059223588845522725 0 0.00092848252982879868 -0.0060967671970971124 0 0.00096547022816227776 -0.0059190783967729369 0 0.00085510736716844368 -0.0059223588845522725 0 0.00089517308573880785 -0.005736689630434025 0 -2.4622778394269775e-05 -0.0057057702885100923 0 -3.2978160005878056e-05 -0.0057926353888902351 0 -0.00045862322131382503 -0.0057138555232060248 0 -0.00050257081921472354 -0.0058979543992047443 0 -0.00074200683806905645 -0.0058386687147866552 0 0.00041650488862491177 -0.0056626707928573387 0 0.00085510736716844368 -0.0059223588845522725 0 0.00089517308573880785 -0.005736689630434025 0 0.00041650488862491177 -0.0056626707928573387 0 0.00085510736716844368 -0.0059223588845522725 0 0.00047216824483146882 -0.0060115494673055048 0 0.00085510736716844368 -0.0059223588845522725 0 0.00047216824483146882 -0.0060115494673055048 0 0.0013873789269386082 -0.0065486586062982483 0 0.00085510736716844368 -0.0059223588845522725 0 0.00076486566767206032 -0.0062906635208224869 0 0.00092848252982879868 -0.0060967671970971124 0 0.00088886730152710992 -0.005939762292960846 0 0.0010910477805966179 -0.0065429900081199538 0 0.00012877938154092338 -0.0064541822689061952 0 0.0013873789269386082 -0.0065486586062982483 0 0.00066822946044574599 -0.0072223254179239142 0 0.00012877938154092338 -0.0064541822689061952 0 0.00047216824483146882 -0.0060115494673055048 0 0.0013873789269386082 -0.0065486586062982483 0 0.00023816622641133147 -0.0085038208892330054 0 0.00066822946044574599 -0.0072223254179239142 0 0.002040854234516797 -0.0080056608295501121 0 0.0010910477805966179 -0.0065429900081199538 0 0.0013841464539878731 -0.006960691155513528 0 0.0013873789269386082 -0.0065486586062982483 0 0.00066822946044574599 -0.0072223254179239142 0 0.002040854234516797 -0.0080056608295501121 0 0.00076367975889153822 -0.0066625460646283965 0 0.00090154872154813229 -0.0070645699343805978 0 0.00079573638816236012 -0.0071134167257964195 0 0.002040854234516797 -0.0080056608295501121 0 0.0012778318467308871 -0.0094185253544622621 0 0.0025274333599423441 -0.010003967649203431 0 0.0013841464539878731 -0.006960691155513528 0 0.0014983432127815956 -0.010457029801140681 0 0.00023816622641133147 -0.0085038208892330054 0 0.0012778318467308871 -0.0094185253544622621 0 0.00027539899801674785 -0.0099255139204183444 0 0.00023816622641133147 -0.0085038208892330054 0 0.002040854234516797 -0.0080056608295501121 0 0.0012778318467308871 -0.0094185253544622621 0 0.00089233588218849561 -0.010659516526301389 0 0.00095115052290070125 -0.010733754314872862 0 0.00080582277644636292 -0.010781686127209774 0 0.00089233588218849561 -0.010659516526301389 0 0.00095115052290070125 -0.010733754314872862 0 0.0009684748995078613 -0.010633560180976403 0 0.00076367975889153822 -0.0066625460646283965 0 0.0011478174060704034 -0.0066698414682684094 0 0.00090154872154813229 -0.0070645699343805978 0 0.0010022533994235034 -0.008403098109156534 0 0.0013451760900647012 -0.010641785340094875 0 0.00076367975889153822 -0.0066625460646283965 0 0.0011478174060704034 -0.0066698414682684094 0 0.0010612628173222113 -0.0062628238515891844 0 0.0010022533994235034 -0.008403098109156534 0 0.001182083221100305 -0.008330241312544907 0 0.0011478174060704034 -0.0066698414682684094 0 0.0010612628173222113 -0.0062628238515891844 0 0.0012901735840778182 -0.0063544327598243598 0 0.00089233588218849561 -0.010659516526301389 0 0.00099712774076089316 -0.010496350576947104 0 0.0009684748995078613 -0.010633560180976403 0 0.0010612628173222113 -0.0062628238515891844 0 0.0012220017227555955 -0.0060870827208605021 0 0.0012901735840778182 -0.0063544327598243598 0 0.00076486566767206032 -0.0062906635208224869 0 0.00076367975889153822 -0.0066625460646283965 0 0.0010612628173222113 -0.0062628238515891844 0 0.00076486566767206032 -0.0062906635208224869 0 0.0010612628173222113 -0.0062628238515891844 0 0.00092848252982879868 -0.0060967671970971124 0 0.001067708613528525 -0.0060057424739301986 0 0.0010612628173222113 -0.0062628238515891844 0 0.00092848252982879868 -0.0060967671970971124 0 0.001067708613528525 -0.0060057424739301986 0 0.0010612628173222113 -0.0062628238515891844 0 0.0012220017227555955 -0.0060870827208605021 0 0.0012220017227555955 -0.0060870827208605021 0 0.0013928646339129163 -0.0061430925487756466 0 0.0012901735840778182 -0.0063544327598243598 0 0.0011885125409025787 -0.0090162919472991827 0 0.00087083495916509513 -0.011395688103118196 0 0.00031986310384353369 -0.010847125265016031 0 0.00070338355078204218 -0.011727021259027498 0 0.000668790909534758 -0.01074529547291749 0 0.00038198144215789552 -0.011916755947734361 0 0.00035061417151552196 -0.011513528572831631 0 0.00031986310384353369 -0.010847125265016031 0 0.000668790909534758 -0.01074529547291749 0 0.00058492510914601181 -0.010530639478385635 0 0.00012410665379017252 -0.012740453729177509 0 0.00011988655964125787 -0.012081567780130663 0 -5.1943475041461097e-05 -0.012288489607917922 0 0.0011885125409025787 -0.0090162919472991827 0 0.00035061417151552196 -0.011513528572831631 0 0.0011463083799839698 -0.010292644622035543 0 0.0010851087414812722 -0.010438485030416273 0 0.00099712774076089316 -0.010496350576947104 0 0.0011885125409025787 -0.0090162919472991827 0 0.001182083221100305 -0.008330241312544907 0 0.0011463083799839698 -0.010292644622035543 0 0.0010851087414812722 -0.010438485030416273 0 0.0012221360138593795 -0.010467869102711793 0 0.001129132722054985 -0.010547086496663614 0 0.00087083495916509513 -0.011395688103118196 0 0.0010851087414812722 -0.010438485030416273 0 0.0011094179298105924 -0.010568989502366764 0 0.0012019959291630284 -0.010479855320862713 0 0.0010851087414812722 -0.010438485030416273 0 0.00099712774076089316 -0.010496350576947104 0 0.0011094179298105924 -0.010568989502366764 0 0.00099712774076089316 -0.010496350576947104 0 0.0010310736215547206 -0.010633598932881176 0 0.0011094179298105924 -0.010568989502366764 0 0.00099712774076089316 -0.010496350576947104 0 0.0009684748995078613 -0.010633560180976403 0 0.0010310736215547206 -0.010633598932881176 0 0.0010310736215547206 -0.010633598932881176 0 0.0011094179298105924 -0.010568989502366764 0 0.0011516860747625549 -0.01068278390773264 0 0.0011094179298105924 -0.010568989502366764 0 0.0011516860747625549 -0.01068278390773264 0 0.0012563870188011916 -0.010634066650761052 0 0.0011094179298105924 -0.010568989502366764 0 0.0012563870188011916 -0.010634066650761052 0 0.0012019959291630284 -0.010479855320862713 0 9.5045501932978493e-05 -0.014717343998588933 0 -2.9290050788516732e-06 -0.014594150780844127 0 0.00022094474840405164 -0.014494538317086022 0 0.00065908862665397302 -0.014720016911344672 0 9.5045501932978493e-05 -0.014717343998588933 0 -4.6145944771241098e-05 -0.014738879403303401 0 9.5045501932978493e-05 -0.014717343998588933 0 3.9527411942305038e-05 -0.014699664547127171 0 -2.9290050788516732e-06 -0.014594150780844127 0 -6.6698219873935821e-05 -0.013901913764971274 0 0.00056737848943464386 -0.013155780906885703 0 0.00065908862665397302 -0.014720016911344672 0 9.5045501932978493e-05 -0.014717343998588933 0 0.00022094474840405164 -0.014494538317086022 0 0.00078959688689152782 -0.012935286013673412 0 0.00056737848943464386 -0.013155780906885703 0 0.00095115052290070125 -0.010733754314872862 0 0.0010310736215547206 -0.010633598932881176 0 0.0011516860747625549 -0.01068278390773264 0 0.00095115052290070125 -0.010733754314872862 0 0.0009684748995078613 -0.010633560180976403 0 0.0010310736215547206 -0.010633598932881176 0 -1.1131648886620934e-05 -0.014860981681591678 0 -6.4913731903536441e-05 -0.014784150508891598 0 -1.6715433280776761e-05 -0.014941568857461191 0 -3.6360166029592939e-06 -0.014998374465904643 0 7.3911025029882894e-09 -0.014999981061005576 0 -3.0104174622330629e-09 -0.015000006064125713 0 4.5390286322814969e-05 -0.014977623996480026 0 0.00029475988301876988 -0.01420575301775991 0 -3.6360166029592939e-06 -0.014998374465904643 0 7.3911025029882894e-09 -0.014999981061005576 0 -3.6129761587150539e-06 -0.01498996073961628 0 3.9527411942305038e-05 -0.014699664547127171 0 -2.9290050788516732e-06 -0.014594150780844127 0 -5.0233943494532832e-05 -0.014692836119402317 0 -2.9290050788516732e-06 -0.014594150780844127 0 -5.0233943494532832e-05 -0.014692836119402317 0 -5.7855070390881926e-05 -0.01453472239291977 0 0.00045283977229150176 -0.013877871561855682 0 -8.3477423546824553e-05 -0.014898935729960601 0 0.00062015813180391749 -0.012690607908241541 0 0.00087083495916509513 -0.011395688103118196 0 -1.1131648886620934e-05 -0.014860981681591678 0 -6.4913731903536441e-05 -0.014784150508891598 0 -3.4554154659102062e-05 -0.014771994418738036 0 0.00070741381117308904 -0.01292363675048501 0 0.0009145733551901038 -0.012810629181705434 0 0.00070020862701516734 -0.012245080836590306 0 0.00080968163016058704 -0.013116164747574266 0 0.00093929445380236973 -0.013409910570998849 0 0.00046410589522007247 -0.013446617607392967 0 0.00062015813180391749 -0.012690607908241541 0 0.00035009447542444516 -0.01352013836209384 0 0.00093929445380236973 -0.013409910570998849 0 0.00046410589522007247 -0.013446617607392967 0 0.00014397431379179821 -0.013847331433357668 0 0.00045283977229150176 -0.013877871561855682 0 0.00062015813180391749 -0.012690607908241541 0 0.00045283977229150176 -0.013877871561855682 0 0.00029475988301876988 -0.01420575301775991 0 0.00046410589522007247 -0.013446617607392967 0 -1.5731671203607426e-05 -0.013432759766554846 0 0.00014397431379179821 -0.013847331433357668 0 0.00080968163016058704 -0.013116164747574266 0 0.00046410589522007247 -0.013446617607392967 0 -1.5731671203607426e-05 -0.013432759766554846 0 0.00029475988301876988 -0.01420575301775991 0 0.00035009447542444516 -0.01352013836209384 0 0.00056737848943464386 -0.013155780906885703 0 0.00062015813180391749 -0.012690607908241541 0 0.0007289998520828996 -0.013235787390579422 0 0.00030882365097463038 -0.013396939812010813 0 0.00033369481579918178 -0.013452980614837408 0 0.00056737848943464386 -0.013155780906885703 0 0.00045283977229150176 -0.013877871561855682 0 0.00035009447542444516 -0.01352013836209384 0 0.00058372432203548561 -0.0126712793451908 0 4.0912560175689222e-11 -0.01499999912348648 0 4.8470364111290681e-07 -0.014998865208171886 0 7.274358654334716e-10 -0.014999997414743489 0 0.00039400285970695147 -0.013688255291069176 0 0.00053325400960195014 -0.013612748124740812 0 0.00041861981729782898 -0.013431092933184372 0 9.9527023456668219e-05 -0.014213736288478057 0 0.0001048623069541266 -0.014636066568915617 0 0.00029475988301876988 -0.01420575301775991 0 0.0001048623069541266 -0.014636066568915617 0 0.00042283719795176687 -0.013955158428975406 0 0.00048015734021041951 -0.014103782507287676 0 9.6253088374921057e-05 -0.014315601056338436 0 0.00042283719795176687 -0.013955158428975406 0 9.6253088374921057e-05 -0.014315601056338436 0 -2.5051957178465924e-05 -0.014127816960102511 0 0.00035009447542444516 -0.01352013836209384 0 9.9527023456668219e-05 -0.014213736288478057 0 -1.0115184774850574e-05 -0.014981854000550283 0 -1.2679866219858128e-06 -0.014979374369992329 0 -3.6129761587150539e-06 -0.01498996073961628 0 -3.6360166029592939e-06 -0.014998374465904643 0 -1.0115184774850574e-05 -0.014981854000550283 0 -3.6129761587150539e-06 -0.01498996073961628 0 1.1546017282619962e-07 -0.015000150816688505 0 0.0001048623069541266 -0.014636066568915617 0 7.3911025029882894e-09 -0.014999981061005576 0 -1.2679866219858128e-06 -0.014979374369992329 0 -3.6129761587150539e-06 -0.01498996073961628 0 0.0001048623069541266 -0.014636066568915617 0 -1.1645374786392803e-07 -0.014999813436631038 0 -5.4259184868791252e-05 -0.014994844295325603 0 3.8019766039320021e-08 -0.014999971246487992 0 -3.5064492849664593e-08 -0.014966936546763262 0 -5.4259184868791252e-05 -0.014994844295325603 0 -4.3841437687497407e-05 -0.015011020265890249 0 3.8019766039320021e-08 -0.014999971246487992 0 9.9527023456668219e-05 -0.014213736288478057 0 -3.0403304573482554e-05 -0.01446168292332064 0 -1.0843899669258591e-08 -0.014966932043577132 0 3.5186879724563304e-06 -0.014977386324433415 0 -2.1529461199056012e-10 -0.014999963849809386 0 0.00013633806612490498 -0.014144542190740794 0 4.6958987404798116e-05 -0.014194477588231407 0 0.00018510575575550971 -0.014218503323643139 0 -3.0403304573482554e-05 -0.01446168292332064 0 0.00030475700419432719 -0.01390852398255335 0 -1.0843899669258591e-08 -0.014966932043577132 0 3.5186879724563304e-06 -0.014977386324433415 0 9.869037428935407e-06 -0.01497007942553265 0 9.9527023456668219e-05 -0.014213736288478057 0 0.00030475700419432719 -0.01390852398255335 0 3.5186879724563304e-06 -0.014977386324433415 0 9.869037428935407e-06 -0.01497007942553265 0 4.7340119367895355e-06 -0.014984229333840929 0 0.0010726278232313117 -0.011801043158287386 0 0.00070338355078204218 -0.011727021259027498 0 0.000668790909534758 -0.01074529547291749 0 0.00070741381117308904 -0.01292363675048501 0 0.00070020862701516734 -0.012245080836590306 0 0.00038596374019206418 -0.01218243646385251 0 0.00058372432203548561 -0.0126712793451908 0 0.00087083495916509513 -0.011395688103118196 0 0.00039400285970695147 -0.013688255291069176 0 0.00028667500468069964 -0.013403987598298063 0 0.00041861981729782898 -0.013431092933184372 0 0.00058372432203548561 -0.0126712793451908 0 0.00030475700419432719 -0.01390852398255335 0 9.869037428935407e-06 -0.01497007942553265 0 8.8830228593390668e-06 -0.014978174963481769 0 4.7340119367895355e-06 -0.014984229333840929 0 0.00036417839298346759 -0.013456812195333815 0 0.00031098470253803045 -0.013447411133398597 0 0.00039383996353959685 -0.013577785862314892 0 0.00030475700419432719 -0.01390852398255335 0 0.00046044464993650046 -0.013659619013620726 0 0.00058372432203548561 -0.0126712793451908 0 0.00046044464993650046 -0.013659619013620726 0 8.8830228593390668e-06 -0.014978174963481769 0 -1.2531863213562927e-06 -0.014992240908873572 0 6.1136874607039202e-06 -0.014983051046128021 0 8.8830228593390668e-06 -0.014978174963481769 0 4.7340119367895355e-06 -0.014984229333840929 0 -1.2531863213562927e-06 -0.014992240908873572 0 0.00059707388314858155 -0.012912306939025469 0 0.00050835440809084446 -0.012604877383528086 0 0.00040151206798254405 -0.012448965124168546 0 0.00058372432203548561 -0.0126712793451908 0 0.00038198144215789552 -0.011916755947734361 0 0.00046044464993650046 -0.013659619013620726 0 -8.066124650312525e-05 -0.013402552922594005 0 0.00060247343756944136 -0.013477820140861229 0 0.00012410665379017252 -0.012740453729177509 0 0.00011988655964125787 -0.012081567780130663 0 0.00046044464993650046 -0.013659619013620726 0 0.00038198144215789552 -0.011916755947734361 0 4.7340119367895355e-06 -0.014984229333840929 0 -2.1529461199056012e-10 -0.014999963849809386 0 -1.2531863213562927e-06 -0.014992240908873572 0 3.5186879724563304e-06 -0.014977386324433415 0 4.7340119367895355e-06 -0.014984229333840929 0 -2.1529461199056012e-10 -0.014999963849809386 0 -1.2531863213562927e-06 -0.014992240908873572 0 -1.1514068312765033e-05 -0.014989644576285825 0 -1.8547523629053659e-08 -0.015000023774181097 0 -2.1529461199056012e-10 -0.014999963849809386 0 -1.2531863213562927e-06 -0.014992240908873572 0 -1.8547523629053659e-08 -0.015000023774181097 0 -1.1514068312765033e-05 -0.014989644576285825 0 -1.8547523629053659e-08 -0.015000023774181097 0 3.8663584156651346e-08 -0.014999864118568849 0 -1.1514068312765033e-05 -0.014989644576285825 0 -6.5494439990608136e-05 -0.01497139994400958 0 -2.9702088685300675e-05 -0.014959948883925229 0 -1.1514068312765033e-05 -0.014989644576285825 0 -4.282062386697746e-05 -0.014993527709073966 0 -6.5494439990608136e-05 -0.01497139994400958 0 -1.2531863213562927e-06 -0.014992240908873572 0 -1.1514068312765033e-05 -0.014989644576285825 0 6.1136874607039202e-06 -0.014983051046128021 0 -0.00015596351359496401 -0.015500980096614483 0 -8.066124650312525e-05 -0.013402552922594005 0 0.00029475320753891729 -0.011997349120721899 0 0.00027412423152940382 -0.01202220194511806 0 0.00017537343202193623 -0.011766334715832832 0 4.7865662089210615e-05 -0.011369863653254765 0 9.5877566406009108e-05 -0.01145677409283498 0 7.4237946959520036e-05 -0.011475955508063374 0 -8.066124650312525e-05 -0.013402552922594005 0 0.00035061417151552196 -0.011513528572831631 0 0.0011885125409025787 -0.0090162919472991827 0 0.00081519504880257375 -0.0071412673193030265 0 0.00087949594103971782 -0.0098669865994996785 0 0.0010561104243779864 -0.0096561033798259616 0 0.00057461555978742941 -0.0091796170348949074 0 0.00035061417151552196 -0.011513528572831631 0 0.00039194048933337831 -0.01033505084866968 0 0.0010561104243779864 -0.0096561033798259616 0 0.00057461555978742941 -0.0091796170348949074 0 0.00065164299774273285 -0.0090883575668590511 0 0.00035061417151552196 -0.011513528572831631 0 0.00011877287817862496 -0.011649213273995514 0 -8.066124650312525e-05 -0.013402552922594005 0 9.1423903142991256e-05 -0.013376742074993118 0 0.0012220017227555955 -0.0060870827208605021 0 0.0013928646339129163 -0.0061430925487756466 0 0.0012574194044485348 -0.0059561881745037 0 0.0011389915964456524 -0.0059256245904954078 0 0.0012220017227555955 -0.0060870827208605021 0 0.0012574194044485348 -0.0059561881745037 0 0.0011389915964456524 -0.0059256245904954078 0 0.0012574194044485348 -0.0059561881745037 0 0.0010585403713601347 -0.005890187181040233 0 0.00081519504880257375 -0.0071412673193030265 0 0.00051346395028808956 -0.0086703122932832964 0 9.5877566406009108e-05 -0.01145677409283498 0 7.4237946959520036e-05 -0.011475955508063374 0 0.00013410693835615113 -0.011559748926085411 0 0.001105964234266516 -0.00588685682950603 0 0.0011389915964456524 -0.0059256245904954078 0 0.0010585403713601347 -0.005890187181040233 0 0.00039194048933337831 -0.01033505084866968 0 0.00051346395028808956 -0.0086703122932832964 0 0.00057461555978742941 -0.0091796170348949074 0 0.00065164299774273285 -0.0090883575668590511 0 0.00028121580797129834 -0.0085230713795394156 0 0.00029475320753891729 -0.011997349120721899 0 0.00017537343202193623 -0.011766334715832832 0 0.00018889662577453779 -0.011703216090591521 0 0.00017537343202193623 -0.011766334715832832 0 0.00018889662577453779 -0.011703216090591521 0 0.00011825241557966983 -0.011590918581717796 0 0.00018889662577453779 -0.011703216090591521 0 0.00011825241557966983 -0.011590918581717796 0 0.00010854913503765312 -0.011561086456362554 0 -6.5494439990608136e-05 -0.01497139994400958 0 -6.090812991587761e-05 -0.01492099055800802 0 -0.00012320911819391797 -0.014893180605519174 0 -6.5494439990608136e-05 -0.01497139994400958 0 -6.090812991587761e-05 -0.01492099055800802 0 -2.9702088685300675e-05 -0.014959948883925229 0 0.00011877287817862496 -0.011649213273995514 0 0.00011696738051712786 -0.011584599815306731 0 9.1423903142991256e-05 -0.013376742074993118 0 -2.0260328753401844e-05 -0.013162617677143702 0 0.00011825241557966983 -0.011590918581717796 0 0.00013410693835615113 -0.011559748926085411 0 0.00010854913503765312 -0.011561086456362554 0 7.4237946959520036e-05 -0.011475955508063374 0 0.00011825241557966983 -0.011590918581717796 0 0.00013410693835615113 -0.011559748926085411 0 0.00010696900341707507 -0.011663018200196447 0 0.00010854913503765312 -0.011561086456362554 0 0.00013466786133865377 -0.011579301165113067 0 0.00013410693835615113 -0.011559748926085411 0 0.00010854913503765312 -0.011561086456362554 0 0.00013466786133865377 -0.011579301165113067 0 0.00017059603897314808 -0.011564962715247259 0 0.00013410693835615113 -0.011559748926085411 0 0.00013466786133865377 -0.011579301165113067 0 -7.3545733086710844e-05 -0.014830843164693849 0 -6.090812991587761e-05 -0.01492099055800802 0 -0.00012320911819391797 -0.014893180605519174 0 -7.3545733086710844e-05 -0.014830843164693849 0 -6.090812991587761e-05 -0.01492099055800802 0 -1.6611273072626015e-05 -0.014916719133048945 0 -7.8755164501704658e-06 -0.015048001887152834 0 -3.9393638410686133e-05 -0.014943822408583043 0 -3.9393638410686133e-05 -0.014943822408583043 0 1.1726761364364869e-08 -0.014999995992060198 0 -1.9299168958549967e-08 -0.015000000357567619 0 -1.6616852416855666e-05 -0.015009607555486689 0 -7.0816402422920457e-12 -0.015000023010950386 0 -1.1514068312765033e-05 -0.014989644576285825 0 3.8663584156651346e-08 -0.014999864118568849 0 -2.9702088685300675e-05 -0.014959948883925229 0 -1.6611273072626015e-05 -0.014916719133048945 0 3.8663584156651346e-08 -0.014999864118568849 0 -2.9702088685300675e-05 -0.014959948883925229 0 -6.090812991587761e-05 -0.01492099055800802 0 -1.6611273072626015e-05 -0.014916719133048945 0 -2.9702088685300675e-05 -0.014959948883925229 0 -3.8726589789877278e-05 -0.015082088819155291 0 0.00047462969280101725 -0.013248008245223084 0 -0.00024729085695767409 -0.014760926967493967 0 -0.00012090300902167519 -0.014822144091487551 0 -0.00015495841513110732 -0.014910120168881102 0 5.5639361519690461e-10 -0.014999979459022792 0 9.0969104882250762e-06 -0.014980725761204608 0 1.0859603560863444e-08 -0.014999984651766713 0 5.5639361519690461e-10 -0.014999979459022792 0 3.7567191953669303e-06 -0.014990674791247889 0 9.0969104882250762e-06 -0.014980725761204608 0 7.3831034296491746e-08 -0.014999968847173134 0 -3.8726589789877278e-05 -0.015082088819155291 0 7.0052125762146718e-09 -0.01500011854627512 0 1.4206282455985888e-05 -0.015013475405641238 0 8.6923327091878321e-09 -0.01499982873684586 0 -0.00024729085695767409 -0.014760926967493967 0 -0.00012979470598250631 -0.014686270081272818 0 -0.00012090300902167519 -0.014822144091487551 0 -3.8726589789877278e-05 -0.015082088819155291 0 -0.00012358606592349653 -0.014641439362358247 0 -6.1747706287361621e-05 -0.014794847064241728 0 -0.00012979470598250631 -0.014686270081272818 0 -0.00012090300902167519 -0.014822144091487551 0 -6.1747706287361621e-05 -0.014794847064241728 0 5.8702969779726678e-05 -0.014828561526809596 0 -0.00011860023927502297 -0.014506889121646199 0 0.0013407291575985225 -0.01049543730041984 0 0.0015170461039081193 -0.0096916353926094316 0 0.0011251946735854237 -0.010049331104420118 0 -6.1747706287361621e-05 -0.014794847064241728 0 5.8702969779726678e-05 -0.014828561526809596 0 -2.7480640032346344e-05 -0.014897209641394451 0 0.0015170461039081193 -0.0096916353926094316 0 0.0011251946735854237 -0.010049331104420118 0 0.00086718182563828492 -0.0097130567910328983 0 0.0007060677354898138 -0.012866236033425463 0 0.00061664676491959456 -0.011277766544705194 0 -6.1747706287361621e-05 -0.014794847064241728 0 -0.00012090300902167519 -0.014822144091487551 0 -2.7480640032346344e-05 -0.014897209641394451 0 -0.00012090300902167519 -0.014822144091487551 0 -2.7480640032346344e-05 -0.014897209641394451 0 -0.00015495841513110732 -0.014910120168881102 0 0.00061664676491959456 -0.011277766544705194 0 0.00047462969280101725 -0.013248008245223084 0 0.0014916072693307067 -0.0095520808349854516 0 0.0011326785825877548 -0.0095725576242227314 0 0.0015437989000269528 -0.0096802196713389656 0 0.0011060511356696221 -0.0096796691221611667 0 0.0011326785825877548 -0.0095725576242227314 0 0.0015437989000269528 -0.0096802196713389656 0 0.0014916072693307067 -0.0095520808349854516 0 0.0011326785825877548 -0.0095725576242227314 0 0.001025008224637912 -0.0093342399526870207 0 0.00074190889467667964 -0.010974483157859564 0 0.0012031701236902539 -0.009263918821238044 0 0.00061664676491959456 -0.011277766544705194 0 0.00090939596924148245 -0.0096099898674355966 0 0.00091557104114288143 -0.0095323400022134658 0 0.0011100558818482825 -0.0096735954445202142 0 0.00066296574437879857 -0.0096928363621977855 0 0.00091557104114288143 -0.0095323400022134658 0 0.0011100558818482825 -0.0096735954445202142 0 0.0011326785825877548 -0.0095725576242227314 0 0.00061664676491959456 -0.011277766544705194 0 0.0008877393078090182 -0.010255083119244947 0 0.00091557104114288143 -0.0095323400022134658 0 0.0011326785825877548 -0.0095725576242227314 0 0.001025008224637912 -0.0093342399526870207 0 0.00091557104114288143 -0.0095323400022134658 0 0.001025008224637912 -0.0093342399526870207 0 0.00069101514086878366 -0.0094053048839078945 0 0.0011403986291566223 -0.0094445663647202555 0 0.0014946460483895876 -0.0091975778532442029 0 0.00084954739276615107 -0.0089474412318726326 0 0.0001759323588740763 -0.011340270972024887 0 0.0010179597533402673 -0.010417643364711791 0 -0.0002427220387478469 -0.011977578081752384 0 -0.00080127333656747032 -0.011847825674320916 0 -0.00046425502678906452 -0.012429726567524557 0 0.0016901448498042996 -0.0096593721599315691 0 0.0011403986291566223 -0.0094445663647202555 0 0.0014946460483895876 -0.0091975778532442029 0 3.9505228552448711e-05 -0.012348417978258948 0 -9.7641233059654253e-05 -0.012043361161787449 0 0.00015257330667999057 -0.012130098536518424 0 0.00074190889467667964 -0.010974483157859564 0 0.0001759323588740763 -0.011340270972024887 0 0.0001759323588740763 -0.011340270972024887 0 -0.00044335284872073886 -0.011965001146159523 0 -0.00080127333656747032 -0.011847825674320916 0 -0.0012907432715326516 -0.011711982792507777 0 -0.00090726946567271528 -0.012278112127913274 0 0.00015257330667999057 -0.012130098536518424 0 0.00025057343040308809 -0.012261714529453094 0 0.00039764673178393448 -0.012219977564069284 0 -0.00044335284872073886 -0.011965001146159523 0 -0.00024004384993643431 -0.013525624634288686 0 0.00018524331823822104 -0.012401894751719636 0 8.788374132148556e-05 -0.012441128627147639 0 0.00053346166973490614 -0.012418077425908582 0 3.9505228552448711e-05 -0.012348417978258948 0 0.00015257330667999057 -0.012130098536518424 0 0.00025057343040308809 -0.012261714529453094 0 3.9505228552448711e-05 -0.012348417978258948 0 0.00025057343040308809 -0.012261714529453094 0 0.00018524331823822104 -0.012401894751719636 0 5.0409080033070216e-05 -0.01234681272290139 0 0.00018524331823822104 -0.012401894751719636 0 8.788374132148556e-05 -0.012441128627147639 0 0.00074190889467667964 -0.010974483157859564 0 0.00034804332112828968 -0.011751804341587789 0 0.00074190889467667964 -0.010974483157859564 0 0.00047462969280101725 -0.013248008245223084 0 0.00025057343040308809 -0.012261714529453094 0 0.00018524331823822104 -0.012401894751719636 0 0.00053346166973490614 -0.012418077425908582 0 0.00025057343040308809 -0.012261714529453094 0 0.00053346166973490614 -0.012418077425908582 0 0.00039764673178393448 -0.012219977564069284 0 0.00047462969280101725 -0.013248008245223084 0 0.00025524931290210248 -0.013618954558909954 0 3.450052476320696e-07 -0.014999018901321664 0 -0.00024004384993643431 -0.013525624634288686 0 4.1296315638829093e-09 -0.015000011884563095 0 -9.4949314121154113e-09 -0.014999971721510845 0 -6.1739010745614996e-06 -0.014991701119981658 0 0.00025524931290210248 -0.013618954558909954 0 -0.00024004384993643431 -0.013525624634288686 0 -0.00024004384993643431 -0.013525624634288686 0 -0.00053516190032566811 -0.013563455336725974 0 1.7238632632215818e-08 -0.014999904868042053 0 -9.5755255990071704e-06 -0.014999458253744838 0 -8.2904262068199099e-06 -0.014982548668531565 0 -9.5755255990071704e-06 -0.014999458253744838 0 -8.2904262068199099e-06 -0.014982548668531565 0 -5.0652961989710888e-05 -0.014957080183041314 0 1.7238632632215818e-08 -0.014999904868042053 0 -8.2904262068199099e-06 -0.014982548668531565 0 -4.5213094040675534e-08 -0.015000153575153604 0 -8.2904262068199099e-06 -0.014982548668531565 0 -1.1303139191441882e-05 -0.014948974380180967 0 -4.5213094040675534e-08 -0.015000153575153604 0 -1.1303139191441882e-05 -0.014948974380180967 0 -4.5213094040675534e-08 -0.015000153575153604 0 -9.0622069643818328e-06 -0.014839366283042697 0 -8.2904262068199099e-06 -0.014982548668531565 0 -1.1303139191441882e-05 -0.014948974380180967 0 -5.0652961989710888e-05 -0.014957080183041314 0 -0.00053516190032566811 -0.013563455336725974 0 -0.0002545171351626093 -0.013857223449960827 0 -0.00090726946567271528 -0.012278112127913274 0 -0.00050619486373152766 -0.012969677924832657 0 -0.00046425502678906452 -0.012429726567524557 0 -1.1303139191441882e-05 -0.014948974380180967 0 -5.0652961989710888e-05 -0.014957080183041314 0 -9.0622069643818328e-06 -0.014839366283042697 0 -0.00080127333656747032 -0.011847825674320916 0 -0.00090726946567271528 -0.012278112127913274 0 -0.00046425502678906452 -0.012429726567524557 0 -5.0652961989710888e-05 -0.014957080183041314 0 -9.0622069643818328e-06 -0.014839366283042697 0 -0.00010744824488691922 -0.014691893504397979 0 -9.0622069643818328e-06 -0.014839366283042697 0 -3.7330020259572987e-05 -0.014620318738080182 0 -0.00010744824488691922 -0.014691893504397979 0 -3.7330020259572987e-05 -0.014620318738080182 0 -3.7286838479201891e-05 -0.01439491335192678 0 -0.00010744824488691922 -0.014691893504397979 0 -4.5213094040675534e-08 -0.015000153575153604 0 -9.0622069643818328e-06 -0.014839366283042697 0 2.5436489905954731e-07 -0.014998756896230047 0 -9.0622069643818328e-06 -0.014839366283042697 0 2.5436489905954731e-07 -0.014998756896230047 0 -3.7330020259572987e-05 -0.014620318738080182 0 3.6398553939224199e-08 -0.015000345473183248 0 -3.2363334832936894e-08 -0.014999641520675995 0 -1.6715433280776761e-05 -0.014941568857461191 0 2.5436489905954731e-07 -0.014998756896230047 0 -3.7330020259572987e-05 -0.014620318738080182 0 -5.7855070390881926e-05 -0.01453472239291977 0 -3.9073670448575279e-08 -0.014999703763171389 0 -8.3477423546824553e-05 -0.014898935729960601 0 3.7990907901157887e-09 -0.015000002071951249 0 -6.037287222648415e-06 -0.014964592767561685 0 -3.7330020259572987e-05 -0.014620318738080182 0 -5.3886436201976319e-05 -0.014425374658747039 0 -3.7286838479201891e-05 -0.01439491335192678 0 -3.7330020259572987e-05 -0.014620318738080182 0 -5.7855070390881926e-05 -0.01453472239291977 0 -5.3886436201976319e-05 -0.014425374658747039 0 -2.9290050788516732e-06 -0.014594150780844127 0 -5.7855070390881926e-05 -0.01453472239291977 0 -5.3886436201976319e-05 -0.014425374658747039 0 -3.2363334832936894e-08 -0.014999641520675995 0 -1.6715433280776761e-05 -0.014941568857461191 0 -3.4679324602836187e-06 -0.014955523987320364 0 -1.1131648886620934e-05 -0.014860981681591678 0 -1.6715433280776761e-05 -0.014941568857461191 0 -3.4679324602836187e-06 -0.014955523987320364 0 1.4148024378123815e-09 -0.014999997349941759 0 -3.0104174622330629e-09 -0.015000006064125713 0 -6.7911906361887869e-07 -0.015000046739255594 0 -3.6360166029592939e-06 -0.014998374465904643 0 -3.0104174622330629e-09 -0.015000006064125713 0 -6.7911906361887869e-07 -0.015000046739255594 0 4.5390286322814969e-05 -0.014977623996480026 0 -6.037287222648415e-06 -0.014964592767561685 0 0.00065908862665397302 -0.014720016911344672 0 0.00022094474840405164 -0.014494538317086022 0 0.0007010623540192227 -0.014076332553689333 0 0.00022094474840405164 -0.014494538317086022 0 6.9504025003733978e-05 -0.014011533951151714 0 0.0007010623540192227 -0.014076332553689333 0 0.00022094474840405164 -0.014494538317086022 0 -5.3886436201976319e-05 -0.014425374658747039 0 6.9504025003733978e-05 -0.014011533951151714 0 -2.9290050788516732e-06 -0.014594150780844127 0 0.00022094474840405164 -0.014494538317086022 0 -5.3886436201976319e-05 -0.014425374658747039 0 -3.7286838479201891e-05 -0.01439491335192678 0 6.9504025003733978e-05 -0.014011533951151714 0 -0.00010744824488691922 -0.014691893504397979 0 -5.3886436201976319e-05 -0.014425374658747039 0 -3.7286838479201891e-05 -0.01439491335192678 0 6.9504025003733978e-05 -0.014011533951151714 0 6.9504025003733978e-05 -0.014011533951151714 0 0.00087978056347836936 -0.013418379877376551 0 0.0007010623540192227 -0.014076332553689333 0 6.9504025003733978e-05 -0.014011533951151714 0 0.00031188031092238691 -0.012937626931116648 0 0.00087978056347836936 -0.013418379877376551 0 6.9504025003733978e-05 -0.014011533951151714 0 0.00031188031092238691 -0.012937626931116648 0 -0.00050619486373152766 -0.012969677924832657 0 3.1548638759296653e-05 -0.014048192930248464 0 -0.0002545171351626093 -0.013857223449960827 0 0.00031188031092238691 -0.012937626931116648 0 -0.00050619486373152766 -0.012969677924832657 0 -0.00046425502678906452 -0.012429726567524557 0 -0.0002427220387478469 -0.011977578081752384 0 0.00031188031092238691 -0.012937626931116648 0 -0.00046425502678906452 -0.012429726567524557 0 0.0001759323588740763 -0.011340270972024887 0 0.00019620239737947452 -0.013069163576699292 0 -0.00024057655168211974 -0.011695822543142097 0 0.00031188031092238691 -0.012937626931116648 0 0.0010529506359362496 -0.012105001295536185 0 0.00031188031092238691 -0.012937626931116648 0 0.0010529506359362496 -0.012105001295536185 0 0.0014347199118989911 -0.01274658104229741 0 0.0010179597533402673 -0.010417643364711791 0 0.00098921113124710849 -0.010642476951242626 0 0.00084954739276615107 -0.0089474412318726326 0 0.00012962704229567082 -0.0086445090751774475 0 0.00055758707325018393 -0.009222156563025977 0 0.00012962704229567082 -0.0086445090751774475 0 -9.1246001751936311e-05 -0.008961439118236849 0 0.00055758707325018393 -0.009222156563025977 0 0.0010529506359362496 -0.012105001295536185 0 0.0019696558034559635 -0.01262129351777687 0 0.0014347199118989911 -0.01274658104229741 0 0.0019696558034559635 -0.01262129351777687 0 0.0020686251749255087 -0.012556437666689204 0 0.0014347199118989911 -0.01274658104229741 0 0.0020686251749255087 -0.012556437666689204 0 0.0014347199118989911 -0.01274658104229741 0 0.0014824302962192976 -0.01310546471638814 0 0.00031188031092238691 -0.012937626931116648 0 0.0014347199118989911 -0.01274658104229741 0 0.00087978056347836936 -0.013418379877376551 0 0.0014347199118989911 -0.01274658104229741 0 0.00087978056347836936 -0.013418379877376551 0 0.0014824302962192976 -0.01310546471638814 0 0.00087978056347836936 -0.013418379877376551 0 0.0012169542381526906 -0.013582617598895515 0 0.0007010623540192227 -0.014076332553689333 0 0.0012169542381526906 -0.013582617598895515 0 0.0007010623540192227 -0.014076332553689333 0 0.001329403930506821 -0.014052366310652657 0 0.00087978056347836936 -0.013418379877376551 0 0.0012169542381526906 -0.013582617598895515 0 0.0014824302962192976 -0.01310546471638814 0 0.0020686251749255087 -0.012556437666689204 0 0.0017805731499517651 -0.013482966336069614 0 0.0023910802770998286 -0.014242963374789473 0 0.0012169542381526906 -0.013582617598895515 0 0.0014824302962192976 -0.01310546471638814 0 0.0017805731499517651 -0.013482966336069614 0 0.0020686251749255087 -0.012556437666689204 0 0.0014824302962192976 -0.01310546471638814 0 0.0017805731499517651 -0.013482966336069614 0 0.0012169542381526906 -0.013582617598895515 0 0.0017805731499517651 -0.013482966336069614 0 0.001329403930506821 -0.014052366310652657 0 0.0017805731499517651 -0.013482966336069614 0 0.0018885769490909409 -0.014081003365902256 0 0.001329403930506821 -0.014052366310652657 0 0.0018885769490909409 -0.014081003365902256 0 0.0019793010092123285 -0.014337521872593352 0 0.001329403930506821 -0.014052366310652657 0 0.0017805731499517651 -0.013482966336069614 0 0.0018885769490909409 -0.014081003365902256 0 0.0023910802770998286 -0.014242963374789473 0 0.0018885769490909409 -0.014081003365902256 0 0.0019793010092123285 -0.014337521872593352 0 0.0023910802770998286 -0.014242963374789473 0 0.0013451760900647012 -0.010641785340094875 0 0.0014983432127815956 -0.010457029801140681 0 0.00078959688689152782 -0.012935286013673412 0 0.0013451760900647012 -0.010641785340094875 0 0.00065908862665397302 -0.014720016911344672 0 0.0007010623540192227 -0.014076332553689333 0 0.001329403930506821 -0.014052366310652657 0 0.00065908862665397302 -0.014720016911344672 0 0.0019793010092123285 -0.014337521872593352 0 0.001329403930506821 -0.014052366310652657 0 0.00094020685204170831 -0.010786497405267633 0 5.876386510350647e-05 -0.011170707947569388 0 0.00027539899801674785 -0.0099255139204183444 0 0.0012778318467308871 -0.0094185253544622621 0 0.00094020685204170831 -0.010786497405267633 0 0.00027539899801674785 -0.0099255139204183444 0 0.0014983432127815956 -0.010457029801140681 0 0.0013437175474105812 -0.010643988315705937 0 0.0012778318467308871 -0.0094185253544622621 0 0.0025274333599423441 -0.010003967649203431 0 0.00094020685204170831 -0.010786497405267633 0 0.0021845484693097448 -0.010482930714969424 0 0.0015640378010627507 -0.011666689926171255 0 0.00094020685204170831 -0.010786497405267633 0 0.0023238628355407394 -0.013318298575130805 0 0.0014983432127815956 -0.010457029801140681 0 0.0020686251749255087 -0.012556437666689204 0 0.0021845484693097448 -0.010482930714969424 0 0.0015640378010627507 -0.011666689926171255 0 0.0020686251749255087 -0.012556437666689204 0 0.0015640378010627507 -0.011666689926171255 0 0.0015731301984647566 -0.012357015506447603 0 0.0015640378010627507 -0.011666689926171255 0 0.00097707102935796846 -0.011844605329502151 0 0.0015731301984647566 -0.012357015506447603 0 0.0015640378010627507 -0.011666689926171255 0 0.00097707102935796846 -0.011844605329502151 0 0.00094020685204170831 -0.010786497405267633 0 0.00097707102935796846 -0.011844605329502151 0 0.00094020685204170831 -0.010786497405267633 0 5.876386510350647e-05 -0.011170707947569388 0 0.00097707102935796846 -0.011844605329502151 0 0.00074613764826862402 -0.012683152712020598 0 5.876386510350647e-05 -0.011170707947569388 0 0.00097707102935796846 -0.011844605329502151 0 0.00074613764826862402 -0.012683152712020598 0 0.0015731301984647566 -0.012357015506447603 0 0.0019696558034559635 -0.01262129351777687 0 0.0020686251749255087 -0.012556437666689204 0 0.0015731301984647566 -0.012357015506447603 0 0.0019696558034559635 -0.01262129351777687 0 0.00074613764826862402 -0.012683152712020598 0 0.0015731301984647566 -0.012357015506447603 0 0.00098921113124710849 -0.010642476951242626 0 3.5884254552600689e-05 -0.010487417583535462 0 0.00012962704229567082 -0.0086445090751774475 0 -0.00066153251175350399 -0.0083357908242714749 0 -0.00034947228181523362 -0.0086434363881369106 0 0.00012962704229567082 -0.0086445090751774475 0 -9.1246001751936311e-05 -0.008961439118236849 0 -0.00034947228181523362 -0.0086434363881369106 0 -0.00010803960452940052 -0.0088883624281846183 0 -0.00071807259593639631 -0.0086549425342600395 0 -9.1246001751936311e-05 -0.008961439118236849 0 -0.00076551536637456917 -0.008632021089354 0 -0.00034947228181523362 -0.0086434363881369106 0 -0.00011955459029311007 -0.0088198087634402504 0 -0.00076551536637456917 -0.008632021089354 0 -0.00055222776915935022 -0.0090156926047366467 0 -0.00066153251175350399 -0.0083357908242714749 0 -0.00076551536637456917 -0.008632021089354 0 -0.00034947228181523362 -0.0086434363881369106 0 -0.00055222776915935022 -0.0090156926047366467 0 -0.00070992395577886642 -0.0094431091769154579 0 -0.0010303969385564021 -0.0090739574468357669 0 -0.00076551536637456917 -0.008632021089354 0 -0.00055222776915935022 -0.0090156926047366467 0 -0.00083163638328517375 -0.0088740618196843611 0 -0.00070992395577886642 -0.0094431091769154579 0 -0.00012551727443763135 -0.0093145240647504735 0 -0.00035803643031256488 -0.0098808964259587042 0 -0.00055222776915935022 -0.0090156926047366467 0 -0.00070992395577886642 -0.0094431091769154579 0 -0.00012551727443763135 -0.0093145240647504735 0 -0.00012551727443763135 -0.0093145240647504735 0 0.00017628862579256014 -0.0097367858302350729 0 -0.00035803643031256488 -0.0098808964259587042 0 -0.00011955459029311007 -0.0088198087634402504 0 -0.00055222776915935022 -0.0090156926047366467 0 -0.00012551727443763135 -0.0093145240647504735 0 -0.00011955459029311007 -0.0088198087634402504 0 -0.00012551727443763135 -0.0093145240647504735 0 0.00014626141027206826 -0.0091498995499771953 0 -0.00011955459029311007 -0.0088198087634402504 0 0.00014626141027206826 -0.0091498995499771953 0 0.0005057315583663352 -0.0090806831683333551 0 -0.00010803960452940052 -0.0088883624281846183 0 0.0005082768407627268 -0.0091607271438086963 0 0.00014626141027206826 -0.0091498995499771953 0 0.0005057315583663352 -0.0090806831683333551 0 0.00031966953753621559 -0.0093854463242430634 0 0.0012031701236902539 -0.009263918821238044 0 0.0005082768407627268 -0.0091607271438086963 0 0.0011403986291566223 -0.0094445663647202555 0 0.00084954739276615107 -0.0089474412318726326 0 0.00055758707325018393 -0.009222156563025977 0 0.001025008224637912 -0.0093342399526870207 0 0.0005057315583663352 -0.0090806831683333551 0 0.00069101514086878366 -0.0094053048839078945 0 0.0005057315583663352 -0.0090806831683333551 0 0.00069101514086878366 -0.0094053048839078945 0 0.00031966953753621559 -0.0093854463242430634 0 0.00069101514086878366 -0.0094053048839078945 0 0.00031966953753621559 -0.0093854463242430634 0 0.00066296574437879857 -0.0096928363621977855 0 0.00091557104114288143 -0.0095323400022134658 0 0.00069101514086878366 -0.0094053048839078945 0 0.00066296574437879857 -0.0096928363621977855 0 -0.00012551727443763135 -0.0093145240647504735 0 0.00014626141027206826 -0.0091498995499771953 0 0.00031966953753621559 -0.0093854463242430634 0 0.00031966953753621559 -0.0093854463242430634 0 0.00017628862579256014 -0.0097367858302350729 0 0.00066296574437879857 -0.0096928363621977855 0 -0.00012551727443763135 -0.0093145240647504735 0 0.00031966953753621559 -0.0093854463242430634 0 0.00017628862579256014 -0.0097367858302350729 0 0.00017628862579256014 -0.0097367858302350729 0 0.00035604666515441213 -0.01021342173676785 0 -6.8646200890779943e-05 -0.010351585165711134 0 0.00017628862579256014 -0.0097367858302350729 0 0.00086718182563828492 -0.0097130567910328983 0 0.00035604666515441213 -0.01021342173676785 0 0.00016517325719265952 -0.0097478898620085835 0 0.00090939596924148245 -0.0096099898674355966 0 0.0011251946735854237 -0.010049331104420118 0 0.00086718182563828492 -0.0097130567910328983 0 0.00083243480542059746 -0.010327128902570664 0 0.00086718182563828492 -0.0097130567910328983 0 0.00083243480542059746 -0.010327128902570664 0 0.00035604666515441213 -0.01021342173676785 0 0.0013407291575985225 -0.01049543730041984 0 0.00083243480542059746 -0.010327128902570664 0 0.0008871059101135015 -0.010807220396761819 0 0.0013407291575985225 -0.01049543730041984 0 0.0011251946735854237 -0.010049331104420118 0 0.00083243480542059746 -0.010327128902570664 0 0.00083243480542059746 -0.010327128902570664 0 0.00044785009536446748 -0.010676320120816306 0 0.0008871059101135015 -0.010807220396761819 0 0.00035604666515441213 -0.01021342173676785 0 0.00044785009536446748 -0.010676320120816306 0 -6.8646200890779943e-05 -0.010351585165711134 0 0.00083243480542059746 -0.010327128902570664 0 0.00035604666515441213 -0.01021342173676785 0 0.00044785009536446748 -0.010676320120816306 0 -6.8646200890779943e-05 -0.010351585165711134 0 -0.00050807746865194387 -0.010555277302353647 0 -0.00035803643031256488 -0.0098808964259587042 0 -0.00050807746865194387 -0.010555277302353647 0 -0.00035803643031256488 -0.0098808964259587042 0 -0.00089594059120835811 -0.0099610146087183004 0 -0.00070992395577886642 -0.0094431091769154579 0 -0.00035803643031256488 -0.0098808964259587042 0 -0.00089594059120835811 -0.0099610146087183004 0 0.00017628862579256014 -0.0097367858302350729 0 -6.8646200890779943e-05 -0.010351585165711134 0 -0.00035803643031256488 -0.0098808964259587042 0 -0.0014956104966911304 -0.0099681354968673402 0 -0.0018416113337985788 -0.0094670237262838696 0 -0.0012549144974946414 -0.0094967287193976728 0 -0.0014956104966911304 -0.0099681354968673402 0 -0.00089594059120835811 -0.0099610146087183004 0 -0.0012549144974946414 -0.0094967287193976728 0 -0.00050807746865194387 -0.010555277302353647 0 -0.00089594059120835811 -0.0099610146087183004 0 -0.001144221253579046 -0.010458290602304328 0 -0.0014956104966911304 -0.0099681354968673402 0 -0.00089594059120835811 -0.0099610146087183004 0 -0.001144221253579046 -0.010458290602304328 0 -0.0014956104966911304 -0.0099681354968673402 0 -0.001144221253579046 -0.010458290602304328 0 -0.0016810696012036516 -0.010609178929802825 0 -0.0014956104966911304 -0.0099681354968673402 0 -0.0019702276626946823 -0.010165754434575094 0 -0.0016810696012036516 -0.010609178929802825 0 -0.0014956104966911304 -0.0099681354968673402 0 -0.0019702276626946823 -0.010165754434575094 0 -0.0018838834042512074 -0.0098242342480329373 0 -0.0019702276626946823 -0.010165754434575094 0 -0.0022953139236551053 -0.0097151617379786035 0 -0.0025183181379050431 -0.010168670761333425 0 -0.0019702276626946823 -0.010165754434575094 0 -0.0022953139236551053 -0.0097151617379786035 0 -0.0018838834042512074 -0.0098242342480329373 0 -0.0022953139236551053 -0.0097151617379786035 0 -0.0018416113337985788 -0.0094670237262838696 0 -0.0022360692753311037 -0.0092936756562485533 0 -0.0022953139236551053 -0.0097151617379786035 0 -0.0018838834042512074 -0.0098242342480329373 0 -0.0018416113337985788 -0.0094670237262838696 0 -0.0014956104966911304 -0.0099681354968673402 0 -0.0018838834042512074 -0.0098242342480329373 0 -0.0018416113337985788 -0.0094670237262838696 0 -0.0018416113337985788 -0.0094670237262838696 0 -0.0019530673907248988 -0.0089876874027207294 0 -0.0015393964129142867 -0.0090338619681575617 0 -0.0018416113337985788 -0.0094670237262838696 0 -0.0022360692753311037 -0.0092936756562485533 0 -0.0019530673907248988 -0.0089876874027207294 0 -0.0019530673907248988 -0.0089876874027207294 0 -0.0020308824158719219 -0.0085514245306454167 0 -0.0023568790833826108 -0.008921257149776176 0 -0.0022360692753311037 -0.0092936756562485533 0 -0.0019530673907248988 -0.0089876874027207294 0 -0.0023568790833826108 -0.008921257149776176 0 -0.0019530673907248988 -0.0089876874027207294 0 -0.0015393964129142867 -0.0090338619681575617 0 -0.0016203220466690638 -0.0086746262582130841 0 -0.0015393964129142867 -0.0090338619681575617 0 -0.0010303969385564021 -0.0090739574468357669 0 -0.0011744070350935343 -0.0086550908613192926 0 -0.0015393964129142867 -0.0090338619681575617 0 -0.0012549144974946414 -0.0094967287193976728 0 -0.0010303969385564021 -0.0090739574468357669 0 -0.0018416113337985788 -0.0094670237262838696 0 -0.0015393964129142867 -0.0090338619681575617 0 -0.0012549144974946414 -0.0094967287193976728 0 -0.00070992395577886642 -0.0094431091769154579 0 -0.0012549144974946414 -0.0094967287193976728 0 -0.0010303969385564021 -0.0090739574468357669 0 -0.00070992395577886642 -0.0094431091769154579 0 -0.00089594059120835811 -0.0099610146087183004 0 -0.0012549144974946414 -0.0094967287193976728 0 -0.00055222776915935022 -0.0090156926047366467 0 -0.0010303969385564021 -0.0090739574468357669 0 -0.00083163638328517375 -0.0088740618196843611 0 -0.0010303969385564021 -0.0090739574468357669 0 -0.00083163638328517375 -0.0088740618196843611 0 -0.0011744070350935343 -0.0086550908613192926 0 -0.00076551536637456917 -0.008632021089354 0 -0.00083163638328517375 -0.0088740618196843611 0 -0.0011744070350935343 -0.0086550908613192926 0 -0.00066153251175350399 -0.0083357908242714749 0 -0.00076551536637456917 -0.008632021089354 0 -0.0011744070350935343 -0.0086550908613192926 0 -0.0011744070350935343 -0.0086550908613192926 0 -0.0013860828297824626 -0.0081323223853404479 0 -0.0016203220466690638 -0.0086746262582130841 0 -0.0015393964129142867 -0.0090338619681575617 0 -0.0011744070350935343 -0.0086550908613192926 0 -0.0016203220466690638 -0.0086746262582130841 0 3.5884254552600689e-05 -0.010487417583535462 0 -0.0013548045712161545 -0.010063412176405816 0 0.00074613764826862402 -0.012683152712020598 0 -0.001327345646705123 -0.011992169219254788 0 5.876386510350647e-05 -0.011170707947569388 0 -0.00066153251175350399 -0.0083357908242714749 0 -0.0011744070350935343 -0.0086550908613192926 0 -0.0013860828297824626 -0.0081323223853404479 0 -0.001327345646705123 -0.011992169219254788 0 5.876386510350647e-05 -0.011170707947569388 0 -0.0010936952865025986 -0.009695163631434793 0 -0.001327345646705123 -0.011992169219254788 0 -0.0010936952865025986 -0.009695163631434793 0 -0.0021355204350500486 -0.010604532218928479 0 -0.0026161699118576864 -0.0092891166540061132 0 -0.0010936952865025986 -0.009695163631434793 0 -0.0021355204350500486 -0.010604532218928479 0 5.876386510350647e-05 -0.011170707947569388 0 -0.0010936952865025986 -0.009695163631434793 0 0.00027539899801674785 -0.0099255139204183444 0 0.00023816622641133147 -0.0085038208892330054 0 -0.0010936952865025986 -0.009695163631434793 0 0.00027539899801674785 -0.0099255139204183444 0 -0.0026161699118576864 -0.0092891166540061132 0 -0.0041117083493990205 -0.0097664073837616869 0 -0.0033219302098234501 -0.01121383788174384 0 -0.0026161699118576864 -0.0092891166540061132 0 -0.0021355204350500486 -0.010604532218928479 0 -0.0033219302098234501 -0.01121383788174384 0 -0.0013548045712161545 -0.010063412176405816 0 -0.002629075934247578 -0.009600626973437807 0 -0.001327345646705123 -0.011992169219254788 0 -0.0021355204350500486 -0.010604532218928479 0 -0.0033219302098234501 -0.01121383788174384 0 -0.0041117083493990205 -0.0097664073837616869 0 -0.0033219302098234501 -0.01121383788174384 0 -0.0051383845466768836 -0.01049245235844414 0 -0.002629075934247578 -0.009600626973437807 0 -0.0040380996242942932 -0.009210071190484663 0 -0.0020370871703194412 -0.0079781877100460665 0 -0.0020308824158719219 -0.0085514245306454167 0 -0.0023959322828800925 -0.0084970852756941512 0 -0.0013860828297824626 -0.0081323223853404479 0 -0.0020370871703194412 -0.0079781877100460665 0 -0.0020308824158719219 -0.0085514245306454167 0 -0.0013860828297824626 -0.0081323223853404479 0 -0.0016203220466690638 -0.0086746262582130841 0 -0.0020308824158719219 -0.0085514245306454167 0 -0.0019530673907248988 -0.0089876874027207294 0 -0.0016203220466690638 -0.0086746262582130841 0 -0.0020308824158719219 -0.0085514245306454167 0 -0.0020308824158719219 -0.0085514245306454167 0 -0.0023959322828800925 -0.0084970852756941512 0 -0.0023568790833826108 -0.008921257149776176 0 -0.0023959322828800925 -0.0084970852756941512 0 -0.002680603913180455 -0.0084874987486848932 0 -0.0026442718817657361 -0.0087967507430598973 0 -0.0028981378638557468 -0.0085976348057923094 0 -0.002680603913180455 -0.0084874987486848932 0 -0.0026442718817657361 -0.0087967507430598973 0 -0.0028981378638557468 -0.0085976348057923094 0 -0.002680603913180455 -0.0084874987486848932 0 -0.0028406427188647091 -0.0083269397156676157 0 -0.0028406427188647091 -0.0083269397156676157 0 -0.0025809723710015827 -0.0082169168723558433 0 -0.0028927822950084565 -0.0081281208416419306 0 -0.002680603913180455 -0.0084874987486848932 0 -0.0028406427188647091 -0.0083269397156676157 0 -0.0025809723710015827 -0.0082169168723558433 0 -0.0028406427188647091 -0.0083269397156676157 0 -0.0028927822950084565 -0.0081281208416419306 0 -0.002975437578650189 -0.0082214235036144525 0 -0.0020370871703194412 -0.0079781877100460665 0 -0.0023959322828800925 -0.0084970852756941512 0 -0.0025809723710015827 -0.0082169168723558433 0 -0.0023959322828800925 -0.0084970852756941512 0 -0.002680603913180455 -0.0084874987486848932 0 -0.0025809723710015827 -0.0082169168723558433 0 -0.0020370871703194412 -0.0079781877100460665 0 -0.0025809723710015827 -0.0082169168723558433 0 -0.0025900161652073722 -0.0078610776133734676 0 -0.0025809723710015827 -0.0082169168723558433 0 -0.0025900161652073722 -0.0078610776133734676 0 -0.0028927822950084565 -0.0081281208416419306 0 -0.0025900161652073722 -0.0078610776133734676 0 -0.0028927822950084565 -0.0081281208416419306 0 -0.0031107246654322341 -0.0077145845051956284 0 -0.0040380996242942932 -0.009210071190484663 0 -0.0040488119620156948 -0.0084410750990250617 0 -0.0053998064975878599 -0.0093089321028596451 0 -0.0051383845466768836 -0.01049245235844414 0 -0.0067519675858342563 -0.0099194213297618909 0 -0.0041293118964168332 -0.0085213151197013216 0 -0.0040488119620156948 -0.0084410750990250617 0 -0.0053998064975878599 -0.0093089321028596451 0 -0.0041117083493990205 -0.0097664073837616869 0 -0.0051383845466768836 -0.01049245235844414 0 -0.0023039553952305201 -0.007441272092556162 0 -0.0024873388057393311 -0.00747886791432227 0 -0.0025626524284887652 -0.0073679339260736137 0 -0.0022872044053341149 -0.0072413385411792533 0 -0.0031601757062511455 -0.0080249742424239896 0 -0.0030093298373708426 -0.0079697315927901285 0 -0.003078690217916148 -0.008016403999843838 0 -0.0031246306502265542 -0.0079317018165658646 0 -0.0031454336574243727 -0.0079088299513667623 0 -0.0030093298373708426 -0.0079697315927901285 0 -0.0031246306502265542 -0.0079317018165658646 0 -0.0030093298373708426 -0.0079697315927901285 0 -0.0030021116657846861 -0.0079815134491539267 0 -0.003078690217916148 -0.008016403999843838 0 -0.0032647165761716342 -0.008034479176215293 0 -0.0029994361351446787 -0.0079764628356525612 0 -0.0018158139252329856 -0.0067790708075533106 0 -0.0031601757062511455 -0.0080249742424239896 0 -0.002686577551845295 -0.0074657103772196049 0 -0.0029457628751579988 -0.0077277298149055424 0 -0.0028953187446187729 -0.0077449580891945117 0 -0.0031601757062511455 -0.0080249742424239896 0 -0.0040488119620156948 -0.0084410750990250617 0 -0.0031601757062511455 -0.0080249742424239896 0 -0.0032647165761716342 -0.008034479176215293 0 -0.0035129754251548768 -0.0081671480501583245 0 -0.0032352977279659217 -0.0082542953935489834 0 -0.0034105025761957878 -0.0083314212802002817 0 -0.0040488119620156948 -0.0084410750990250617 0 -0.0032647165761716342 -0.008034479176215293 0 -0.0028927822950084565 -0.0081281208416419306 0 -0.0031107246654322341 -0.0077145845051956284 0 -0.003157353685781713 -0.0077351860061678707 0 -0.0028927822950084565 -0.0081281208416419306 0 -0.0030121967706104179 -0.0079825317644866087 0 -0.003002080297457591 -0.0081116303436488905 0 -0.0028789855662801288 -0.0080707381061751182 0 -0.0032647165761716342 -0.008034479176215293 0 -0.0030121967706104179 -0.0079825317644866087 0 -0.003002080297457591 -0.0081116303436488905 0 -0.003078690217916148 -0.008016403999843838 0 -0.003002080297457591 -0.0081116303436488905 0 -0.003078690217916148 -0.008016403999843838 0 -0.0031184544128128391 -0.0079896786135860345 0 -0.0029822086964926531 -0.0080884665158978426 0 -0.0032541197829190523 -0.0080960149681925924 0 -0.003002080297457591 -0.0081116303436488905 0 -0.0031667401975005601 -0.008133571535291104 0 -0.0032481739761819899 -0.0080309722084955567 0 -0.003002080297457591 -0.0081116303436488905 0 -0.0031667401975005601 -0.008133571535291104 0 -0.0030960655437924679 -0.0082313682898880487 0 -0.0031667401975005601 -0.008133571535291104 0 -0.003254588592286519 -0.0081325039180182683 0 -0.0032481739761819899 -0.0080309722084955567 0 -0.0031667401975005601 -0.008133571535291104 0 -0.0032175305110629352 -0.0082113521038626701 0 -0.003254588592286519 -0.0081325039180182683 0 -0.0031667401975005601 -0.008133571535291104 0 -0.0032175305110629352 -0.0082113521038626701 0 -0.0030960655437924679 -0.0082313682898880487 0 -0.0032175305110629352 -0.0082113521038626701 0 -0.0030960655437924679 -0.0082313682898880487 0 -0.0031694330564317813 -0.0083557331332402424 0 -0.0030960655437924679 -0.0082313682898880487 0 -0.0030221561486247347 -0.0083632630406164209 0 -0.0031694330564317813 -0.0083557331332402424 0 -0.0032175305110629352 -0.0082113521038626701 0 -0.0031694330564317813 -0.0083557331332402424 0 -0.0032838610998694841 -0.008299724765167011 0 -0.0028927822950084565 -0.0081281208416419306 0 -0.003002080297457591 -0.0081116303436488905 0 -0.002975437578650189 -0.0082214235036144525 0 -0.003002080297457591 -0.0081116303436488905 0 -0.0030960655437924679 -0.0082313682898880487 0 -0.002975437578650189 -0.0082214235036144525 0 -0.0030960655437924679 -0.0082313682898880487 0 -0.002975437578650189 -0.0082214235036144525 0 -0.0030221561486247347 -0.0083632630406164209 0 -0.0028406427188647091 -0.0083269397156676157 0 -0.002975437578650189 -0.0082214235036144525 0 -0.0030221561486247347 -0.0083632630406164209 0 -0.0028981378638557468 -0.0085976348057923094 0 -0.0028406427188647091 -0.0083269397156676157 0 -0.0030221561486247347 -0.0083632630406164209 0 -0.0030221561486247347 -0.0083632630406164209 0 -0.0030875411809434244 -0.0085577065434819365 0 -0.0031694330564317813 -0.0083557331332402424 0 -0.0028981378638557468 -0.0085976348057923094 0 -0.0030221561486247347 -0.0083632630406164209 0 -0.0030875411809434244 -0.0085577065434819365 0 -0.0030875411809434244 -0.0085577065434819365 0 -0.0031694330564317813 -0.0083557331332402424 0 -0.0032577107673400899 -0.0085260663814724844 0 -0.0031694330564317813 -0.0083557331332402424 0 -0.0032577107673400899 -0.0085260663814724844 0 -0.0032838610998694841 -0.008299724765167011 0 -0.0032577107673400899 -0.0085260663814724844 0 -0.0032133077434860118 -0.0087371062052167842 0 -0.0033345124405814862 -0.0086855309568546861 0 -0.0030875411809434244 -0.0085577065434819365 0 -0.0032577107673400899 -0.0085260663814724844 0 -0.0032133077434860118 -0.0087371062052167842 0 -0.0032659245906082662 -0.0090803395617316384 0 -0.0038374284093701415 -0.0090108789371697567 0 -0.0035816233914182736 -0.0092987402968830752 0 -0.0032133077434860118 -0.0087371062052167842 0 -0.0032659245906082662 -0.0090803395617316384 0 -0.0033345124405814862 -0.0086855309568546861 0 -0.0032753667581883104 -0.0090521807915528822 0 -0.0036001341101666979 -0.0089501877582982524 0 -0.0032133077434860118 -0.0087371062052167842 0 -0.0032659245906082662 -0.0090803395617316384 0 -0.0030620668089282582 -0.0088248037483177801 0 -0.0032659245906082662 -0.0090803395617316384 0 -0.0030135221135009524 -0.0091168071239355105 0 -0.0030620668089282582 -0.0088248037483177801 0 -0.0030135221135009524 -0.0091168071239355105 0 -0.0030620668089282582 -0.0088248037483177801 0 -0.0028702315530023371 -0.0088834039259307312 0 -0.0030875411809434244 -0.0085577065434819365 0 -0.0032133077434860118 -0.0087371062052167842 0 -0.0030620668089282582 -0.0088248037483177801 0 -0.0028981378638557468 -0.0085976348057923094 0 -0.0030875411809434244 -0.0085577065434819365 0 -0.0030620668089282582 -0.0088248037483177801 0 -0.0028981378638557468 -0.0085976348057923094 0 -0.0030620668089282582 -0.0088248037483177801 0 -0.0028702315530023371 -0.0088834039259307312 0 -0.0028981378638557468 -0.0085976348057923094 0 -0.0028702315530023371 -0.0088834039259307312 0 -0.0026442718817657361 -0.0087967507430598973 0 -0.0028702315530023371 -0.0088834039259307312 0 -0.0026442718817657361 -0.0087967507430598973 0 -0.0026700328514228404 -0.0092392476331497001 0 -0.0023568790833826108 -0.008921257149776176 0 -0.0026442718817657361 -0.0087967507430598973 0 -0.0026700328514228404 -0.0092392476331497001 0 -0.0023959322828800925 -0.0084970852756941512 0 -0.0023568790833826108 -0.008921257149776176 0 -0.0026442718817657361 -0.0087967507430598973 0 -0.0022953139236551053 -0.0097151617379786035 0 -0.0022360692753311037 -0.0092936756562485533 0 -0.0026700328514228404 -0.0092392476331497001 0 -0.0022360692753311037 -0.0092936756562485533 0 -0.0023568790833826108 -0.008921257149776176 0 -0.0026700328514228404 -0.0092392476331497001 0 -0.0030135221135009524 -0.0091168071239355105 0 -0.0026700328514228404 -0.0092392476331497001 0 -0.0030574722534938595 -0.0095071243605500417 0 -0.0030135221135009524 -0.0091168071239355105 0 -0.0028702315530023371 -0.0088834039259307312 0 -0.0026700328514228404 -0.0092392476331497001 0 -0.0026700328514228404 -0.0092392476331497001 0 -0.0027187787723908967 -0.0096933975785572033 0 -0.0030574722534938595 -0.0095071243605500417 0 -0.0022953139236551053 -0.0097151617379786035 0 -0.0026700328514228404 -0.0092392476331497001 0 -0.0027187787723908967 -0.0096933975785572033 0 -0.0027187787723908967 -0.0096933975785572033 0 -0.0025183181379050431 -0.010168670761333425 0 -0.0029990038775791232 -0.0098894366785959656 0 -0.0022953139236551053 -0.0097151617379786035 0 -0.0027187787723908967 -0.0096933975785572033 0 -0.0025183181379050431 -0.010168670761333425 0 -0.0027187787723908967 -0.0096933975785572033 0 -0.0029990038775791232 -0.0098894366785959656 0 -0.0030574722534938595 -0.0095071243605500417 0 -0.0030253739724999569 -0.0098446588623396347 0 -0.0035426730019553327 -0.0095797212309766677 0 -0.0029990038775791232 -0.0098894366785959656 0 -0.0033196389724738161 -0.0096400248168881687 0 -0.0030574722534938595 -0.0095071243605500417 0 -0.0029990038775791232 -0.0098894366785959656 0 -0.0037725438592936512 -0.0094826253463651828 0 -0.0037311853578884352 -0.0099527450259685856 0 -0.0032659245906082662 -0.0090803395617316384 0 -0.0033196389724738161 -0.0096400248168881687 0 -0.0035816233914182736 -0.0092987402968830752 0 -0.0032659245906082662 -0.0090803395617316384 0 -0.0033196389724738161 -0.0096400248168881687 0 -0.0030574722534938595 -0.0095071243605500417 0 -0.0032659245906082662 -0.0090803395617316384 0 -0.0030135221135009524 -0.0091168071239355105 0 -0.0030574722534938595 -0.0095071243605500417 0 -0.0032864248107133199 -0.01030445333485369 0 -0.0037145146853514552 -0.010607494323433284 0 -0.0032601433227467946 -0.01030617058195425 0 -0.0032838631575494246 -0.01113046668343445 0 -0.0037887714354211603 -0.011125150828613133 0 -0.0037311853578884352 -0.0099527450259685856 0 -0.0032601433227467946 -0.01030617058195425 0 -0.003727256503876791 -0.010186079073608089 0 -0.0037311853578884352 -0.0099527450259685856 0 -0.003727256503876791 -0.010186079073608089 0 -0.0040829128440873514 -0.0099996639340770906 0 -0.0037311853578884352 -0.0099527450259685856 0 -0.0040829128440873514 -0.0099996639340770906 0 -0.0041510384824590537 -0.0096658188311824905 0 -0.0037725438592936512 -0.0094826253463651828 0 -0.0037311853578884352 -0.0099527450259685856 0 -0.0041510384824590537 -0.0096658188311824905 0 -0.0029990038775791232 -0.0098894366785959656 0 -0.0037311853578884352 -0.0099527450259685856 0 -0.0032601433227467946 -0.01030617058195425 0 -0.0029990038775791232 -0.0098894366785959656 0 -0.0032601433227467946 -0.01030617058195425 0 -0.0028478933532012983 -0.010318160624124155 0 -0.0032601433227467946 -0.01030617058195425 0 -0.0028478933532012983 -0.010318160624124155 0 -0.0026733034486112538 -0.010836941549779777 0 -0.0025183181379050431 -0.010168670761333425 0 -0.0026733034486112538 -0.010836941549779777 0 -0.0021658431036673397 -0.010696804571995957 0 -0.0025183181379050431 -0.010168670761333425 0 -0.0028478933532012983 -0.010318160624124155 0 -0.0026733034486112538 -0.010836941549779777 0 -0.0025183181379050431 -0.010168670761333425 0 -0.0029990038775791232 -0.0098894366785959656 0 -0.0028478933532012983 -0.010318160624124155 0 -0.0032601433227467946 -0.01030617058195425 0 -0.0026733034486112538 -0.010836941549779777 0 -0.0032838631575494246 -0.01113046668343445 0 -0.0029168849600781028 -0.011488574602293767 0 -0.0032838631575494246 -0.01113046668343445 0 -0.0033277593927339435 -0.011824531547979465 0 -0.0026733034486112538 -0.010836941549779777 0 -0.0029168849600781028 -0.011488574602293767 0 -0.0032838631575494246 -0.01113046668343445 0 -0.0026733034486112538 -0.010836941549779777 0 -0.0029168849600781028 -0.011488574602293767 0 -0.0023897159637299124 -0.011349819346483108 0 -0.0029168849600781028 -0.011488574602293767 0 -0.0025632097079427356 -0.01183501414274254 0 -0.0023897159637299124 -0.011349819346483108 0 -0.0029168849600781028 -0.011488574602293767 0 -0.0025632097079427356 -0.01183501414274254 0 -0.0029410466591301529 -0.012130782498169812 0 -0.0025632097079427356 -0.01183501414274254 0 -0.0029410466591301529 -0.012130782498169812 0 -0.0025098962696216321 -0.012201220170851965 0 -0.0029168849600781028 -0.011488574602293767 0 -0.0033277593927339435 -0.011824531547979465 0 -0.0029410466591301529 -0.012130782498169812 0 -0.0033277593927339435 -0.011824531547979465 0 -0.00378807745262019 -0.011582721117347695 0 -0.0037951349932756383 -0.01199357161357815 0 -0.0032838631575494246 -0.01113046668343445 0 -0.0037887714354211603 -0.011125150828613133 0 -0.00378807745262019 -0.011582721117347695 0 -0.0032838631575494246 -0.01113046668343445 0 -0.0033277593927339435 -0.011824531547979465 0 -0.00378807745262019 -0.011582721117347695 0 -0.003727256503876791 -0.010186079073608089 0 -0.0040829128440873514 -0.0099996639340770906 0 -0.004060704371612496 -0.010437663281686011 0 -0.0037887714354211603 -0.011125150828613133 0 -0.00378807745262019 -0.011582721117347695 0 -0.0041686643434655718 -0.011646126283565691 0 -0.0037145146853514552 -0.010607494323433284 0 -0.0041274148350430445 -0.011250730716389202 0 -0.0037951349932756383 -0.01199357161357815 0 -0.0041686643434655718 -0.011646126283565691 0 -0.0042162036029721696 -0.012074712057809661 0 -0.00378807745262019 -0.011582721117347695 0 -0.0037951349932756383 -0.01199357161357815 0 -0.0041686643434655718 -0.011646126283565691 0 -0.0037951349932756383 -0.01199357161357815 0 -0.0036573223238814249 -0.012638627835238392 0 -0.0041066381659664863 -0.012373335677894802 0 -0.0037951349932756383 -0.01199357161357815 0 -0.0041066381659664863 -0.012373335677894802 0 -0.0042162036029721696 -0.012074712057809661 0 -0.0033277593927339435 -0.011824531547979465 0 -0.0037951349932756383 -0.01199357161357815 0 -0.0033253330202056039 -0.012368739770183417 0 -0.0037951349932756383 -0.01199357161357815 0 -0.0031712928494147408 -0.012317902934422286 0 -0.0036573223238814249 -0.012638627835238392 0 -0.0037397149428446755 -0.012029983795035878 0 -0.0032647769157079132 -0.012313708004318861 0 -0.0031712928494147408 -0.012317902934422286 0 -0.0031442455720797941 -0.012809937877193334 0 -0.0036573223238814249 -0.012638627835238392 0 -0.0036573223238814249 -0.012638627835238392 0 -0.0041618477270315276 -0.012783873183884178 0 -0.0041066381659664863 -0.012373335677894802 0 -0.0036573223238814249 -0.012638627835238392 0 -0.0038628546514831636 -0.013123293358722678 0 -0.0041618477270315276 -0.012783873183884178 0 -0.0036573223238814249 -0.012638627835238392 0 -0.0038628546514831636 -0.013123293358722678 0 -0.0034424574510204466 -0.013077657306011719 0 -0.0038628546514831636 -0.013123293358722678 0 -0.0034424574510204466 -0.013077657306011719 0 -0.0035486693392572381 -0.013506721384807546 0 -0.0031442455720797941 -0.012809937877193334 0 -0.0036573223238814249 -0.012638627835238392 0 -0.0034424574510204466 -0.013077657306011719 0 -0.0031442455720797941 -0.012809937877193334 0 -0.0034424574510204466 -0.013077657306011719 0 -0.0030316488964340573 -0.013395445159675178 0 -0.0034424574510204466 -0.013077657306011719 0 -0.0035486693392572381 -0.013506721384807546 0 -0.0030316488964340573 -0.013395445159675178 0 -0.0035486693392572381 -0.013506721384807546 0 -0.0030316488964340573 -0.013395445159675178 0 -0.0032742305508412051 -0.01389244794920722 0 -0.0035486693392572381 -0.013506721384807546 0 -0.0040133772820524494 -0.013585110309482588 0 -0.0036909425243652244 -0.013859180890528617 0 -0.0038628546514831636 -0.013123293358722678 0 -0.0035486693392572381 -0.013506721384807546 0 -0.0040133772820524494 -0.013585110309482588 0 -0.0021339883413096106 -0.013789034647786837 0 -0.0026739546598557391 -0.013772374651913007 0 -0.0024170413720722476 -0.01334527785835367 0 -0.0021339883413096106 -0.013789034647786837 0 -0.0024170413720722476 -0.01334527785835367 0 -0.001865628413354104 -0.013256125742940737 0 -0.0026739546598557391 -0.013772374651913007 0 -0.0030316488964340573 -0.013395445159675178 0 -0.0032742305508412051 -0.01389244794920722 0 -0.0026739546598557391 -0.013772374651913007 0 -0.0030316488964340573 -0.013395445159675178 0 -0.0024170413720722476 -0.01334527785835367 0 -0.0029367044563851008 -0.013284812287052208 0 -0.0027357524057560608 -0.012915915637308603 0 -0.0030316488964340573 -0.013395445159675178 0 -0.0024170413720722476 -0.01334527785835367 0 -0.0025085204002021268 -0.012766003755224435 0 -0.0031442455720797941 -0.012809937877193334 0 -0.0030316488964340573 -0.013395445159675178 0 -0.0025825565445138842 -0.012686685304567033 0 -0.0024170413720722476 -0.01334527785835367 0 -0.0025085204002021268 -0.012766003755224435 0 -0.001865628413354104 -0.013256125742940737 0 -0.0027357524057560608 -0.012915915637308603 0 -0.0021317643640431819 -0.013557313022389276 0 -0.0027357524057560608 -0.012915915637308603 0 -0.0026133262161048085 -0.012487691447605141 0 -0.0030847716398457866 -0.013382376438859561 0 -0.0025206013863441272 -0.013291467112392671 0 -0.0023700115978392685 -0.013824618154940677 0 -0.0030847716398457866 -0.013382376438859561 0 -0.0026579126634299123 -0.012723139781873288 0 -0.0025206013863441272 -0.013291467112392671 0 -0.0031712928494147408 -0.012317902934422286 0 -0.0031442455720797941 -0.012809937877193334 0 -0.0025825565445138842 -0.012686685304567033 0 -0.0032647769157079132 -0.012313708004318861 0 -0.0027357524057560608 -0.012915915637308603 0 -0.0033277593927339435 -0.011824531547979465 0 -0.0033253330202056039 -0.012368739770183417 0 -0.0029410466591301529 -0.012130782498169812 0 -0.0033253330202056039 -0.012368739770183417 0 -0.0028522025184324565 -0.012687493711999889 0 -0.0029410466591301529 -0.012130782498169812 0 -0.0028522025184324565 -0.012687493711999889 0 -0.0029410466591301529 -0.012130782498169812 0 -0.0025098962696216321 -0.012201220170851965 0 -0.0026579126634299123 -0.012723139781873288 0 -0.001733312760055902 -0.012579308095911051 0 -0.0019793806548530028 -0.013219958907892394 0 -0.0019793806548530028 -0.013219958907892394 0 -0.0025206013863441272 -0.013291467112392671 0 -0.0023700115978392685 -0.013824618154940677 0 -0.0026579126634299123 -0.012723139781873288 0 -0.0019793806548530028 -0.013219958907892394 0 -0.0025206013863441272 -0.013291467112392671 0 -0.0023700115978392685 -0.013824618154940677 0 -0.0016644167614722728 -0.014177950052312132 0 -0.0015830657469784399 -0.013682394359303369 0 -0.0019793806548530028 -0.013219958907892394 0 -0.0023700115978392685 -0.013824618154940677 0 -0.0015830657469784399 -0.013682394359303369 0 -0.0021317643640431819 -0.013557313022389276 0 -0.0015273303612905866 -0.013984131386574644 0 -0.001865628413354104 -0.013256125742940737 0 -0.0013595164692289778 -0.013816921376997953 0 -0.0017110629737835479 -0.013916274648166416 0 -0.0021339883413096106 -0.013789034647786837 0 -0.001865628413354104 -0.013256125742940737 0 -0.0017110629737835479 -0.013916274648166416 0 -0.0010937264442206934 -0.013948704153857915 0 -0.00077627478520324962 -0.014235427085451009 0 -0.0010817366476725656 -0.014327422169077271 0 -0.0010937264442206934 -0.013948704153857915 0 -0.00077531690607223684 -0.014012496783759692 0 -0.00077627478520324962 -0.014235427085451009 0 -0.0015273303612905866 -0.013984131386574644 0 -0.0011222979101091685 -0.014293187983532647 0 -0.0016644167614722728 -0.014177950052312132 0 -0.0010937264442206934 -0.013948704153857915 0 -0.0010817366476725656 -0.014327422169077271 0 -0.0016644167614722728 -0.014177950052312132 0 -0.0015830657469784399 -0.013682394359303369 0 -0.0010937264442206934 -0.013948704153857915 0 -0.0015830657469784399 -0.013682394359303369 0 -0.0010937264442206934 -0.013948704153857915 0 -0.001224946701574017 -0.013213264106803952 0 -0.0010937264442206934 -0.013948704153857915 0 -0.001224946701574017 -0.013213264106803952 0 -0.00072965182009440222 -0.013649351207136657 0 -0.001224946701574017 -0.013213264106803952 0 -0.00074377773358653716 -0.01298179227357385 0 -0.00072965182009440222 -0.013649351207136657 0 -0.0019793806548530028 -0.013219958907892394 0 -0.0015830657469784399 -0.013682394359303369 0 -0.001224946701574017 -0.013213264106803952 0 -0.001733312760055902 -0.012579308095911051 0 -0.001224946701574017 -0.013213264106803952 0 -0.001129670135051991 -0.012580175474264137 0 -0.001733312760055902 -0.012579308095911051 0 -0.0019793806548530028 -0.013219958907892394 0 -0.001224946701574017 -0.013213264106803952 0 -0.001224946701574017 -0.013213264106803952 0 -0.001129670135051991 -0.012580175474264137 0 -0.00074377773358653716 -0.01298179227357385 0 -0.001129670135051991 -0.012580175474264137 0 -0.0013758485798238997 -0.011864853894574154 0 -0.00058364148546272967 -0.012210059183496475 0 -0.0013758485798238997 -0.011864853894574154 0 -0.00090736066549834888 -0.011503187763466689 0 -0.00058364148546272967 -0.012210059183496475 0 -0.001733312760055902 -0.012579308095911051 0 -0.001129670135051991 -0.012580175474264137 0 -0.0013758485798238997 -0.011864853894574154 0 -0.001733312760055902 -0.012579308095911051 0 -0.0013758485798238997 -0.011864853894574154 0 -0.0021735608847817819 -0.011904931124477816 0 -0.0026133262161048085 -0.012487691447605141 0 -0.0021809793738456671 -0.011913904450594291 0 -0.0026579126634299123 -0.012723139781873288 0 -0.001733312760055902 -0.012579308095911051 0 -0.0021735608847817819 -0.011904931124477816 0 -0.0025632097079427356 -0.01183501414274254 0 -0.0025098962696216321 -0.012201220170851965 0 -0.0021735608847817819 -0.011904931124477816 0 -0.0021735608847817819 -0.011904931124477816 0 -0.0023897159637299124 -0.011349819346483108 0 -0.0018328426724289497 -0.011291131631134068 0 -0.0025632097079427356 -0.01183501414274254 0 -0.0021735608847817819 -0.011904931124477816 0 -0.0023897159637299124 -0.011349819346483108 0 -0.0013758485798238997 -0.011864853894574154 0 -0.0021735608847817819 -0.011904931124477816 0 -0.0018328426724289497 -0.011291131631134068 0 -0.0023897159637299124 -0.011349819346483108 0 -0.0018328426724289497 -0.011291131631134068 0 -0.0021658431036673397 -0.010696804571995957 0 -0.0026733034486112538 -0.010836941549779777 0 -0.0023897159637299124 -0.011349819346483108 0 -0.0021658431036673397 -0.010696804571995957 0 -0.0019702276626946823 -0.010165754434575094 0 -0.0025183181379050431 -0.010168670761333425 0 -0.0021658431036673397 -0.010696804571995957 0 -0.0019702276626946823 -0.010165754434575094 0 -0.0021658431036673397 -0.010696804571995957 0 -0.0016810696012036516 -0.010609178929802825 0 -0.0018328426724289497 -0.011291131631134068 0 -0.0021658431036673397 -0.010696804571995957 0 -0.0016810696012036516 -0.010609178929802825 0 -0.001144221253579046 -0.010458290602304328 0 -0.0016810696012036516 -0.010609178929802825 0 -0.0013218677843948173 -0.011008724245037942 0 -0.001144221253579046 -0.010458290602304328 0 -0.00086248209087946067 -0.010950048362203179 0 -0.0013218677843948173 -0.011008724245037942 0 -0.00050807746865194387 -0.010555277302353647 0 -0.001144221253579046 -0.010458290602304328 0 -0.00086248209087946067 -0.010950048362203179 0 -0.00086248209087946067 -0.010950048362203179 0 -0.00090736066549834888 -0.011503187763466689 0 -0.0013218677843948173 -0.011008724245037942 0 -0.0013758485798238997 -0.011864853894574154 0 -0.00090736066549834888 -0.011503187763466689 0 -0.0013218677843948173 -0.011008724245037942 0 -0.0018328426724289497 -0.011291131631134068 0 -0.0016810696012036516 -0.010609178929802825 0 -0.0013218677843948173 -0.011008724245037942 0 -0.0013758485798238997 -0.011864853894574154 0 -0.0018328426724289497 -0.011291131631134068 0 -0.0013218677843948173 -0.011008724245037942 0 -0.00040967488359071709 -0.011336489004549652 0 0.00010223365118522652 -0.011092178735392026 0 0.0001058091068472385 -0.011773102297005197 0 -0.00086248209087946067 -0.010950048362203179 0 -0.00090736066549834888 -0.011503187763466689 0 -0.00040967488359071709 -0.011336489004549652 0 -0.00050807746865194387 -0.010555277302353647 0 -0.00086248209087946067 -0.010950048362203179 0 -0.00040967488359071709 -0.011336489004549652 0 -0.00050807746865194387 -0.010555277302353647 0 -0.00040967488359071709 -0.011336489004549652 0 0.00010223365118522652 -0.011092178735392026 0 -6.8646200890779943e-05 -0.010351585165711134 0 -0.00050807746865194387 -0.010555277302353647 0 0.00010223365118522652 -0.011092178735392026 0 0.00044785009536446748 -0.010676320120816306 0 0.00010223365118522652 -0.011092178735392026 0 0.00063925276605983025 -0.011199466407454194 0 0.00044785009536446748 -0.010676320120816306 0 -6.8646200890779943e-05 -0.010351585165711134 0 0.00010223365118522652 -0.011092178735392026 0 0.0013407291575985225 -0.01049543730041984 0 0.0008871059101135015 -0.010807220396761819 0 0.0011705137493835008 -0.011350630412759608 0 0.00044785009536446748 -0.010676320120816306 0 0.00063925276605983025 -0.011199466407454194 0 0.0008871059101135015 -0.010807220396761819 0 0.00063925276605983025 -0.011199466407454194 0 0.0008871059101135015 -0.010807220396761819 0 0.0011705137493835008 -0.011350630412759608 0 0.00082636250681515275 -0.012607159262778599 0 0.00082786584055804103 -0.012359192323442415 0 0.0011705137493835008 -0.011350630412759608 0 0.00071354044150960918 -0.011699297678139325 0 0.00081033824140545343 -0.012306803162815173 0 0.00063925276605983025 -0.011199466407454194 0 0.0011705137493835008 -0.011350630412759608 0 0.00071354044150960918 -0.011699297678139325 0 0.00010223365118522652 -0.011092178735392026 0 0.00044578545738464272 -0.01160387639779192 0 0.0001058091068472385 -0.011773102297005197 0 0.00010223365118522652 -0.011092178735392026 0 0.00063925276605983025 -0.011199466407454194 0 0.00044578545738464272 -0.01160387639779192 0 0.00063925276605983025 -0.011199466407454194 0 0.00071354044150960918 -0.011699297678139325 0 0.00044578545738464272 -0.01160387639779192 0 0.00071354044150960918 -0.011699297678139325 0 0.00044578545738464272 -0.01160387639779192 0 0.00052821045100571941 -0.011998186058368455 0 0.00052821045100571941 -0.011998186058368455 0 0.00039043718510548551 -0.012353716509291231 0 0.0001058091068472385 -0.011773102297005197 0 0.00052821045100571941 -0.011998186058368455 0 0.00081033824140545343 -0.012306803162815173 0 0.00039043718510548551 -0.012353716509291231 0 0.00044578545738464272 -0.01160387639779192 0 0.00052821045100571941 -0.011998186058368455 0 0.0001058091068472385 -0.011773102297005197 0 0.00081033824140545343 -0.012306803162815173 0 0.00076850126040429372 -0.012136025294892151 0 0.00011455554699787177 -0.013091127599581249 0 0.00071354044150960918 -0.011699297678139325 0 0.00052821045100571941 -0.011998186058368455 0 0.00081033824140545343 -0.012306803162815173 0 0.0005151990871173739 -0.014011239918542672 0 0.00081033824140545343 -0.012306803162815173 0 0.00011455554699787177 -0.013091127599581249 0 0.00029470344391406284 -0.012951501745511299 0 0.00074031844158435449 -0.012759630180830614 0 0.00058259343743227558 -0.013290878644498755 0 0.00029470344391406284 -0.012951501745511299 0 0.00074031844158435449 -0.012759630180830614 0 -4.6786311538728804e-05 -0.012588053929587449 0 0.00081033824140545343 -0.012306803162815173 0 0.00076850126040429372 -0.012136025294892151 0 0.00039043718510548551 -0.012353716509291231 0 0.0003812010197065694 -0.013641482562199433 0 0.00036704615031198155 -0.013928230227748067 0 0.0003812010197065694 -0.013641482562199433 0 0.00020952690085086997 -0.012295971804622368 0 0.00029470344391406284 -0.012951501745511299 0 -4.6786311538728804e-05 -0.012588053929587449 0 -1.6195755019036786e-05 -0.013235211956483915 0 -4.6786311538728804e-05 -0.012588053929587449 0 -0.00035062863536411995 -0.01287353763192544 0 -1.6195755019036786e-05 -0.013235211956483915 0 -4.6786311538728804e-05 -0.012588053929587449 0 -0.00035062863536411995 -0.01287353763192544 0 -0.00058364148546272967 -0.012210059183496475 0 0.00020952690085086997 -0.012295971804622368 0 -0.00057934226112943573 -0.01227910665628896 0 -0.00040967488359071709 -0.011336489004549652 0 0.0001058091068472385 -0.011773102297005197 0 -0.00058364148546272967 -0.012210059183496475 0 0.00039043718510548551 -0.012353716509291231 0 0.0001058091068472385 -0.011773102297005197 0 -0.00058364148546272967 -0.012210059183496475 0 -0.00090736066549834888 -0.011503187763466689 0 -0.00040967488359071709 -0.011336489004549652 0 -0.00058364148546272967 -0.012210059183496475 0 -0.001129670135051991 -0.012580175474264137 0 -0.00058364148546272967 -0.012210059183496475 0 -0.00074377773358653716 -0.01298179227357385 0 -0.00035062863536411995 -0.01287353763192544 0 -0.00058364148546272967 -0.012210059183496475 0 -0.00074377773358653716 -0.01298179227357385 0 -0.00035062863536411995 -0.01287353763192544 0 -0.00074377773358653716 -0.01298179227357385 0 -0.0003867289464133197 -0.013355232475122604 0 -0.00035062863536411995 -0.01287353763192544 0 -0.0003867289464133197 -0.013355232475122604 0 -1.6195755019036786e-05 -0.013235211956483915 0 -0.0003867289464133197 -0.013355232475122604 0 -0.00037041551768915529 -0.013819697488227908 0 -9.5996722736538728e-05 -0.013869667896647057 0 -0.0003867289464133197 -0.013355232475122604 0 -0.00037041551768915529 -0.013819697488227908 0 -0.00072965182009440222 -0.013649351207136657 0 -0.00074377773358653716 -0.01298179227357385 0 -0.0003867289464133197 -0.013355232475122604 0 -0.00072965182009440222 -0.013649351207136657 0 -0.0010937264442206934 -0.013948704153857915 0 -0.00072965182009440222 -0.013649351207136657 0 -0.00077531690607223684 -0.014012496783759692 0 -0.00072965182009440222 -0.013649351207136657 0 -0.00077531690607223684 -0.014012496783759692 0 -0.00050925611282661592 -0.014064823199372937 0 -0.00050925611282661592 -0.014064823199372937 0 -0.00028410496935066037 -0.014313096798402586 0 -0.00019027773629309825 -0.014104975718992848 0 -0.00037041551768915529 -0.013819697488227908 0 -0.00050925611282661592 -0.014064823199372937 0 -0.00019027773629309825 -0.014104975718992848 0 -0.00037041551768915529 -0.013819697488227908 0 -0.00072965182009440222 -0.013649351207136657 0 -0.00050925611282661592 -0.014064823199372937 0 -0.00050925611282661592 -0.014064823199372937 0 -0.00028410496935066037 -0.014313096798402586 0 -0.00045147734237235907 -0.014450748396556495 0 -0.00050925611282661592 -0.014064823199372937 0 -0.00077627478520324962 -0.014235427085451009 0 -0.00045147734237235907 -0.014450748396556495 0 -0.00077531690607223684 -0.014012496783759692 0 -0.00050925611282661592 -0.014064823199372937 0 -0.00077627478520324962 -0.014235427085451009 0 -3.3070099375208785e-06 -0.014494248684400168 0 -0.00010169418556497602 -0.014366331540334856 0 5.0819592318112997e-05 -0.014245323189027442 0 -3.3070099375208785e-06 -0.014494248684400168 0 -0.00010169418556497602 -0.014366331540334856 0 -0.00021646844369519304 -0.014514018447763439 0 -0.00028410496935066037 -0.014313096798402586 0 -0.00010169418556497602 -0.014366331540334856 0 -0.00019027773629309825 -0.014104975718992848 0 -0.00028410496935066037 -0.014313096798402586 0 -0.00010169418556497602 -0.014366331540334856 0 -0.00021646844369519304 -0.014514018447763439 0 -0.00019027773629309825 -0.014104975718992848 0 5.0819592318112997e-05 -0.014245323189027442 0 -9.5996722736538728e-05 -0.013869667896647057 0 -0.00010169418556497602 -0.014366331540334856 0 -0.00019027773629309825 -0.014104975718992848 0 5.0819592318112997e-05 -0.014245323189027442 0 -3.3070099375208785e-06 -0.014494248684400168 0 5.0819592318112997e-05 -0.014245323189027442 0 7.1518845887559733e-05 -0.014405222001039003 0 5.0819592318112997e-05 -0.014245323189027442 0 0.00021942318986950014 -0.014065010024767809 0 7.1518845887559733e-05 -0.014405222001039003 0 0.00021942318986950014 -0.014065010024767809 0 -9.5996722736538728e-05 -0.013869667896647057 0 -1.6195755019036786e-05 -0.013235211956483915 0 -0.00037041551768915529 -0.013819697488227908 0 -0.00019027773629309825 -0.014104975718992848 0 -9.5996722736538728e-05 -0.013869667896647057 0 5.0819592318112997e-05 -0.014245323189027442 0 0.00021942318986950014 -0.014065010024767809 0 -9.5996722736538728e-05 -0.013869667896647057 0 -0.0003867289464133197 -0.013355232475122604 0 -9.5996722736538728e-05 -0.013869667896647057 0 -1.6195755019036786e-05 -0.013235211956483915 0 0.00026734664117963891 -0.014053979192717057 0 0.00036704615031198155 -0.013928230227748067 0 0.00029470344391406284 -0.012951501745511299 0 -1.6195755019036786e-05 -0.013235211956483915 0 0.00058259343743227558 -0.013290878644498755 0 0.00021942318986950014 -0.014065010024767809 0 0.00020807057256153449 -0.014545663299328321 0 6.0244193274049618e-05 -0.014456800010469896 0 0.00021942318986950014 -0.014065010024767809 0 -1.6195755019036786e-05 -0.013235211956483915 0 0.00058259343743227558 -0.013290878644498755 0 6.8378845643476537e-05 -0.014620267795185554 0 9.9199465403985743e-06 -0.01466693606900692 0 6.0244193274049618e-05 -0.014456800010469896 0 0.00015055711080671374 -0.014713988644443905 0 0.00020807057256153449 -0.014545663299328321 0 6.8378845643476537e-05 -0.014620267795185554 0 0.00020807057256153449 -0.014545663299328321 0 6.8378845643476537e-05 -0.014620267795185554 0 6.0244193274049618e-05 -0.014456800010469896 0 9.9199465403985743e-06 -0.01466693606900692 0 -6.4574686892159492e-06 -0.014816346264237791 0 1.3888998567376664e-05 -0.014712289981586373 0 6.8378845643476537e-05 -0.014620267795185554 0 9.9199465403985743e-06 -0.01466693606900692 0 1.3888998567376664e-05 -0.014712289981586373 0 9.9199465403985743e-06 -0.01466693606900692 0 2.9890409101041705e-05 -0.014625243753888545 0 3.3904527119226036e-06 -0.014826012672766847 0 9.9199465403985743e-06 -0.01466693606900692 0 2.9890409101041705e-05 -0.014625243753888545 0 6.0244193274049618e-05 -0.014456800010469896 0 0.00021942318986950014 -0.014065010024767809 0 6.0244193274049618e-05 -0.014456800010469896 0 7.1518845887559733e-05 -0.014405222001039003 0 2.9890409101041705e-05 -0.014625243753888545 0 6.0244193274049618e-05 -0.014456800010469896 0 7.1518845887559733e-05 -0.014405222001039003 0 -3.3070099375208785e-06 -0.014494248684400168 0 7.1518845887559733e-05 -0.014405222001039003 0 4.3686679125828139e-05 -0.01462092667665546 0 2.9890409101041705e-05 -0.014625243753888545 0 7.1518845887559733e-05 -0.014405222001039003 0 4.3686679125828139e-05 -0.01462092667665546 0 2.9890409101041705e-05 -0.014625243753888545 0 4.3686679125828139e-05 -0.01462092667665546 0 2.1282430847563082e-05 -0.014829703131880858 0 4.3686679125828139e-05 -0.01462092667665546 0 3.5731419816604996e-05 -0.014795414987408715 0 1.7690990849269754e-05 -0.014660631771809939 0 -3.3070099375208785e-06 -0.014494248684400168 0 4.3686679125828139e-05 -0.01462092667665546 0 1.7690990849269754e-05 -0.014660631771809939 0 3.8284259823886178e-08 -0.014999777743922737 0 3.5731419816604996e-05 -0.014795414987408715 0 2.1282430847563082e-05 -0.014829703131880858 0 4.3686679125828139e-05 -0.01462092667665546 0 3.5731419816604996e-05 -0.014795414987408715 0 2.1282430847563082e-05 -0.014829703131880858 0 3.8284259823886178e-08 -0.014999777743922737 0 2.1282430847563082e-05 -0.014829703131880858 0 3.9149137711914529e-09 -0.014999770133031328 0 2.1282430847563082e-05 -0.014829703131880858 0 3.9149137711914529e-09 -0.014999770133031328 0 3.3904527119226036e-06 -0.014826012672766847 0 2.9890409101041705e-05 -0.014625243753888545 0 2.1282430847563082e-05 -0.014829703131880858 0 3.3904527119226036e-06 -0.014826012672766847 0 9.9199465403985743e-06 -0.01466693606900692 0 3.3904527119226036e-06 -0.014826012672766847 0 -6.4574686892159492e-06 -0.014816346264237791 0 3.3904527119226036e-06 -0.014826012672766847 0 -4.9225031887812539e-09 -0.014999714670366506 0 -6.4574686892159492e-06 -0.014816346264237791 0 3.9149137711914529e-09 -0.014999770133031328 0 3.3904527119226036e-06 -0.014826012672766847 0 -4.9225031887812539e-09 -0.014999714670366506 0 -4.4519939888856822e-08 -0.014999953629158572 0 -1.8884232252152576e-05 -0.014911442369914178 0 -7.8930067897712951e-09 -0.015000056256886597 0 -6.9447854261030622e-06 -0.014981933746983369 0 3.0792985820349174e-08 -0.014999876705119274 0 -7.8930067897712951e-09 -0.015000056256886597 0 -6.9447854261030622e-06 -0.014981933746983369 0 -2.4867397369784427e-05 -0.015009388757211618 0 -6.9447854261030622e-06 -0.014981933746983369 0 3.0792985820349174e-08 -0.014999876705119274 0 -9.9028352369870524e-06 -0.014926403161137159 0 -6.9447854261030622e-06 -0.014981933746983369 0 -9.9028352369870524e-06 -0.014926403161137159 0 -4.71647015668647e-05 -0.014950021561363734 0 -9.9028352369870524e-06 -0.014926403161137159 0 -4.71647015668647e-05 -0.014950021561363734 0 -6.1235782383102443e-05 -0.014855333155669668 0 -4.71647015668647e-05 -0.014950021561363734 0 -2.4867397369784427e-05 -0.015009388757211618 0 -0.00012877834892311652 -0.015007350982475147 0 -6.9447854261030622e-06 -0.014981933746983369 0 -4.71647015668647e-05 -0.014950021561363734 0 -2.4867397369784427e-05 -0.015009388757211618 0 -1.8884232252152576e-05 -0.014911442369914178 0 -0.00012208300794714556 -0.014936860414897784 0 -0.00012877834892311652 -0.015007350982475147 0 -0.00019319024139605585 -0.014937825132564935 0 -0.00012489218998684904 -0.014908467888473036 0 -4.71647015668647e-05 -0.014950021561363734 0 -0.00012877834892311652 -0.015007350982475147 0 -0.00012489218998684904 -0.014908467888473036 0 0.00015055711080671374 -0.014713988644443905 0 6.8378845643476537e-05 -0.014620267795185554 0 1.3888998567376664e-05 -0.014712289981586373 0 0.0003812010197065694 -0.013641482562199433 0 -0.00012208300794714556 -0.014936860414897784 0 -0.00027294170291796511 -0.014984643139278277 0 -0.00012877834892311652 -0.015007350982475147 0 -0.00019319024139605585 -0.014937825132564935 0 -0.00027294170291796511 -0.014984643139278277 0 -0.00019319024139605585 -0.014937825132564935 0 -0.00025085433933954871 -0.014837860516795665 0 0.0003812010197065694 -0.013641482562199433 0 -4.8650346805983023e-05 -0.013980748663326156 0 -0.00019319024139605585 -0.014937825132564935 0 -0.00025085433933954871 -0.014837860516795665 0 -0.00012489218998684904 -0.014908467888473036 0 -0.00025085433933954871 -0.014837860516795665 0 -0.00012489218998684904 -0.014908467888473036 0 -0.00011293144048966424 -0.014774003567123906 0 -0.00012489218998684904 -0.014908467888473036 0 -0.00011293144048966424 -0.014774003567123906 0 -6.1235782383102443e-05 -0.014855333155669668 0 -4.71647015668647e-05 -0.014950021561363734 0 -0.00012489218998684904 -0.014908467888473036 0 -6.1235782383102443e-05 -0.014855333155669668 0 -0.00011293144048966424 -0.014774003567123906 0 -8.2059332780078215e-05 -0.014717265395893442 0 -6.1235782383102443e-05 -0.014855333155669668 0 -0.00011293144048966424 -0.014774003567123906 0 -8.2059332780078215e-05 -0.014717265395893442 0 -0.00011860023927502297 -0.014506889121646199 0 -0.00025085433933954871 -0.014837860516795665 0 -0.00011293144048966424 -0.014774003567123906 0 -0.00011860023927502297 -0.014506889121646199 0 0.0005151990871173739 -0.014011239918542672 0 0.00011455554699787177 -0.013091127599581249 0 -0.00011860023927502297 -0.014506889121646199 0 -4.8650346805983023e-05 -0.013980748663326156 0 -0.00013108049450038871 -0.01444462928951641 0 0.0007060677354898138 -0.012866236033425463 0 0.00082636250681515275 -0.012607159262778599 0 5.8702969779726678e-05 -0.014828561526809596 0 0.0005151990871173739 -0.014011239918542672 0 -0.00011860023927502297 -0.014506889121646199 0 -6.1747706287361621e-05 -0.014794847064241728 0 -0.00012979470598250631 -0.014686270081272818 0 -0.00011860023927502297 -0.014506889121646199 0 -0.00012979470598250631 -0.014686270081272818 0 -8.2059332780078215e-05 -0.014717265395893442 0 -4.878859036987764e-05 -0.014792846761148818 0 -0.00012979470598250631 -0.014686270081272818 0 -8.2059332780078215e-05 -0.014717265395893442 0 -0.00011860023927502297 -0.014506889121646199 0 -6.9094613223711171e-06 -0.014647077811192059 0 -0.00012979470598250631 -0.014686270081272818 0 -4.878859036987764e-05 -0.014792846761148818 0 -3.8726589789877278e-05 -0.015082088819155291 0 1.5772769435350379e-05 -0.014841823815002134 0 1.4206282455985888e-05 -0.015013475405641238 0 8.6923327091878321e-09 -0.01499982873684586 0 1.7484040894505309e-05 -0.014957357138872604 0 -6.9094613223711171e-06 -0.014647077811192059 0 -4.878859036987764e-05 -0.014792846761148818 0 1.7484040894505309e-05 -0.014957357138872604 0 3.0792985820349174e-08 -0.014999876705119274 0 8.6923327091878321e-09 -0.01499982873684586 0 1.7484040894505309e-05 -0.014957357138872604 0 3.0792985820349174e-08 -0.014999876705119274 0 -9.9028352369870524e-06 -0.014926403161137159 0 1.7484040894505309e-05 -0.014957357138872604 0 -4.878859036987764e-05 -0.014792846761148818 0 1.7484040894505309e-05 -0.014957357138872604 0 -1.8174529386178417e-05 -0.014883920947006571 0 -9.9028352369870524e-06 -0.014926403161137159 0 1.7484040894505309e-05 -0.014957357138872604 0 -1.8174529386178417e-05 -0.014883920947006571 0 -9.9028352369870524e-06 -0.014926403161137159 0 -4.569877461110951e-05 -0.014817798187998343 0 -1.8174529386178417e-05 -0.014883920947006571 0 -9.9028352369870524e-06 -0.014926403161137159 0 -6.1235782383102443e-05 -0.014855333155669668 0 -4.569877461110951e-05 -0.014817798187998343 0 -8.2059332780078215e-05 -0.014717265395893442 0 -4.878859036987764e-05 -0.014792846761148818 0 -4.569877461110951e-05 -0.014817798187998343 0 -8.2059332780078215e-05 -0.014717265395893442 0 -6.1235782383102443e-05 -0.014855333155669668 0 -4.569877461110951e-05 -0.014817798187998343 0 -4.878859036987764e-05 -0.014792846761148818 0 -4.569877461110951e-05 -0.014817798187998343 0 -1.8174529386178417e-05 -0.014883920947006571 0 -0.0043288014250594626 -0.0022465885737523181 0 -0.0043836576426792033 -0.0019938899232900811 0 -0.0040300195763035007 -0.002045896650124173 0 -0.0043288014250594626 -0.0022465885737523181 0 -0.0040495322270374008 -0.0024635368551594278 0 -0.0045890459541271193 -0.0025027395764875976 0 -0.0043288014250594626 -0.0022465885737523181 0 -0.0045890459541271193 -0.0025027395764875976 0 -0.0045925856681777628 -0.002228934449809527 0 -0.0043288014250594626 -0.0022465885737523181 0 -0.0045925856681777628 -0.002228934449809527 0 -0.0043836576426792033 -0.0019938899232900811 0 -0.0043288014250594626 -0.0022465885737523181 0 -0.0040495322270374008 -0.0024635368551594278 0 -0.0040300195763035007 -0.002045896650124173 0 -0.0040495322270374008 -0.0024635368551594278 0 -0.0040300195763035007 -0.002045896650124173 0 -0.0036728200892608737 -0.0021552629764830752 0 -0.0038088275635220865 -0.0023973663554803419 0 -0.0035880182883399878 -0.0025873223249523883 0 -0.0037756718348064757 -0.0026401250054045406 0 -0.0038088275635220865 -0.0023973663554803419 0 -0.0040512370428775488 -0.0025188967214047659 0 -0.0037756718348064757 -0.0026401250054045406 0 -0.0039304607828452845 -0.0024588354495453007 0 -0.0043189573342489272 -0.0021851797024170058 0 -0.0038088275635220865 -0.0023973663554803419 0 -0.0040837054650390663 -0.0023760675893793456 0 -0.0040512370428775488 -0.0025188967214047659 0 -0.0042412167653141835 -0.0023965765199182669 0 -0.0039621138958288379 -0.0024387329345581252 0 -0.0040837054650390663 -0.0023760675893793456 0 -0.0042740768794403564 -0.0023917878924773358 0 -0.0040512370428775488 -0.0025188967214047659 0 -0.0043189573342489272 -0.0021851797024170058 0 -0.0048440223675850864 -0.0045821520376400655 0 -0.0042740768794403564 -0.0023917878924773358 0 -0.0043148166000665303 -0.0023277866964973751 0 -0.0042872138865256071 -0.0025882738485269361 0 -0.0056885388013240357 -0.0085353254021125098 0 -0.0057657468259837974 -0.0079293699028083423 0 -0.0055405767865809438 -0.0082786523118628698 0 -0.0040837054650390663 -0.0023760675893793456 0 -0.0042740768794403564 -0.0023917878924773358 0 -0.0043148166000665303 -0.0023277866964973751 0 -0.0048440223675850864 -0.0045821520376400655 0 -0.0050369180388256454 -0.0055434733286613058 0 -0.0045890459541271193 -0.0025027395764875976 0 -0.0051299259695228869 -0.002535388124146424 0 -0.0048569559461404468 -0.0023288670088205503 0 -0.0048440223675850864 -0.0045821520376400655 0 -0.004989852401069585 -0.0061957635391693723 0 -0.0051299259695228869 -0.002535388124146424 0 -0.0050193576058121083 -0.0023079633662500543 0 -0.0051686487141865828 -0.0022342700084044755 0 -0.0051299259695228869 -0.002535388124146424 0 -0.0048569559461404468 -0.0023288670088205503 0 -0.0050193576058121083 -0.0023079633662500543 0 -0.0048569559461404468 -0.0023288670088205503 0 -0.0050193576058121083 -0.0023079633662500543 0 -0.0049225273198530281 -0.0021344383547718506 0 -0.0050193576058121083 -0.0023079633662500543 0 -0.0049225273198530281 -0.0021344383547718506 0 -0.0051686487141865828 -0.0022342700084044755 0 -0.0045890459541271193 -0.0025027395764875976 0 -0.0048569559461404468 -0.0023288670088205503 0 -0.0045925856681777628 -0.002228934449809527 0 -0.0048569559461404468 -0.0023288670088205503 0 -0.0047023924576348351 -0.0020273628881716738 0 -0.0049225273198530281 -0.0021344383547718506 0 -0.0048569559461404468 -0.0023288670088205503 0 -0.0045925856681777628 -0.002228934449809527 0 -0.0047023924576348351 -0.0020273628881716738 0 -0.0047023924576348351 -0.0020273628881716738 0 -0.004841704948128662 -0.0017198471935460512 0 -0.0045039148703743051 -0.0017789812742443011 0 -0.0045925856681777628 -0.002228934449809527 0 -0.0047023924576348351 -0.0020273628881716738 0 -0.0043836576426792033 -0.0019938899232900811 0 -0.0047023924576348351 -0.0020273628881716738 0 -0.0049225273198530281 -0.0021344383547718506 0 -0.004841704948128662 -0.0017198471935460512 0 -0.0047023924576348351 -0.0020273628881716738 0 -0.0045039148703743051 -0.0017789812742443011 0 -0.0043836576426792033 -0.0019938899232900811 0 -0.0049225273198530281 -0.0021344383547718506 0 -0.004841704948128662 -0.0017198471935460512 0 -0.0051686487141865828 -0.0022342700084044755 0 -0.0050995044511831745 -0.005942647957277343 0 -0.004989852401069585 -0.0061957635391693723 0 -0.0052627498597808079 -0.0089345153058798289 0 -0.0051599598520934665 -0.0086118067503611877 0 -0.0051472861387816052 -0.009013825610012214 0 -0.0052627498597808079 -0.0089345153058798289 0 -0.005442325048475383 -0.0090591862096519472 0 -0.0051599598520934665 -0.0086118067503611877 0 -0.0052428559766104377 -0.0091047397877235727 0 -0.0053663566275574332 -0.0090290230982905395 0 -0.0054484228178759793 -0.0091589219024878332 0 -0.0052627498597808079 -0.0089345153058798289 0 -0.0052428559766104377 -0.0091047397877235727 0 -0.0051472861387816052 -0.009013825610012214 0 -0.0059593506117517911 -0.0087572876881528167 0 -0.0050995044511831745 -0.005942647957277343 0 -0.0052627498597808079 -0.0089345153058798289 0 -0.0052428559766104377 -0.0091047397877235727 0 -0.0053663566275574332 -0.0090290230982905395 0 -0.004841704948128662 -0.0017198471935460512 0 -0.0045619234258130349 -0.0015072185650977473 0 -0.0045039148703743051 -0.0017789812742443011 0 -0.0050995044511831745 -0.005942647957277343 0 -0.0047457583831558674 -0.0024424035781444231 0 -0.0055060434570974037 -0.0052055837072684796 0 -0.0040121101136450987 -0.004115423248796728 0 -0.0046522259728733299 -0.0038960236986986395 0 -0.0050995044511831745 -0.005942647957277343 0 -0.0040572802465963032 -0.0054545449589440747 0 -0.0045619234258130349 -0.0015072185650977473 0 -0.0045039148703743051 -0.0017789812742443011 0 -0.0040365544619495684 -0.0016484274399702027 0 -0.0047790841374993932 -0.0013296313675108691 0 -0.0041552472653417702 -0.0015408694976854884 0 -0.0044436639773727561 -0.0010816775518261857 0 -0.0047457583831558674 -0.0024424035781444231 0 -0.0041043895155695887 -0.001456356754042991 0 -0.0045039148703743051 -0.0017789812742443011 0 -0.0043836576426792033 -0.0019938899232900811 0 -0.0040365544619495684 -0.0016484274399702027 0 -0.0043836576426792033 -0.0019938899232900811 0 -0.0040300195763035007 -0.002045896650124173 0 -0.0040365544619495684 -0.0016484274399702027 0 -0.0041552472653417702 -0.0015408694976854884 0 -0.0036696651764928766 -0.001340946527178883 0 -0.0039407532828617652 -0.0010435986638647448 0 -0.0041043895155695887 -0.001456356754042991 0 -0.0035389838158507597 -0.0017943604413679618 0 -0.0041552472653417702 -0.0015408694976854884 0 -0.0036696651764928766 -0.001340946527178883 0 -0.0035252859117301145 -0.001760056910582828 0 -0.0036696651764928766 -0.001340946527178883 0 -0.0032811950339129751 -0.0013815190803700564 0 -0.0035252859117301145 -0.001760056910582828 0 -0.0032811950339129751 -0.0013815190803700564 0 -0.0035252859117301145 -0.001760056910582828 0 -0.0031075498059843355 -0.0018012013609809037 0 -0.0035252859117301145 -0.001760056910582828 0 -0.0036728200892608737 -0.0021552629764830752 0 -0.0032917852919571509 -0.0021044313206466493 0 -0.0035252859117301145 -0.001760056910582828 0 -0.0031075498059843355 -0.0018012013609809037 0 -0.0032917852919571509 -0.0021044313206466493 0 -0.0040300195763035007 -0.002045896650124173 0 -0.0040365544619495684 -0.0016484274399702027 0 -0.0035252859117301145 -0.001760056910582828 0 -0.0040300195763035007 -0.002045896650124173 0 -0.0035252859117301145 -0.001760056910582828 0 -0.0036728200892608737 -0.0021552629764830752 0 -0.0024565483554064666 -0.0014244878490293519 0 -0.0029268719450874906 -0.0015142340693615061 0 -0.0029791224844329103 -0.00097495550039738879 0 -0.0024565483554064666 -0.0014244878490293519 0 -0.0029268719450874906 -0.0015142340693615061 0 -0.0026343169150601091 -0.0017049007035350998 0 -0.0026485003417173586 -3.4712586071019429e-05 0 -0.0028131634765273536 -0.00035772325712159951 0 -0.0032811950339129751 -0.0013815190803700564 0 -0.0029268719450874906 -0.0015142340693615061 0 -0.0031075498059843355 -0.0018012013609809037 0 -0.0029268719450874906 -0.0015142340693615061 0 -0.0031075498059843355 -0.0018012013609809037 0 -0.002826671843191558 -0.0019869158892627729 0 -0.0031075498059843355 -0.0018012013609809037 0 -0.002826671843191558 -0.0019869158892627729 0 -0.0032917852919571509 -0.0021044313206466493 0 -0.0029268719450874906 -0.0015142340693615061 0 -0.002826671843191558 -0.0019869158892627729 0 -0.0026343169150601091 -0.0017049007035350998 0 -0.003008221486422844 -0.00068431732161357858 0 -0.0028131634765273536 -0.00035772325712159951 0 -0.0028444949764617907 0.00058991305802762542 0 -0.0032150010530591659 0.00061227907854489538 0 -0.0029899242817560553 0.0009836133548000519 0 -0.0032150010530591659 0.00061227907854489538 0 -0.0036476861905720289 -0.00011244980939408571 0 -0.0030294879362343036 0.0001190901118108372 0 -0.0028444949764617907 0.00058991305802762542 0 -0.0032150010530591659 0.00061227907854489538 0 -0.0030294879362343036 0.0001190901118108372 0 -0.002826671843191558 -0.0019869158892627729 0 -0.00320039991933674 -0.0024570534641061583 0 -0.0032917852919571509 -0.0021044313206466493 0 -0.003008221486422844 -0.00068431732161357858 0 -0.0034907742476545495 -0.001258610439406591 0 -0.0026593092004184612 -0.00023448525189198916 0 -0.0030294879362343036 0.0001190901118108372 0 -0.0032449342503234036 -0.00048606050453535389 0 -0.0036476861905720289 -0.00011244980939408571 0 -0.0030294879362343036 0.0001190901118108372 0 -0.0032449342503234036 -0.00048606050453535389 0 -0.0040495322270374008 -0.0024635368551594278 0 -0.0036728200892608737 -0.0021552629764830752 0 -0.003490414470646532 -0.0024081361668925922 0 -0.0036728200892608737 -0.0021552629764830752 0 -0.0032917852919571509 -0.0021044313206466493 0 -0.003490414470646532 -0.0024081361668925922 0 -0.00320039991933674 -0.0024570534641061583 0 -0.003490414470646532 -0.0024081361668925922 0 -0.0035880182883399878 -0.0025873223249523883 0 -0.00320039991933674 -0.0024570534641061583 0 -0.0032917852919571509 -0.0021044313206466493 0 -0.003490414470646532 -0.0024081361668925922 0 -0.0039304607828452845 -0.0024588354495453007 0 -0.0035174729848182415 -0.0024065129112085066 0 -0.0038088275635220865 -0.0023973663554803419 0 -0.003490414470646532 -0.0024081361668925922 0 -0.0035880182883399878 -0.0025873223249523883 0 -0.0032754444029534781 -0.0019988686212126824 0 -0.0035120943952787966 -0.0026412174185303275 0 -0.0035880182883399878 -0.0025873223249523883 0 -0.0034490832618218207 -0.0027613093643854506 0 -0.0037756718348064757 -0.0026401250054045406 0 -0.0034907742476545495 -0.001258610439406591 0 -0.0032754444029534781 -0.0019988686212126824 0 -0.00320039991933674 -0.0024570534641061583 0 -0.0035880182883399878 -0.0025873223249523883 0 -0.0034490832618218207 -0.0027613093643854506 0 -0.0025636110364075783 -0.0022401279037713709 0 -0.0028180681825399384 -0.0026050331233169466 0 -0.0023301119308779287 -0.0026253290060151914 0 -0.0028838331128993918 -0.0025817428895053389 0 -0.0033033584371133947 -0.0027500951483760026 0 -0.0033379230619970373 -0.0024580378565529568 0 -0.0032754444029534781 -0.0019988686212126824 0 -0.0029285576093849111 -0.0027624322340955884 0 -0.0028838331128993918 -0.0025817428895053389 0 -0.0030550529248069926 -0.0028566473402544968 0 -0.0033033584371133947 -0.0027500951483760026 0 -0.0028162149575413505 -0.00072749715282244298 0 -0.0032449342503234036 -0.00048606050453535389 0 -0.0033138012725701747 -0.0010333021015351 0 -0.0026593092004184612 -0.00023448525189198916 0 -0.0028162149575413505 -0.00072749715282244298 0 -0.0032449342503234036 -0.00048606050453535389 0 -0.0036476861905720289 -0.00011244980939408571 0 -0.0040778129022952221 -0.00082278654944948769 0 -0.0032449342503234036 -0.00048606050453535389 0 -0.0040778129022952221 -0.00082278654944948769 0 -0.0032449342503234036 -0.00048606050453535389 0 -0.0033138012725701747 -0.0010333021015351 0 -0.0025636110364075783 -0.0022401279037713709 0 -0.0020105333099623445 -0.0024432721414702095 0 -0.0023301119308779287 -0.0026253290060151914 0 -0.0032754444029534781 -0.0019988686212126824 0 -0.0026910359090870505 -0.0016771311273076307 0 -0.0020957574014538972 -0.0018971442609490175 0 -0.0026910359090870505 -0.0016771311273076307 0 -0.0028162149575413505 -0.00072749715282244298 0 -0.0025375743051426879 -0.0012435700118656459 0 -0.0033138012725701747 -0.0010333021015351 0 -0.0016778832326039736 -0.0026025661650116911 0 -0.0020105333099623445 -0.0024432721414702095 0 -0.0018478839496985984 -0.0028280416863656569 0 -0.0018478839496985984 -0.0028280416863656569 0 -0.0023301119308779287 -0.0026253290060151914 0 -0.0023095723205049656 -0.0030678642498882885 0 -0.0020105333099623445 -0.0024432721414702095 0 -0.0018478839496985984 -0.0028280416863656569 0 -0.0023301119308779287 -0.0026253290060151914 0 -0.0017287032715148204 -0.0032094103171490182 0 -0.0018478839496985984 -0.0028280416863656569 0 -0.0023095723205049656 -0.0030678642498882885 0 -0.0029285576093849111 -0.0027624322340955884 0 -0.0031320954150536469 -0.0030544259063266035 0 -0.0030550529248069926 -0.0028566473402544968 0 -0.00314983750042176 -0.0030926388377876925 0 -0.0033033584371133947 -0.0027500951483760026 0 -0.0028180681825399384 -0.0026050331233169466 0 -0.0027494044390808702 -0.0032411113832302584 0 -0.00314983750042176 -0.0030926388377876925 0 -0.0028180681825399384 -0.0026050331233169466 0 -0.0023301119308779287 -0.0026253290060151914 0 -0.0023095723205049656 -0.0030678642498882885 0 -0.0028180681825399384 -0.0026050331233169466 0 -0.0023095723205049656 -0.0030678642498882885 0 -0.0027494044390808702 -0.0032411113832302584 0 -0.0030646987158757465 -0.0036138076688004132 0 -0.0027494044390808702 -0.0032411113832302584 0 -0.00314983750042176 -0.0030926388377876925 0 -0.0030646987158757465 -0.0036138076688004132 0 -0.00314983750042176 -0.0030926388377876925 0 -0.0035562959180265434 -0.0034431307287239791 0 -0.00314983750042176 -0.0030926388377876925 0 -0.0035562959180265434 -0.0034431307287239791 0 -0.0035298973787319284 -0.0030433119680726441 0 -0.0035562959180265434 -0.0034431307287239791 0 -0.0035298973787319284 -0.0030433119680726441 0 -0.0038944183244299926 -0.0032368365250619578 0 -0.0040632078584719161 -0.0037384392206129082 0 -0.0035562959180265434 -0.0034431307287239791 0 -0.0038944183244299926 -0.0032368365250619578 0 -0.0035298973787319284 -0.0030433119680726441 0 -0.003628858203079113 -0.002801695439853849 0 -0.0038890844274379866 -0.0029506159254086097 0 -0.0035298973787319284 -0.0030433119680726441 0 -0.0038890844274379866 -0.0029506159254086097 0 -0.0038944183244299926 -0.0032368365250619578 0 -0.00314983750042176 -0.0030926388377876925 0 -0.0035298973787319284 -0.0030433119680726441 0 -0.0033033584371133947 -0.0027500951483760026 0 -0.0035298973787319284 -0.0030433119680726441 0 -0.0033033584371133947 -0.0027500951483760026 0 -0.003628858203079113 -0.002801695439853849 0 -0.0033033584371133947 -0.0027500951483760026 0 -0.003628858203079113 -0.002801695439853849 0 -0.0036146106806325125 -0.0026004227404475399 0 -0.0033033584371133947 -0.0027500951483760026 0 -0.0036146106806325125 -0.0026004227404475399 0 -0.0033379230619970373 -0.0024580378565529568 0 -0.003628858203079113 -0.002801695439853849 0 -0.0036146106806325125 -0.0026004227404475399 0 -0.0039365996215753778 -0.0026316941398106027 0 -0.003628858203079113 -0.002801695439853849 0 -0.0039365996215753778 -0.0026316941398106027 0 -0.0038890844274379866 -0.0029506159254086097 0 -0.0036146106806325125 -0.0026004227404475399 0 -0.0038586100184268466 -0.0023765239230490493 0 -0.0033379230619970373 -0.0024580378565529568 0 -0.0036146106806325125 -0.0026004227404475399 0 -0.0038586100184268466 -0.0023765239230490493 0 -0.0039365996215753778 -0.0026316941398106027 0 -0.0039621138958288379 -0.0024387329345581252 0 -0.0035120943952787966 -0.0026412174185303275 0 -0.0042740768794403564 -0.0023917878924773358 0 -0.0042872138865256071 -0.0025882738485269361 0 -0.0041087534714618406 -0.0025222538301734802 0 -0.0042872138865256071 -0.0025882738485269361 0 -0.0041087534714618406 -0.0025222538301734802 0 -0.0041423570764198923 -0.0026930784073823455 0 -0.0042740768794403564 -0.0023917878924773358 0 -0.0038586100184268466 -0.0023765239230490493 0 -0.0041087534714618406 -0.0025222538301734802 0 -0.0038586100184268466 -0.0023765239230490493 0 -0.0041087534714618406 -0.0025222538301734802 0 -0.0039365996215753778 -0.0026316941398106027 0 -0.0041087534714618406 -0.0025222538301734802 0 -0.0039365996215753778 -0.0026316941398106027 0 -0.0041423570764198923 -0.0026930784073823455 0 -0.0039365996215753778 -0.0026316941398106027 0 -0.0040960633613001084 -0.0028268300412853608 0 -0.0041423570764198923 -0.0026930784073823455 0 -0.0039365996215753778 -0.0026316941398106027 0 -0.0040960633613001084 -0.0028268300412853608 0 -0.0038890844274379866 -0.0029506159254086097 0 -0.0042872138865256071 -0.0025882738485269361 0 -0.0041423570764198923 -0.0026930784073823455 0 -0.0042681944876727263 -0.0029630722294300784 0 -0.0057657468259837974 -0.0079293699028083423 0 -0.0058232876349027405 -0.0073451105513147952 0 -0.0056054460612504015 -0.007621661546560082 0 -0.0050369180388256454 -0.0055434733286613058 0 -0.0049304272030612582 -0.004609488661420076 0 -0.0040960633613001084 -0.0028268300412853608 0 -0.0041423570764198923 -0.0026930784073823455 0 -0.0042681944876727263 -0.0029630722294300784 0 -0.0049304272030612582 -0.004609488661420076 0 -0.0049064312019496447 -0.0039806449328727567 0 -0.0043780141442407343 -0.0029849963611446591 0 -0.0043726929465325876 -0.0030719604471008723 0 -0.004165127439337381 -0.0030016358706890837 0 -0.0037516122055219463 -0.0027717361031726483 0 -0.0049304272030612582 -0.004609488661420076 0 -0.0040960633613001084 -0.0028268300412853608 0 -0.0043780141442407343 -0.0029849963611446591 0 -0.004165127439337381 -0.0030016358706890837 0 -0.0043726929465325876 -0.0030719604471008723 0 -0.004165127439337381 -0.0030016358706890837 0 -0.0042183386927767052 -0.0032990311375410818 0 -0.0040960633613001084 -0.0028268300412853608 0 -0.0038890844274379866 -0.0029506159254086097 0 -0.004165127439337381 -0.0030016358706890837 0 -0.004165127439337381 -0.0030016358706890837 0 -0.0038944183244299926 -0.0032368365250619578 0 -0.0042183386927767052 -0.0032990311375410818 0 -0.0038890844274379866 -0.0029506159254086097 0 -0.004165127439337381 -0.0030016358706890837 0 -0.0038944183244299926 -0.0032368365250619578 0 -0.0040632078584719161 -0.0037384392206129082 0 -0.0038944183244299926 -0.0032368365250619578 0 -0.0042183386927767052 -0.0032990311375410818 0 -0.0040632078584719161 -0.0037384392206129082 0 -0.0042183386927767052 -0.0032990311375410818 0 -0.0044768686996700391 -0.0035556855145429792 0 -0.0044987130097043047 -0.0033287655430376865 0 -0.0042183386927767052 -0.0032990311375410818 0 -0.0044768686996700391 -0.0035556855145429792 0 -0.0043726929465325876 -0.0030719604471008723 0 -0.0044987130097043047 -0.0033287655430376865 0 -0.0042183386927767052 -0.0032990311375410818 0 -0.0043726929465325876 -0.0030719604471008723 0 -0.0044987130097043047 -0.0033287655430376865 0 -0.0049339117741029302 -0.0033877053933219904 0 -0.0044987130097043047 -0.0033287655430376865 0 -0.0044768686996700391 -0.0035556855145429792 0 -0.0049339117741029302 -0.0033877053933219904 0 -0.0046453804438167145 -0.0045083926931880451 0 -0.0043902871997662848 -0.0042937999587267595 0 -0.004648383382040995 -0.0043250568255857273 0 -0.0043929275506213172 -0.003825184287211987 0 -0.005308957649307099 -0.0052118891967749053 0 -0.0058232876349027405 -0.0073451105513147952 0 -0.0055103280092574126 -0.007351655097604836 0 -0.0052778914082976976 -0.0069708212862520606 0 -0.0043833725811269365 -0.0029885234438710687 0 -0.0043726929465325876 -0.0030719604471008723 0 -0.0049339117741029302 -0.0033877053933219904 0 -0.0049304272030612582 -0.004609488661420076 0 -0.005308957649307099 -0.0052118891967749053 0 -0.0055103280092574126 -0.007351655097604836 0 -0.0052868534964757487 -0.0072414599036431781 0 -0.0052778914082976976 -0.0069708212862520606 0 -0.0053372562713380972 -0.0074697889848561244 0 -0.0055103280092574126 -0.007351655097604836 0 -0.0052868534964757487 -0.0072414599036431781 0 -0.0053372562713380972 -0.0074697889848561244 0 -0.0055103280092574126 -0.007351655097604836 0 -0.0054628936734148117 -0.0075326138986552714 0 -0.0058232876349027405 -0.0073451105513147952 0 -0.0055103280092574126 -0.007351655097604836 0 -0.0056054460612504015 -0.007621661546560082 0 -0.0052868534964757487 -0.0072414599036431781 0 -0.0052778914082976976 -0.0069708212862520606 0 -0.0049291369804490663 -0.0071352994628343467 0 -0.005106374200758124 -0.0073959577440922061 0 -0.0052868534964757487 -0.0072414599036431781 0 -0.0049291369804490663 -0.0071352994628343467 0 -0.005106374200758124 -0.0073959577440922061 0 -0.0049291369804490663 -0.0071352994628343467 0 -0.004880709723242822 -0.0074616581741422591 0 -0.0053372562713380972 -0.0074697889848561244 0 -0.005106374200758124 -0.0073959577440922061 0 -0.0052868534964757487 -0.0072414599036431781 0 -0.0058266278407091282 -0.0057378287360150401 0 -0.0066999395879439759 -0.0063778216480221868 0 -0.0056735001237687224 -0.006820028379720398 0 -0.005308957649307099 -0.0052118891967749053 0 -0.0053031463746735516 -0.0069819952475748343 0 -0.0048062887024864307 -0.0045602697672295911 0 -0.0046453804438167145 -0.0045083926931880451 0 -0.004648383382040995 -0.0043250568255857273 0 -0.0053340304653665318 -0.0051877481008410567 0 -0.005308957649307099 -0.0052118891967749053 0 -0.0051683369760521505 -0.0062221826458453786 0 -0.0046253184782356774 -0.0072316220378019283 0 -0.0056735001237687224 -0.006820028379720398 0 -0.0058266278407091282 -0.0057378287360150401 0 -0.0051683369760521505 -0.0062221826458453786 0 -0.0056735001237687224 -0.006820028379720398 0 -0.0044705504631170701 -0.0061066034612531324 0 -0.0046253184782356774 -0.0072316220378019283 0 -0.0039032707359816848 -0.0068764319530224584 0 -0.0051683369760521505 -0.0062221826458453786 0 -0.0044705504631170701 -0.0061066034612531324 0 -0.0046253184782356774 -0.0072316220378019283 0 -0.0046253184782356774 -0.0072316220378019283 0 -0.0039032707359816848 -0.0068764319530224584 0 -0.0041198533447163255 -0.0075635976296211053 0 -0.0046253184782356774 -0.0072316220378019283 0 -0.004880709723242822 -0.0074616581741422591 0 -0.0045736014999874335 -0.0077011975583465928 0 -0.0046990288578221875 -0.0072094694215157134 0 -0.0053031463746735516 -0.0069819952475748343 0 -0.0046253184782356774 -0.0072316220378019283 0 -0.0049291369804490663 -0.0071352994628343467 0 -0.004880709723242822 -0.0074616581741422591 0 -0.004880709723242822 -0.0074616581741422591 0 -0.0048265337451896973 -0.0077257049541164958 0 -0.0051090680436853483 -0.0076865068975928387 0 -0.004880709723242822 -0.0074616581741422591 0 -0.0048265337451896973 -0.0077257049541164958 0 -0.0045736014999874335 -0.0077011975583465928 0 -0.0048265337451896973 -0.0077257049541164958 0 -0.0045736014999874335 -0.0077011975583465928 0 -0.004642673903902792 -0.0080545458179942398 0 -0.0046253184782356774 -0.0072316220378019283 0 -0.0045736014999874335 -0.0077011975583465928 0 -0.0041198533447163255 -0.0075635976296211053 0 -0.0045736014999874335 -0.0077011975583465928 0 -0.0041198533447163255 -0.0075635976296211053 0 -0.0041493657839069345 -0.0081038057065235761 0 -0.0045736014999874335 -0.0077011975583465928 0 -0.004642673903902792 -0.0080545458179942398 0 -0.0041493657839069345 -0.0081038057065235761 0 -0.004642673903902792 -0.0080545458179942398 0 -0.0041493657839069345 -0.0081038057065235761 0 -0.0043530711737908854 -0.0084641408429627276 0 -0.0048265337451896973 -0.0077257049541164958 0 -0.0049205298279420551 -0.0079163265381891855 0 -0.004642673903902792 -0.0080545458179942398 0 -0.0049205298279420551 -0.0079163265381891855 0 -0.004642673903902792 -0.0080545458179942398 0 -0.0049137712386098436 -0.0082072632601032074 0 -0.004642673903902792 -0.0080545458179942398 0 -0.0049137712386098436 -0.0082072632601032074 0 -0.0046946557697917007 -0.0083866883421624527 0 -0.0049137712386098436 -0.0082072632601032074 0 -0.0051115003731145347 -0.0082110742582961246 0 -0.0050220252505006622 -0.0083661147093430904 0 -0.0049137712386098436 -0.0082072632601032074 0 -0.0050922964417035935 -0.0079891549203619638 0 -0.0051115003731145347 -0.0082110742582961246 0 -0.0049205298279420551 -0.0079163265381891855 0 -0.0049137712386098436 -0.0082072632601032074 0 -0.0050922964417035935 -0.0079891549203619638 0 -0.0050922964417035935 -0.0079891549203619638 0 -0.0052677506841211259 -0.0078745366540255383 0 -0.0052491153208592605 -0.0080714762185960763 0 -0.0050922964417035935 -0.0079891549203619638 0 -0.0052491153208592605 -0.0080714762185960763 0 -0.0051115003731145347 -0.0082110742582961246 0 -0.0052491153208592605 -0.0080714762185960763 0 -0.0051115003731145347 -0.0082110742582961246 0 -0.0052526654161600423 -0.0082193924530403976 0 -0.0052491153208592605 -0.0080714762185960763 0 -0.0052526654161600423 -0.0082193924530403976 0 -0.0054089650847885017 -0.0081442915448218644 0 -0.0052526654161600423 -0.0082193924530403976 0 -0.0054089650847885017 -0.0081442915448218644 0 -0.005338503954521602 -0.0083178259901124218 0 -0.0057657468259837974 -0.0079293699028083423 0 -0.0054089650847885017 -0.0081442915448218644 0 -0.0055405767865809438 -0.0082786523118628698 0 -0.0057657468259837974 -0.0079293699028083423 0 -0.0054089650847885017 -0.0081442915448218644 0 -0.0054474385963342135 -0.0078892346160748996 0 -0.0052677506841211259 -0.0078745366540255383 0 -0.0052491153208592605 -0.0080714762185960763 0 -0.0054474385963342135 -0.0078892346160748996 0 -0.0052491153208592605 -0.0080714762185960763 0 -0.0054089650847885017 -0.0081442915448218644 0 -0.0054474385963342135 -0.0078892346160748996 0 -0.0052677506841211259 -0.0078745366540255383 0 -0.0054474385963342135 -0.0078892346160748996 0 -0.0053982734240655235 -0.0076899905908275196 0 -0.0054474385963342135 -0.0078892346160748996 0 -0.0053982734240655235 -0.0076899905908275196 0 -0.0056054460612504015 -0.007621661546560082 0 -0.0057657468259837974 -0.0079293699028083423 0 -0.0054474385963342135 -0.0078892346160748996 0 -0.0056054460612504015 -0.007621661546560082 0 -0.0055103280092574126 -0.007351655097604836 0 -0.0056054460612504015 -0.007621661546560082 0 -0.0054628936734148117 -0.0075326138986552714 0 -0.0053982734240655235 -0.0076899905908275196 0 -0.0056054460612504015 -0.007621661546560082 0 -0.0054628936734148117 -0.0075326138986552714 0 -0.0053372562713380972 -0.0074697889848561244 0 -0.0053982734240655235 -0.0076899905908275196 0 -0.0054628936734148117 -0.0075326138986552714 0 -0.0053372562713380972 -0.0074697889848561244 0 -0.005106374200758124 -0.0073959577440922061 0 -0.0051090680436853483 -0.0076865068975928387 0 -0.0053372562713380972 -0.0074697889848561244 0 -0.0053982734240655235 -0.0076899905908275196 0 -0.0051090680436853483 -0.0076865068975928387 0 -0.005106374200758124 -0.0073959577440922061 0 -0.004880709723242822 -0.0074616581741422591 0 -0.0051090680436853483 -0.0076865068975928387 0 -0.0049205298279420551 -0.0079163265381891855 0 -0.0050922964417035935 -0.0079891549203619638 0 -0.0051090680436853483 -0.0076865068975928387 0 -0.0048265337451896973 -0.0077257049541164958 0 -0.0049205298279420551 -0.0079163265381891855 0 -0.0051090680436853483 -0.0076865068975928387 0 -0.0050922964417035935 -0.0079891549203619638 0 -0.0052677506841211259 -0.0078745366540255383 0 -0.0051090680436853483 -0.0076865068975928387 0 -0.0052677506841211259 -0.0078745366540255383 0 -0.0053982734240655235 -0.0076899905908275196 0 -0.0051090680436853483 -0.0076865068975928387 0 -0.003310366088959623 -0.0081074900247462695 0 -0.0032481739761819899 -0.0080309722084955567 0 -0.0033782094485108913 -0.0080518957638378644 0 -0.003310366088959623 -0.0081074900247462695 0 -0.0033603542439841084 -0.0081475090132868463 0 -0.0033074675930973851 -0.0081811490643515835 0 -0.003254588592286519 -0.0081325039180182683 0 -0.003310366088959623 -0.0081074900247462695 0 -0.0033074675930973851 -0.0081811490643515835 0 -0.003254588592286519 -0.0081325039180182683 0 -0.003310366088959623 -0.0081074900247462695 0 -0.0032481739761819899 -0.0080309722084955567 0 -0.0031602983322918106 -0.0078996060856293075 0 -0.0031184544128128391 -0.0079896786135860345 0 -0.0031246306502265542 -0.0079317018165658646 0 -0.0032541197829190523 -0.0080960149681925924 0 -0.002824725997011039 -0.0072789987046464446 0 -0.0031602983322918106 -0.0078996060856293075 0 -0.0031184544128128391 -0.0079896786135860345 0 -0.0032101637571806587 -0.0079066479869510584 0 -0.003078690217916148 -0.008016403999843838 0 -0.0031184544128128391 -0.0079896786135860345 0 -0.0031246306502265542 -0.0079317018165658646 0 -0.0025452150550773342 -0.0071493829631657782 0 -0.0030051373322426095 -0.0076394596929715355 0 -0.0031454336574243727 -0.0079088299513667623 0 -0.0031674129019500993 -0.0078971571930109823 0 -0.0031246306502265542 -0.0079317018165658646 0 -0.0024981260139219858 -0.006186808143197592 0 -0.0031244218564911623 -0.0074994253374828226 0 -0.0032481739761819899 -0.0080309722084955567 0 -0.0033879732137345217 -0.0080318023771171598 0 -0.0033782094485108913 -0.0080518957638378644 0 -0.0032481739761819899 -0.0080309722084955567 0 -0.0033977872072587165 -0.0079490452409835405 0 -0.0033879732137345217 -0.0080318023771171598 0 -0.0029571104610014681 -0.0067563861206531347 0 -0.0027217075531687134 -0.0068828599969963447 0 -0.0026624780741849072 -0.007284600608118974 0 -0.002824725997011039 -0.0072789987046464446 0 -0.0031244218564911623 -0.0074994253374828226 0 -0.0031244218564911623 -0.0074994253374828226 0 -0.0031098027289016058 -0.0076272746456613333 0 -0.003228504837148679 -0.0070166753647290256 0 -0.0031890643188979069 -0.0075384866910380701 0 -0.0034581887516803213 -0.0073076479711235215 0 -0.0033922533144632376 -0.0080312001207419985 0 -0.0033782094485108913 -0.0080518957638378644 0 -0.0033603542439841084 -0.0081475090132868463 0 -0.0031244218564911623 -0.0074994253374828226 0 -0.0032881762404603217 -0.007838104266033992 0 -0.003310366088959623 -0.0081074900247462695 0 -0.0033782094485108913 -0.0080518957638378644 0 -0.0033603542439841084 -0.0081475090132868463 0 -0.0031890643188979069 -0.0075384866910380701 0 -0.0034581887516803213 -0.0073076479711235215 0 -0.0034976984694452475 -0.0076882101532798376 0 -0.0034581887516803213 -0.0073076479711235215 0 -0.0037100783903658303 -0.0075974839022260208 0 -0.0034976984694452475 -0.0076882101532798376 0 -0.0034581887516803213 -0.0073076479711235215 0 -0.0036867097390558814 -0.0071620630191142603 0 -0.0037100783903658303 -0.0075974839022260208 0 -0.0034581887516803213 -0.0073076479711235215 0 -0.0036867097390558814 -0.0071620630191142603 0 -0.0034746634187881311 -0.0069970090453866842 0 -0.003228504837148679 -0.0070166753647290256 0 -0.0034581887516803213 -0.0073076479711235215 0 -0.0034746634187881311 -0.0069970090453866842 0 -0.0034697180929032997 -0.0066473102174827393 0 -0.0034746634187881311 -0.0069970090453866842 0 -0.0036111867056693534 -0.00684900558533417 0 -0.0034697180929032997 -0.0066473102174827393 0 -0.003228504837148679 -0.0070166753647290256 0 -0.0034746634187881311 -0.0069970090453866842 0 -0.0035360175663503349 -0.0066256543565156251 0 -0.0036111867056693534 -0.00684900558533417 0 -0.0039032707359816848 -0.0068764319530224584 0 -0.0034697180929032997 -0.0066473102174827393 0 -0.0035360175663503349 -0.0066256543565156251 0 -0.0036111867056693534 -0.00684900558533417 0 -0.0036867097390558814 -0.0071620630191142603 0 -0.0034746634187881311 -0.0069970090453866842 0 -0.0036111867056693534 -0.00684900558533417 0 -0.003713304606783735 -0.0057501849954326115 0 -0.0044705504631170701 -0.0061066034612531324 0 -0.0039032707359816848 -0.0068764319530224584 0 -0.0023634381745395788 -0.0057687816097105942 0 -0.004119546005827722 -0.0070182802159610208 0 -0.003713304606783735 -0.0057501849954326115 0 -0.002550103573335931 -0.0055682097533787311 0 -0.0039032707359816848 -0.0068764319530224584 0 -0.0036867097390558814 -0.0071620630191142603 0 -0.0036111867056693534 -0.00684900558533417 0 -0.0039032707359816848 -0.0068764319530224584 0 -0.0036867097390558814 -0.0071620630191142603 0 -0.0041198533447163255 -0.0075635976296211053 0 -0.0037100783903658303 -0.0075974839022260208 0 -0.0036867097390558814 -0.0071620630191142603 0 -0.0039032707359816848 -0.0068764319530224584 0 -0.0041198533447163255 -0.0075635976296211053 0 -0.0041198533447163255 -0.0075635976296211053 0 -0.0038854133202496006 -0.0078968854360687377 0 -0.0037100783903658303 -0.0075974839022260208 0 -0.0041198533447163255 -0.0075635976296211053 0 -0.0038854133202496006 -0.0078968854360687377 0 -0.0041493657839069345 -0.0081038057065235761 0 -0.0038854133202496006 -0.0078968854360687377 0 -0.0041493657839069345 -0.0081038057065235761 0 -0.0036851451318465991 -0.0083875884657699587 0 -0.0038854133202496006 -0.0078968854360687377 0 -0.0036207722231591647 -0.0080062009185599067 0 -0.0036851451318465991 -0.0083875884657699587 0 -0.0036207722231591647 -0.0080062009185599067 0 -0.0033274463937161486 -0.0081710186890727125 0 -0.0036851451318465991 -0.0083875884657699587 0 -0.0038854133202496006 -0.0078968854360687377 0 -0.0036207722231591647 -0.0080062009185599067 0 -0.0037100783903658303 -0.0075974839022260208 0 -0.0036207722231591647 -0.0080062009185599067 0 -0.0037100783903658303 -0.0075974839022260208 0 -0.0034976984694452475 -0.0076882101532798376 0 -0.0033603542439841084 -0.0081475090132868463 0 -0.0033274463937161486 -0.0081710186890727125 0 -0.0033074675930973851 -0.0081811490643515835 0 -0.0032881762404603217 -0.007838104266033992 0 -0.003301617549510204 -0.0081046253399835368 0 -0.0031890643188979069 -0.0075384866910380701 0 -0.0034976984694452475 -0.0076882101532798376 0 -0.0033274463937161486 -0.0081710186890727125 0 -0.0036207722231591647 -0.0080062009185599067 0 -0.0034976984694452475 -0.0076882101532798376 0 -0.0033274463937161486 -0.0081710186890727125 0 -0.0033274463937161486 -0.0081710186890727125 0 -0.003392643472982711 -0.008480583888550686 0 -0.0036851451318465991 -0.0083875884657699587 0 -0.0032577107673400899 -0.0085260663814724844 0 -0.0032838610998694841 -0.008299724765167011 0 -0.003392643472982711 -0.008480583888550686 0 -0.0033274463937161486 -0.0081710186890727125 0 -0.0032838610998694841 -0.008299724765167011 0 -0.003392643472982711 -0.008480583888550686 0 -0.0032175305110629352 -0.0082113521038626701 0 -0.0032838610998694841 -0.008299724765167011 0 -0.0033074675930973851 -0.0081811490643515835 0 -0.0033274463937161486 -0.0081710186890727125 0 -0.0032838610998694841 -0.008299724765167011 0 -0.0033074675930973851 -0.0081811490643515835 0 -0.0032175305110629352 -0.0082113521038626701 0 -0.003254588592286519 -0.0081325039180182683 0 -0.0033074675930973851 -0.0081811490643515835 0 -0.0033793633464804665 -0.0088580898363087961 0 -0.0033345124405814862 -0.0086855309568546861 0 -0.0034790445849358464 -0.0086916777227782262 0 -0.0032659245906082662 -0.0090803395617316384 0 -0.0033793633464804665 -0.0088580898363087961 0 -0.0033345124405814862 -0.0086855309568546861 0 -0.0032577107673400899 -0.0085260663814724844 0 -0.0033345124405814862 -0.0086855309568546861 0 -0.003392643472982711 -0.008480583888550686 0 -0.0034790445849358464 -0.0086916777227782262 0 -0.003392643472982711 -0.008480583888550686 0 -0.0036851451318465991 -0.0083875884657699587 0 -0.0033345124405814862 -0.0086855309568546861 0 -0.0034790445849358464 -0.0086916777227782262 0 -0.003392643472982711 -0.008480583888550686 0 -0.0033793633464804665 -0.0088580898363087961 0 -0.0034790445849358464 -0.0086916777227782262 0 -0.0036567934154525254 -0.0088288357818014293 0 -0.0038374284093701415 -0.0090108789371697567 0 -0.0042949713315298486 -0.0089837850550221841 0 -0.0041160769590812153 -0.009163844722868953 0 -0.0036001341101666979 -0.0089501877582982524 0 -0.0039760803407734215 -0.0089056862786893298 0 -0.0036567934154525254 -0.0088288357818014293 0 -0.0036851451318465991 -0.0083875884657699587 0 -0.0039199045678181233 -0.0085844645110278155 0 -0.0034790445849358464 -0.0086916777227782262 0 -0.0036567934154525254 -0.0088288357818014293 0 -0.0036851451318465991 -0.0083875884657699587 0 -0.0041493657839069345 -0.0081038057065235761 0 -0.0039199045678181233 -0.0085844645110278155 0 -0.0043530711737908854 -0.0084641408429627276 0 -0.0041493657839069345 -0.0081038057065235761 0 -0.0036851451318465991 -0.0083875884657699587 0 -0.0039199045678181233 -0.0085844645110278155 0 -0.0039199045678181233 -0.0085844645110278155 0 -0.0041274899640822696 -0.0088199904900089689 0 -0.0043530711737908854 -0.0084641408429627276 0 -0.0039760803407734215 -0.0089056862786893298 0 -0.0043349617049514054 -0.0088699434127832086 0 -0.0036567934154525254 -0.0088288357818014293 0 -0.0039199045678181233 -0.0085844645110278155 0 -0.0041274899640822696 -0.0088199904900089689 0 -0.0042949713315298486 -0.0089837850550221841 0 -0.0045194170333488536 -0.0089392222485201907 0 -0.0044781886284700877 -0.0091035936804559747 0 -0.0044781886284700877 -0.0091035936804559747 0 -0.0044873442242660449 -0.009264811761320501 0 -0.0046214479867649179 -0.0090424200448706981 0 -0.0044781886284700877 -0.0091035936804559747 0 -0.0044873442242660449 -0.009264811761320501 0 -0.0044021288457953616 -0.0092145635869191403 0 -0.0045194170333488536 -0.0089392222485201907 0 -0.0044781886284700877 -0.0091035936804559747 0 -0.0046214479867649179 -0.0090424200448706981 0 -0.0044873442242660449 -0.009264811761320501 0 -0.0044284690928700172 -0.0094385353583116248 0 -0.0044623382217464803 -0.0093908454573101152 0 -0.0044873442242660449 -0.009264811761320501 0 -0.0044284690928700172 -0.0094385353583116248 0 -0.0044021288457953616 -0.0092145635869191403 0 -0.0042949713315298486 -0.0089837850550221841 0 -0.0044021288457953616 -0.0092145635869191403 0 -0.0041160769590812153 -0.009163844722868953 0 -0.0042949713315298486 -0.0089837850550221841 0 -0.0044781886284700877 -0.0091035936804559747 0 -0.0044021288457953616 -0.0092145635869191403 0 -0.0043857745236937102 -0.009235699043076492 0 -0.0040632284643840472 -0.0093768401683117092 0 -0.0044021288457953616 -0.0092145635869191403 0 -0.0041160769590812153 -0.009163844722868953 0 -0.0038940545777523595 -0.009446897463348097 0 -0.0038374284093701415 -0.0090108789371697567 0 -0.0041160769590812153 -0.009163844722868953 0 -0.0038940545777523595 -0.009446897463348097 0 -0.0044284690928700172 -0.0094385353583116248 0 -0.0044021288457953616 -0.0092145635869191403 0 -0.0042355812959781148 -0.0093199328118763244 0 -0.0044284690928700172 -0.0094385353583116248 0 -0.0042355812959781148 -0.0093199328118763244 0 -0.0041510384824590537 -0.0096658188311824905 0 -0.0035426730019553327 -0.0095797212309766677 0 -0.0040632284643840472 -0.0093768401683117092 0 -0.0037725438592936512 -0.0094826253463651828 0 -0.0042355812959781148 -0.0093199328118763244 0 -0.0041510384824590537 -0.0096658188311824905 0 -0.0033196389724738161 -0.0096400248168881687 0 -0.0038940545777523595 -0.009446897463348097 0 -0.0035816233914182736 -0.0092987402968830752 0 -0.0038374284093701415 -0.0090108789371697567 0 -0.0038940545777523595 -0.009446897463348097 0 -0.0035816233914182736 -0.0092987402968830752 0 -0.0049866556520701023 -0.0087421804453628911 0 -0.0051388220955320184 -0.0087148019742915375 0 -0.0051497367888233177 -0.0086026326471347579 0 -0.0049866556520701023 -0.0087421804453628911 0 -0.0048118482437097387 -0.0089330941987909029 0 -0.0049719492925215988 -0.0089280029374389919 0 -0.0049866556520701023 -0.0087421804453628911 0 -0.0050953290172354136 -0.0088203844054877117 0 -0.0049719492925215988 -0.0089280029374389919 0 -0.0049866556520701023 -0.0087421804453628911 0 -0.0050953290172354136 -0.0088203844054877117 0 -0.0051388220955320184 -0.0087148019742915375 0 -0.0050953290172354136 -0.0088203844054877117 0 -0.005239575627452803 -0.00880190566044603 0 -0.0051388220955320184 -0.0087148019742915375 0 -0.0050953290172354136 -0.0088203844054877117 0 -0.005239575627452803 -0.00880190566044603 0 -0.0050996415994624348 -0.0089222208017219716 0 -0.005239575627452803 -0.00880190566044603 0 -0.0051388220955320184 -0.0087148019742915375 0 -0.0051856962892227951 -0.0086237360546861912 0 -0.0049395719934513613 -0.0062691463029617726 0 -0.0049668478726311374 -0.0060273180105476481 0 -0.0051281269244195359 -0.0062711897702212877 0 -0.004989852401069585 -0.0061957635391693723 0 -0.0054817324399973012 -0.0076273681598281592 0 -0.0051388220955320184 -0.0087148019742915375 0 -0.0051856962892227951 -0.0086237360546861912 0 -0.0051497367888233177 -0.0086026326471347579 0 -0.0054817324399973012 -0.0076273681598281592 0 -0.0052257941113118414 -0.0080089336853960934 0 -0.0054220913702183416 -0.0086051482596507488 0 -0.0053417734203516859 -0.0084848353360492401 0 -0.0051497367888233177 -0.0086026326471347579 0 -0.0054817324399973012 -0.0076273681598281592 0 -0.0055781202113227204 -0.0079294096719733972 0 -0.0054024497149085492 -0.0085606057097360206 0 -0.0053417734203516859 -0.0084848353360492401 0 -0.0054573516641975364 -0.0084212321527358594 0 -0.0053417734203516859 -0.0084848353360492401 0 -0.0052018955862548257 -0.0084616699762348705 0 -0.0051497367888233177 -0.0086026326471347579 0 -0.0056885388013240357 -0.0085353254021125098 0 -0.0054024497149085492 -0.0085606057097360206 0 -0.0054573516641975364 -0.0084212321527358594 0 -0.0048440223675850864 -0.0045821520376400655 0 -0.0054817324399973012 -0.0076273681598281592 0 -0.0056885388013240357 -0.0085353254021125098 0 -0.0055405767865809438 -0.0082786523118628698 0 -0.0054573516641975364 -0.0084212321527358594 0 -0.0054089650847885017 -0.0081442915448218644 0 -0.0055405767865809438 -0.0082786523118628698 0 -0.005338503954521602 -0.0083178259901124218 0 -0.0055405767865809438 -0.0082786523118628698 0 -0.0054573516641975364 -0.0084212321527358594 0 -0.005338503954521602 -0.0083178259901124218 0 -0.0053417734203516859 -0.0084848353360492401 0 -0.005338503954521602 -0.0083178259901124218 0 -0.0052018955862548257 -0.0084616699762348705 0 -0.0053417734203516859 -0.0084848353360492401 0 -0.0054573516641975364 -0.0084212321527358594 0 -0.005338503954521602 -0.0083178259901124218 0 -0.0051115003731145347 -0.0082110742582961246 0 -0.0052526654161600423 -0.0082193924530403976 0 -0.0051570938376163701 -0.0083584326754861486 0 -0.0052526654161600423 -0.0082193924530403976 0 -0.005338503954521602 -0.0083178259901124218 0 -0.0051570938376163701 -0.0083584326754861486 0 -0.0051115003731145347 -0.0082110742582961246 0 -0.0051570938376163701 -0.0083584326754861486 0 -0.0050220252505006622 -0.0083661147093430904 0 -0.0051570938376163701 -0.0083584326754861486 0 -0.0050468240777733374 -0.0085282998433763232 0 -0.0050220252505006622 -0.0083661147093430904 0 -0.0051570938376163701 -0.0083584326754861486 0 -0.0052018955862548257 -0.0084616699762348705 0 -0.0050468240777733374 -0.0085282998433763232 0 -0.005338503954521602 -0.0083178259901124218 0 -0.0051570938376163701 -0.0083584326754861486 0 -0.0052018955862548257 -0.0084616699762348705 0 -0.0049866556520701023 -0.0087421804453628911 0 -0.0050468240777733374 -0.0085282998433763232 0 -0.0051497367888233177 -0.0086026326471347579 0 -0.0052018955862548257 -0.0084616699762348705 0 -0.0050468240777733374 -0.0085282998433763232 0 -0.0051497367888233177 -0.0086026326471347579 0 -0.0049866556520701023 -0.0087421804453628911 0 -0.0050468240777733374 -0.0085282998433763232 0 -0.0048900243596859587 -0.0085152358803857412 0 -0.0050468240777733374 -0.0085282998433763232 0 -0.0050220252505006622 -0.0083661147093430904 0 -0.0048900243596859587 -0.0085152358803857412 0 -0.0049137712386098436 -0.0082072632601032074 0 -0.0050220252505006622 -0.0083661147093430904 0 -0.0048900243596859587 -0.0085152358803857412 0 -0.0046946557697917007 -0.0083866883421624527 0 -0.0043530711737908854 -0.0084641408429627276 0 -0.0047029804751882393 -0.008779992704093624 0 -0.0046946557697917007 -0.0083866883421624527 0 -0.0048900243596859587 -0.0085152358803857412 0 -0.0047029804751882393 -0.008779992704093624 0 -0.0049137712386098436 -0.0082072632601032074 0 -0.0046946557697917007 -0.0083866883421624527 0 -0.0048900243596859587 -0.0085152358803857412 0 -0.004642673903902792 -0.0080545458179942398 0 -0.0046946557697917007 -0.0083866883421624527 0 -0.0043530711737908854 -0.0084641408429627276 0 -0.0043349617049514054 -0.0088699434127832086 0 -0.0046866494960892471 -0.0087973189235621245 0 -0.0041274899640822696 -0.0088199904900089689 0 -0.0043530711737908854 -0.0084641408429627276 0 -0.0047029804751882393 -0.008779992704093624 0 -0.0045194170333488536 -0.0089392222485201907 0 -0.0047029804751882393 -0.008779992704093624 0 -0.0046214479867649179 -0.0090424200448706981 0 -0.0049866556520701023 -0.0087421804453628911 0 -0.0047029804751882393 -0.008779992704093624 0 -0.0048118482437097387 -0.0089330941987909029 0 -0.0049866556520701023 -0.0087421804453628911 0 -0.0048900243596859587 -0.0085152358803857412 0 -0.0047029804751882393 -0.008779992704093624 0 -0.0047029804751882393 -0.008779992704093624 0 -0.0048118482437097387 -0.0089330941987909029 0 -0.0046214479867649179 -0.0090424200448706981 0 -0.0046214479867649179 -0.0090424200448706981 0 -0.0046153321089848478 -0.0092097168876222549 0 -0.0047952038263771191 -0.0090925407114156188 0 -0.0048118482437097387 -0.0089330941987909029 0 -0.0046214479867649179 -0.0090424200448706981 0 -0.0047952038263771191 -0.0090925407114156188 0 -0.0044873442242660449 -0.009264811761320501 0 -0.0046153321089848478 -0.0092097168876222549 0 -0.0044729857746754987 -0.0093779310813795445 0 -0.0044873442242660449 -0.009264811761320501 0 -0.0046214479867649179 -0.0090424200448706981 0 -0.0046153321089848478 -0.0092097168876222549 0 -0.0047952038263771191 -0.0090925407114156188 0 -0.0048836513917906678 -0.0091994688829283924 0 -0.0046992761686254301 -0.0092982362464467741 0 -0.0046153321089848478 -0.0092097168876222549 0 -0.0047952038263771191 -0.0090925407114156188 0 -0.0046992761686254301 -0.0092982362464467741 0 -0.0047952038263771191 -0.0090925407114156188 0 -0.0048836513917906678 -0.0091994688829283924 0 -0.0049967947013826635 -0.0090533823640715876 0 -0.0048836513917906678 -0.0091994688829283924 0 -0.0049967947013826635 -0.0090533823640715876 0 -0.005048047821454453 -0.0091812932921036036 0 -0.0047952038263771191 -0.0090925407114156188 0 -0.0049967947013826635 -0.0090533823640715876 0 -0.0049719492925215988 -0.0089280029374389919 0 -0.0049967947013826635 -0.0090533823640715876 0 -0.0049719492925215988 -0.0089280029374389919 0 -0.0050996415994624348 -0.0089222208017219716 0 -0.0050953290172354136 -0.0088203844054877117 0 -0.0049719492925215988 -0.0089280029374389919 0 -0.0050996415994624348 -0.0089222208017219716 0 -0.0048118482437097387 -0.0089330941987909029 0 -0.0047952038263771191 -0.0090925407114156188 0 -0.0049719492925215988 -0.0089280029374389919 0 -0.005239575627452803 -0.00880190566044603 0 -0.0050996415994624348 -0.0089222208017219716 0 -0.0051472861387816052 -0.009013825610012214 0 -0.004989852401069585 -0.0061957635391693723 0 -0.0051026725636963812 -0.0099200085312589076 0 -0.0049967947013826635 -0.0090533823640715876 0 -0.0050996415994624348 -0.0089222208017219716 0 -0.0051472861387816052 -0.009013825610012214 0 -0.0052428559766104377 -0.0091047397877235727 0 -0.0051472861387816052 -0.009013825610012214 0 -0.005048047821454453 -0.0091812932921036036 0 -0.0049967947013826635 -0.0090533823640715876 0 -0.0051472861387816052 -0.009013825610012214 0 -0.005048047821454453 -0.0091812932921036036 0 -0.005048047821454453 -0.0091812932921036036 0 -0.0051670970477438669 -0.0093040787574845702 0 -0.0048626939421132168 -0.0094175123350879377 0 -0.0052428559766104377 -0.0091047397877235727 0 -0.005048047821454453 -0.0091812932921036036 0 -0.0051670970477438669 -0.0093040787574845702 0 -0.0036795228205048604 -0.0096832385283744694 0 -0.0040888538222048224 -0.0091532183505857716 0 -0.002597114462213084 -0.0091387622045916925 0 -0.002878446927476068 -0.008731450902739241 0 -0.0025149234706428091 -0.0086098894944868064 0 -0.002597114462213084 -0.0091387622045916925 0 -0.002878446927476068 -0.008731450902739241 0 -0.0031905831555335018 -0.0090171136387622274 0 -0.002878446927476068 -0.008731450902739241 0 -0.0031905831555335018 -0.0090171136387622274 0 -0.0033107108148286864 -0.0088045461875209136 0 -0.0048836513917906678 -0.0091994688829283924 0 -0.005048047821454453 -0.0091812932921036036 0 -0.0048626939421132168 -0.0094175123350879377 0 -0.0048836513917906678 -0.0091994688829283924 0 -0.0048626939421132168 -0.0094175123350879377 0 -0.0046992761686254301 -0.0092982362464467741 0 -0.0046992761686254301 -0.0092982362464467741 0 -0.0044729857746754987 -0.0093779310813795445 0 -0.0045534005759371894 -0.0094305975671663614 0 -0.0046153321089848478 -0.0092097168876222549 0 -0.0046992761686254301 -0.0092982362464467741 0 -0.0044729857746754987 -0.0093779310813795445 0 -0.0044729857746754987 -0.0093779310813795445 0 -0.0045534005759371894 -0.0094305975671663614 0 -0.0043027616019452953 -0.0092318366611458796 0 -0.0041481468348665319 -0.0092263811881685403 0 -0.0043302996976324762 -0.0092073921610612858 0 -0.0048626939421132168 -0.0094175123350879377 0 -0.0046992761686254301 -0.0092982362464467741 0 -0.0045534005759371894 -0.0094305975671663614 0 -0.0031905831555335018 -0.0090171136387622274 0 -0.0033107108148286864 -0.0088045461875209136 0 -0.0037175614809150698 -0.0090141562818467566 0 -0.0040888538222048224 -0.0091532183505857716 0 -0.0041481468348665319 -0.0092263811881685403 0 -0.0033107108148286864 -0.0088045461875209136 0 -0.0037175614809150698 -0.0090141562818467566 0 -0.0035481366588404335 -0.0087496414324482654 0 -0.0035481366588404335 -0.0087496414324482654 0 -0.0033671324011429458 -0.0083354334069188265 0 -0.0035443075216187586 -0.0080742602996043637 0 -0.0037175614809150698 -0.0090141562818467566 0 -0.0035481366588404335 -0.0087496414324482654 0 -0.0039001842600366534 -0.0088506435280658914 0 -0.0035481366588404335 -0.0087496414324482654 0 -0.0039001842600366534 -0.0088506435280658914 0 -0.0037994364548378005 -0.0085057697699132233 0 -0.0037175614809150698 -0.0090141562818467566 0 -0.0039001842600366534 -0.0088506435280658914 0 -0.0043027616019452953 -0.0092318366611458796 0 -0.0039001842600366534 -0.0088506435280658914 0 -0.0037994364548378005 -0.0085057697699132233 0 -0.0042757400659447446 -0.0087253324758808318 0 -0.0035481366588404335 -0.0087496414324482654 0 -0.0040485753179741622 -0.0078460550852258969 0 -0.0035443075216187586 -0.0080742602996043637 0 -0.0035629141613225264 -0.0087339264314481892 0 -0.0039082667237052447 -0.0081736553083719757 0 -0.0040485753179741622 -0.0078460550852258969 0 -0.0035443075216187586 -0.0080742602996043637 0 -0.0034748522445705171 -0.0077672855464931854 0 -0.0033671324011429458 -0.0083354334069188265 0 -0.0035443075216187586 -0.0080742602996043637 0 -0.0032569741796586054 -0.0080646509576392661 0 -0.0035443075216187586 -0.0080742602996043637 0 -0.0032569741796586054 -0.0080646509576392661 0 -0.0034748522445705171 -0.0077672855464931854 0 -0.0032569741796586054 -0.0080646509576392661 0 -0.0031649004319716477 -0.0077675891716467351 0 -0.0034748522445705171 -0.0077672855464931854 0 -0.0033671324011429458 -0.0083354334069188265 0 -0.0032569741796586054 -0.0080646509576392661 0 -0.0031491783259520651 -0.0084610035033265522 0 -0.0032569741796586054 -0.0080646509576392661 0 -0.002935550135784607 -0.0081281280602993992 0 -0.0031491783259520651 -0.0084610035033265522 0 -0.002935550135784607 -0.0081281280602993992 0 -0.0027768887058392472 -0.0077806604318933961 0 -0.0031649004319716477 -0.0077675891716467351 0 -0.0032569741796586054 -0.0080646509576392661 0 -0.002935550135784607 -0.0081281280602993992 0 -0.0031649004319716477 -0.0077675891716467351 0 -0.002935550135784607 -0.0081281280602993992 0 -0.0026142924058781387 -0.0082152430848738914 0 -0.0027768887058392472 -0.0077806604318933961 0 -0.0028058213514951247 -0.0075577260664510711 0 -0.0024735002028640593 -0.0076986377012500835 0 -0.002935550135784607 -0.0081281280602993992 0 -0.0028044129333240444 -0.0084140700489461311 0 -0.0026142924058781387 -0.0082152430848738914 0 -0.002878446927476068 -0.008731450902739241 0 -0.0028044129333240444 -0.0084140700489461311 0 -0.0025149234706428091 -0.0086098894944868064 0 -0.0028044129333240444 -0.0084140700489461311 0 -0.0026142924058781387 -0.0082152430848738914 0 -0.0025149234706428091 -0.0086098894944868064 0 -0.002878446927476068 -0.008731450902739241 0 -0.0028044129333240444 -0.0084140700489461311 0 -0.0031491783259520651 -0.0084610035033265522 0 -0.002878446927476068 -0.008731450902739241 0 -0.0033107108148286864 -0.0088045461875209136 0 -0.0031491783259520651 -0.0084610035033265522 0 -0.0033107108148286864 -0.0088045461875209136 0 -0.0035481366588404335 -0.0087496414324482654 0 -0.0031491783259520651 -0.0084610035033265522 0 -0.0035481366588404335 -0.0087496414324482654 0 -0.0033671324011429458 -0.0083354334069188265 0 -0.0031491783259520651 -0.0084610035033265522 0 -0.002935550135784607 -0.0081281280602993992 0 -0.0028044129333240444 -0.0084140700489461311 0 -0.0031491783259520651 -0.0084610035033265522 0 -0.0040829128440873514 -0.0099996639340770906 0 -0.0041510384824590537 -0.0096658188311824905 0 -0.0045506091612647478 -0.0096629551111780867 0 -0.0044284690928700172 -0.0094385353583116248 0 -0.0041510384824590537 -0.0096658188311824905 0 -0.0045506091612647478 -0.0096629551111780867 0 -0.0045506091612647478 -0.0096629551111780867 0 -0.0044610661502988702 -0.0094710041715012384 0 -0.0045500076143005289 -0.0091753986318863223 0 -0.0044610661502988702 -0.0094710041715012384 0 -0.0043027616019452953 -0.0092318366611458796 0 -0.0045500076143005289 -0.0091753986318863223 0 -0.0044284690928700172 -0.0094385353583116248 0 -0.0044610661502988702 -0.0094710041715012384 0 -0.0044623382217464803 -0.0093908454573101152 0 -0.0044284690928700172 -0.0094385353583116248 0 -0.0045506091612647478 -0.0096629551111780867 0 -0.0044610661502988702 -0.0094710041715012384 0 -0.0044729857746754987 -0.0093779310813795445 0 -0.0044610661502988702 -0.0094710041715012384 0 -0.0044623382217464803 -0.0093908454573101152 0 -0.0044873442242660449 -0.009264811761320501 0 -0.0044729857746754987 -0.0093779310813795445 0 -0.0044623382217464803 -0.0093908454573101152 0 -0.0044729857746754987 -0.0093779310813795445 0 -0.0044610661502988702 -0.0094710041715012384 0 -0.0043027616019452953 -0.0092318366611458796 0 -0.0039001842600366534 -0.0088506435280658914 0 -0.0043027616019452953 -0.0092318366611458796 0 -0.0042757400659447446 -0.0087253324758808318 0 -0.0043027616019452953 -0.0092318366611458796 0 -0.0042757400659447446 -0.0087253324758808318 0 -0.0045500076143005289 -0.0091753986318863223 0 -0.0037994364548378005 -0.0085057697699132233 0 -0.0042757400659447446 -0.0087253324758808318 0 -0.0042004247957032736 -0.0082701599655557734 0 -0.0047829501657916029 -0.0085473100142241711 0 -0.0045500076143005289 -0.0091753986318863223 0 -0.0049959686245084041 -0.0089842139930503741 0 -0.0042757400659447446 -0.0087253324758808318 0 -0.0047829501657916029 -0.0085473100142241711 0 -0.0045500076143005289 -0.0091753986318863223 0 -0.0042757400659447446 -0.0087253324758808318 0 -0.0047829501657916029 -0.0085473100142241711 0 -0.00454564775783155 -0.0082539676809985467 0 -0.0040829128440873514 -0.0099996639340770906 0 -0.0045506091612647478 -0.0096629551111780867 0 -0.0044921336476611666 -0.010339407705070284 0 -0.0045935613888699184 -0.0096992691598662313 0 -0.0047341975623095018 -0.0095083931638962876 0 -0.0045506091612647478 -0.0096629551111780867 0 -0.0045500076143005289 -0.0091753986318863223 0 -0.0049959686245084041 -0.0089842139930503741 0 -0.0047341975623095018 -0.0095083931638962876 0 -0.0049003729164056832 -0.010133197160405815 0 -0.0044921336476611666 -0.010339407705070284 0 -0.004060704371612496 -0.010437663281686011 0 -0.004446638580942369 -0.010814629194088661 0 -0.0047829501657916029 -0.0085473100142241711 0 -0.0049959686245084041 -0.0089842139930503741 0 -0.0052480119351653249 -0.008234768328942375 0 -0.0041274148350430445 -0.011250730716389202 0 -0.0049003729164056832 -0.010133197160405815 0 -0.0041686643434655718 -0.011646126283565691 0 -0.0042162036029721696 -0.012074712057809661 0 -0.0046287692394400498 -0.012111503673594324 0 -0.0040829128440873514 -0.0099996639340770906 0 -0.0044921336476611666 -0.010339407705070284 0 -0.004060704371612496 -0.010437663281686011 0 -0.0041618477270315276 -0.012783873183884178 0 -0.004381040134462953 -0.0125112974313367 0 -0.0045710504040117079 -0.012802490585385465 0 -0.004381040134462953 -0.0125112974313367 0 -0.0041066381659664863 -0.012373335677894802 0 -0.0043383264889761148 -0.012277885697038901 0 -0.0041618477270315276 -0.012783873183884178 0 -0.004381040134462953 -0.0125112974313367 0 -0.0041066381659664863 -0.012373335677894802 0 -0.0041066381659664863 -0.012373335677894802 0 -0.0042162036029721696 -0.012074712057809661 0 -0.0043383264889761148 -0.012277885697038901 0 -0.0042162036029721696 -0.012074712057809661 0 -0.0043383264889761148 -0.012277885697038901 0 -0.0046287692394400498 -0.012111503673594324 0 -0.004381040134462953 -0.0125112974313367 0 -0.0043383264889761148 -0.012277885697038901 0 -0.0046287692394400498 -0.012111503673594324 0 -0.0049003729164056832 -0.010133197160405815 0 -0.0046463700318312246 -0.0094105318926697452 0 -0.0047829501657916029 -0.0085473100142241711 0 -0.0052480119351653249 -0.008234768328942375 0 -0.0049180006362508936 -0.0081815411130723541 0 -0.0053063255825432105 -0.0082655331699204183 0 -0.0051669651938892691 -0.0081132439177151704 0 -0.0051330321244157408 -0.0076818603829030309 0 -0.0049180006362508936 -0.0081815411130723541 0 -0.0051669651938892691 -0.0081132439177151704 0 -0.0050010687409884277 -0.0079701895562004493 0 -0.0051669651938892691 -0.0081132439177151704 0 -0.0050010687409884277 -0.0079701895562004493 0 -0.0051330321244157408 -0.0076818603829030309 0 -0.0052480119351653249 -0.008234768328942375 0 -0.0049180006362508936 -0.0081815411130723541 0 -0.0051669651938892691 -0.0081132439177151704 0 -0.0053063255825432105 -0.0082655331699204183 0 -0.0051330321244157408 -0.0076818603829030309 0 -0.0054798741437690028 -0.0071737373501018376 0 -0.0049003729164056832 -0.010133197160405815 0 -0.00499980264396193 -0.0099461833245807815 0 -0.0050010687409884277 -0.0079701895562004493 0 -0.0051330321244157408 -0.0076818603829030309 0 -0.0047970613874199642 -0.0078922075904102554 0 -0.004381040134462953 -0.0125112974313367 0 -0.0046287692394400498 -0.012111503673594324 0 -0.0045710504040117079 -0.012802490585385465 0 -0.0051330321244157408 -0.0076818603829030309 0 -0.0047268083610686306 -0.0074338425235885245 0 -0.0051015897179881144 -0.006950295209014334 0 -0.0051330321244157408 -0.0076818603829030309 0 -0.0051015897179881144 -0.006950295209014334 0 -0.0054798741437690028 -0.0071737373501018376 0 -0.0047268083610686306 -0.0074338425235885245 0 -0.0044436608370204585 -0.0079401788527848488 0 -0.0041068374342532969 -0.0076381289204362178 0 -0.0047268083610686306 -0.0074338425235885245 0 -0.0047970613874199642 -0.0078922075904102554 0 -0.0044436608370204585 -0.0079401788527848488 0 -0.0051330321244157408 -0.0076818603829030309 0 -0.0047268083610686306 -0.0074338425235885245 0 -0.0047970613874199642 -0.0078922075904102554 0 -0.0049180006362508936 -0.0081815411130723541 0 -0.0050010687409884277 -0.0079701895562004493 0 -0.0047970613874199642 -0.0078922075904102554 0 -0.0049180006362508936 -0.0081815411130723541 0 -0.0047970613874199642 -0.0078922075904102554 0 -0.00454564775783155 -0.0082539676809985467 0 -0.0047829501657916029 -0.0085473100142241711 0 -0.0049180006362508936 -0.0081815411130723541 0 -0.00454564775783155 -0.0082539676809985467 0 -0.0047970613874199642 -0.0078922075904102554 0 -0.00454564775783155 -0.0082539676809985467 0 -0.0044436608370204585 -0.0079401788527848488 0 -0.0044436608370204585 -0.0079401788527848488 0 -0.0042004247957032736 -0.0082701599655557734 0 -0.0041068374342532969 -0.0076381289204362178 0 -0.0039082667237052447 -0.0081736553083719757 0 -0.0042821000860039657 -0.0073379990136780019 0 -0.0042757400659447446 -0.0087253324758808318 0 -0.00454564775783155 -0.0082539676809985467 0 -0.0042004247957032736 -0.0082701599655557734 0 -0.00454564775783155 -0.0082539676809985467 0 -0.0044436608370204585 -0.0079401788527848488 0 -0.0042004247957032736 -0.0082701599655557734 0 -0.0037994364548378005 -0.0085057697699132233 0 -0.0042004247957032736 -0.0082701599655557734 0 -0.0041068374342532969 -0.0076381289204362178 0 -0.0044184834446107232 -0.0070577568652178315 0 -0.0044231887451013198 -0.0067495560099192541 0 -0.0039134083368719923 -0.0070739554194602606 0 -0.0044184834446107232 -0.0070577568652178315 0 -0.0044231887451013198 -0.0067495560099192541 0 -0.0047839635393816474 -0.0064755680376475432 0 -0.0044231887451013198 -0.0067495560099192541 0 -0.004451572499286743 -0.0062913312665695779 0 -0.0047839635393816474 -0.0064755680376475432 0 -0.0044231887451013198 -0.0067495560099192541 0 -0.004451572499286743 -0.0062913312665695779 0 -0.0040562434838799467 -0.0064709515510574132 0 -0.0044231887451013198 -0.0067495560099192541 0 -0.0040153425839323477 -0.0066941891015563047 0 -0.0040562434838799467 -0.0064709515510574132 0 -0.004451572499286743 -0.0062913312665695779 0 -0.0040644055709429571 -0.0060835025234789643 0 -0.0044599283752106067 -0.0058198775336445767 0 -0.004451572499286743 -0.0062913312665695779 0 -0.0040562434838799467 -0.0064709515510574132 0 -0.0040644055709429571 -0.0060835025234789643 0 -0.004451572499286743 -0.0062913312665695779 0 -0.0047982719215623948 -0.0060388365461446917 0 -0.0047839635393816474 -0.0064755680376475432 0 -0.004451572499286743 -0.0062913312665695779 0 -0.0047982719215623948 -0.0060388365461446917 0 -0.0044599283752106067 -0.0058198775336445767 0 -0.0047982719215623948 -0.0060388365461446917 0 -0.005057502601982968 -0.0063960000818624957 0 -0.00517488607960541 -0.0059162531563959307 0 -0.0047982719215623948 -0.0060388365461446917 0 -0.0047839635393816474 -0.0064755680376475432 0 -0.005057502601982968 -0.0063960000818624957 0 -0.0042821000860039657 -0.0073379990136780019 0 -0.0047617850691571133 -0.0065156850353408355 0 -0.0047268083610686306 -0.0074338425235885245 0 -0.0041068374342532969 -0.0076381289204362178 0 -0.0047839635393816474 -0.0064755680376475432 0 -0.0047839635393816474 -0.0064755680376475432 0 -0.0051015897179881144 -0.006950295209014334 0 -0.005057502601982968 -0.0063960000818624957 0 -0.0047268083610686306 -0.0074338425235885245 0 -0.0047839635393816474 -0.0064755680376475432 0 -0.0051015897179881144 -0.006950295209014334 0 -0.00499980264396193 -0.0099461833245807815 0 -0.0052356058154428833 -0.010209194196096357 0 -0.0054798741437690028 -0.0071737373501018376 0 -0.0055005841751448554 -0.0063252099571771189 0 -0.0054253002413900556 -0.0066309068134458903 0 -0.0051015897179881144 -0.006950295209014334 0 -0.0054798741437690028 -0.0071737373501018376 0 -0.0054253002413900556 -0.0066309068134458903 0 -0.0051015897179881144 -0.006950295209014334 0 -0.005057502601982968 -0.0063960000818624957 0 -0.0054253002413900556 -0.0066309068134458903 0 -0.005057502601982968 -0.0063960000818624957 0 -0.0054253002413900556 -0.0066309068134458903 0 -0.00517488607960541 -0.0059162531563959307 0 -0.0053661309286024556 -0.0064685746675498083 0 -0.0053131663104971794 -0.006311221238413346 0 -0.0055005841751448554 -0.0063252099571771189 0 -0.0054253002413900556 -0.0066309068134458903 0 -0.0052292583586164123 -0.0061427796226740999 0 -0.0040133772820524494 -0.013585110309482588 0 -0.0044724361943628043 -0.013533699876869133 0 -0.0042051628278977609 -0.013830910927674748 0 -0.0040133772820524494 -0.013585110309482588 0 -0.0044724361943628043 -0.013533699876869133 0 -0.0042215053378383913 -0.013168128382696582 0 -0.0038628546514831636 -0.013123293358722678 0 -0.0040133772820524494 -0.013585110309482588 0 -0.0042215053378383913 -0.013168128382696582 0 -0.0045710504040117079 -0.012802490585385465 0 -0.0044724361943628043 -0.013533699876869133 0 -0.0042215053378383913 -0.013168128382696582 0 -0.0041618477270315276 -0.012783873183884178 0 -0.0045710504040117079 -0.012802490585385465 0 -0.0042215053378383913 -0.013168128382696582 0 -0.0038628546514831636 -0.013123293358722678 0 -0.0041618477270315276 -0.012783873183884178 0 -0.0042215053378383913 -0.013168128382696582 0 -0.0030667657655651099 -0.0068836748045501489 0 -0.0032919132640346852 -0.0069284041786723868 0 -0.0032924354647101512 -0.0067854312407953435 0 -0.0032919132640346852 -0.0069284041786723868 0 -0.0032924354647101512 -0.0067854312407953435 0 -0.003491294745848202 -0.0066695446600974258 0 -0.0030667657655651099 -0.0068836748045501489 0 -0.003219730942967913 -0.0067169234178456102 0 -0.0032924354647101512 -0.0067854312407953435 0 -0.003219730942967913 -0.0067169234178456102 0 -0.0032924354647101512 -0.0067854312407953435 0 -0.0033391230521252948 -0.0066888385048958065 0 -0.003219730942967913 -0.0067169234178456102 0 -0.0033391230521252948 -0.0066888385048958065 0 -0.0033276642772245733 -0.0065512115473287079 0 -0.003219730942967913 -0.0067169234178456102 0 -0.0030471067770831482 -0.0066785418219159837 0 -0.0031650194292887008 -0.0065569607579584726 0 -0.0030667657655651099 -0.0068836748045501489 0 -0.003219730942967913 -0.0067169234178456102 0 -0.0030471067770831482 -0.0066785418219159837 0 -0.0030667657655651099 -0.0068836748045501489 0 -0.0030471067770831482 -0.0066785418219159837 0 -0.0029248478437384896 -0.0067718447366802602 0 -0.0030471067770831482 -0.0066785418219159837 0 -0.0029037138584064154 -0.0066232441569138781 0 -0.0029248478437384896 -0.0067718447366802602 0 -0.0030471067770831482 -0.0066785418219159837 0 -0.0029037138584064154 -0.0066232441569138781 0 -0.0030089925907631409 -0.0065051128749904702 0 -0.0029037138584064154 -0.0066232441569138781 0 -0.002727525257298735 -0.006682936655157224 0 -0.0028340705437126718 -0.0064645655626154805 0 -0.0029037138584064154 -0.0066232441569138781 0 -0.0029248478437384896 -0.0067718447366802602 0 -0.002727525257298735 -0.006682936655157224 0 -0.002727525257298735 -0.006682936655157224 0 -0.0027782219027644348 -0.0069826995507000778 0 -0.0024410662201819551 -0.0068468579966581011 0 -0.0029248478437384896 -0.0067718447366802602 0 -0.002727525257298735 -0.006682936655157224 0 -0.0027782219027644348 -0.0069826995507000778 0 -0.0030667657655651099 -0.0068836748045501489 0 -0.0029248478437384896 -0.0067718447366802602 0 -0.0027782219027644348 -0.0069826995507000778 0 -0.0030667657655651099 -0.0068836748045501489 0 -0.0027782219027644348 -0.0069826995507000778 0 -0.0028516727603745662 -0.0073570184518151199 0 -0.0027782219027644348 -0.0069826995507000778 0 -0.0028516727603745662 -0.0073570184518151199 0 -0.0025652918429382382 -0.0072880538273663092 0 -0.0028516727603745662 -0.0073570184518151199 0 -0.0025652918429382382 -0.0072880538273663092 0 -0.0024739812227404798 -0.0076123399015925247 0 -0.0032243981874669112 -0.0070778720962156793 0 -0.0027273490793921547 -0.007505065632043572 0 -0.0032833720232514803 -0.0072129479873716323 0 -0.0028058213514951247 -0.0075577260664510711 0 -0.0032885129177115707 -0.0073384865677032403 0 -0.0027768887058392472 -0.0077806604318933961 0 -0.0033177114676114497 -0.0074419284965165601 0 -0.0031649004319716477 -0.0077675891716467351 0 -0.0030667657655651099 -0.0068836748045501489 0 -0.0032919132640346852 -0.0069284041786723868 0 -0.0028516727603745662 -0.0073570184518151199 0 -0.003272183030467204 -0.0069847147134098377 0 -0.0028058213514951247 -0.0075577260664510711 0 -0.0031649004319716477 -0.0077675891716467351 0 -0.0033680068542952298 -0.0076274139966990067 0 -0.0034748522445705171 -0.0077672855464931854 0 -0.0033177114676114497 -0.0074419284965165601 0 -0.0031649004319716477 -0.0077675891716467351 0 -0.0033680068542952298 -0.0076274139966990067 0 -0.0040485753179741622 -0.0078460550852258969 0 -0.0034748522445705171 -0.0077672855464931854 0 -0.0037401879213450435 -0.0075537753688685446 0 -0.0033680068542952298 -0.0076274139966990067 0 -0.0034748522445705171 -0.0077672855464931854 0 -0.0035635622216446177 -0.007492922300627286 0 -0.0034748522445705171 -0.0077672855464931854 0 -0.0037401879213450435 -0.0075537753688685446 0 -0.0035635622216446177 -0.007492922300627286 0 -0.0037401879213450435 -0.0075537753688685446 0 -0.0035635622216446177 -0.007492922300627286 0 -0.0039134083368719923 -0.0070739554194602606 0 -0.0033177114676114497 -0.0074419284965165601 0 -0.0033680068542952298 -0.0076274139966990067 0 -0.0035635622216446177 -0.007492922300627286 0 -0.0040485753179741622 -0.0078460550852258969 0 -0.0044184834446107232 -0.0070577568652178315 0 -0.0039134083368719923 -0.0070739554194602606 0 -0.0040485753179741622 -0.0078460550852258969 0 -0.0037401879213450435 -0.0075537753688685446 0 -0.0039134083368719923 -0.0070739554194602606 0 -0.004392188399144013 -0.006757319828588456 0 -0.0038994841640031977 -0.0069946707703111028 0 -0.0044231887451013198 -0.0067495560099192541 0 -0.0038528459416672092 -0.0069184990099333005 0 -0.0040153425839323477 -0.0066941891015563047 0 -0.0038528459416672092 -0.0069184990099333005 0 -0.0037362382071921521 -0.0066383237255380366 0 -0.0040153425839323477 -0.0066941891015563047 0 -0.003272183030467204 -0.0069847147134098377 0 -0.003703077924077266 -0.0066598331609661835 0 -0.0033177114676114497 -0.0074419284965165601 0 -0.0035635622216446177 -0.007492922300627286 0 -0.0039134083368719923 -0.0070739554194602606 0 -0.0032919132640346852 -0.0069284041786723868 0 -0.003491294745848202 -0.0066695446600974258 0 -0.0037362382071921521 -0.0066383237255380366 0 -0.0032885129177115707 -0.0073384865677032403 0 -0.0038994841640031977 -0.0069946707703111028 0 -0.0032243981874669112 -0.0070778720962156793 0 -0.0032833720232514803 -0.0072129479873716323 0 -0.0038528459416672092 -0.0069184990099333005 0 -0.0032243981874669112 -0.0070778720962156793 0 -0.0038528459416672092 -0.0069184990099333005 0 -0.0037362382071921521 -0.0066383237255380366 0 -0.0032924354647101512 -0.0067854312407953435 0 -0.0033391230521252948 -0.0066888385048958065 0 -0.003491294745848202 -0.0066695446600974258 0 -0.003491294745848202 -0.0066695446600974258 0 -0.0035140434209219532 -0.0064485589261681787 0 -0.0033276642772245733 -0.0065512115473287079 0 -0.0033391230521252948 -0.0066888385048958065 0 -0.003491294745848202 -0.0066695446600974258 0 -0.0033276642772245733 -0.0065512115473287079 0 -0.003491294745848202 -0.0066695446600974258 0 -0.0037362382071921521 -0.0066383237255380366 0 -0.0035140434209219532 -0.0064485589261681787 0 -0.0037362382071921521 -0.0066383237255380366 0 -0.0035140434209219532 -0.0064485589261681787 0 -0.0037476750855886206 -0.0062865402250684276 0 -0.0035140434209219532 -0.0064485589261681787 0 -0.0037476750855886206 -0.0062865402250684276 0 -0.0034387340654904609 -0.0061661717922917077 0 -0.0035140434209219532 -0.0064485589261681787 0 -0.0034387340654904609 -0.0061661717922917077 0 -0.0033284976590834772 -0.0063499877325930345 0 -0.0035140434209219532 -0.0064485589261681787 0 -0.0033284976590834772 -0.0063499877325930345 0 -0.0033276642772245733 -0.0065512115473287079 0 -0.0037362382071921521 -0.0066383237255380366 0 -0.0040153425839323477 -0.0066941891015563047 0 -0.0040562434838799467 -0.0064709515510574132 0 -0.0037362382071921521 -0.0066383237255380366 0 -0.0040562434838799467 -0.0064709515510574132 0 -0.0037476750855886206 -0.0062865402250684276 0 -0.0040562434838799467 -0.0064709515510574132 0 -0.0037476750855886206 -0.0062865402250684276 0 -0.0040644055709429571 -0.0060835025234789643 0 -0.0037476750855886206 -0.0062865402250684276 0 -0.0040644055709429571 -0.0060835025234789643 0 -0.0036677221295529474 -0.00587360588447303 0 -0.0037476750855886206 -0.0062865402250684276 0 -0.0034387340654904609 -0.0061661717922917077 0 -0.0036677221295529474 -0.00587360588447303 0 -0.0034387340654904609 -0.0061661717922917077 0 -0.0034052261559768997 -0.0058805554997012855 0 -0.0032392941325536865 -0.0060005146315426318 0 -0.0034387340654904609 -0.0061661717922917077 0 -0.0034052261559768997 -0.0058805554997012855 0 -0.0036677221295529474 -0.00587360588447303 0 -0.0032392941325536865 -0.0060005146315426318 0 -0.0030916216130774271 -0.0058575185033708866 0 -0.0032288232015598582 -0.0057699157962541325 0 -0.0034052261559768997 -0.0058805554997012855 0 -0.0032392941325536865 -0.0060005146315426318 0 -0.0032288232015598582 -0.0057699157962541325 0 -0.0030916216130774271 -0.0058575185033708866 0 -0.0029743367890214091 -0.0059164625305452847 0 -0.0029435732550502792 -0.0057842450662186958 0 -0.0032392941325536865 -0.0060005146315426318 0 -0.0030916216130774271 -0.0058575185033708866 0 -0.0030837076416473045 -0.0060365434051453202 0 -0.0030916216130774271 -0.0058575185033708866 0 -0.0029743367890214091 -0.0059164625305452847 0 -0.0030837076416473045 -0.0060365434051453202 0 -0.0029743367890214091 -0.0059164625305452847 0 -0.0030837076416473045 -0.0060365434051453202 0 -0.0029291260986498853 -0.0060562953402876762 0 -0.0030837076416473045 -0.0060365434051453202 0 -0.0030471863670057144 -0.0062033122714511973 0 -0.0029291260986498853 -0.0060562953402876762 0 -0.0030837076416473045 -0.0060365434051453202 0 -0.0030471863670057144 -0.0062033122714511973 0 -0.0032066062073020265 -0.0061960155094484418 0 -0.0034387340654904609 -0.0061661717922917077 0 -0.0032066062073020265 -0.0061960155094484418 0 -0.0033284976590834772 -0.0063499877325930345 0 -0.0034387340654904609 -0.0061661717922917077 0 -0.0032392941325536865 -0.0060005146315426318 0 -0.0032066062073020265 -0.0061960155094484418 0 -0.0032392941325536865 -0.0060005146315426318 0 -0.0030837076416473045 -0.0060365434051453202 0 -0.0032066062073020265 -0.0061960155094484418 0 -0.0033284976590834772 -0.0063499877325930345 0 -0.0031563587702481328 -0.0063828123101194066 0 -0.0033276642772245733 -0.0065512115473287079 0 -0.0032066062073020265 -0.0061960155094484418 0 -0.0033284976590834772 -0.0063499877325930345 0 -0.0031563587702481328 -0.0063828123101194066 0 -0.0030471863670057144 -0.0062033122714511973 0 -0.0032066062073020265 -0.0061960155094484418 0 -0.0031563587702481328 -0.0063828123101194066 0 -0.0030471863670057144 -0.0062033122714511973 0 -0.0029745306348257184 -0.0063307078356897228 0 -0.0029221956332580513 -0.0061913336925552964 0 -0.0030471863670057144 -0.0062033122714511973 0 -0.0031563587702481328 -0.0063828123101194066 0 -0.0029745306348257184 -0.0063307078356897228 0 -0.0031563587702481328 -0.0063828123101194066 0 -0.0030089925907631409 -0.0065051128749904702 0 -0.0029745306348257184 -0.0063307078356897228 0 -0.0031563587702481328 -0.0063828123101194066 0 -0.0030089925907631409 -0.0065051128749904702 0 -0.0031650194292887008 -0.0065569607579584726 0 -0.0030471067770831482 -0.0066785418219159837 0 -0.0030089925907631409 -0.0065051128749904702 0 -0.0031650194292887008 -0.0065569607579584726 0 -0.003219730942967913 -0.0067169234178456102 0 -0.0031650194292887008 -0.0065569607579584726 0 -0.0033276642772245733 -0.0065512115473287079 0 -0.0031563587702481328 -0.0063828123101194066 0 -0.0031650194292887008 -0.0065569607579584726 0 -0.0033276642772245733 -0.0065512115473287079 0 -0.002727525257298735 -0.006682936655157224 0 -0.0025699003155067236 -0.0063898943021321328 0 -0.0024994067222852577 -0.0066103806426478177 0 -0.0028340705437126718 -0.0064645655626154805 0 -0.0028127023773079759 -0.0062615788179834512 0 -0.0025699003155067236 -0.0063898943021321328 0 -0.002727525257298735 -0.006682936655157224 0 -0.0028340705437126718 -0.0064645655626154805 0 -0.0025699003155067236 -0.0063898943021321328 0 -0.0029037138584064154 -0.0066232441569138781 0 -0.0030089925907631409 -0.0065051128749904702 0 -0.0028340705437126718 -0.0064645655626154805 0 -0.0030089925907631409 -0.0065051128749904702 0 -0.0028340705437126718 -0.0064645655626154805 0 -0.0029745306348257184 -0.0063307078356897228 0 -0.0028340705437126718 -0.0064645655626154805 0 -0.0029745306348257184 -0.0063307078356897228 0 -0.0028127023773079759 -0.0062615788179834512 0 -0.0029745306348257184 -0.0063307078356897228 0 -0.0029221956332580513 -0.0061913336925552964 0 -0.0028127023773079759 -0.0062615788179834512 0 -0.0028127023773079759 -0.0062615788179834512 0 -0.0026019766118073506 -0.0060776111038401744 0 -0.0025699003155067236 -0.0063898943021321328 0 -0.0028127023773079759 -0.0062615788179834512 0 -0.0026019766118073506 -0.0060776111038401744 0 -0.0028012382730219125 -0.0060586083963072319 0 -0.0026019766118073506 -0.0060776111038401744 0 -0.0028012382730219125 -0.0060586083963072319 0 -0.002680180590020868 -0.0058658644358922391 0 -0.0030471863670057144 -0.0062033122714511973 0 -0.0029221956332580513 -0.0061913336925552964 0 -0.0029291260986498853 -0.0060562953402876762 0 -0.0029221956332580513 -0.0061913336925552964 0 -0.0028012382730219125 -0.0060586083963072319 0 -0.0029291260986498853 -0.0060562953402876762 0 -0.0029221956332580513 -0.0061913336925552964 0 -0.0028127023773079759 -0.0062615788179834512 0 -0.0028012382730219125 -0.0060586083963072319 0 -0.0028012382730219125 -0.0060586083963072319 0 -0.0029291260986498853 -0.0060562953402876762 0 -0.0028536937017821559 -0.0059035999160481937 0 -0.0029743367890214091 -0.0059164625305452847 0 -0.0029291260986498853 -0.0060562953402876762 0 -0.0028536937017821559 -0.0059035999160481937 0 -0.0028012382730219125 -0.0060586083963072319 0 -0.0028536937017821559 -0.0059035999160481937 0 -0.002680180590020868 -0.0058658644358922391 0 -0.0028536937017821559 -0.0059035999160481937 0 -0.002680180590020868 -0.0058658644358922391 0 -0.0027951173054680989 -0.0057414435531889709 0 -0.0029743367890214091 -0.0059164625305452847 0 -0.0028536937017821559 -0.0059035999160481937 0 -0.0029435732550502792 -0.0057842450662186958 0 -0.0028536937017821559 -0.0059035999160481937 0 -0.0029435732550502792 -0.0057842450662186958 0 -0.0027951173054680989 -0.0057414435531889709 0 -0.002680180590020868 -0.0058658644358922391 0 -0.0024336120675799719 -0.0057547389337448771 0 -0.0026209638131718797 -0.0056794673115457576 0 -0.002680180590020868 -0.0058658644358922391 0 -0.0026209638131718797 -0.0056794673115457576 0 -0.0027951173054680989 -0.0057414435531889709 0 -0.0026019766118073506 -0.0060776111038401744 0 -0.0024336120675799719 -0.0057547389337448771 0 -0.002253237259297229 -0.006149757548215725 0 -0.0024336120675799719 -0.0057547389337448771 0 -0.0019978197647524546 -0.0058373807119774298 0 -0.002253237259297229 -0.006149757548215725 0 -0.0024336120675799719 -0.0057547389337448771 0 -0.0019978197647524546 -0.0058373807119774298 0 -0.0022729054264370601 -0.0055155113241636099 0 -0.0026019766118073506 -0.0060776111038401744 0 -0.002680180590020868 -0.0058658644358922391 0 -0.0024336120675799719 -0.0057547389337448771 0 -0.0020665538919542488 -0.0056152937254771162 0 -0.0016237011875945655 -0.0067725330295048715 0 -0.0017407706106760685 -0.0064543369731417709 0 -0.0022579133616978777 -0.0065217626048766283 0 -0.002253237259297229 -0.006149757548215725 0 -0.0019978197647524546 -0.0058373807119774298 0 -0.0017407706106760685 -0.0064543369731417709 0 -0.002253237259297229 -0.006149757548215725 0 -0.0022579133616978777 -0.0065217626048766283 0 -0.0025699003155067236 -0.0063898943021321328 0 -0.002253237259297229 -0.006149757548215725 0 -0.0022579133616978777 -0.0065217626048766283 0 -0.0025699003155067236 -0.0063898943021321328 0 -0.0024994067222852577 -0.0066103806426478177 0 -0.0026019766118073506 -0.0060776111038401744 0 -0.0025699003155067236 -0.0063898943021321328 0 -0.002253237259297229 -0.006149757548215725 0 -0.0029772579701861108 0.0030483122129098925 0 -0.0031694874640336781 0.002937701314105303 0 -0.0030535638982715435 0.0026315712092183211 0 -0.0024600424252145411 -0.0012915233457802804 0 -0.002278012528377281 -0.00016759882642756086 0 -0.0018389413916449372 -0.0056573388815170456 0 -0.0018049894451442621 -0.0057887588127759158 0 -0.0016543554486717228 -0.0055071637707312434 0 -0.0019978197647524546 -0.0058373807119774298 0 -0.0018389413916449372 -0.0056573388815170456 0 -0.0018049894451442621 -0.0057887588127759158 0 -0.0019978197647524546 -0.0058373807119774298 0 -0.0018842828797221204 -0.0058180473286522545 0 -0.0018049894451442621 -0.0057887588127759158 0 -0.0029772579701861108 0.0030483122129098925 0 -0.0031900392329299735 0.0032141209104859158 0 -0.0031694874640336781 0.002937701314105303 0 -0.0029772579701861108 0.0030483122129098925 0 -0.0031900392329299735 0.0032141209104859158 0 -0.0030853685727256558 0.0032962886813810302 0 -0.0030853685727256558 0.0032962886813810302 0 -0.0029141479097100137 0.0033933015294550402 0 -0.0031429941856086661 0.0034406691276095071 0 -0.0031963341270771217 0.0033791869069068931 0 -0.0030853685727256558 0.0032962886813810302 0 -0.0031429941856086661 0.0034406691276095071 0 -0.0031963341270771217 0.0033791869069068931 0 -0.0031429941856086661 0.0034406691276095071 0 -0.0033108179012264457 0.0034696805511664859 0 -0.0031900392329299735 0.0032141209104859158 0 -0.0031963341270771217 0.0033791869069068931 0 -0.0030853685727256558 0.0032962886813810302 0 -0.0017407706106760685 -0.0064543369731417709 0 -0.001716169790994349 -0.0070040865555147927 0 -0.0015344354168902801 -0.0069675152289440934 0 -0.0029772579701861108 0.0030483122129098925 0 -0.0030853685727256558 0.0032962886813810302 0 -0.0029141479097100137 0.0033933015294550402 0 -0.0024600424252145411 -0.0012915233457802804 0 -0.0019134876368743854 -0.002898737550345427 0 -0.0016237011875945655 -0.0067725330295048715 0 -0.0019134876368743854 -0.002898737550345427 0 -0.0018842828797221204 -0.0058180473286522545 0 -0.0018049894451442621 -0.0057887588127759158 0 -0.0018743484949828913 -0.0058051708676375964 0 -0.0029141479097100137 0.0033933015294550402 0 -0.0029689380152254237 0.0035175577692018018 0 -0.0031429941856086661 0.0034406691276095071 0 -0.0019134876368743854 -0.002898737550345427 0 -0.0019508255506160998 -0.0055928430898374171 0 -0.001716169790994349 -0.0070040865555147927 0 -0.0015344354168902801 -0.0069675152289440934 0 -0.0016034655447960189 -0.0071928983190151915 0 -0.0019508255506160998 -0.0055928430898374171 0 -0.0026972088920366268 -0.0016140160608041573 0 -0.0015670301889317937 -0.0070569422311401965 0 -0.0013203340003075902 -0.0070829170402531075 0 -0.0013988766056842216 -0.0075641917580295259 0 -0.0018251989542073517 -0.0033667847260508465 0 -0.0018422777989406595 -0.0034175338573274802 0 -0.0018077901420493502 -0.0034170250454674377 0 -0.0019134876368743854 -0.002898737550345427 0 -0.0026972088920366268 -0.0016140160608041573 0 -0.0029689380152254237 0.0035175577692018018 0 -0.0031429941856086661 0.0034406691276095071 0 -0.0033841226857217791 0.0035476575986154455 0 -0.0042202015514790038 0.0022564624945070081 0 -0.0039130136453918111 0.0021563743912190905 0 -0.0037392168322591579 0.0022835276746097236 0 -0.0026972088920366268 -0.0016140160608041573 0 -0.0037998390752930836 0.0035704131714699569 0 -0.0024410662201819551 -0.0068468579966581011 0 -0.0021357355021826658 -0.0067975531140624448 0 -0.002269647720462533 -0.0071626919039664222 0 -0.0022579133616978777 -0.0065217626048766283 0 -0.0024410662201819551 -0.0068468579966581011 0 -0.0024994067222852577 -0.0066103806426478177 0 -0.002727525257298735 -0.006682936655157224 0 -0.0024410662201819551 -0.0068468579966581011 0 -0.0024994067222852577 -0.0066103806426478177 0 -0.0022579133616978777 -0.0065217626048766283 0 -0.0024410662201819551 -0.0068468579966581011 0 -0.0021357355021826658 -0.0067975531140624448 0 -0.0017407706106760685 -0.0064543369731417709 0 -0.0021357355021826658 -0.0067975531140624448 0 -0.0019135917551878665 -0.0069897275140066569 0 -0.0017407706106760685 -0.0064543369731417709 0 -0.001716169790994349 -0.0070040865555147927 0 -0.0019135917551878665 -0.0069897275140066569 0 -0.0017407706106760685 -0.0064543369731417709 0 -0.0022579133616978777 -0.0065217626048766283 0 -0.0021357355021826658 -0.0067975531140624448 0 -0.0016034655447960189 -0.0071928983190151915 0 -0.0019135917551878665 -0.0069897275140066569 0 -0.002269647720462533 -0.0071626919039664222 0 -0.0019508255506160998 -0.0055928430898374171 0 -0.0020398592927374937 -0.0074913917010506134 0 -0.0021357355021826658 -0.0067975531140624448 0 -0.0019135917551878665 -0.0069897275140066569 0 -0.002269647720462533 -0.0071626919039664222 0 -0.0015432503652425187 -0.0072539819540752377 0 -0.0019733919676379421 -0.0074273611573456005 0 -0.002269647720462533 -0.0071626919039664222 0 -0.001716169790994349 -0.0070040865555147927 0 -0.0016034655447960189 -0.0071928983190151915 0 -0.0019135917551878665 -0.0069897275140066569 0 -0.0015432503652425187 -0.0072539819540752377 0 -0.0019733919676379421 -0.0074273611573456005 0 -0.0018918171471590884 -0.0076409088692231389 0 -0.0019733919676379421 -0.0074273611573456005 0 -0.002269647720462533 -0.0071626919039664222 0 -0.0021643107576486999 -0.0075910198624724633 0 -0.0027782219027644348 -0.0069826995507000778 0 -0.0024410662201819551 -0.0068468579966581011 0 -0.0025652918429382382 -0.0072880538273663092 0 -0.0024410662201819551 -0.0068468579966581011 0 -0.002269647720462533 -0.0071626919039664222 0 -0.0025652918429382382 -0.0072880538273663092 0 -0.002269647720462533 -0.0071626919039664222 0 -0.0025652918429382382 -0.0072880538273663092 0 -0.0024739812227404798 -0.0076123399015925247 0 -0.002916665646135643 -0.007564475008493764 0 -0.0024778210397344443 -0.0077897896851672789 0 -0.0022945954913608695 -0.0080845378574566831 0 -0.0028058213514951247 -0.0075577260664510711 0 -0.0023250006431026508 -0.0081050603700602783 0 -0.0026142924058781387 -0.0082152430848738914 0 -0.0027768887058392472 -0.0077806604318933961 0 -0.0022945954913608695 -0.0080845378574566831 0 -0.002269647720462533 -0.0071626919039664222 0 -0.0024739812227404798 -0.0076123399015925247 0 -0.0021643107576486999 -0.0075910198624724633 0 -0.0024739812227404798 -0.0076123399015925247 0 -0.0020354218628005467 -0.0079324864627072344 0 -0.0021643107576486999 -0.0075910198624724633 0 -0.0024778210397344443 -0.0077897896851672789 0 -0.0022945954913608695 -0.0080845378574566831 0 -0.0020354218628005467 -0.0079324864627072344 0 -0.0024735002028640593 -0.0076986377012500835 0 -0.0020743698793856016 -0.0079110955913549909 0 -0.0026142924058781387 -0.0082152430848738914 0 -0.0022945954913608695 -0.0080845378574566831 0 -0.0023432108623722956 -0.0083380806850554788 0 -0.0022945954913608695 -0.0080845378574566831 0 -0.0023432108623722956 -0.0083380806850554788 0 -0.0021195822666754045 -0.0082226755427854299 0 -0.0023432108623722956 -0.0083380806850554788 0 -0.0025149234706428091 -0.0086098894944868064 0 -0.0021091906707491324 -0.0085135248617686614 0 -0.0023432108623722956 -0.0083380806850554788 0 -0.0021195822666754045 -0.0082226755427854299 0 -0.0021091906707491324 -0.0085135248617686614 0 -0.0026142924058781387 -0.0082152430848738914 0 -0.0023432108623722956 -0.0083380806850554788 0 -0.0025149234706428091 -0.0086098894944868064 0 -0.0018459499624365267 -0.0082061397603395703 0 -0.0015107910003252 -0.0081934991731983202 0 -0.0017838683564945382 -0.0084854397701682044 0 -0.0018459499624365267 -0.0082061397603395703 0 -0.0021091906707491324 -0.0085135248617686614 0 -0.0017838683564945382 -0.0084854397701682044 0 -0.0021195822666754045 -0.0082226755427854299 0 -0.0018459499624365267 -0.0082061397603395703 0 -0.0021091906707491324 -0.0085135248617686614 0 -0.0021195822666754045 -0.0082226755427854299 0 -0.0018459499624365267 -0.0082061397603395703 0 -0.0020354218628005467 -0.0079324864627072344 0 -0.0022945954913608695 -0.0080845378574566831 0 -0.0021195822666754045 -0.0082226755427854299 0 -0.0020354218628005467 -0.0079324864627072344 0 -0.0018459499624365267 -0.0082061397603395703 0 -0.0017346490229229194 -0.0078228377493016893 0 -0.0020354218628005467 -0.0079324864627072344 0 -0.0017346490229229194 -0.0078228377493016893 0 -0.0020354218628005467 -0.0079324864627072344 0 -0.0018918171471590884 -0.0076409088692231389 0 -0.0015432503652425187 -0.0072539819540752377 0 -0.0017346490229229194 -0.0078228377493016893 0 -0.0018918171471590884 -0.0076409088692231389 0 -0.0020354218628005467 -0.0079324864627072344 0 -0.0021643107576486999 -0.0075910198624724633 0 -0.0018918171471590884 -0.0076409088692231389 0 -0.0019733919676379421 -0.0074273611573456005 0 -0.0021643107576486999 -0.0075910198624724633 0 -0.0018918171471590884 -0.0076409088692231389 0 -0.0019508255506160998 -0.0055928430898374171 0 -0.0018131749703657824 -0.0082483298680588076 0 -0.0015670301889317937 -0.0070569422311401965 0 -0.0017346490229229194 -0.0078228377493016893 0 -0.0013988766056842216 -0.0075641917580295259 0 -0.0013203340003075902 -0.0070829170402531075 0 -0.0013988766056842216 -0.0075641917580295259 0 -0.00098503817164694702 -0.0079686118807354815 0 -0.0013988766056842216 -0.0075641917580295259 0 -0.0014108252675452911 -0.0078875866225246415 0 -0.00098503817164694702 -0.0079686118807354815 0 -0.0017346490229229194 -0.0078228377493016893 0 -0.0013988766056842216 -0.0075641917580295259 0 -0.0014108252675452911 -0.0078875866225246415 0 -0.0026972088920366268 -0.0016140160608041573 0 -0.0034942307840923549 -0.0015419375516812662 0 -0.0042202015514790038 0.0022564624945070081 0 -0.0039130136453918111 0.0021563743912190905 0 -0.0040641233490185912 0.0018704064915445388 0 -0.0034915870156059037 0.0028179027048574772 0 -0.0034942307840923549 -0.0015419375516812662 0 -0.0039130136453918111 0.0021563743912190905 0 -0.0041995165337372865 0.0018682185284269774 0 -0.0038899347761463146 0.0019521795219722973 0 -0.0043793420148697856 0.0021240123759603781 0 -0.004119727095506418 0.00148757513303844 0 -0.0045447793969894583 0.0012251626904050169 0 -0.0041995165337372865 0.0018682185284269774 0 -0.0038664047817346049 0.0016840429686573971 0 -0.0038899347761463146 0.0019521795219722973 0 -0.0034942307840923549 -0.0015419375516812662 0 -0.0045826606811167148 0.0024493091231216273 0 -0.0041995165337372865 0.0018682185284269774 0 -0.004119727095506418 0.00148757513303844 0 -0.0038664047817346049 0.0016840429686573971 0 -0.00098503817164694702 -0.0079686118807354815 0 -0.0015107910003252 -0.0081934991731983202 0 -0.0015090177029927867 -0.008716034003099166 0 -0.0034942307840923549 -0.0015419375516812662 0 -0.00322304775475396 -0.0039350810745889106 0 -0.0043793420148697856 0.0021240123759603781 0 -0.0051369001169899618 0.0010329983354405196 0 -0.0045447793969894583 0.0012251626904050169 0 -0.0018459499624365267 -0.0082061397603395703 0 -0.0017346490229229194 -0.0078228377493016893 0 -0.0015107910003252 -0.0081934991731983202 0 -0.0017346490229229194 -0.0078228377493016893 0 -0.0014108252675452911 -0.0078875866225246415 0 -0.0015107910003252 -0.0081934991731983202 0 -0.0014108252675452911 -0.0078875866225246415 0 -0.00098503817164694702 -0.0079686118807354815 0 -0.0015107910003252 -0.0081934991731983202 0 -0.0015107910003252 -0.0081934991731983202 0 -0.0015090177029927867 -0.008716034003099166 0 -0.0017838683564945382 -0.0084854397701682044 0 -0.0051369001169899618 0.0010329983354405196 0 -0.0045447793969894583 0.0012251626904050169 0 -0.004915754777337882 0.00054930752534056192 0 -0.004119727095506418 0.00148757513303844 0 -0.0041872894731918063 0.00085254564144263644 0 -0.0039346180825396487 0.0014249145275042571 0 -0.004119727095506418 0.00148757513303844 0 -0.0045447793969894583 0.0012251626904050169 0 -0.0041872894731918063 0.00085254564144263644 0 -0.0045447793969894583 0.0012251626904050169 0 -0.0041872894731918063 0.00085254564144263644 0 -0.004915754777337882 0.00054930752534056192 0 -0.0042818514214892633 0.0010648267852694658 0 -0.0039796235699766707 0.00075111200053541857 0 -0.0039539541591840539 0.0011593146293313178 0 -0.0041552472653417702 -0.0015408694976854884 0 -0.0044436639773727561 -0.0010816775518261857 0 -0.0039407532828617652 -0.0010435986638647448 0 -0.0046565279474205792 5.278497973274872e-05 0 -0.0039603286359974083 -0.00015952508732455168 0 -0.0042818514214892633 0.0010648267852694658 0 -0.0048021573375205554 0.00068107127560181654 0 -0.0039796235699766707 0.00075111200053541857 0 -0.0041872894731918063 0.00085254564144263644 0 -0.004915754777337882 0.00054930752534056192 0 -0.0048457468163132485 0.00023843261442062162 0 -0.004224580483457043 0.00096124274573369133 0 -0.0046565279474205792 5.278497973274872e-05 0 -0.004915754777337882 0.00054930752534056192 0 -0.0048457468163132485 0.00023843261442062162 0 -0.0059735060524482818 -0.00028117950481653021 0 -0.0056364634025288509 -0.00039182784918700069 0 -0.0048457468163132485 0.00023843261442062162 0 -0.0059735060524482818 -0.00028117950481653021 0 -0.0051369001169899618 0.0010329983354405196 0 -0.004915754777337882 0.00054930752534056192 0 -0.0059735060524482818 -0.00028117950481653021 0 -0.0047457583831558674 -0.0024424035781444231 0 -0.0046565279474205792 5.278497973274872e-05 0 -0.0015090177029927867 -0.008716034003099166 0 -0.0019640973773322502 -0.0093265585502666244 0 -0.0019185697146809544 -0.0087803606676035602 0 -0.0019640973773322502 -0.0093265585502666244 0 -0.0022906384518895811 -0.0088398153139672333 0 -0.0019185697146809544 -0.0087803606676035602 0 -0.00322304775475396 -0.0039350810745889106 0 -0.0040572802465963032 -0.0054545449589440747 0 -0.0047457583831558674 -0.0024424035781444231 0 -0.0040572802465963032 -0.0054545449589440747 0 -0.0052428559766104377 -0.0091047397877235727 0 -0.0051670970477438669 -0.0093040787574845702 0 -0.0054484228178759793 -0.0091589219024878332 0 -0.002597114462213084 -0.0091387622045916925 0 -0.0019640973773322502 -0.0093265585502666244 0 -0.0022906384518895811 -0.0088398153139672333 0 -0.0036795228205048604 -0.0096832385283744694 0 -0.0040572802465963032 -0.0054545449589440747 0 -0.002597114462213084 -0.0091387622045916925 0 -0.0022906384518895811 -0.0088398153139672333 0 -0.0025149234706428091 -0.0086098894944868064 0 -0.0022906384518895811 -0.0088398153139672333 0 -0.0025149234706428091 -0.0086098894944868064 0 -0.0021091906707491324 -0.0085135248617686614 0 -0.0022906384518895811 -0.0088398153139672333 0 -0.0021091906707491324 -0.0085135248617686614 0 -0.0019185697146809544 -0.0087803606676035602 0 -0.0021091906707491324 -0.0085135248617686614 0 -0.0017838683564945382 -0.0084854397701682044 0 -0.0019185697146809544 -0.0087803606676035602 0 -0.0015090177029927867 -0.008716034003099166 0 -0.0017838683564945382 -0.0084854397701682044 0 -0.0019185697146809544 -0.0087803606676035602 0 -0.003285148787259674 0.0016116471006736514 0 -0.0031058651699461108 0.0013624506173796388 0 -0.0031281300242225621 0.0017340799973076953 0 -0.0028963006269441846 0.0016137516760801531 0 -0.0031058651699461108 0.0013624506173796388 0 -0.0031281300242225621 0.0017340799973076953 0 -0.003285148787259674 0.0016116471006736514 0 -0.0031058651699461108 0.0013624506173796388 0 -0.0034190300172855679 0.0014994386080745457 0 -0.0028075643130999976 0.00047777298735744944 0 -0.0032775225526433839 0.0013577658559055586 0 -0.0028963006269441846 0.0016137516760801531 0 -0.0027097716191307095 0.0013846403214833201 0 -0.0031058651699461108 0.0013624506173796388 0 -0.0025328208793667685 0.0016862097123066357 0 -0.0028963006269441846 0.0016137516760801531 0 -0.0028402730537816626 0.0019258476638101705 0 -0.0025328208793667685 0.0016862097123066357 0 -0.0028963006269441846 0.0016137516760801531 0 -0.0027097716191307095 0.0013846403214833201 0 -0.0023539857974310013 -0.0012426664100084993 0 -0.0024565483554064666 -0.0014244878490293519 0 -0.0029791224844329103 -0.00097495550039738879 0 -0.0026572111624382534 0.0012014873229657011 0 -0.0028075643130999976 0.00047777298735744944 0 -0.0023716698067710673 0.00078590559472608049 0 -0.0025333945018310481 0.0010168506438992303 0 -0.0028422094205960442 0.00098977602264815607 0 -0.0023866026632826101 0.000541464868443971 0 -0.0028075643130999976 0.00047777298735744944 0 -0.0032811950339129751 -0.0013815190803700564 0 -0.0029268719450874906 -0.0015142340693615061 0 -0.0029791224844329103 -0.00097495550039738879 0 -0.0028075643130999976 0.00047777298735744944 0 -0.0032990688988724566 -0.00012655429264128048 0 -0.0032811950339129751 -0.0013815190803700564 0 -0.0029791224844329103 -0.00097495550039738879 0 -0.0034487282295614817 -0.0010127672188503377 0 -0.0036696651764928766 -0.001340946527178883 0 -0.0032811950339129751 -0.0013815190803700564 0 -0.0034487282295614817 -0.0010127672188503377 0 -0.0036696651764928766 -0.001340946527178883 0 -0.0034487282295614817 -0.0010127672188503377 0 -0.0039407532828617652 -0.0010435986638647448 0 -0.0031793263847760466 0.00081643049914612779 0 -0.0039796235699766707 0.00075111200053541857 0 -0.0035674070127335988 0.00099379208860028863 0 -0.0032990688988724566 -0.00012655429264128048 0 -0.0039603286359974083 -0.00015952508732455168 0 -0.0039796235699766707 0.00075111200053541857 0 -0.0037712147380586192 0.0010772714576861894 0 -0.0035674070127335988 0.00099379208860028863 0 -0.0035800794311490673 0.0012203184724263261 0 -0.0037079906221073613 0.0014850591751433167 0 -0.0030418091463042438 0.0011609911625320526 0 -0.0042818514214892633 0.0010648267852694658 0 -0.0039539541591840539 0.0011593146293313178 0 -0.0037526323885054389 0.001431393095376023 0 -0.004224580483457043 0.00096124274573369133 0 -0.0038202020556349012 0.0013365993583211735 0 -0.0039796235699766707 0.00075111200053541857 0 -0.0039539541591840539 0.0011593146293313178 0 -0.0037712147380586192 0.0010772714576861894 0 -0.0039539541591840539 0.0011593146293313178 0 -0.0037712147380586192 0.0010772714576861894 0 -0.0037772578350886185 0.0012614279358193624 0 -0.0037712147380586192 0.0010772714576861894 0 -0.0035800794311490673 0.0012203184724263261 0 -0.0037772578350886185 0.0012614279358193624 0 -0.0037712147380586192 0.0010772714576861894 0 -0.0035674070127335988 0.00099379208860028863 0 -0.0035800794311490673 0.0012203184724263261 0 -0.0035674070127335988 0.00099379208860028863 0 -0.0035800794311490673 0.0012203184724263261 0 -0.0033239381607066921 0.0010501877973494345 0 -0.0035907670544804557 0.0015408561064160109 0 -0.0035561629853174707 0.0016014290479646664 0 -0.0036926651506891325 0.0016041929264593137 0 -0.0037079906221073613 0.0014850591751433167 0 -0.0037873991043155205 0.0015256578104637826 0 -0.0036926651506891325 0.0016041929264593137 0 -0.0035907670544804557 0.0015408561064160109 0 -0.0037079906221073613 0.0014850591751433167 0 -0.0036926651506891325 0.0016041929264593137 0 -0.0037079906221073613 0.0014850591751433167 0 -0.0037215356651437589 0.0013562333234765143 0 -0.0037526323885054389 0.001431393095376023 0 -0.0035800794311490673 0.0012203184724263261 0 -0.0037079906221073613 0.0014850591751433167 0 -0.0037215356651437589 0.0013562333234765143 0 -0.0035800794311490673 0.0012203184724263261 0 -0.0037215356651437589 0.0013562333234765143 0 -0.0037772578350886185 0.0012614279358193624 0 -0.0041872894731918063 0.00085254564144263644 0 -0.0037526323885054389 0.001431393095376023 0 -0.0039346180825396487 0.0014249145275042571 0 -0.0039539541591840539 0.0011593146293313178 0 -0.0037772578350886185 0.0012614279358193624 0 -0.0037526323885054389 0.001431393095376023 0 -0.0037215356651437589 0.0013562333234765143 0 -0.0037772578350886185 0.0012614279358193624 0 -0.0037526323885054389 0.001431393095376023 0 -0.0037526323885054389 0.001431393095376023 0 -0.0039346180825396487 0.0014249145275042571 0 -0.0037873991043155205 0.0015256578104637826 0 -0.0037079906221073613 0.0014850591751433167 0 -0.0037526323885054389 0.001431393095376023 0 -0.0037873991043155205 0.0015256578104637826 0 -0.0035907670544804557 0.0015408561064160109 0 -0.0037079906221073613 0.0014850591751433167 0 -0.0034190300172855679 0.0014994386080745457 0 -0.0024111170284247655 0.00086971981805341735 0 -0.0031793263847760466 0.00081643049914612779 0 -0.0030418091463042438 0.0011609911625320526 0 -0.0036527652409472514 0.0014775032370495779 0 -0.0032775225526433839 0.0013577658559055586 0 -0.0031793263847760466 0.00081643049914612779 0 -0.0030418091463042438 0.0011609911625320526 0 -0.0033239381607066921 0.0010501877973494345 0 -0.0031793263847760466 0.00081643049914612779 0 -0.0035674070127335988 0.00099379208860028863 0 -0.0033239381607066921 0.0010501877973494345 0 -0.0035800794311490673 0.0012203184724263261 0 -0.0030418091463042438 0.0011609911625320526 0 -0.0033239381607066921 0.0010501877973494345 0 -0.0035907670544804557 0.0015408561064160109 0 -0.0034190300172855679 0.0014994386080745457 0 -0.0035561629853174707 0.0016014290479646664 0 -0.0034190300172855679 0.0014994386080745457 0 -0.0035561629853174707 0.0016014290479646664 0 -0.0034216395371227948 0.0016438492576850816 0 -0.003285148787259674 0.0016116471006736514 0 -0.0034190300172855679 0.0014994386080745457 0 -0.0034216395371227948 0.0016438492576850816 0 -0.003285148787259674 0.0016116471006736514 0 -0.0034216395371227948 0.0016438492576850816 0 -0.0033268911204076797 0.0018034900539869528 0 -0.0033268911204076797 0.0018034900539869528 0 -0.0034866337595002633 0.0017146680295905793 0 -0.003501155918064091 0.0018872501342805971 0 -0.0034216395371227948 0.0016438492576850816 0 -0.0033268911204076797 0.0018034900539869528 0 -0.0034866337595002633 0.0017146680295905793 0 -0.0034866337595002633 0.0017146680295905793 0 -0.003501155918064091 0.0018872501342805971 0 -0.0036541754913952695 0.0017414285797772086 0 -0.0035561629853174707 0.0016014290479646664 0 -0.0034866337595002633 0.0017146680295905793 0 -0.0036541754913952695 0.0017414285797772086 0 -0.0035561629853174707 0.0016014290479646664 0 -0.0034216395371227948 0.0016438492576850816 0 -0.0034866337595002633 0.0017146680295905793 0 -0.0033268911204076797 0.0018034900539869528 0 -0.003501155918064091 0.0018872501342805971 0 -0.0033283911507539787 0.0020390232803658829 0 -0.0039346180825396487 0.0014249145275042571 0 -0.0038664047817346049 0.0016840429686573971 0 -0.0037873991043155205 0.0015256578104637826 0 -0.004119727095506418 0.00148757513303844 0 -0.0039346180825396487 0.0014249145275042571 0 -0.0038664047817346049 0.0016840429686573971 0 -0.0038664047817346049 0.0016840429686573971 0 -0.0037873991043155205 0.0015256578104637826 0 -0.0036926651506891325 0.0016041929264593137 0 -0.0038664047817346049 0.0016840429686573971 0 -0.0036926651506891325 0.0016041929264593137 0 -0.0036541754913952695 0.0017414285797772086 0 -0.0035561629853174707 0.0016014290479646664 0 -0.0036926651506891325 0.0016041929264593137 0 -0.0036541754913952695 0.0017414285797772086 0 -0.0036541754913952695 0.0017414285797772086 0 -0.0037781834635492238 0.0018398786914513184 0 -0.0036891426431034414 0.0019387813417108023 0 -0.003501155918064091 0.0018872501342805971 0 -0.0036541754913952695 0.0017414285797772086 0 -0.0036891426431034414 0.0019387813417108023 0 -0.0038664047817346049 0.0016840429686573971 0 -0.0036541754913952695 0.0017414285797772086 0 -0.0037781834635492238 0.0018398786914513184 0 -0.0037781834635492238 0.0018398786914513184 0 -0.0038899347761463146 0.0019521795219722973 0 -0.0036891426431034414 0.0019387813417108023 0 -0.0038664047817346049 0.0016840429686573971 0 -0.0037781834635492238 0.0018398786914513184 0 -0.0038899347761463146 0.0019521795219722973 0 -0.0038899347761463146 0.0019521795219722973 0 -0.0036891426431034414 0.0019387813417108023 0 -0.0037489544646517143 0.0021063509622497385 0 -0.0039130136453918111 0.0021563743912190905 0 -0.0038899347761463146 0.0019521795219722973 0 -0.0037489544646517143 0.0021063509622497385 0 -0.0036891426431034414 0.0019387813417108023 0 -0.0037489544646517143 0.0021063509622497385 0 -0.0035384859947998476 0.0020926249875647743 0 -0.0037489544646517143 0.0021063509622497385 0 -0.0035384859947998476 0.0020926249875647743 0 -0.0037392168322591579 0.0022835276746097236 0 -0.0039130136453918111 0.0021563743912190905 0 -0.0037489544646517143 0.0021063509622497385 0 -0.0037392168322591579 0.0022835276746097236 0 -0.0033283911507539787 0.0020390232803658829 0 -0.0035384859947998476 0.0020926249875647743 0 -0.0031695919445490295 0.0023295258843616922 0 -0.0035384859947998476 0.0020926249875647743 0 -0.0031695919445490295 0.0023295258843616922 0 -0.0037392168322591579 0.0022835276746097236 0 -0.003501155918064091 0.0018872501342805971 0 -0.0033283911507539787 0.0020390232803658829 0 -0.0035384859947998476 0.0020926249875647743 0 -0.003501155918064091 0.0018872501342805971 0 -0.0036891426431034414 0.0019387813417108023 0 -0.0035384859947998476 0.0020926249875647743 0 -0.0033283911507539787 0.0020390232803658829 0 -0.0031695919445490295 0.0023295258843616922 0 -0.0030755771226317163 0.0020617116240004016 0 -0.0033268911204076797 0.0018034900539869528 0 -0.0033283911507539787 0.0020390232803658829 0 -0.0030755771226317163 0.0020617116240004016 0 -0.003285148787259674 0.0016116471006736514 0 -0.0033268911204076797 0.0018034900539869528 0 -0.0031281300242225621 0.0017340799973076953 0 -0.0033268911204076797 0.0018034900539869528 0 -0.0030755771226317163 0.0020617116240004016 0 -0.0031281300242225621 0.0017340799973076953 0 -0.0028963006269441846 0.0016137516760801531 0 -0.0031281300242225621 0.0017340799973076953 0 -0.0028402730537816626 0.0019258476638101705 0 -0.0030755771226317163 0.0020617116240004016 0 -0.0031281300242225621 0.0017340799973076953 0 -0.0028402730537816626 0.0019258476638101705 0 -0.0026325292473295975 0.0024569848406375949 0 -0.0031695919445490295 0.0023295258843616922 0 -0.0030755771226317163 0.0020617116240004016 0 -0.0026325292473295975 0.0024569848406375949 0 -0.0030755771226317163 0.0020617116240004016 0 -0.0028402730537816626 0.0019258476638101705 0 -0.0027898744720065856 0.0028289915747787484 0 -0.0032757592941025262 0.0027677270743411446 0 -0.00298145970180435 0.0031627084352415734 0 -0.0035422176241558536 0.0034020339955501545 0 -0.0031835416005948683 0.0037210580875355506 0 -0.0035422176241558536 0.0034020339955501545 0 -0.0036182687527417786 0.0035624447622360747 0 -0.0031835416005948683 0.0037210580875355506 0 -0.0036182687527417786 0.0035624447622360747 0 -0.0031835416005948683 0.0037210580875355506 0 -0.0033766183326043122 0.0043506620088069516 0 -0.0031429941856086661 0.0034406691276095071 0 -0.0033108179012264457 0.0034696805511664859 0 -0.0033841226857217791 0.0035476575986154455 0 -0.0033108179012264457 0.0034696805511664859 0 -0.0033841226857217791 0.0035476575986154455 0 -0.0034389450638543108 0.0034696773901666906 0 -0.0032757592941025262 0.0027677270743411446 0 -0.0037998390752930836 0.0035704131714699569 0 -0.0035422176241558536 0.0034020339955501545 0 -0.0036182687527417786 0.0035624447622360747 0 -0.0034389450638543108 0.0034696773901666906 0 -0.0035422176241558536 0.0034020339955501545 0 -0.0033841226857217791 0.0035476575986154455 0 -0.0034389450638543108 0.0034696773901666906 0 -0.0036182687527417786 0.0035624447622360747 0 -0.0034389450638543108 0.0034696773901666906 0 -0.0033524965546382784 0.0031623395037159913 0 -0.0031963341270771217 0.0033791869069068931 0 -0.0033108179012264457 0.0034696805511664859 0 -0.0034389450638543108 0.0034696773901666906 0 -0.0031900392329299735 0.0032141209104859158 0 -0.0031963341270771217 0.0033791869069068931 0 -0.0034389450638543108 0.0034696773901666906 0 -0.0031900392329299735 0.0032141209104859158 0 -0.0033524965546382784 0.0031623395037159913 0 -0.0031694874640336781 0.002937701314105303 0 -0.0031900392329299735 0.0032141209104859158 0 -0.0034389450638543108 0.0034696773901666906 0 -0.0033524965546382784 0.0031623395037159913 0 -0.0036182687527417786 0.0035624447622360747 0 -0.0033524965546382784 0.0031623395037159913 0 -0.003642820246512041 0.0030426537324068992 0 -0.003642820246512041 0.0030426537324068992 0 -0.0038767546044780076 0.0026866237002191699 0 -0.0034141706711288359 0.0026797198306677066 0 -0.0033524965546382784 0.0031623395037159913 0 -0.003642820246512041 0.0030426537324068992 0 -0.0034141706711288359 0.0026797198306677066 0 -0.0033524965546382784 0.0031623395037159913 0 -0.0031694874640336781 0.002937701314105303 0 -0.0034141706711288359 0.0026797198306677066 0 -0.0031694874640336781 0.002937701314105303 0 -0.0034141706711288359 0.0026797198306677066 0 -0.0030535638982715435 0.0026315712092183211 0 -0.002971521883378288 0.0044359905341195965 0 -0.0031835416005948683 0.0037210580875355506 0 -0.0033766183326043122 0.0043506620088069516 0 -0.0035720871393824637 0.0036561138079028292 0 -0.0038486582782201414 0.003608361831794291 0 -0.0036182687527417786 0.0035624447622360747 0 -0.003642820246512041 0.0030426537324068992 0 -0.0040787812090095467 0.0031069520470976384 0 -0.003642820246512041 0.0030426537324068992 0 -0.0040787812090095467 0.0031069520470976384 0 -0.0038767546044780076 0.0026866237002191699 0 -0.0038486582782201414 0.003608361831794291 0 -0.0030581014594502839 0.0043274105777411486 0 -0.0040787812090095467 0.0031069520470976384 0 -0.0038767546044780076 0.0026866237002191699 0 -0.0044812220447481947 0.0026967276063004754 0 -0.0038767546044780076 0.0026866237002191699 0 -0.0041126979694144482 0.0022926530593022697 0 -0.0044812220447481947 0.0026967276063004754 0 -0.0018328561073184123 0.0052532625673944611 0 -0.0019749954068773016 0.0052739453368761654 0 -0.00202847388204046 0.0054344771677993509 0 -0.0029851126288938431 0.0037455583736268195 0 -0.0030581014594502839 0.0043274105777411486 0 -0.0038767546044780076 0.0026866237002191699 0 -0.0041126979694144482 0.0022926530593022697 0 -0.0036035398671318036 0.0022737592529514608 0 -0.0029851126288938431 0.0037455583736268195 0 -0.0026931437822456769 0.0034233811846502557 0 -0.0041126979694144482 0.0022926530593022697 0 -0.0036035398671318036 0.0022737592529514608 0 -0.0037170480192503506 0.0018666812127553533 0 -0.0018328561073184123 0.0052532625673944611 0 -0.0018678249701331519 0.0050864706026890871 0 -0.0019749954068773016 0.0052739453368761654 0 -0.0018328561073184123 0.0052532625673944611 0 -0.0018678249701331519 0.0050864706026890871 0 -0.0016204363728658717 0.0050585804366344873 0 -0.0034141706711288359 0.0026797198306677066 0 -0.0031913023388133194 0.0022294094109194433 0 -0.0027261661412268548 0.0025058982036523323 0 -0.0037379590203499053 0.0033453077721617751 0 -0.002278012528377281 -0.00016759882642756086 0 -0.0034141706711288359 0.0026797198306677066 0 -0.0036035398671318036 0.0022737592529514608 0 -0.0031913023388133194 0.0022294094109194433 0 -0.0038767546044780076 0.0026866237002191699 0 -0.0034141706711288359 0.0026797198306677066 0 -0.0036035398671318036 0.0022737592529514608 0 -0.0036035398671318036 0.0022737592529514608 0 -0.0031913023388133194 0.0022294094109194433 0 -0.0032526782189530737 0.0018849420218920779 0 -0.0036035398671318036 0.0022737592529514608 0 -0.0032526782189530737 0.0018849420218920779 0 -0.0037170480192503506 0.0018666812127553533 0 -0.0031913023388133194 0.0022294094109194433 0 -0.0032526782189530737 0.0018849420218920779 0 -0.0029621182843224238 0.0019412012291102907 0 -0.0031913023388133194 0.0022294094109194433 0 -0.0028436392773608099 0.0021451765633384791 0 -0.0027261661412268548 0.0025058982036523323 0 -0.0031913023388133194 0.0022294094109194433 0 -0.0029621182843224238 0.0019412012291102907 0 -0.0028436392773608099 0.0021451765633384791 0 -0.0032526782189530737 0.0018849420218920779 0 -0.0029621182843224238 0.0019412012291102907 0 -0.0028360706401845581 0.0016029293698739976 0 -0.0032526782189530737 0.0018849420218920779 0 -0.003300997855192615 0.0014762104547589097 0 -0.0028360706401845581 0.0016029293698739976 0 -0.0020652159449426073 0.0035511794804650079 0 -0.0026931437822456769 0.0034233811846502557 0 -0.0032526782189530737 0.0018849420218920779 0 -0.003300997855192615 0.0014762104547589097 0 -0.0037170480192503506 0.0018666812127553533 0 -0.0014258522447878497 0.0048589759214011574 0 -0.0016204363728658717 0.0050585804366344873 0 -0.0016037105951693361 0.0048199126884780142 0 -0.0020652159449426073 0.0035511794804650079 0 -0.0012590391986754287 0.0049443072979557948 0 -0.0020652159449426073 0.0035511794804650079 0 -0.0025843749898034514 0.0020546157843001961 0 -0.0018521248747221163 0.0028091932710965746 0 -0.0019604193890530573 0.0029189588145990984 0 -0.0020369992976290367 0.0027510913385094867 0 -0.0020652159449426073 0.0035511794804650079 0 -0.0015731173774672889 0.0038314739264209215 0 -0.0018678249701331519 0.0050864706026890871 0 -0.0017390185014769847 0.0049413504238924469 0 -0.0018741912646099564 0.0049427880567083525 0 -0.0018678249701331519 0.0050864706026890871 0 -0.0018741912646099564 0.0049427880567083525 0 -0.001977567647420634 0.0049855037493338706 0 -0.0018678249701331519 0.0050864706026890871 0 -0.0016204363728658717 0.0050585804366344873 0 -0.0017390185014769847 0.0049413504238924469 0 -0.0016204363728658717 0.0050585804366344873 0 -0.0017390185014769847 0.0049413504238924469 0 -0.0016037105951693361 0.0048199126884780142 0 -0.0017390185014769847 0.0049413504238924469 0 -0.0016037105951693361 0.0048199126884780142 0 -0.0017904137757746722 0.0048212102002971689 0 -0.0017390185014769847 0.0049413504238924469 0 -0.0017904137757746722 0.0048212102002971689 0 -0.0018741912646099564 0.0049427880567083525 0 -0.0018741912646099564 0.0049427880567083525 0 -0.0019509833199752261 0.0048404541031373113 0 -0.001977567647420634 0.0049855037493338706 0 -0.0017904137757746722 0.0048212102002971689 0 -0.0018741912646099564 0.0049427880567083525 0 -0.0019509833199752261 0.0048404541031373113 0 -0.0017904137757746722 0.0048212102002971689 0 -0.0018764256995719493 0.0046979701863305041 0 -0.0019509833199752261 0.0048404541031373113 0 -0.0017904137757746722 0.0048212102002971689 0 -0.0018764256995719493 0.0046979701863305041 0 -0.0016934089778311806 0.0046800125778664802 0 -0.0018764256995719493 0.0046979701863305041 0 -0.0018032442223524445 0.0045390646556305409 0 -0.0016934089778311806 0.0046800125778664802 0 -0.0018032442223524445 0.0045390646556305409 0 -0.0018950586072366386 0.0043821875688123801 0 -0.0016544680112273245 0.004305404674685682 0 -0.0018764256995719493 0.0046979701863305041 0 -0.0018032442223524445 0.0045390646556305409 0 -0.0019857052416648435 0.0045732379217440821 0 -0.0018032442223524445 0.0045390646556305409 0 -0.0018950586072366386 0.0043821875688123801 0 -0.0019857052416648435 0.0045732379217440821 0 -0.0018032442223524445 0.0045390646556305409 0 -0.0016076904953682667 0.0045077378710240605 0 -0.0016544680112273245 0.004305404674685682 0 -0.0016076904953682667 0.0045077378710240605 0 -0.001436692470441373 0.0044241176770302235 0 -0.0016544680112273245 0.004305404674685682 0 -0.0018032442223524445 0.0045390646556305409 0 -0.0016076904953682667 0.0045077378710240605 0 -0.0016934089778311806 0.0046800125778664802 0 -0.0016076904953682667 0.0045077378710240605 0 -0.0016934089778311806 0.0046800125778664802 0 -0.0014128220597283705 0.0046345358260165923 0 -0.0016037105951693361 0.0048199126884780142 0 -0.0016934089778311806 0.0046800125778664802 0 -0.0014128220597283705 0.0046345358260165923 0 -0.0016037105951693361 0.0048199126884780142 0 -0.0017904137757746722 0.0048212102002971689 0 -0.0016934089778311806 0.0046800125778664802 0 -0.0013525280340856104 0.0048755643986479608 0 -0.0016037105951693361 0.0048199126884780142 0 -0.0014128220597283705 0.0046345358260165923 0 -0.0014128220597283705 0.0046345358260165923 0 -0.0011792273882113677 0.0046972463356376145 0 -0.0012336772002806619 0.0043731788936701849 0 -0.0013525280340856104 0.0048755643986479608 0 -0.0014128220597283705 0.0046345358260165923 0 -0.0011792273882113677 0.0046972463356376145 0 -0.0013622117862512495 0.0040224645143969876 0 -0.0016035154479237881 0.0034047353723868361 0 -0.0011792273882113677 0.0046972463356376145 0 -0.0012336772002806619 0.0043731788936701849 0 -0.0010169029967304738 0.0045246461548181047 0 -0.0016076904953682667 0.0045077378710240605 0 -0.0014128220597283705 0.0046345358260165923 0 -0.001436692470441373 0.0044241176770302235 0 -0.0014128220597283705 0.0046345358260165923 0 -0.0012336772002806619 0.0043731788936701849 0 -0.001436692470441373 0.0044241176770302235 0 -0.0013622117862512495 0.0040224645143969876 0 -0.0015471567753621066 0.0039149615137054304 0 -0.0012336772002806619 0.0043731788936701849 0 -0.001436692470441373 0.0044241176770302235 0 -0.0014288894784522078 0.0041984754533897339 0 -0.0016357870585262013 0.0035126465822495701 0 -0.0016372370624552338 0.0036252813382520246 0 -0.0016900627620229944 0.0035046569470840593 0 -0.0016357870585262013 0.0035126465822495701 0 -0.001592403404565705 0.0036754588874913958 0 -0.0016372370624552338 0.0036252813382520246 0 -0.0016372370624552338 0.0036252813382520246 0 -0.0016752099029274485 0.0035871109737329672 0 -0.0016440375682401284 0.003716054164253677 0 -0.0016372370624552338 0.0036252813382520246 0 -0.0015987645564888623 0.0037445931282813292 0 -0.0016440375682401284 0.003716054164253677 0 -0.001592403404565705 0.0036754588874913958 0 -0.0016372370624552338 0.0036252813382520246 0 -0.0015987645564888623 0.0037445931282813292 0 -0.001592403404565705 0.0036754588874913958 0 -0.0016652259536474496 0.0039085140212768354 0 -0.0015987645564888623 0.0037445931282813292 0 -0.0015471567753621066 0.0039149615137054304 0 -0.0016559308657148096 0.0038952046086673767 0 -0.0018124011514385522 0.0041438107509715414 0 -0.0018731554791353588 0.0038227133916110541 0 -0.0019798725592397072 0.0041514844937995034 0 -0.0016652259536474496 0.0039085140212768354 0 -0.0018124011514385522 0.0041438107509715414 0 -0.0018731554791353588 0.0038227133916110541 0 -0.0018124011514385522 0.0041438107509715414 0 -0.0018950586072366386 0.0043821875688123801 0 -0.0016544680112273245 0.004305404674685682 0 -0.0018124011514385522 0.0041438107509715414 0 -0.0018950586072366386 0.0043821875688123801 0 -0.0019798725592397072 0.0041514844937995034 0 -0.0014288894784522078 0.0041984754533897339 0 -0.0016652259536474496 0.0039085140212768354 0 -0.0016544680112273245 0.004305404674685682 0 -0.001436692470441373 0.0044241176770302235 0 -0.0014288894784522078 0.0041984754533897339 0 -0.0016544680112273245 0.004305404674685682 0 -0.0016652259536474496 0.0039085140212768354 0 -0.0018124011514385522 0.0041438107509715414 0 -0.0016544680112273245 0.004305404674685682 0 -0.0017707336869573894 0.0032638994246091458 0 -0.0019648651417700832 0.0029058552758743587 0 -0.0019590318419418027 0.0031747373427046311 0 -0.0017707336869573894 0.0032638994246091458 0 -0.0019648651417700832 0.0029058552758743587 0 -0.0017196009105406882 0.0028329609464449951 0 -0.0019648651417700832 0.0029058552758743587 0 -0.0021099321728452057 0.0030228123366945431 0 -0.0022218020009346696 0.002666523506051744 0 -0.0019648651417700832 0.0029058552758743587 0 -0.0021099321728452057 0.0030228123366945431 0 -0.0019590318419418027 0.0031747373427046311 0 -0.0021099321728452057 0.0030228123366945431 0 -0.0019590318419418027 0.0031747373427046311 0 -0.0020887171899278811 0.003292868344404047 0 -0.0020887171899278811 0.003292868344404047 0 -0.0023213110518662205 0.0030761909640156203 0 -0.0022701352619299746 0.0034431558800223413 0 -0.0019590318419418027 0.0031747373427046311 0 -0.0020887171899278811 0.003292868344404047 0 -0.001867414267211605 0.0033912440070821841 0 -0.0021099321728452057 0.0030228123366945431 0 -0.0020887171899278811 0.003292868344404047 0 -0.0023213110518662205 0.0030761909640156203 0 -0.0020887171899278811 0.003292868344404047 0 -0.001867414267211605 0.0033912440070821841 0 -0.0020053781068061693 0.0035507629814240287 0 -0.0017707336869573894 0.0032638994246091458 0 -0.001867414267211605 0.0033912440070821841 0 -0.0017261612979865653 0.0034523238630987971 0 -0.001867414267211605 0.0033912440070821841 0 -0.0017261612979865653 0.0034523238630987971 0 -0.0018211571581043511 0.0035949563571945806 0 -0.0017707336869573894 0.0032638994246091458 0 -0.0019590318419418027 0.0031747373427046311 0 -0.001867414267211605 0.0033912440070821841 0 -0.0017261612979865653 0.0034523238630987971 0 -0.0016752099029274485 0.0035871109737329672 0 -0.0016900627620229944 0.0035046569470840593 0 -0.0016372370624552338 0.0036252813382520246 0 -0.0016752099029274485 0.0035871109737329672 0 -0.0016900627620229944 0.0035046569470840593 0 -0.0017261612979865653 0.0034523238630987971 0 -0.0016900627620229944 0.0035046569470840593 0 -0.0017254858080991483 0.003426803519245175 0 -0.0017707336869573894 0.0032638994246091458 0 -0.0017261612979865653 0.0034523238630987971 0 -0.0017254858080991483 0.003426803519245175 0 -0.0017753543301837768 0.0032911549025203316 0 -0.0015404877794918444 0.0030893130042996451 0 -0.0017707336869573894 0.0032638994246091458 0 -0.0014336843091554388 0.0028682519439283062 0 -0.0017196009105406882 0.0028329609464449951 0 -0.0014336843091554388 0.0028682519439283062 0 -0.0015622035407507526 0.0026304261071812595 0 -0.0017196009105406882 0.0028329609464449951 0 -0.0014336843091554388 0.0028682519439283062 0 -0.0015622035407507526 0.0026304261071812595 0 -0.0011645411916043835 0.0025835392412121394 0 -0.0016357870585262013 0.0035126465822495701 0 -0.0016900627620229944 0.0035046569470840593 0 -0.001689560450593406 0.0034319358954485769 0 -0.0016900627620229944 0.0035046569470840593 0 -0.0017254858080991483 0.003426803519245175 0 -0.001689560450593406 0.0034319358954485769 0 -0.0015404877794918444 0.0030893130042996451 0 -0.0016035154479237881 0.0034047353723868361 0 -0.0019604193890530573 0.0029189588145990984 0 -0.0020700497425187757 0.0030326900032054717 0 -0.0021163287299203197 0.0028540900277376647 0 -0.0015731173774672889 0.0038314739264209215 0 -0.0016035154479237881 0.0034047353723868361 0 -0.0016035154479237881 0.0034047353723868361 0 -0.0019018794862842674 0.002388241030276057 0 -0.0015622035407507526 0.0026304261071812595 0 -0.0011645411916043835 0.0025835392412121394 0 -0.0016743313049582978 0.0022296711558493151 0 -0.0020700497425187757 0.0030326900032054717 0 -0.0022915325118624363 0.0028725704697578286 0 -0.0021163287299203197 0.0028540900277376647 0 -0.0015622035407507526 0.0026304261071812595 0 -0.0016743313049582978 0.0022296711558493151 0 -0.001820754862235568 0.0025952401951897402 0 -0.0019018794862842674 0.002388241030276057 0 -0.0018201574787794932 0.0025376919674771751 0 -0.001766219169548009 0.0022702824091279795 0 -0.0018456163095087856 0.0025279205166318167 0 -0.0020249556699406023 0.0023292223530956696 0 -0.0019648651417700832 0.0029058552758743587 0 -0.001820754862235568 0.0025952401951897402 0 -0.0017196009105406882 0.0028329609464449951 0 -0.0019590089026639518 0.0028868758512484603 0 -0.0018201574787794932 0.0025376919674771751 0 -0.0015622035407507526 0.0026304261071812595 0 -0.001820754862235568 0.0025952401951897402 0 -0.0017196009105406882 0.0028329609464449951 0 -0.0019648651417700832 0.0029058552758743587 0 -0.0018456163095087856 0.0025279205166318167 0 -0.0020862715969265631 0.0025377258625467951 0 -0.0019648651417700832 0.0029058552758743587 0 -0.0020862715969265631 0.0025377258625467951 0 -0.0022218020009346696 0.002666523506051744 0 -0.0020249556699406023 0.0023292223530956696 0 -0.0021595744551393997 0.0021838828269534478 0 -0.0022798017410474909 0.0023534401702749843 0 -0.0020862715969265631 0.0025377258625467951 0 -0.0020249556699406023 0.0023292223530956696 0 -0.0022798017410474909 0.0023534401702749843 0 -0.0018456163095087856 0.0025279205166318167 0 -0.0020862715969265631 0.0025377258625467951 0 -0.0020249556699406023 0.0023292223530956696 0 -0.0020249556699406023 0.0023292223530956696 0 -0.0021595744551393997 0.0021838828269534478 0 -0.0020297634510210239 0.0021147999263869746 0 -0.0021595744551393997 0.0021838828269534478 0 -0.0020297634510210239 0.0021147999263869746 0 -0.0021424503801436316 0.0020516957438232743 0 -0.001766219169548009 0.0022702824091279795 0 -0.0020249556699406023 0.0023292223530956696 0 -0.0020297634510210239 0.0021147999263869746 0 -0.0018724833340454591 0.002222787487533461 0 -0.0019116888241669963 0.0020884578429885077 0 -0.0018003522454782923 0.0020407034337531528 0 -0.0018724833340454591 0.002222787487533461 0 -0.0020297634510210239 0.0021147999263869746 0 -0.0019116888241669963 0.0020884578429885077 0 -0.0019018794862842674 0.002388241030276057 0 -0.0020034939993687187 0.002105014437907486 0 -0.0023091328362372259 0.0018703960707940831 0 -0.0025191113668510869 0.0017988756767126474 0 -0.0024260498267321918 0.0019670921103411196 0 -0.0020297634510210239 0.0021147999263869746 0 -0.0019116888241669963 0.0020884578429885077 0 -0.0019878684659787298 0.0019834163164131448 0 -0.0019116888241669963 0.0020884578429885077 0 -0.0019878684659787298 0.0019834163164131448 0 -0.0018003522454782923 0.0020407034337531528 0 -0.0021347075512015584 0.0019203253727720097 0 -0.0022992590614546002 0.0021101856430493374 0 -0.0023091328362372259 0.0018703960707940831 0 -0.0022541008150915977 0.0019337176684554045 0 -0.0022184765310340306 0.0019356405098511133 0 -0.0021347075512015584 0.0019203253727720097 0 -0.0022186770913406213 0.0019299220698648059 0 -0.0019878684659787298 0.0019834163164131448 0 -0.0021424503801436316 0.0020516957438232743 0 -0.0022184765310340306 0.0019356405098511133 0 -0.0020297634510210239 0.0021147999263869746 0 -0.0019878684659787298 0.0019834163164131448 0 -0.0021424503801436316 0.0020516957438232743 0 -0.0021163287299203197 0.0028540900277376647 0 -0.0020369992976290367 0.0027510913385094867 0 -0.0022242688875213639 0.0026946575956914732 0 -0.0019604193890530573 0.0029189588145990984 0 -0.0021163287299203197 0.0028540900277376647 0 -0.0020369992976290367 0.0027510913385094867 0 -0.0022915325118624363 0.0028725704697578286 0 -0.0021163287299203197 0.0028540900277376647 0 -0.0022242688875213639 0.0026946575956914732 0 -0.0019018794862842674 0.002388241030276057 0 -0.0022992590614546002 0.0021101856430493374 0 -0.0024621800765458109 0.0017305258986787084 0 -0.0027319749107997597 0.0018804708665339166 0 -0.0026331227000361609 0.0020910534548195235 0 -0.0022992590614546002 0.0021101856430493374 0 -0.0026420825585200935 0.0019518482515420168 0 -0.0029621182843224238 0.0019412012291102907 0 -0.0028360706401845581 0.0016029293698739976 0 -0.0027319749107997597 0.0018804708665339166 0 -0.0025843749898034514 0.0020546157843001961 0 -0.0022992590614546002 0.0021101856430493374 0 -0.0028360706401845581 0.0016029293698739976 0 -0.0024621800765458109 0.0017305258986787084 0 -0.0027319749107997597 0.0018804708665339166 0 -0.0029621182843224238 0.0019412012291102907 0 -0.0027319749107997597 0.0018804708665339166 0 -0.0028436392773608099 0.0021451765633384791 0 -0.0027319749107997597 0.0018804708665339166 0 -0.0028436392773608099 0.0021451765633384791 0 -0.0026331227000361609 0.0020910534548195235 0 -0.0028436392773608099 0.0021451765633384791 0 -0.0026331227000361609 0.0020910534548195235 0 -0.0027584854769808023 0.0022593128700997855 0 -0.0025191113668510869 0.0017988756767126474 0 -0.0026331227000361609 0.0020910534548195235 0 -0.0024260498267321918 0.0019670921103411196 0 -0.0026331227000361609 0.0020910534548195235 0 -0.0024260498267321918 0.0019670921103411196 0 -0.0023983189719135418 0.002107803505021497 0 -0.0018389413916449372 -0.0056573388815170456 0 -0.0016543554486717228 -0.0055071637707312434 0 -0.0019824106315927963 -0.005434609709644973 0 -0.0026331227000361609 0.0020910534548195235 0 -0.0027584854769808023 0.0022593128700997855 0 -0.0023983189719135418 0.002107803505021497 0 -0.002278012528377281 -0.00016759882642756086 0 -0.0021732900504871145 -0.0020157418636234034 0 -0.0024695434141979956 0.0026869031829228314 0 -0.002278012528377281 -0.00016759882642756086 0 -0.0021732900504871145 -0.0020157418636234034 0 -0.0023327532219350137 -0.00078383429552288737 0 -0.002226704048258742 0.0019509237451473184 0 -0.0023201970707617194 0.0019682908409787443 0 -0.0023983189719135418 0.002107803505021497 0 -0.002226704048258742 0.0019509237451473184 0 -0.0023983189719135418 0.002107803505021497 0 -0.0021860018412463177 0.0019241331723279104 0 -0.0022667366211480328 -7.5373855605753617e-05 0 -0.0023327532219350137 -0.00078383429552288737 0 -0.0022541008150915977 0.0019337176684554045 0 -0.0022307114575827666 0.0019290049982973532 0 -0.0022184765310340306 0.0019356405098511133 0 -0.002226704048258742 0.0019509237451473184 0 -0.0022541008150915977 0.0019337176684554045 0 -0.0022307114575827666 0.0019290049982973532 0 -0.0023091328362372259 0.0018703960707940831 0 -0.0022541008150915977 0.0019337176684554045 0 -0.0023201970707617194 0.0019682908409787443 0 -0.002226704048258742 0.0019509237451473184 0 -0.0022541008150915977 0.0019337176684554045 0 -0.0023201970707617194 0.0019682908409787443 0 -0.0023091328362372259 0.0018703960707940831 0 -0.0023201970707617194 0.0019682908409787443 0 -0.0024260498267321918 0.0019670921103411196 0 -0.0023201970707617194 0.0019682908409787443 0 -0.0024260498267321918 0.0019670921103411196 0 -0.0023983189719135418 0.002107803505021497 0 -0.0019978197647524546 -0.0058373807119774298 0 -0.0018389413916449372 -0.0056573388815170456 0 -0.0019824106315927963 -0.005434609709644973 0 -0.0019978197647524546 -0.0058373807119774298 0 -0.0019824106315927963 -0.005434609709644973 0 -0.0022729054264370601 -0.0055155113241636099 0 -0.0024336120675799719 -0.0057547389337448771 0 -0.0022729054264370601 -0.0055155113241636099 0 -0.002428842437024121 -0.0055679488311699814 0 -0.0019824106315927963 -0.005434609709644973 0 -0.0022729054264370601 -0.0055155113241636099 0 -0.0026108080124487339 -0.0052804776388505554 0 -0.0025281896930537946 -0.005459215309971335 0 -0.002428842437024121 -0.0055679488311699814 0 -0.0026711071129233133 -0.005524683417559244 0 -0.0022729054264370601 -0.0055155113241636099 0 -0.0025281896930537946 -0.005459215309971335 0 -0.002428842437024121 -0.0055679488311699814 0 -0.0022729054264370601 -0.0055155113241636099 0 -0.0025281896930537946 -0.005459215309971335 0 -0.0026108080124487339 -0.0052804776388505554 0 -0.0024336120675799719 -0.0057547389337448771 0 -0.002428842437024121 -0.0055679488311699814 0 -0.0026209638131718797 -0.0056794673115457576 0 -0.002428842437024121 -0.0055679488311699814 0 -0.0026209638131718797 -0.0056794673115457576 0 -0.0026711071129233133 -0.005524683417559244 0 -0.0026209638131718797 -0.0056794673115457576 0 -0.0027951173054680989 -0.0057414435531889709 0 -0.0027871634426049623 -0.0056101936484790381 0 -0.0026209638131718797 -0.0056794673115457576 0 -0.0027871634426049623 -0.0056101936484790381 0 -0.0026711071129233133 -0.005524683417559244 0 -0.0029435732550502792 -0.0057842450662186958 0 -0.0027951173054680989 -0.0057414435531889709 0 -0.002897654337099171 -0.0056651380530072844 0 -0.0027951173054680989 -0.0057414435531889709 0 -0.0027871634426049623 -0.0056101936484790381 0 -0.002897654337099171 -0.0056651380530072844 0 -0.0027871634426049623 -0.0056101936484790381 0 -0.002897654337099171 -0.0056651380530072844 0 -0.0029317170425760303 -0.0055637924424027391 0 -0.0027871634426049623 -0.0056101936484790381 0 -0.0029317170425760303 -0.0055637924424027391 0 -0.0028382305820367727 -0.0054745624751419914 0 -0.0029317170425760303 -0.0055637924424027391 0 -0.0028382305820367727 -0.0054745624751419914 0 -0.0029559472308454521 -0.0054704912774404093 0 -0.0027871634426049623 -0.0056101936484790381 0 -0.0028382305820367727 -0.0054745624751419914 0 -0.0026711071129233133 -0.005524683417559244 0 -0.0027930603444082927 -0.0053803903453935042 0 -0.0028382305820367727 -0.0054745624751419914 0 -0.0026920632280882026 -0.0054194767485401833 0 -0.0027930603444082927 -0.0053803903453935042 0 -0.0028382305820367727 -0.0054745624751419914 0 -0.0028894116638161532 -0.0054112401187113952 0 -0.0028382305820367727 -0.0054745624751419914 0 -0.0028894116638161532 -0.0054112401187113952 0 -0.0029559472308454521 -0.0054704912774404093 0 -0.0028894116638161532 -0.0054112401187113952 0 -0.0029559472308454521 -0.0054704912774404093 0 -0.0029665158288581625 -0.0053913111840761347 0 -0.0025281896930537946 -0.005459215309971335 0 -0.0026711071129233133 -0.005524683417559244 0 -0.0026920632280882026 -0.0054194767485401833 0 -0.0028382305820367727 -0.0054745624751419914 0 -0.0026711071129233133 -0.005524683417559244 0 -0.0026920632280882026 -0.0054194767485401833 0 -0.0025281896930537946 -0.005459215309971335 0 -0.0026920632280882026 -0.0054194767485401833 0 -0.0026108080124487339 -0.0052804776388505554 0 -0.002226704048258742 0.0019509237451473184 0 -0.0022351632512010882 0.0019114941253904276 0 -0.0022426604124033494 0.0019065829144185866 0 -0.0022455032582811328 0.0019074061161346034 0 -0.0022998376553124305 0.0018561777181072539 0 -0.0023052226418818957 0.0020254472230325964 0 -0.002226704048258742 0.0019509237451473184 0 -0.0022426604124033494 0.0019065829144185866 0 -0.0022307114575827666 0.0019290049982973532 0 -0.0027930603444082927 -0.0053803903453935042 0 -0.0026920632280882026 -0.0054194767485401833 0 -0.0026108080124487339 -0.0052804776388505554 0 -0.0022426604124033494 0.0019065829144185866 0 -0.0022455032582811328 0.0019074061161346034 0 -0.0022998376553124305 0.0018561777181072539 0 -0.0027930603444082927 -0.0053803903453935042 0 -0.0026108080124487339 -0.0052804776388505554 0 -0.0028941125067995224 -0.0053386649737760476 0 -0.0026108080124487339 -0.0052804776388505554 0 -0.0028941125067995224 -0.0053386649737760476 0 -0.0030065886604464694 -0.0052878731506148515 0 -0.0023327532219350137 -0.00078383429552288737 0 -0.0028137697777404365 -0.0013623855599610144 0 -0.0022351632512010882 0.0019114941253904276 0 -0.0022426604124033494 0.0019065829144185866 0 -0.0022998376553124305 0.0018561777181072539 0 -0.0027930603444082927 -0.0053803903453935042 0 -0.0028894116638161532 -0.0054112401187113952 0 -0.0028941125067995224 -0.0053386649737760476 0 -0.0028894116638161532 -0.0054112401187113952 0 -0.0028941125067995224 -0.0053386649737760476 0 -0.0029665158288581625 -0.0053913111840761347 0 -0.0028941125067995224 -0.0053386649737760476 0 -0.0029727963142758217 -0.0053408508976139002 0 -0.0029665158288581625 -0.0053913111840761347 0 -0.0022307114575827666 0.0019290049982973532 0 -0.0022455032582811328 0.0019074061161346034 0 -0.0022184765310340306 0.0019356405098511133 0 -0.0022426604124033494 0.0019065829144185866 0 -0.0022307114575827666 0.0019290049982973532 0 -0.0022455032582811328 0.0019074061161346034 0 -0.0025333721679098855 -0.00078022961179593316 0 -0.0035913742090366821 -0.00078171449671587132 0 -0.0029670556243681866 -8.2012768385483916e-05 0 -0.0028137697777404365 -0.0013623855599610144 0 -0.0035531031707553666 -0.0032476010311379066 0 -0.0028941125067995224 -0.0053386649737760476 0 -0.0030065886604464694 -0.0052878731506148515 0 -0.0029727963142758217 -0.0053408508976139002 0 -0.0030065886604464694 -0.0052878731506148515 0 -0.0030164636391049222 -0.0053453291529805547 0 -0.0029727963142758217 -0.0053408508976139002 0 -0.0028137697777404365 -0.0013623855599610144 0 -0.0028918296259671065 -0.0018666918437956128 0 -0.0030164636391049222 -0.0053453291529805547 0 -0.0029727963142758217 -0.0053408508976139002 0 -0.0029665158288581625 -0.0053913111840761347 0 -0.0030071055491259803 -0.0052956847394303253 0 -0.0031405203269001471 -0.005535479443113815 0 -0.0034527258101869434 -0.0055912888591892196 0 -0.0030071055491259803 -0.0052956847394303253 0 -0.0030164636391049222 -0.0053453291529805547 0 -0.0031405203269001471 -0.005535479443113815 0 -0.0030164636391049222 -0.0053453291529805547 0 -0.0029665158288581625 -0.0053913111840761347 0 -0.0030214988698380415 -0.0054563107367847528 0 -0.0029559472308454521 -0.0054704912774404093 0 -0.0029665158288581625 -0.0053913111840761347 0 -0.0030214988698380415 -0.0054563107367847528 0 -0.0029559472308454521 -0.0054704912774404093 0 -0.0030214988698380415 -0.0054563107367847528 0 -0.0030270842135357084 -0.0055380946751158637 0 -0.0030164636391049222 -0.0053453291529805547 0 -0.0030214988698380415 -0.0054563107367847528 0 -0.0031405203269001471 -0.005535479443113815 0 -0.0031405203269001471 -0.005535479443113815 0 -0.0030270842135357084 -0.0055380946751158637 0 -0.0030461012153077849 -0.0056654207254786693 0 -0.0030214988698380415 -0.0054563107367847528 0 -0.0031405203269001471 -0.005535479443113815 0 -0.0030270842135357084 -0.0055380946751158637 0 -0.0029317170425760303 -0.0055637924424027391 0 -0.0030270842135357084 -0.0055380946751158637 0 -0.0030461012153077849 -0.0056654207254786693 0 -0.0029317170425760303 -0.0055637924424027391 0 -0.0029559472308454521 -0.0054704912774404093 0 -0.0030270842135357084 -0.0055380946751158637 0 -0.0031405203269001471 -0.005535479443113815 0 -0.0030461012153077849 -0.0056654207254786693 0 -0.0032288232015598582 -0.0057699157962541325 0 -0.002897654337099171 -0.0056651380530072844 0 -0.0029317170425760303 -0.0055637924424027391 0 -0.0030461012153077849 -0.0056654207254786693 0 -0.0030916216130774271 -0.0058575185033708866 0 -0.0030461012153077849 -0.0056654207254786693 0 -0.0032288232015598582 -0.0057699157962541325 0 -0.0030916216130774271 -0.0058575185033708866 0 -0.0029435732550502792 -0.0057842450662186958 0 -0.0030461012153077849 -0.0056654207254786693 0 -0.0029435732550502792 -0.0057842450662186958 0 -0.002897654337099171 -0.0056651380530072844 0 -0.0030461012153077849 -0.0056654207254786693 0 -0.0031405203269001471 -0.005535479443113815 0 -0.0032288232015598582 -0.0057699157962541325 0 -0.0034527258101869434 -0.0055912888591892196 0 -0.0034052261559768997 -0.0058805554997012855 0 -0.0036677221295529474 -0.00587360588447303 0 -0.0034527258101869434 -0.0055912888591892196 0 -0.0036677221295529474 -0.00587360588447303 0 -0.0034527258101869434 -0.0055912888591892196 0 -0.0036201807639388733 -0.0053553813835812789 0 -0.0034052261559768997 -0.0058805554997012855 0 -0.0032288232015598582 -0.0057699157962541325 0 -0.0034527258101869434 -0.0055912888591892196 0 -0.0040069337614360026 -0.0057018643536726806 0 -0.0036201807639388733 -0.0053553813835812789 0 -0.0042450942955452233 -0.0053847823578160973 0 -0.0036677221295529474 -0.00587360588447303 0 -0.0040069337614360026 -0.0057018643536726806 0 -0.0036201807639388733 -0.0053553813835812789 0 -0.0040644055709429571 -0.0060835025234789643 0 -0.0036677221295529474 -0.00587360588447303 0 -0.0040069337614360026 -0.0057018643536726806 0 -0.0035531031707553666 -0.0032476010311379066 0 -0.0046305452410239168 -0.0029651337351568846 0 -0.0035913742090366821 -0.00078171449671587132 0 -0.004278017952168177 0.00016484953714325442 0 -0.0046270406752056516 -0.00080253547065416272 0 -0.0030071055491259803 -0.0052956847394303253 0 -0.0034527258101869434 -0.0055912888591892196 0 -0.0036201807639388733 -0.0053553813835812789 0 -0.0035913742090366821 -0.00078171449671587132 0 -0.0034973511704164033 0.0003650533181620276 0 -0.0029670556243681866 -8.2012768385483916e-05 0 -0.0035913742090366821 -0.00078171449671587132 0 -0.0034973511704164033 0.0003650533181620276 0 -0.004278017952168177 0.00016484953714325442 0 -0.004278017952168177 0.00016484953714325442 0 -0.003949089637760585 0.00084435509215458505 0 -0.0048716237071932712 0.0011344369907755117 0 -0.0034973511704164033 0.0003650533181620276 0 -0.004278017952168177 0.00016484953714325442 0 -0.003949089637760585 0.00084435509215458505 0 -0.0034973511704164033 0.0003650533181620276 0 -0.0033053690439055917 0.00096074999175024779 0 -0.0028670561665370747 0.00077745833548813269 0 -0.0034973511704164033 0.0003650533181620276 0 -0.003949089637760585 0.00084435509215458505 0 -0.0033053690439055917 0.00096074999175024779 0 -0.0033053690439055917 0.00096074999175024779 0 -0.0028670561665370747 0.00077745833548813269 0 -0.0029368335741787625 0.0015399076185509068 0 -0.0028670561665370747 0.00077745833548813269 0 -0.0023258922264337368 0.00035420173904637033 0 -0.0021833895305373332 0.0015157894243624443 0 -0.0022327352602037002 0.0016114759804070891 0 -0.002259600698126204 0.0018401795842368203 0 -0.0021595744551393997 0.0021838828269534478 0 -0.0021424503801436316 0.0020516957438232743 0 -0.0023052226418818957 0.0020254472230325964 0 -0.0021595744551393997 0.0021838828269534478 0 -0.0023052226418818957 0.0020254472230325964 0 -0.0022798017410474909 0.0023534401702749843 0 -0.0022455032582811328 0.0019074061161346034 0 -0.0023052226418818957 0.0020254472230325964 0 -0.0022184765310340306 0.0019356405098511133 0 -0.0021424503801436316 0.0020516957438232743 0 -0.0023052226418818957 0.0020254472230325964 0 -0.0022184765310340306 0.0019356405098511133 0 -0.0028137697777404365 -0.0013623855599610144 0 -0.0022327352602037002 0.0016114759804070891 0 -0.0028670561665370747 0.00077745833548813269 0 -0.0023258922264337368 0.00035420173904637033 0 -0.0029670556243681866 -8.2012768385483916e-05 0 -0.0034973511704164033 0.0003650533181620276 0 -0.0028670561665370747 0.00077745833548813269 0 -0.0029670556243681866 -8.2012768385483916e-05 0 -0.0025333721679098855 -0.00078022961179593316 0 -0.0023258922264337368 0.00035420173904637033 0 -0.0029670556243681866 -8.2012768385483916e-05 0 -0.0011834809693912576 -0.0067336518788456571 0 -0.0012848624700271319 -0.0066205681312517623 0 -0.0013906233578561027 -0.006736554564600295 0 -0.0024868080368709044 -0.008586501126292851 0 -0.0028889753542995114 -0.01186780866959922 0 -0.0011834809693912576 -0.0067336518788456571 0 -0.0011866840558051857 -0.0066005274643107254 0 -0.0012848624700271319 -0.0066205681312517623 0 -0.0024868080368709044 -0.008586501126292851 0 -0.0015128152625604357 -0.0062430962190717755 0 -0.0052356058154428833 -0.010209194196096357 0 -0.0024868080368709044 -0.008586501126292851 0 -0.0044724361943628043 -0.013533699876869133 0 -0.0043457559640412658 -0.014184354724071906 0 -0.0042051628278977609 -0.013830910927674748 0 -0.0043457559640412658 -0.014184354724071906 0 -0.0042051628278977609 -0.013830910927674748 0 -0.003977571672354463 -0.014001846780499747 0 -0.0040133772820524494 -0.013585110309482588 0 -0.0042051628278977609 -0.013830910927674748 0 -0.003977571672354463 -0.014001846780499747 0 -0.0055005841751448554 -0.0063252099571771189 0 -0.0054789677640940159 -0.0057895874126902714 0 -0.0052292583586164123 -0.0061427796226740999 0 -0.0053131663104971794 -0.006311221238413346 0 -0.0044281547372751699 -0.0041928257630270294 0 -0.0054789677640940159 -0.0057895874126902714 0 -0.0052292583586164123 -0.0061427796226740999 0 -0.0050634810763170576 -0.0057799603792702938 0 -0.00118782847985684 -0.0066958062535871516 0 -0.0010324366566165249 -0.0066787920115262056 0 -0.0010674558743239322 -0.0065671499699317326 0 -0.0024868080368709044 -0.008586501126292851 0 -0.0044281547372751699 -0.0041928257630270294 0 -0.00118782847985684 -0.0066958062535871516 0 -0.0010674558743239322 -0.0065671499699317326 0 -0.0011866840558051857 -0.0066005274643107254 0 -0.0056699777870855049 -0.00083158098072923453 0 -0.0046270406752056516 -0.00080253547065416272 0 -0.005276184248344618 0.00015447391915031196 0 -0.0044281547372751699 -0.0041928257630270294 0 -0.0029602470922856778 -0.0030137083571105446 0 -0.0044281547372751699 -0.0041928257630270294 0 -0.0046305452410239168 -0.0029651337351568846 0 -0.0047982719215623948 -0.0060388365461446917 0 -0.00517488607960541 -0.0059162531563959307 0 -0.0049388404673734159 -0.0053738050222901079 0 -0.0047982719215623948 -0.0060388365461446917 0 -0.0049388404673734159 -0.0053738050222901079 0 -0.0044599283752106067 -0.0058198775336445767 0 -0.0040069337614360026 -0.0057018643536726806 0 -0.0044599283752106067 -0.0058198775336445767 0 -0.0042450942955452233 -0.0053847823578160973 0 -0.0049388404673734159 -0.0053738050222901079 0 -0.0044599283752106067 -0.0058198775336445767 0 -0.0042450942955452233 -0.0053847823578160973 0 -0.0040644055709429571 -0.0060835025234789643 0 -0.0040069337614360026 -0.0057018643536726806 0 -0.0044599283752106067 -0.0058198775336445767 0 -0.004278017952168177 0.00016484953714325442 0 -0.0046270406752056516 -0.00080253547065416272 0 -0.005276184248344618 0.00015447391915031196 0 -0.004278017952168177 0.00016484953714325442 0 -0.005276184248344618 0.00015447391915031196 0 -0.0048716237071932712 0.0011344369907755117 0 -0.0029602470922856778 -0.0030137083571105446 0 -0.0028216213036133253 -0.0026847556120121849 0 -0.00098202044592936148 -0.0063031078048664431 0 -0.0009255235721566667 -0.0064810096911166104 0 -0.00081587598771447204 -0.0062466571289786933 0 -0.00098202044592936148 -0.0063031078048664431 0 -0.0009255235721566667 -0.0064810096911166104 0 -0.0010842482352687226 -0.006429988499063284 0 -0.0010324366566165249 -0.0066787920115262056 0 -0.0009255235721566667 -0.0064810096911166104 0 -0.0010674558743239322 -0.0065671499699317326 0 -0.0009255235721566667 -0.0064810096911166104 0 -0.0010674558743239322 -0.0065671499699317326 0 -0.0010842482352687226 -0.006429988499063284 0 -0.0010674558743239322 -0.0065671499699317326 0 -0.0010842482352687226 -0.006429988499063284 0 -0.0011866840558051857 -0.0066005274643107254 0 -0.0010842482352687226 -0.006429988499063284 0 -0.0012341927774094758 -0.0064694975080421893 0 -0.0011016844047676562 -0.006253077567258427 0 -0.00098202044592936148 -0.0063031078048664431 0 -0.0010842482352687226 -0.006429988499063284 0 -0.0011016844047676562 -0.006253077567258427 0 -0.0012341927774094758 -0.0064694975080421893 0 -0.0011866840558051857 -0.0066005274643107254 0 -0.0012848624700271319 -0.0066205681312517623 0 -0.0010842482352687226 -0.006429988499063284 0 -0.0012341927774094758 -0.0064694975080421893 0 -0.0011866840558051857 -0.0066005274643107254 0 -0.0011973215386870846 -0.0061371002508244996 0 -0.0013205806908212954 -0.0063343227852829618 0 -0.0013381380753641401 -0.0059671229806440218 0 -0.0011973215386870846 -0.0061371002508244996 0 -0.0010271056294798718 -0.0059829522738000206 0 -0.0013381380753641401 -0.0059671229806440218 0 -0.0011973215386870846 -0.0061371002508244996 0 -0.0011016844047676562 -0.006253077567258427 0 -0.0013205806908212954 -0.0063343227852829618 0 -0.0012341927774094758 -0.0064694975080421893 0 -0.0011016844047676562 -0.006253077567258427 0 -0.0013205806908212954 -0.0063343227852829618 0 -0.0010729434646555693 -0.0062062895381725372 0 -0.00089435602713241384 -0.0062656760484584833 0 -0.0011973215386870846 -0.0061371002508244996 0 -0.0011016844047676562 -0.006253077567258427 0 -0.0010271056294798718 -0.0059829522738000206 0 -0.0011016844047676562 -0.006253077567258427 0 -0.0010271056294798718 -0.0059829522738000206 0 -0.00085473283222725009 -0.0061266098101752844 0 -0.0010271056294798718 -0.0059829522738000206 0 -0.0008341134474010094 -0.0059951087272801431 0 -0.00085473283222725009 -0.0061266098101752844 0 -0.0008341134474010094 -0.0059951087272801431 0 -0.00085473283222725009 -0.0061266098101752844 0 -0.00064458096525987101 -0.0060008816910912663 0 -0.00098202044592936148 -0.0063031078048664431 0 -0.0011016844047676562 -0.006253077567258427 0 -0.00095660144340963243 -0.0060940551742385994 0 -0.00098202044592936148 -0.0063031078048664431 0 -0.00095660144340963243 -0.0060940551742385994 0 -0.00081587598771447204 -0.0062466571289786933 0 -0.00095660144340963243 -0.0060940551742385994 0 -0.00081587598771447204 -0.0062466571289786933 0 -0.00071228435364764653 -0.0059610716097798465 0 -0.0028216213036133253 -0.0026847556120121849 0 -0.0031973796457116978 -0.0013143025182260238 0 -0.00089435602713241384 -0.0062656760484584833 0 -0.0013935399982465122 -0.0039040439275552265 0 -0.00095660144340963243 -0.0060940551742385994 0 -0.00071228435364764653 -0.0059610716097798465 0 -0.00075051458154259888 -0.0059319358061676493 0 -0.0013935399982465122 -0.0039040439275552265 0 -0.0028119126410697062 -0.00092930679481339768 0 -0.0027233160885013841 -0.0027438024681947933 0 -0.00319273445309377 -0.002366464800500396 0 -0.0024042625514459895 -0.0019768240096766317 0 -0.0031973796457116978 -0.0013143025182260238 0 -0.0013935399982465122 -0.0039040439275552265 0 -0.0012998934748878867 -0.0053482681551899605 0 -0.0012783082433722461 -0.0054525437081283179 0 -0.001248971192969156 -0.0053652130151409525 0 -0.0008341134474010094 -0.0059951087272801431 0 -0.00064458096525987101 -0.0060008816910912663 0 -0.00081624253339270957 -0.0058683212510439895 0 -0.0013102746374315162 -0.0052735535821167032 0 -0.0012998934748878867 -0.0053482681551899605 0 -0.001248971192969156 -0.0053652130151409525 0 -0.0013935399982465122 -0.0039040439275552265 0 -0.00085587812388963382 -0.0058334113352988106 0 -0.0013102746374315162 -0.0052735535821167032 0 -0.0012998934748878867 -0.0053482681551899605 0 -0.0013381334706082148 -0.0052845003228357461 0 -0.0012998934748878867 -0.0053482681551899605 0 -0.0012783082433722461 -0.0054525437081283179 0 -0.0013526087775468001 -0.0053854743685069579 0 -0.0012783082433722461 -0.0054525437081283179 0 -0.001248971192969156 -0.0053652130151409525 0 -0.0012113962756976969 -0.0054544945665699661 0 -0.0012783082433722461 -0.0054525437081283179 0 -0.0012113962756976969 -0.0054544945665699661 0 -0.0012211914191466613 -0.005527439572078836 0 -0.0010271056294798718 -0.0059829522738000206 0 -0.0008341134474010094 -0.0059951087272801431 0 -0.00081624253339270957 -0.0058683212510439895 0 -0.00085587812388963382 -0.0058334113352988106 0 -0.0011536258651404624 -0.005546985056131366 0 -0.0010271056294798718 -0.0059829522738000206 0 -0.00099956860470229794 -0.0057138997844041724 0 -0.0011671796530918228 -0.0057880217054655826 0 -0.0010271056294798718 -0.0059829522738000206 0 -0.00081624253339270957 -0.0058683212510439895 0 -0.00099956860470229794 -0.0057138997844041724 0 -0.0011536258651404624 -0.005546985056131366 0 -0.0011663144274121644 -0.0055803814425663748 0 -0.00099956860470229794 -0.0057138997844041724 0 -0.0011671796530918228 -0.0057880217054655826 0 -0.0011922955447948049 -0.005575779421174991 0 -0.0012113962756976969 -0.0054544945665699661 0 -0.0011922955447948049 -0.005575779421174991 0 -0.0012211914191466613 -0.005527439572078836 0 -0.0011671796530918228 -0.0057880217054655826 0 -0.0011922955447948049 -0.005575779421174991 0 -0.0012681805770820257 -0.0056301376956029107 0 -0.0011671796530918228 -0.0057880217054655826 0 -0.0012681805770820257 -0.0056301376956029107 0 -0.0013381380753641401 -0.0059671229806440218 0 -0.0010271056294798718 -0.0059829522738000206 0 -0.0011671796530918228 -0.0057880217054655826 0 -0.0013381380753641401 -0.0059671229806440218 0 -0.0027138986950912924 0.0023518445039883659 0 -0.0029368335741787625 0.0015399076185509068 0 -0.0032994228844061102 0.0022242214769409179 0 -0.0020862715969265631 0.0025377258625467951 0 -0.0022798017410474909 0.0023534401702749843 0 -0.0022218020009346696 0.002666523506051744 0 -0.002259600698126204 0.0018401795842368203 0 -0.0021990643837819686 0.0026469400934045341 0 -0.0027138986950912924 0.0023518445039883659 0 -0.0021833895305373332 0.0015157894243624443 0 -0.0022218020009346696 0.002666523506051744 0 -0.0028670561665370747 0.00077745833548813269 0 -0.0021833895305373332 0.0015157894243624443 0 -0.0029368335741787625 0.0015399076185509068 0 -0.0027138986950912924 0.0023518445039883659 0 -0.0021833895305373332 0.0015157894243624443 0 -0.0029368335741787625 0.0015399076185509068 0 -0.0033053690439055917 0.00096074999175024779 0 -0.0029368335741787625 0.0015399076185509068 0 -0.0038036899996247635 0.0015921867088453416 0 -0.0029368335741787625 0.0015399076185509068 0 -0.0038036899996247635 0.0015921867088453416 0 -0.0032994228844061102 0.0022242214769409179 0 -0.003949089637760585 0.00084435509215458505 0 -0.0033053690439055917 0.00096074999175024779 0 -0.0038036899996247635 0.0015921867088453416 0 -0.0048716237071932712 0.0011344369907755117 0 -0.0044603268803425468 0.0020757752179341345 0 -0.0038036899996247635 0.0015921867088453416 0 -0.003949089637760585 0.00084435509215458505 0 -0.0048716237071932712 0.0011344369907755117 0 -0.0038036899996247635 0.0015921867088453416 0 -0.0031973796457116978 -0.0013143025182260238 0 -0.0046463235540870947 0.0024919428161325136 0 -0.0044198955433180764 0.0021126465326860538 0 -0.0038036899996247635 0.0015921867088453416 0 -0.0039126936492909891 0.0021849203868276887 0 -0.0039126936492909891 0.0021849203868276887 0 -0.0043248596431455259 0.0023426834923472597 0 -0.0037108413119419812 0.0026476296157061231 0 -0.0044198955433180764 0.0021126465326860538 0 -0.0039126936492909891 0.0021849203868276887 0 -0.0043248596431455259 0.0023426834923472597 0 -0.0031973796457116978 -0.0013143025182260238 0 -0.0028119126410697062 -0.00092930679481339768 0 -0.0038036899996247635 0.0015921867088453416 0 -0.0039126936492909891 0.0021849203868276887 0 -0.0032994228844061102 0.0022242214769409179 0 -0.0039126936492909891 0.0021849203868276887 0 -0.0032994228844061102 0.0022242214769409179 0 -0.0037108413119419812 0.0026476296157061231 0 -0.0032994228844061102 0.0022242214769409179 0 -0.0037108413119419812 0.0026476296157061231 0 -0.0030472833087005812 0.0029012783229095084 0 -0.0031349044748630842 0.002818296731464616 0 -0.0031713224114994529 0.0030280268317308843 0 -0.0030835099395276127 0.0030121801269624429 0 -0.0031349044748630842 0.002818296731464616 0 -0.0030472833087005812 0.0029012783229095084 0 -0.0030835099395276127 0.0030121801269624429 0 -0.0032954826950829276 0.0026888540082763359 0 -0.0031296960452622943 0.0028611310727329532 0 -0.0028119126410697062 -0.00092930679481339768 0 -0.0022061344059581944 -0.0012185580311084999 0 -0.0012998934748878867 -0.0053482681551899605 0 -0.0013381334706082148 -0.0052845003228357461 0 -0.0013526087775468001 -0.0053854743685069579 0 -0.0033460077058451946 0.0026805443851703596 0 -0.0031349044748630842 0.002818296731464616 0 -0.0031713224114994529 0.0030280268317308843 0 -0.0028119126410697062 -0.00092930679481339768 0 -0.0032954826950829276 0.0026888540082763359 0 -0.0012783082433722461 -0.0054525437081283179 0 -0.0013526087775468001 -0.0053854743685069579 0 -0.0013204423396924116 -0.0054508285621753276 0 -0.0030472833087005812 0.0029012783229095084 0 -0.0030835099395276127 0.0030121801269624429 0 -0.0028624161159794951 0.0031149743869179837 0 -0.0031713224114994529 0.0030280268317308843 0 -0.0030835099395276127 0.0030121801269624429 0 -0.0030603456830604662 0.0031167177183282712 0 -0.0030835099395276127 0.0030121801269624429 0 -0.0028624161159794951 0.0031149743869179837 0 -0.0030603456830604662 0.0031167177183282712 0 -0.0030472833087005812 0.0029012783229095084 0 -0.0028624161159794951 0.0031149743869179837 0 -0.0026111157874967594 0.0029043944477516203 0 -0.0028624161159794951 0.0031149743869179837 0 -0.0026111157874967594 0.0029043944477516203 0 -0.002571566065000305 0.0032300750321949496 0 -0.0027138986950912924 0.0023518445039883659 0 -0.0030472833087005812 0.0029012783229095084 0 -0.0026111157874967594 0.0029043944477516203 0 -0.0027138986950912924 0.0023518445039883659 0 -0.0032994228844061102 0.0022242214769409179 0 -0.0030472833087005812 0.0029012783229095084 0 -0.0026111157874967594 0.0029043944477516203 0 -0.0022218020009346696 0.002666523506051744 0 -0.0023213110518662205 0.0030761909640156203 0 -0.0021099321728452057 0.0030228123366945431 0 -0.0022218020009346696 0.002666523506051744 0 -0.0023213110518662205 0.0030761909640156203 0 -0.0027138986950912924 0.0023518445039883659 0 -0.0026111157874967594 0.0029043944477516203 0 -0.0022218020009346696 0.002666523506051744 0 -0.0023213110518662205 0.0030761909640156203 0 -0.002571566065000305 0.0032300750321949496 0 -0.0022701352619299746 0.0034431558800223413 0 -0.0026111157874967594 0.0029043944477516203 0 -0.0023213110518662205 0.0030761909640156203 0 -0.002571566065000305 0.0032300750321949496 0 -0.0022701352619299746 0.0034431558800223413 0 -0.0025690672810918173 0.00361705937104074 0 -0.0021515930791194339 0.0037532787020705507 0 -0.0025743766427413768 0.0033512285625239809 0 -0.0024524736654942354 0.0032760539942717792 0 -0.002571566065000305 0.0032300750321949496 0 -0.0022701352619299746 0.0034431558800223413 0 -0.0025690672810918173 0.00361705937104074 0 -0.0010255644011237853 0.004071686775789049 0 -0.0011031815614898259 0.0038791470188539096 0 -0.0012072481676640508 0.0039955105018270364 0 -0.0024524736654942354 0.0032760539942717792 0 -0.0015439552564562354 0.0039488561658921591 0 -0.0010255644011237853 0.004071686775789049 0 -0.0011031815614898259 0.0038791470188539096 0 -0.00097642920953471251 0.0037910608593304806 0 -0.0024524736654942354 0.0032760539942717792 0 -0.0023661001746355251 0.0032107004621263944 0 -0.0037599338727080074 0.0028891552366762728 0 -0.0034498836248075273 0.002435741151884459 0 -0.0032346817330347753 0.002895014749811034 0 -0.0037599338727080074 0.0028891552366762728 0 -0.0034498836248075273 0.002435741151884459 0 -0.0037069355755245306 0.0018733897941925317 0 -0.0034498836248075273 0.002435741151884459 0 -0.0032346817330347753 0.002895014749811034 0 -0.003102155351844767 0.0020523777049575712 0 -0.0028624161159794951 0.0031149743869179837 0 -0.0026361668984806316 0.0034843838006900934 0 -0.0030603456830604662 0.0031167177183282712 0 -0.0024524736654942354 0.0032760539942717792 0 -0.0033586981074708194 0.0030582994679323123 0 -0.0037599338727080074 0.0028891552366762728 0 -0.0030603456830604662 0.0031167177183282712 0 -0.0032346817330347753 0.002895014749811034 0 -0.0028624161159794951 0.0031149743869179837 0 -0.002571566065000305 0.0032300750321949496 0 -0.0026361668984806316 0.0034843838006900934 0 -0.0031713224114994529 0.0030280268317308843 0 -0.0030603456830604662 0.0031167177183282712 0 -0.0029611230126727647 0.0029437577410140448 0 -0.0030603456830604662 0.0031167177183282712 0 -0.0029611230126727647 0.0029437577410140448 0 -0.0032346817330347753 0.002895014749811034 0 -0.0013526087775468001 -0.0053854743685069579 0 -0.0013356809841334777 -0.0054520978565826992 0 -0.0013204423396924116 -0.0054508285621753276 0 -0.0022061344059581944 -0.0012185580311084999 0 -0.0021923469305597902 -0.0013944033385605034 0 -0.0013356809841334777 -0.0054520978565826992 0 -0.0013204423396924116 -0.0054508285621753276 0 -0.0013026071772789998 -0.0054997718346281735 0 -0.0013356809841334777 -0.0054520978565826992 0 -0.0013070837634934871 -0.0054955656237361964 0 -0.0013026071772789998 -0.0054997718346281735 0 -0.0034143095501710415 0.004075818862404856 0 -0.0022411297907025123 -0.00099041000019107713 0 -0.0021923469305597902 -0.0013944033385605034 0 -0.0022411297907025123 -0.00099041000019107713 0 -0.0013356809841334777 -0.0054520978565826992 0 -0.0013070837634934871 -0.0054955656237361964 0 -0.0012976808744143422 -0.0054775251503408773 0 -0.0029611230126727647 0.0029437577410140448 0 -0.0032346817330347753 0.002895014749811034 0 -0.0031849140635927626 0.0021374081284205311 0 -0.0013070837634934871 -0.0054955656237361964 0 -0.0012976808744143422 -0.0054775251503408773 0 -0.0012860263710269089 -0.0054954046050397012 0 -0.0012976808744143422 -0.0054775251503408773 0 -0.0012860263710269089 -0.0054954046050397012 0 -0.0012353871435999337 -0.0054809019744851036 0 -0.0022411297907025123 -0.00099041000019107713 0 -0.0011176654192497422 -0.0049892944736548367 0 -0.0013070837634934871 -0.0054955656237361964 0 -0.0013154718196174392 -0.005522795199880773 0 -0.0013026071772789998 -0.0054997718346281735 0 -0.0013070837634934871 -0.0054955656237361964 0 -0.0012860263710269089 -0.0054954046050397012 0 -0.0013154718196174392 -0.005522795199880773 0 -0.0013154718196174392 -0.005522795199880773 0 -0.0012794106440135445 -0.0054869792676074999 0 -0.0012842752190508038 -0.0054521127189461685 0 -0.0013154718196174392 -0.005522795199880773 0 -0.0013706009500723012 -0.0055035510468809563 0 -0.0012842752190508038 -0.0054521127189461685 0 -0.0012860263710269089 -0.0054954046050397012 0 -0.0013154718196174392 -0.005522795199880773 0 -0.0012794106440135445 -0.0054869792676074999 0 -0.0012794106440135445 -0.0054869792676074999 0 -0.0012353871435999337 -0.0054809019744851036 0 -0.0012842752190508038 -0.0054521127189461685 0 -0.0012860263710269089 -0.0054954046050397012 0 -0.0012794106440135445 -0.0054869792676074999 0 -0.0012353871435999337 -0.0054809019744851036 0 -0.0011484033909866815 -0.0033646080525427335 0 -0.0015210945253405466 -0.0031498728491897755 0 -0.0017772539923685978 -0.0038923990983357592 0 -0.0025113443749694669 -0.0010758540964694511 0 -0.002083179413316487 0.00052361020225587436 0 -0.0033319355282560395 0.0014110808020866682 0 -0.0037069355755245306 0.0018733897941925317 0 -0.0035831763050265079 0.00075335067417623726 0 -0.0023661001746355251 0.0032107004621263944 0 -0.002083179413316487 0.00052361020225587436 0 -0.0010412364640542322 0.0035797862539680477 0 -0.00109799099455717 0.0037284708510414758 0 -0.00097642920953471251 0.0037910608593304806 0 -0.0010412364640542322 0.0035797862539680477 0 -0.00097642920953471251 0.0037910608593304806 0 -0.0009133346730025 0.0034674876797677989 0 -0.0010412364640542322 0.0035797862539680477 0 -0.0010789774620777045 0.0034517343401355019 0 -0.0011849706484778793 0.0035891475449691336 0 -0.0010412364640542322 0.0035797862539680477 0 -0.00109799099455717 0.0037284708510414758 0 -0.0011849706484778793 0.0035891475449691336 0 -0.00109799099455717 0.0037284708510414758 0 -0.0011031815614898259 0.0038791470188539096 0 -0.0012134670341508857 0.0037974997595851294 0 -0.00109799099455717 0.0037284708510414758 0 -0.0011031815614898259 0.0038791470188539096 0 -0.00097642920953471251 0.0037910608593304806 0 -0.0034498836248075273 0.002435741151884459 0 -0.003102155351844767 0.0020523777049575712 0 -0.0037069355755245306 0.0018733897941925317 0 -0.0012132420689825389 -0.0023512883832012442 0 -0.0011484033909866815 -0.0033646080525427335 0 -0.0015210945253405466 -0.0031498728491897755 0 -0.0022411297907025123 -0.00099041000019107713 0 -0.0025113443749694669 -0.0010758540964694511 0 -0.003102155351844767 0.0020523777049575712 0 -0.0033319355282560395 0.0014110808020866682 0 -0.0037069355755245306 0.0018733897941925317 0 -0.001202606564867614 -0.0056065057456179471 0 -0.0011732712696084229 -0.0056270500978360602 0 -0.0011966299127186154 -0.0056270819000805135 0 -0.001202606564867614 -0.0056065057456179471 0 -0.0011732712696084229 -0.0056270500978360602 0 -0.0012041129198436663 -0.0055815310234600957 0 -0.0011732712696084229 -0.0056270500978360602 0 -0.0011922955447948049 -0.005575779421174991 0 -0.0012041129198436663 -0.0055815310234600957 0 -0.0011800107778018704 -0.0056444031471676514 0 -0.0012225100508629412 -0.0058169968062320625 0 -0.0011732712696084229 -0.0056270500978360602 0 -0.0011922955447948049 -0.005575779421174991 0 -0.0012681805770820257 -0.0056301376956029107 0 -0.0012041129198436663 -0.0055815310234600957 0 -0.0012211914191466613 -0.005527439572078836 0 -0.00123266741166253 -0.0055669943670931992 0 -0.0012211914191466613 -0.005527439572078836 0 -0.00123266741166253 -0.0055669943670931992 0 -0.0012634811660071341 -0.005521165554627166 0 -0.0011922955447948049 -0.005575779421174991 0 -0.0012041129198436663 -0.0055815310234600957 0 -0.0012211914191466613 -0.005527439572078836 0 -0.001202606564867614 -0.0056065057456179471 0 -0.00123266741166253 -0.0055669943670931992 0 -0.0012373403218345039 -0.0055938775489981852 0 -0.00123266741166253 -0.0055669943670931992 0 -0.0012788162541120158 -0.0055452779330035394 0 -0.0012373403218345039 -0.0055938775489981852 0 -0.001202606564867614 -0.0056065057456179471 0 -0.0012041129198436663 -0.0055815310234600957 0 -0.00123266741166253 -0.0055669943670931992 0 -0.00123266741166253 -0.0055669943670931992 0 -0.0012788162541120158 -0.0055452779330035394 0 -0.0012634811660071341 -0.005521165554627166 0 -0.0012783082433722461 -0.0054525437081283179 0 -0.0012211914191466613 -0.005527439572078836 0 -0.0012634811660071341 -0.005521165554627166 0 -0.0012783082433722461 -0.0054525437081283179 0 -0.0013204423396924116 -0.0054508285621753276 0 -0.0013026071772789998 -0.0054997718346281735 0 -0.0012783082433722461 -0.0054525437081283179 0 -0.0012634811660071341 -0.005521165554627166 0 -0.0013026071772789998 -0.0054997718346281735 0 -0.0012788162541120158 -0.0055452779330035394 0 -0.0012634811660071341 -0.005521165554627166 0 -0.0013026071772789998 -0.0054997718346281735 0 -0.0013154718196174392 -0.005522795199880773 0 -0.0012788162541120158 -0.0055452779330035394 0 -0.0012986528081946663 -0.0055612263229366512 0 -0.0013154718196174392 -0.005522795199880773 0 -0.0012788162541120158 -0.0055452779330035394 0 -0.0013026071772789998 -0.0054997718346281735 0 -0.0013154718196174392 -0.005522795199880773 0 -0.0012986528081946663 -0.0055612263229366512 0 -0.0013706009500723012 -0.0055035510468809563 0 -0.0012788162541120158 -0.0055452779330035394 0 -0.0012986528081946663 -0.0055612263229366512 0 -0.0012373403218345039 -0.0055938775489981852 0 -0.0012986528081946663 -0.0055612263229366512 0 -0.0012414583102040545 -0.0056278184951461356 0 -0.0012709730100627481 -0.0056492043039947631 0 -0.0012986528081946663 -0.0055612263229366512 0 -0.0012373403218345039 -0.0055938775489981852 0 -0.0012414583102040545 -0.0056278184951461356 0 -0.0012414583102040545 -0.0056278184951461356 0 -0.0012057977632874385 -0.0056523186378649448 0 -0.0011992446277696554 -0.0056988939597737544 0 -0.0012373403218345039 -0.0055938775489981852 0 -0.0012414583102040545 -0.0056278184951461356 0 -0.0012057977632874385 -0.0056523186378649448 0 -0.0012057977632874385 -0.0056523186378649448 0 -0.0011992446277696554 -0.0056988939597737544 0 -0.0011752805030120007 -0.0057023205239923238 0 -0.0012057977632874385 -0.0056523186378649448 0 -0.0012008389171162441 -0.0056300465325940449 0 -0.0011882433689148625 -0.005663522305362473 0 -0.001202606564867614 -0.0056065057456179471 0 -0.0012373403218345039 -0.0055938775489981852 0 -0.0012008389171162441 -0.0056300465325940449 0 -0.0012373403218345039 -0.0055938775489981852 0 -0.0012057977632874385 -0.0056523186378649448 0 -0.0012008389171162441 -0.0056300465325940449 0 -0.001202606564867614 -0.0056065057456179471 0 -0.0012008389171162441 -0.0056300465325940449 0 -0.0011966299127186154 -0.0056270819000805135 0 -0.0011997025662674186 -0.0057450391848771114 0 -0.0011992446277696554 -0.0056988939597737544 0 -0.0011762065925188931 -0.0057807274661691764 0 -0.0011997025662674186 -0.0057450391848771114 0 -0.0011992446277696554 -0.0056988939597737544 0 -0.0012709730100627481 -0.0056492043039947631 0 -0.0012414583102040545 -0.0056278184951461356 0 -0.0011992446277696554 -0.0056988939597737544 0 -0.0012709730100627481 -0.0056492043039947631 0 -0.0011997025662674186 -0.0057450391848771114 0 -0.0012709730100627481 -0.0056492043039947631 0 -0.0012760799114935597 -0.0057894154209057799 0 -0.0012709730100627481 -0.0056492043039947631 0 -0.001377874456910773 -0.0057642883680868555 0 -0.0013706009500723012 -0.0055035510468809563 0 -0.0012709730100627481 -0.0056492043039947631 0 -0.001377874456910773 -0.0057642883680868555 0 -0.0012760799114935597 -0.0057894154209057799 0 -0.0012986528081946663 -0.0055612263229366512 0 -0.0012709730100627481 -0.0056492043039947631 0 -0.0013706009500723012 -0.0055035510468809563 0 -0.001418697205088878 -0.0051965612694777844 0 -0.0013706009500723012 -0.0055035510468809563 0 -0.0013231497273521863 -0.0052283203180031402 0 -0.0013615254715182575 -0.005560641460393043 0 -0.0013845638277284081 -0.0054788849654448081 0 -0.001418697205088878 -0.0051965612694777844 0 -0.0013770206637196173 -0.0051663672141996891 0 -0.0013231497273521863 -0.0052283203180031402 0 -0.0013770206637196173 -0.0051663672141996891 0 -0.0013231497273521863 -0.0052283203180031402 0 -0.001311182591640047 -0.005143527865947746 0 -0.0013770206637196173 -0.0051663672141996891 0 -0.0013388910344464731 -0.0051445516617958029 0 -0.001311182591640047 -0.005143527865947746 0 -0.0013388910344464731 -0.0051445516617958029 0 -0.0013751329623142067 -0.0051755619933503234 0 -0.0013286631815571104 -0.0050996424061864982 0 -0.0013770206637196173 -0.0051663672141996891 0 -0.0013388910344464731 -0.0051445516617958029 0 -0.0013751329623142067 -0.0051755619933503234 0 -0.0013751329623142067 -0.0051755619933503234 0 -0.0012724131687879652 -0.0051792405407699912 0 -0.0013408823651613786 -0.0053987933123812162 0 -0.0013770206637196173 -0.0051663672141996891 0 -0.0013751329623142067 -0.0051755619933503234 0 -0.0012724131687879652 -0.0051792405407699912 0 -0.0013615254715182575 -0.005560641460393043 0 -0.0014190876416083423 -0.0053043528975038482 0 -0.001377874456910773 -0.0057642883680868555 0 -0.0013548189368859371 -0.0060005062961167839 0 -0.0012960639206456711 -0.0058937801068906963 0 -0.001377874456910773 -0.0057642883680868555 0 -0.0012760799114935597 -0.0057894154209057799 0 -0.0012960639206456711 -0.0058937801068906963 0 -0.001418697205088878 -0.0051965612694777844 0 -0.0013770206637196173 -0.0051663672141996891 0 -0.0012724131687879652 -0.0051792405407699912 0 -0.0012760799114935597 -0.0057894154209057799 0 -0.0012960639206456711 -0.0058937801068906963 0 -0.0012105792003278932 -0.0059291678263628939 0 -0.0011997025662674186 -0.0057450391848771114 0 -0.0012760799114935597 -0.0057894154209057799 0 -0.0012105792003278932 -0.0059291678263628939 0 -0.0012960639206456711 -0.0058937801068906963 0 -0.0012564742385787605 -0.0059893303688439928 0 -0.0012105792003278932 -0.0059291678263628939 0 -0.0013548189368859371 -0.0060005062961167839 0 -0.0012960639206456711 -0.0058937801068906963 0 -0.0012564742385787605 -0.0059893303688439928 0 -0.0013548189368859371 -0.0060005062961167839 0 -0.0012564742385787605 -0.0059893303688439928 0 -0.0012818310978154868 -0.0060861606619048107 0 -0.0012564742385787605 -0.0059893303688439928 0 -0.0012818310978154868 -0.0060861606619048107 0 -0.0011586457533270358 -0.0060553457138214466 0 -0.0012564742385787605 -0.0059893303688439928 0 -0.0012105792003278932 -0.0059291678263628939 0 -0.0011586457533270358 -0.0060553457138214466 0 -0.0011586457533270358 -0.0060553457138214466 0 -0.0010706031009446047 -0.0060582495263841437 0 -0.0010706919909824284 -0.0059023558630212723 0 -0.0012105792003278932 -0.0059291678263628939 0 -0.0011586457533270358 -0.0060553457138214466 0 -0.0010706919909824284 -0.0059023558630212723 0 -0.0011566530503280402 -0.0058392026447451869 0 -0.0012018440559585944 -0.0056518409700255807 0 -0.0011997025662674186 -0.0057450391848771114 0 -0.0011973832526378941 -0.0058312769248090564 0 -0.0011762065925188931 -0.0057807274661691764 0 -0.0011997025662674186 -0.0057450391848771114 0 -0.0012105792003278932 -0.0059291678263628939 0 -0.0010706919909824284 -0.0059023558630212723 0 -0.00095676432977500323 0.0032754810085617861 0 -0.00092179406623862958 0.0034360573129479629 0 -0.00082326121977325042 0.0031052106418257234 0 -0.0017772539923685978 -0.0038923990983357592 0 -0.0011276561775872369 -0.0042815933035764741 0 -0.0015341003365606011 -0.0050130440322184019 0 -0.002083179413316487 0.00052361020225587436 0 -0.0011000673203598937 -0.0012908834392741425 0 -0.0010464218647768637 0.0031743291819340807 0 -0.00095676432977500323 0.0032754810085617861 0 -0.00082326121977325042 0.0031052106418257234 0 -0.0010464218647768637 0.0031743291819340807 0 -0.0011126278590034406 0.0033124346749510759 0 -0.00095676432977500323 0.0032754810085617861 0 -0.0011126278590034406 0.0033124346749510759 0 -0.00095676432977500323 0.0032754810085617861 0 -0.0010039239540323922 0.0033817964254287398 0 -0.00095676432977500323 0.0032754810085617861 0 -0.0010039239540323922 0.0033817964254287398 0 -0.00092179406623862958 0.0034360573129479629 0 -0.0011126278590034406 0.0033124346749510759 0 -0.0010039239540323922 0.0033817964254287398 0 -0.0010789774620777045 0.0034517343401355019 0 -0.0011126278590034406 0.0033124346749510759 0 -0.0010789774620777045 0.0034517343401355019 0 -0.0012031629122275303 0.003441166926704538 0 -0.0010412364640542322 0.0035797862539680477 0 -0.0010789774620777045 0.0034517343401355019 0 -0.00099190948141761738 0.0034637844526228664 0 -0.0010412364640542322 0.0035797862539680477 0 -0.00099190948141761738 0.0034637844526228664 0 -0.0009133346730025 0.0034674876797677989 0 -0.0010039239540323922 0.0033817964254287398 0 -0.00099190948141761738 0.0034637844526228664 0 -0.00092179406623862958 0.0034360573129479629 0 -0.0010039239540323922 0.0033817964254287398 0 -0.0010789774620777045 0.0034517343401355019 0 -0.00099190948141761738 0.0034637844526228664 0 -0.0011484033909866815 -0.0033646080525427335 0 -0.0017772539923685978 -0.0038923990983357592 0 -0.0011276561775872369 -0.0042815933035764741 0 -0.0009133669215092182 0.0034670893668742363 0 -0.00092179406623862958 0.0034360573129479629 0 -0.00082326121977325042 0.0031052106418257234 0 -0.00099190948141761738 0.0034637844526228664 0 -0.0009133346730025 0.0034674876797677989 0 -0.00092179406623862958 0.0034360573129479629 0 -0.002083179413316487 0.00052361020225587436 0 -0.0017711604894940806 0.0012824364308984305 0 -0.0012353871435999337 -0.0054809019744851036 0 -0.0011676921444617086 -0.0053535629582126282 0 -0.0012842752190508038 -0.0054521127189461685 0 -0.0011676921444617086 -0.0053535629582126282 0 -0.0012842752190508038 -0.0054521127189461685 0 -0.0012548051938650869 -0.0052410021071095658 0 -0.0011176654192497422 -0.0049892944736548367 0 -0.0011699351936303756 -0.0046927541758001829 0 -0.0013706009500723012 -0.0055035510468809563 0 -0.0012842752190508038 -0.0054521127189461685 0 -0.0013231497273521863 -0.0052283203180031402 0 -0.0012842752190508038 -0.0054521127189461685 0 -0.0013231497273521863 -0.0052283203180031402 0 -0.0012548051938650869 -0.0052410021071095658 0 -0.0013231497273521863 -0.0052283203180031402 0 -0.0012548051938650869 -0.0052410021071095658 0 -0.001260407537981849 -0.0051283574102090387 0 -0.0011276561775872369 -0.0042815933035764741 0 -0.0011998583804913008 -0.0050620920071034045 0 -0.0015341003365606011 -0.0050130440322184019 0 -0.0011699351936303756 -0.0046927541758001829 0 -0.0011794038119014461 -0.0050790161505041868 0 -0.0012548051938650869 -0.0052410021071095658 0 -0.0011998583804913008 -0.0050620920071034045 0 -0.001260407537981849 -0.0051283574102090387 0 -0.0011676921444617086 -0.0053535629582126282 0 -0.0012548051938650869 -0.0052410021071095658 0 -0.0011998583804913008 -0.0050620920071034045 0 -0.0011998583804913008 -0.0050620920071034045 0 -0.0012795397896441629 -0.005124649989420367 0 -0.0015341003365606011 -0.0050130440322184019 0 -0.0012795397896441629 -0.005124649989420367 0 -0.001260407537981849 -0.0051283574102090387 0 -0.0012679221201364406 -0.005138757448042694 0 -0.0011998583804913008 -0.0050620920071034045 0 -0.0012795397896441629 -0.005124649989420367 0 -0.001260407537981849 -0.0051283574102090387 0 -0.0013231497273521863 -0.0052283203180031402 0 -0.001260407537981849 -0.0051283574102090387 0 -0.001311182591640047 -0.005143527865947746 0 -0.001260407537981849 -0.0051283574102090387 0 -0.001311182591640047 -0.005143527865947746 0 -0.0012679221201364406 -0.005138757448042694 0 -0.001311182591640047 -0.005143527865947746 0 -0.0012679221201364406 -0.005138757448042694 0 -0.0012959133232005528 -0.0051172786323077724 0 -0.0013388910344464731 -0.0051445516617958029 0 -0.001311182591640047 -0.005143527865947746 0 -0.0012959133232005528 -0.0051172786323077724 0 -0.0012795397896441629 -0.005124649989420367 0 -0.0012679221201364406 -0.005138757448042694 0 -0.001335636597120736 -0.0051704661110842601 0 -0.00075198353484266041 0.0026291054596359362 0 -0.00082326121977325042 0.0031052106418257234 0 -0.00096564972021222749 0.0028347472954662369 0 -0.0008100180591319936 -0.00038681109702631968 0 -0.0012225446003094041 0.0030593375799320317 0 -0.0012795397896441629 -0.005124649989420367 0 -0.001335636597120736 -0.0051704661110842601 0 -0.0015341003365606011 -0.0050130440322184019 0 -0.0008100180591319936 -0.00038681109702631968 0 -0.0011000673203598937 -0.0012908834392741425 0 -0.0010464218647768637 0.0031743291819340807 0 -0.00096564972021222749 0.0028347472954662369 0 -0.0011240959813679891 0.0030542175280252209 0 -0.0010464218647768637 0.0031743291819340807 0 -0.00082326121977325042 0.0031052106418257234 0 -0.00096564972021222749 0.0028347472954662369 0 -0.0012225446003094041 0.0030593375799320317 0 -0.0010209300371439613 0.0029582856127829708 0 -0.00093437550442385131 0.0029398705222816956 0 -0.0011216707164103869 0.0029384618698152097 0 -0.0011240959813679891 0.0030542175280252209 0 -0.00073360960308783388 0.0027676640974271462 0 -0.00093437550442385131 0.0029398705222816956 0 -0.0011181927573848175 0.0027236166449845787 0 -0.00093437550442385131 0.0029398705222816956 0 -0.0011216707164103869 0.0029384618698152097 0 -0.0011181927573848175 0.0027236166449845787 0 -0.0014200879791627442 0.0029040775246589067 0 -0.0012940870548691615 0.0030206308079394157 0 -0.0011181927573848175 0.0027236166449845787 0 -0.001204891566502424 0.0028556234629007332 0 -0.0006501726748068769 0.0028924001748209301 0 -0.0011216707164103869 0.0029384618698152097 0 -0.0012940870548691615 0.0030206308079394157 0 -0.0011181927573848175 0.0027236166449845787 0 -0.0014200879791627442 0.0029040775246589067 0 -0.0012940870548691615 0.0030206308079394157 0 -0.0015201293281722874 0.0031605621941475331 0 -0.0012940870548691615 0.0030206308079394157 0 -0.0013757697512328064 0.0032082913066118681 0 -0.0015201293281722874 0.0031605621941475331 0 -0.0012940870548691615 0.0030206308079394157 0 -0.0012282527872643117 0.0031726305856522785 0 -0.0013757697512328064 0.0032082913066118681 0 -0.0010464218647768637 0.0031743291819340807 0 -0.0011240959813679891 0.0030542175280252209 0 -0.0012282527872643117 0.0031726305856522785 0 -0.0011216707164103869 0.0029384618698152097 0 -0.0012940870548691615 0.0030206308079394157 0 -0.0011240959813679891 0.0030542175280252209 0 -0.0012940870548691615 0.0030206308079394157 0 -0.0011240959813679891 0.0030542175280252209 0 -0.0012282527872643117 0.0031726305856522785 0 -0.0011126278590034406 0.0033124346749510759 0 -0.0012282527872643117 0.0031726305856522785 0 -0.001294187791143563 0.0033353593451185761 0 -0.0010464218647768637 0.0031743291819340807 0 -0.0011126278590034406 0.0033124346749510759 0 -0.0012282527872643117 0.0031726305856522785 0 -0.001294187791143563 0.0033353593451185761 0 -0.0014634653699923414 0.003382422380326865 0 -0.0013757697512328064 0.0032082913066118681 0 -0.0012282527872643117 0.0031726305856522785 0 -0.001294187791143563 0.0033353593451185761 0 -0.0013757697512328064 0.0032082913066118681 0 -0.0014634653699923414 0.003382422380326865 0 -0.0013757697512328064 0.0032082913066118681 0 -0.0015201293281722874 0.0031605621941475331 0 -0.0014634653699923414 0.003382422380326865 0 -0.0013499996892929753 0.0035048479519918583 0 -0.0015962396487329401 0.0036171627650465579 0 -0.001294187791143563 0.0033353593451185761 0 -0.0014634653699923414 0.003382422380326865 0 -0.0013499996892929753 0.0035048479519918583 0 -0.0013499996892929753 0.0035048479519918583 0 -0.0012031629122275303 0.003441166926704538 0 -0.0011849706484778793 0.0035891475449691336 0 -0.0011126278590034406 0.0033124346749510759 0 -0.001294187791143563 0.0033353593451185761 0 -0.0012031629122275303 0.003441166926704538 0 -0.0010789774620777045 0.0034517343401355019 0 -0.0012031629122275303 0.003441166926704538 0 -0.0011849706484778793 0.0035891475449691336 0 -0.001294187791143563 0.0033353593451185761 0 -0.0013499996892929753 0.0035048479519918583 0 -0.0012031629122275303 0.003441166926704538 0 -0.0017158765147855682 0.0035552781791017372 0 -0.0016161384888365156 0.0033824890189382601 0 -0.0015962396487329401 0.0036171627650465579 0 -0.0014634653699923414 0.003382422380326865 0 -0.0016161384888365156 0.0033824890189382601 0 -0.0015962396487329401 0.0036171627650465579 0 -0.0014634653699923414 0.003382422380326865 0 -0.0016161384888365156 0.0033824890189382601 0 -0.0015201293281722874 0.0031605621941475331 0 -0.0016161384888365156 0.0033824890189382601 0 -0.0017164841531918723 0.0032459323509715005 0 -0.0017980110487998461 0.0034216398524015441 0 -0.0016161384888365156 0.0033824890189382601 0 -0.0017164841531918723 0.0032459323509715005 0 -0.0015201293281722874 0.0031605621941475331 0 -0.0017158765147855682 0.0035552781791017372 0 -0.0016161384888365156 0.0033824890189382601 0 -0.0017980110487998461 0.0034216398524015441 0 -0.0017164841531918723 0.0032459323509715005 0 -0.0016508449324389922 0.0030510567643620744 0 -0.001847347540374068 0.0031526884961097924 0 -0.0017164841531918723 0.0032459323509715005 0 -0.0015201293281722874 0.0031605621941475331 0 -0.0016508449324389922 0.0030510567643620744 0 -0.0014200879791627442 0.0029040775246589067 0 -0.0015201293281722874 0.0031605621941475331 0 -0.0016508449324389922 0.0030510567643620744 0 -0.00099782015951313009 0.0028717841435953171 0 -0.0016508449324389922 0.0030510567643620744 0 -0.0014545427196554152 0.0025437995623302312 0 -0.001204891566502424 0.0028556234629007332 0 -0.0016292906374767121 0.0030483114799752173 0 -0.0016508449324389922 0.0030510567643620744 0 -0.0019077710741893976 0.0029193893373474903 0 -0.0014545427196554152 0.0025437995623302312 0 -0.0016508449324389922 0.0030510567643620744 0 -0.0019077710741893976 0.0029193893373474903 0 -0.001847347540374068 0.0031526884961097924 0 -0.0019077710741893976 0.0029193893373474903 0 -0.0019858049335713585 0.003182265861023536 0 -0.001847347540374068 0.0031526884961097924 0 -0.001684482319789555 0.002718331296584955 0 -0.0019403622742679197 0.0026520621331189483 0 -0.0018348640411225694 0.0025726013332650613 0 -0.0018086339018229917 0.0028443952431017388 0 -0.0022351452986569685 0.0029657888473706515 0 -0.0019403622742679197 0.0026520621331189483 0 -0.0021843086871610527 0.0027939909414494701 0 -0.001969321576351578 0.0024726481764379723 0 -0.0021843086871610527 0.0027939909414494701 0 -0.0025513477053532561 0.0026701633784627483 0 -0.001969321576351578 0.0024726481764379723 0 -0.001684482319789555 0.002718331296584955 0 -0.0021843086871610527 0.0027939909414494701 0 -0.0023926473071948914 0.003131179362414882 0 -0.001684482319789555 0.002718331296584955 0 -0.0019403622742679197 0.0026520621331189483 0 -0.0021843086871610527 0.0027939909414494701 0 -0.0019077710741893976 0.0029193893373474903 0 -0.0019858049335713585 0.003182265861023536 0 -0.0021649764124525178 0.0031500699023092123 0 -0.0019858049335713585 0.003182265861023536 0 -0.0021649764124525178 0.0031500699023092123 0 -0.0020954309606233418 0.0033744270608226548 0 -0.0019858049335713585 0.003182265861023536 0 -0.0019091869562050997 0.0033068608637839554 0 -0.0020954309606233418 0.0033744270608226548 0 -0.0019858049335713585 0.003182265861023536 0 -0.001847347540374068 0.0031526884961097924 0 -0.0019091869562050997 0.0033068608637839554 0 -0.0017164841531918723 0.0032459323509715005 0 -0.001847347540374068 0.0031526884961097924 0 -0.0019091869562050997 0.0033068608637839554 0 -0.002304446774554349 0.0035757813234569853 0 -0.0026257258466978748 0.0060309114453012654 0 -0.0021642964252346127 0.0048766804600064413 0 -0.0021772398943051929 0.0048717858148424114 0 -0.0021937449925996202 0.0049003223039811479 0 -0.0024986361829466273 0.0047697238689991591 0 -0.0021939079250192775 0.0043409932046475641 0 -0.0029345653876508499 0.004604921554544626 0 -0.002866293687402374 0.0031014390807555057 0 -0.0024948689625133432 0.0029229539155042196 0 -0.0023926473071948914 0.003131179362414882 0 -0.002675867504283766 0.0039233358752711082 0 -0.002304446774554349 0.0035757813234569853 0 -0.002866293687402374 0.0031014390807555057 0 -0.0025513477053532561 0.0026701633784627483 0 -0.0024948689625133432 0.0029229539155042196 0 -0.0021843086871610527 0.0027939909414494701 0 -0.0025513477053532561 0.0026701633784627483 0 -0.0024948689625133432 0.0029229539155042196 0 -0.0021843086871610527 0.0027939909414494701 0 -0.0024948689625133432 0.0029229539155042196 0 -0.0023926473071948914 0.003131179362414882 0 -0.0021649764124525178 0.0031500699023092123 0 -0.0022775246800051897 0.0033795652539599158 0 -0.0020954309606233418 0.0033744270608226548 0 -0.002866293687402374 0.0031014390807555057 0 -0.0023926473071948914 0.003131179362414882 0 -0.003179552746713863 0.0035579517959040078 0 -0.0021649764124525178 0.0031500699023092123 0 -0.0025149446715163701 0.0033451391942748653 0 -0.0022775246800051897 0.0033795652539599158 0 -0.0022351452986569685 0.0029657888473706515 0 -0.0028864637013961223 0.0045286657812297869 0 -0.0024986361829466273 0.0047697238689991591 0 -0.0028035407570798951 0.0051911822181387804 0 -0.0029345653876508499 0.004604921554544626 0 -0.002675867504283766 0.0039233358752711082 0 -0.0028864637013961223 0.0045286657812297869 0 -0.0025149446715163701 0.0033451391942748653 0 -0.0023943831854003218 0.0034626771127480708 0 -0.0022775246800051897 0.0033795652539599158 0 -0.0023292386576779073 0.0033199086385756341 0 -0.0032007150809973029 0.0048613892061292333 0 -0.0023943831854003218 0.0034626771127480708 0 -0.0024481287388653456 0.003864215653826102 0 -0.0025549650997617017 0.0033879596516350986 0 -0.0025149446715163701 0.0033451391942748653 0 -0.0023943831854003218 0.0034626771127480708 0 -0.0025549650997617017 0.0033879596516350986 0 -0.0023943831854003218 0.0034626771127480708 0 -0.0022426848639345641 0.0035640365805645513 0 -0.0022775246800051897 0.0033795652539599158 0 -0.0022426848639345641 0.0035640365805645513 0 -0.0020954309606233418 0.0033744270608226548 0 -0.0020667098228719046 0.0036358906145758834 0 -0.0022426848639345641 0.0035640365805645513 0 -0.0022775246800051897 0.0033795652539599158 0 -0.0020954309606233418 0.0033744270608226548 0 -0.0022426848639345641 0.0035640365805645513 0 -0.0022583781201857421 0.0037918632690402427 0 -0.0020667098228719046 0.0036358906145758834 0 -0.0022583781201857421 0.0037918632690402427 0 -0.0020667098228719046 0.0036358906145758834 0 -0.002148185211400728 0.0038819071952147844 0 -0.0022426848639345641 0.0035640365805645513 0 -0.0022583781201857421 0.0037918632690402427 0 -0.0024481287388653456 0.003864215653826102 0 -0.0023943831854003218 0.0034626771127480708 0 -0.0022426848639345641 0.0035640365805645513 0 -0.0024481287388653456 0.003864215653826102 0 -0.0017164841531918723 0.0032459323509715005 0 -0.0017980110487998461 0.0034216398524015441 0 -0.0019091869562050997 0.0033068608637839554 0 -0.0017980110487998461 0.0034216398524015441 0 -0.0019574183782983734 0.0034637128611338594 0 -0.0018614224429459047 0.0035884519751586672 0 -0.0017980110487998461 0.0034216398524015441 0 -0.0019091869562050997 0.0033068608637839554 0 -0.0019574183782983734 0.0034637128611338594 0 -0.0020954309606233418 0.0033744270608226548 0 -0.0019574183782983734 0.0034637128611338594 0 -0.0020667098228719046 0.0036358906145758834 0 -0.0019091869562050997 0.0033068608637839554 0 -0.0020954309606233418 0.0033744270608226548 0 -0.0019574183782983734 0.0034637128611338594 0 -0.0020667098228719046 0.0036358906145758834 0 -0.0018614224429459047 0.0035884519751586672 0 -0.0019478948834871644 0.0037577526146491138 0 -0.0019574183782983734 0.0034637128611338594 0 -0.0020667098228719046 0.0036358906145758834 0 -0.0018614224429459047 0.0035884519751586672 0 -0.0017158765147855682 0.0035552781791017372 0 -0.0017980110487998461 0.0034216398524015441 0 -0.0018614224429459047 0.0035884519751586672 0 -0.0017158765147855682 0.0035552781791017372 0 -0.0018614224429459047 0.0035884519751586672 0 -0.0017601039676304103 0.0037587835924114254 0 -0.0018614224429459047 0.0035884519751586672 0 -0.0017601039676304103 0.0037587835924114254 0 -0.0019478948834871644 0.0037577526146491138 0 -0.0017601039676304103 0.0037587835924114254 0 -0.0019478948834871644 0.0037577526146491138 0 -0.0019412251757173853 0.0039023037309749292 0 -0.0019478948834871644 0.0037577526146491138 0 -0.0019412251757173853 0.0039023037309749292 0 -0.002148185211400728 0.0038819071952147844 0 -0.0020667098228719046 0.0036358906145758834 0 -0.0019478948834871644 0.0037577526146491138 0 -0.002148185211400728 0.0038819071952147844 0 -0.0019412251757173853 0.0039023037309749292 0 -0.0021599768396255623 0.0040438967830232365 0 -0.0020526486069859886 0.0041517195765505225 0 -0.0017601039676304103 0.0037587835924114254 0 -0.0019412251757173853 0.0039023037309749292 0 -0.0017032418354807801 0.0038577105744861348 0 -0.0023852816780772059 0.0039953162156671322 0 -0.002148185211400728 0.0038819071952147844 0 -0.0023285940732428495 0.0040838871798806005 0 -0.0022583781201857421 0.0037918632690402427 0 -0.0024481287388653456 0.003864215653826102 0 -0.0023852816780772059 0.0039953162156671322 0 -0.0022583781201857421 0.0037918632690402427 0 -0.0023852816780772059 0.0039953162156671322 0 -0.002148185211400728 0.0038819071952147844 0 -0.0019412251757173853 0.0039023037309749292 0 -0.002148185211400728 0.0038819071952147844 0 -0.0021599768396255623 0.0040438967830232365 0 -0.002148185211400728 0.0038819071952147844 0 -0.0021599768396255623 0.0040438967830232365 0 -0.0023285940732428495 0.0040838871798806005 0 -0.0021599768396255623 0.0040438967830232365 0 -0.0023285940732428495 0.0040838871798806005 0 -0.0023141619561178376 0.0042087625251137697 0 -0.0023285940732428495 0.0040838871798806005 0 -0.0024152594367617781 0.0041915612922077111 0 -0.0023141619561178376 0.0042087625251137697 0 -0.0023285940732428495 0.0040838871798806005 0 -0.0024152594367617781 0.0041915612922077111 0 -0.0024806329410453332 0.0041649794566043378 0 -0.0023852816780772059 0.0039953162156671322 0 -0.0023285940732428495 0.0040838871798806005 0 -0.0024806329410453332 0.0041649794566043378 0 -0.0024152594367617781 0.0041915612922077111 0 -0.0024158729794854302 0.0042825604545968822 0 -0.0023141619561178376 0.0042087625251137697 0 -0.0024152594367617781 0.0041915612922077111 0 -0.0024158729794854302 0.0042825604545968822 0 -0.0025113603065872259 0.0042362446746078966 0 -0.0024059668720245665 0.0039847269639127032 0 -0.0024119468834174602 0.0041303889419399406 0 -0.0021599768396255623 0.0040438967830232365 0 -0.0023141619561178376 0.0042087625251137697 0 -0.0020526486069859886 0.0041517195765505225 0 -0.0024059668720245665 0.0039847269639127032 0 -0.001777489118887822 0.0039171670943581299 0 -0.0024090886187840494 0.0042968686622487269 0 -0.0023141619561178376 0.0042087625251137697 0 -0.0020526486069859886 0.0041517195765505225 0 -0.0018288730880502656 0.0035785051451349063 0 -0.0016764136823829612 0.0037377794735965505 0 -0.0015919851357724603 0.0037129337703674403 0 -0.0016652259536474496 0.0039085140212768354 0 -0.0016764136823829612 0.0037377794735965505 0 -0.0015987645564888623 0.0037445931282813292 0 -0.0016764136823829612 0.0037377794735965505 0 -0.0015919851357724603 0.0037129337703674403 0 -0.0015987645564888623 0.0037445931282813292 0 -0.0016652259536474496 0.0039085140212768354 0 -0.0016764136823829612 0.0037377794735965505 0 -0.0018731554791353588 0.0038227133916110541 0 -0.0018288730880502656 0.0035785051451349063 0 -0.0016764136823829612 0.0037377794735965505 0 -0.0018731554791353588 0.0038227133916110541 0 -0.0017032418354807801 0.0038577105744861348 0 -0.0015919851357724603 0.0037129337703674403 0 -0.0016440375682401284 0.003716054164253677 0 -0.0019412251757173853 0.0039023037309749292 0 -0.0017032418354807801 0.0038577105744861348 0 -0.0020526486069859886 0.0041517195765505225 0 -0.0017549333395144118 0.0038757232500093203 0 -0.001777489118887822 0.0039171670943581299 0 -0.0015919851357724603 0.0037129337703674403 0 -0.0015987645564888623 0.0037445931282813292 0 -0.0016440375682401284 0.003716054164253677 0 -0.0016752099029274485 0.0035871109737329672 0 -0.0016440375682401284 0.003716054164253677 0 -0.0016980676583397988 0.0037155237702576902 0 -0.0017032418354807801 0.0038577105744861348 0 -0.0016440375682401284 0.003716054164253677 0 -0.0016980676583397988 0.0037155237702576902 0 -0.0017032418354807801 0.0038577105744861348 0 -0.0016980676583397988 0.0037155237702576902 0 -0.0016605220300842196 0.0038310401835508659 0 -0.0016980676583397988 0.0037155237702576902 0 -0.0018211571581043511 0.0035949563571945806 0 -0.0018526337925480153 0.0038114945172033434 0 -0.0016980676583397988 0.0037155237702576902 0 -0.0018526337925480153 0.0038114945172033434 0 -0.0016605220300842196 0.0038310401835508659 0 -0.0017261612979865653 0.0034523238630987971 0 -0.0016980676583397988 0.0037155237702576902 0 -0.0018211571581043511 0.0035949563571945806 0 -0.0017261612979865653 0.0034523238630987971 0 -0.0016752099029274485 0.0035871109737329672 0 -0.0016980676583397988 0.0037155237702576902 0 -0.0018211571581043511 0.0035949563571945806 0 -0.0020053781068061693 0.0035507629814240287 0 -0.0018526337925480153 0.0038114945172033434 0 -0.001867414267211605 0.0033912440070821841 0 -0.0018211571581043511 0.0035949563571945806 0 -0.0020053781068061693 0.0035507629814240287 0 -0.0022701352619299746 0.0034431558800223413 0 -0.0020053781068061693 0.0035507629814240287 0 -0.0021515930791194339 0.0037532787020705507 0 -0.0020887171899278811 0.003292868344404047 0 -0.0022701352619299746 0.0034431558800223413 0 -0.0020053781068061693 0.0035507629814240287 0 -0.0015439552564562354 0.0039488561658921591 0 -0.0016712399262235279 0.003849963540647405 0 -0.0011031815614898259 0.0038791470188539096 0 -0.0012072481676640508 0.0039955105018270364 0 -0.0012134670341508857 0.0037974997595851294 0 -0.0020053781068061693 0.0035507629814240287 0 -0.0021515930791194339 0.0037532787020705507 0 -0.0018526337925480153 0.0038114945172033434 0 -0.0012072481676640508 0.0039955105018270364 0 -0.0014143889027404234 0.0039237511375051371 0 -0.0012134670341508857 0.0037974997595851294 0 -0.0014143889027404234 0.0039237511375051371 0 -0.0012134670341508857 0.0037974997595851294 0 -0.0014047509158968596 0.0037048314561808626 0 -0.0014143889027404234 0.0039237511375051371 0 -0.0014047509158968596 0.0037048314561808626 0 -0.0016605220300842196 0.0038310401835508659 0 -0.0012134670341508857 0.0037974997595851294 0 -0.0011849706484778793 0.0035891475449691336 0 -0.0014047509158968596 0.0037048314561808626 0 -0.00109799099455717 0.0037284708510414758 0 -0.0012134670341508857 0.0037974997595851294 0 -0.0011849706484778793 0.0035891475449691336 0 -0.0013499996892929753 0.0035048479519918583 0 -0.0011849706484778793 0.0035891475449691336 0 -0.0014047509158968596 0.0037048314561808626 0 -0.0013499996892929753 0.0035048479519918583 0 -0.0014047509158968596 0.0037048314561808626 0 -0.0015962396487329401 0.0036171627650465579 0 -0.0014047509158968596 0.0037048314561808626 0 -0.0015962396487329401 0.0036171627650465579 0 -0.0016605220300842196 0.0038310401835508659 0 -0.0017601039676304103 0.0037587835924114254 0 -0.0015962396487329401 0.0036171627650465579 0 -0.0016605220300842196 0.0038310401835508659 0 -0.0017158765147855682 0.0035552781791017372 0 -0.0017601039676304103 0.0037587835924114254 0 -0.0015962396487329401 0.0036171627650465579 0 -0.0017601039676304103 0.0037587835924114254 0 -0.0017032418354807801 0.0038577105744861348 0 -0.0016605220300842196 0.0038310401835508659 0 -0.0016712399262235279 0.003849963540647405 0 -0.0016518368383098075 0.0038415282021021925 0 -3.0808131621685895e-05 -0.015044544442808356 0 -2.1129518467093175e-05 -0.015015481500818538 0 -5.0299121339098654e-05 -0.015025123870808258 0 2.3113342255941887e-06 -0.014996890149007179 0 -4.6125558520648854e-07 -0.014999537484545892 0 -1.3488683055221774e-06 -0.015003707906736026 0 -0.00013571648387485506 -0.014769226558077784 0 4.7902417476407324e-06 -0.015045229177120496 0 -3.0808131621685895e-05 -0.015044544442808356 0 -2.1129518467093175e-05 -0.015015481500818538 0 -1.3488683055221774e-06 -0.015003707906736026 0 -4.6125558520648854e-07 -0.014999537484545892 0 4.1382846951310589e-10 -0.015000009978079645 0 -1.3488683055221774e-06 -0.015003707906736026 0 -4.6125558520648854e-07 -0.014999537484545892 0 4.1382846951310589e-10 -0.015000009978079645 0 -9.9079891345321184e-07 -0.014998427566330522 0 -2.4896456300696574e-07 -0.014999511567108026 0 -4.6125558520648854e-07 -0.014999537484545892 0 -9.9079891345321184e-07 -0.014998427566330522 0 -0.00013571648387485506 -0.014769226558077784 0 2.3806676715700551e-05 -0.014959792364865179 0 -9.9079891345321184e-07 -0.014998427566330522 0 -1.3439799290992184e-06 -0.014994679208744114 0 -6.2555108865231188e-09 -0.014999987074410723 0 4.1382846951310589e-10 -0.015000009978079645 0 -9.9079891345321184e-07 -0.014998427566330522 0 -6.2555108865231188e-09 -0.014999987074410723 0 -2.4896456300696574e-07 -0.014999511567108026 0 6.2703992085627931e-06 -0.014997289436676524 0 -1.3439799290992184e-06 -0.014994679208744114 0 -2.4896456300696574e-07 -0.014999511567108026 0 -9.9079891345321184e-07 -0.014998427566330522 0 -1.3439799290992184e-06 -0.014994679208744114 0 -0.00013571648387485506 -0.014769226558077784 0 -0.00021522470660148983 -0.014567883069107302 0 -0.00041587714924175658 -0.014181092557864568 0 -0.00043459043221119836 -0.014178970367576045 0 -0.00043527651425180299 -0.014173229162144177 0 -0.00043843403124184789 -0.014175438976937633 0 -0.00043459043221119836 -0.014178970367576045 0 -0.00043527651425180299 -0.014173229162144177 0 -0.00043843403124184789 -0.014175438976937633 0 -0.00043459043221119836 -0.014178970367576045 0 -0.00044078083240618358 -0.014165509635791461 0 -0.00043843403124184789 -0.014175438976937633 0 -0.00043902481926263022 -0.014170952567572727 0 -0.00044078083240618358 -0.014165509635791461 0 -0.00043843403124184789 -0.014175438976937633 0 -0.00043527651425180299 -0.014173229162144177 0 -0.00045594517153970581 -0.014172366968918734 0 -0.00021522470660148983 -0.014567883069107302 0 -0.00016012030748432926 -0.014659305276028491 0 -0.00036582335068322734 -0.014183794051340173 0 -0.00065943258631219676 -0.014083973710903365 0 -9.9768898325921907e-05 -0.015037291352168799 0 -7.7278214899244858e-05 -0.015053129289448188 0 -0.00013055861087222172 -0.015052438854975229 0 -0.00020965495039468413 -0.014632131377977788 0 -0.00065943258631219676 -0.014083973710903365 0 -9.9768898325921907e-05 -0.015037291352168799 0 -0.00011792288418996022 -0.015026325773256702 0 -0.00013055861087222172 -0.015052438854975229 0 -0.0015535066794431346 -0.013883959933238148 0 -0.0013579325768887012 -0.01376249128380407 0 -0.0014244983842693704 -0.013554707457397999 0 -0.00046832616303256979 -0.014603654970391813 0 -0.00065943258631219676 -0.014083973710903365 0 -0.00010055848937931032 -0.015032642731994943 0 -9.9768898325921907e-05 -0.015037291352168799 0 -8.7683409938321089e-05 -0.015029828791775574 0 -9.9768898325921907e-05 -0.015037291352168799 0 -7.6344600420105358e-05 -0.015033766625545701 0 -8.7683409938321089e-05 -0.015029828791775574 0 -0.00010055848937931032 -0.015032642731994943 0 -9.9768898325921907e-05 -0.015037291352168799 0 -0.00010555521727112427 -0.015033913504245667 0 -0.00010055848937931032 -0.015032642731994943 0 -0.00010555521727112427 -0.015033913504245667 0 -0.00010601853628167307 -0.015029219529185265 0 -9.8564432614274157e-05 -0.014878396783179154 0 -0.00046832616303256979 -0.014603654970391813 0 -3.0808131621685895e-05 -0.015044544442808356 0 -7.7278214899244858e-05 -0.015053129289448188 0 -5.0299121339098654e-05 -0.015025123870808258 0 -0.00013571648387485506 -0.014769226558077784 0 -0.00020965495039468413 -0.014632131377977788 0 -9.9768898325921907e-05 -0.015037291352168799 0 -7.7278214899244858e-05 -0.015053129289448188 0 -7.6344600420105358e-05 -0.015033766625545701 0 -7.7278214899244858e-05 -0.015053129289448188 0 -7.6344600420105358e-05 -0.015033766625545701 0 -5.0299121339098654e-05 -0.015025123870808258 0 -6.5719661789563104e-05 -0.01502295542163436 0 -5.1891914340072455e-05 -0.015005846960424937 0 -5.0299121339098654e-05 -0.015025123870808258 0 -7.6344600420105358e-05 -0.015033766625545701 0 -6.5719661789563104e-05 -0.01502295542163436 0 -5.0299121339098654e-05 -0.015025123870808258 0 -6.5719661789563104e-05 -0.01502295542163436 0 -8.7683409938321089e-05 -0.015029828791775574 0 -8.3930071618928064e-05 -0.015012633809401736 0 -7.6344600420105358e-05 -0.015033766625545701 0 -6.5719661789563104e-05 -0.01502295542163436 0 -8.7683409938321089e-05 -0.015029828791775574 0 -6.5719661789563104e-05 -0.01502295542163436 0 -5.1891914340072455e-05 -0.015005846960424937 0 -8.3930071618928064e-05 -0.015012633809401736 0 -0.00010601853628167307 -0.015029219529185265 0 -0.00011947896724528454 -0.015021260362496043 0 -0.00013668811288166605 -0.015032249459010284 0 -0.00046832616303256979 -0.014603654970391813 0 -0.00031936214681000871 -0.014963547396497658 0 -0.00011926224114766004 -0.015055177379260844 0 -0.00010601853628167307 -0.015029219529185265 0 -0.00013668811288166605 -0.015032249459010284 0 -0.00010601853628167307 -0.015029219529185265 0 -8.7683409938321089e-05 -0.015029828791775574 0 -8.3930071618928064e-05 -0.015012633809401736 0 -0.00010055848937931032 -0.015032642731994943 0 -0.00010601853628167307 -0.015029219529185265 0 -8.7683409938321089e-05 -0.015029828791775574 0 -0.00010601853628167307 -0.015029219529185265 0 -8.3930071618928064e-05 -0.015012633809401736 0 -0.00011947896724528454 -0.015021260362496043 0 -6.2816708998483244e-05 -0.014981173084931411 0 -0.00014220913226764724 -0.015025616770410585 0 -4.2619941750654768e-05 -0.014979274452585853 0 -0.00012284099472962824 -0.014974407333083488 0 -0.00014968809423635077 -0.015028296449156688 0 -0.00011947896724528454 -0.015021260362496043 0 -7.8053333167360799e-05 -0.014981311041876097 0 -0.00014968809423635077 -0.015028296449156688 0 -8.3930071618928064e-05 -0.015012633809401736 0 -0.00011947896724528454 -0.015021260362496043 0 -7.8053333167360799e-05 -0.014981311041876097 0 -5.1891914340072455e-05 -0.015005846960424937 0 -7.8053333167360799e-05 -0.014981311041876097 0 -3.7098096207675367e-05 -0.014993115585897658 0 -7.8053333167360799e-05 -0.014981311041876097 0 -3.7098096207675367e-05 -0.014993115585897658 0 -2.8910319119323593e-05 -0.014980519877051868 0 -5.1891914340072455e-05 -0.015005846960424937 0 -8.3930071618928064e-05 -0.015012633809401736 0 -7.8053333167360799e-05 -0.014981311041876097 0 -3.7098096207675367e-05 -0.014993115585897658 0 -2.5677929474581593e-05 -0.015003606374421954 0 -1.2217369619485396e-05 -0.01499499840426396 0 -5.1891914340072455e-05 -0.015005846960424937 0 -3.7098096207675367e-05 -0.014993115585897658 0 -2.5677929474581593e-05 -0.015003606374421954 0 -5.1891914340072455e-05 -0.015005846960424937 0 -2.5677929474581593e-05 -0.015003606374421954 0 -5.0299121339098654e-05 -0.015025123870808258 0 -2.5677929474581593e-05 -0.015003606374421954 0 -2.1129518467093175e-05 -0.015015481500818538 0 -5.0299121339098654e-05 -0.015025123870808258 0 -1.3488683055221774e-06 -0.015003707906736026 0 -1.0177174170495676e-05 -0.015004872317007542 0 -1.7974715202190353e-08 -0.015000021530575629 0 4.1382846951310589e-10 -0.015000009978079645 0 -1.3488683055221774e-06 -0.015003707906736026 0 -1.7974715202190353e-08 -0.015000021530575629 0 -2.1129518467093175e-05 -0.015015481500818538 0 -1.3488683055221774e-06 -0.015003707906736026 0 -1.0177174170495676e-05 -0.015004872317007542 0 -2.5677929474581593e-05 -0.015003606374421954 0 -2.1129518467093175e-05 -0.015015481500818538 0 -1.0177174170495676e-05 -0.015004872317007542 0 -2.5677929474581593e-05 -0.015003606374421954 0 -1.0177174170495676e-05 -0.015004872317007542 0 -1.2217369619485396e-05 -0.01499499840426396 0 -1.2217369619485396e-05 -0.01499499840426396 0 -1.7974715202190353e-08 -0.015000021530575629 0 1.4666966944748662e-08 -0.014999930895866768 0 -1.0177174170495676e-05 -0.015004872317007542 0 -1.2217369619485396e-05 -0.01499499840426396 0 -1.7974715202190353e-08 -0.015000021530575629 0 -1.2217369619485396e-05 -0.01499499840426396 0 1.4666966944748662e-08 -0.014999930895866768 0 -2.8910319119323593e-05 -0.014980519877051868 0 -3.7098096207675367e-05 -0.014993115585897658 0 -1.2217369619485396e-05 -0.01499499840426396 0 -2.8910319119323593e-05 -0.014980519877051868 0 2.9380981334535591e-05 -0.014918629471963745 0 2.3921677629370222e-05 -0.01491879287402452 0 3.9806940352095089e-06 -0.01487955884715144 0 2.3921677629370222e-05 -0.01491879287402452 0 2.5193799149942836e-05 -0.014865023853872705 0 3.9806940352095089e-06 -0.01487955884715144 0 2.9380981334535591e-05 -0.014918629471963745 0 2.3921677629370222e-05 -0.01491879287402452 0 3.7992762514814693e-06 -0.014980645100765565 0 -8.2852480113628936e-07 -0.014953326805853951 0 3.4081691792121931e-06 -0.014974059841418507 0 1.4666966944748662e-08 -0.014999930895866768 0 -2.8910319119323593e-05 -0.014980519877051868 0 3.7992762514814693e-06 -0.014980645100765565 0 1.4666966944748662e-08 -0.014999930895866768 0 3.7992762514814693e-06 -0.014980645100765565 0 2.5447528567415188e-08 -0.014999853898387537 0 2.3921677629370222e-05 -0.01491879287402452 0 3.7992762514814693e-06 -0.014980645100765565 0 2.0552618383380769e-05 -0.014936572708016269 0 3.7992762514814693e-06 -0.014980645100765565 0 2.5447528567415188e-08 -0.014999853898387537 0 2.0552618383380769e-05 -0.014936572708016269 0 2.5447528567415188e-08 -0.014999853898387537 0 2.0552618383380769e-05 -0.014936572708016269 0 2.7503062526634197e-05 -0.014898677237897206 0 2.3921677629370222e-05 -0.01491879287402452 0 2.0552618383380769e-05 -0.014936572708016269 0 2.5193799149942836e-05 -0.014865023853872705 0 2.5193799149942836e-05 -0.014865023853872705 0 2.7503062526634197e-05 -0.014898677237897206 0 2.6819176515119712e-05 -0.014791001930381841 0 2.0552618383380769e-05 -0.014936572708016269 0 2.5193799149942836e-05 -0.014865023853872705 0 2.7503062526634197e-05 -0.014898677237897206 0 3.5731419816604996e-05 -0.014795414987408715 0 2.7503062526634197e-05 -0.014898677237897206 0 2.6819176515119712e-05 -0.014791001930381841 0 3.8284259823886178e-08 -0.014999777743922737 0 3.5731419816604996e-05 -0.014795414987408715 0 2.7503062526634197e-05 -0.014898677237897206 0 3.8284259823886178e-08 -0.014999777743922737 0 2.5447528567415188e-08 -0.014999853898387537 0 2.7503062526634197e-05 -0.014898677237897206 0 -3.3070099375208785e-06 -0.014494248684400168 0 1.7690990849269754e-05 -0.014660631771809939 0 -9.027391798060804e-05 -0.014682988427785809 0 1.7690990849269754e-05 -0.014660631771809939 0 -7.7745990347912319e-06 -0.014777190135824436 0 -9.027391798060804e-05 -0.014682988427785809 0 1.7690990849269754e-05 -0.014660631771809939 0 2.6819176515119712e-05 -0.014791001930381841 0 -7.7745990347912319e-06 -0.014777190135824436 0 3.5731419816604996e-05 -0.014795414987408715 0 1.7690990849269754e-05 -0.014660631771809939 0 2.6819176515119712e-05 -0.014791001930381841 0 2.5193799149942836e-05 -0.014865023853872705 0 2.6819176515119712e-05 -0.014791001930381841 0 -7.7745990347912319e-06 -0.014777190135824436 0 2.5193799149942836e-05 -0.014865023853872705 0 -7.7745990347912319e-06 -0.014777190135824436 0 3.9806940352095089e-06 -0.01487955884715144 0 -7.7745990347912319e-06 -0.014777190135824436 0 -6.3859464423784301e-05 -0.014845422195276178 0 -9.027391798060804e-05 -0.014682988427785809 0 -6.3859464423784301e-05 -0.014845422195276178 0 -4.5577759385182219e-05 -0.014917286946569857 0 -0.00014023817072415172 -0.01490586411854952 0 -7.7745990347912319e-06 -0.014777190135824436 0 -6.3859464423784301e-05 -0.014845422195276178 0 3.9806940352095089e-06 -0.01487955884715144 0 -6.3859464423784301e-05 -0.014845422195276178 0 3.9806940352095089e-06 -0.01487955884715144 0 -4.5577759385182219e-05 -0.014917286946569857 0 -6.2816708998483244e-05 -0.014981173084931411 0 -8.2852480113628936e-07 -0.014953326805853951 0 2.9380981334535591e-05 -0.014918629471963745 0 3.9806940352095089e-06 -0.01487955884715144 0 -4.5577759385182219e-05 -0.014917286946569857 0 -4.2619941750654768e-05 -0.014979274452585853 0 2.9380981334535591e-05 -0.014918629471963745 0 -4.5577759385182219e-05 -0.014917286946569857 0 -4.5577759385182219e-05 -0.014917286946569857 0 -0.00014023817072415172 -0.01490586411854952 0 -0.00012284099472962824 -0.014974407333083488 0 -4.2619941750654768e-05 -0.014979274452585853 0 -4.5577759385182219e-05 -0.014917286946569857 0 -0.00012284099472962824 -0.014974407333083488 0 -0.00014023817072415172 -0.01490586411854952 0 -0.00020565091572488965 -0.014991837801480676 0 -0.00012284099472962824 -0.014974407333083488 0 -0.00014023817072415172 -0.01490586411854952 0 -0.00027262577351761994 -0.014904051634647435 0 -0.00020565091572488965 -0.014991837801480676 0 -0.00050821182478001247 -0.014716177761736674 0 -0.00055672070518016244 -0.014712881902590352 0 -0.00053340219163012159 -0.014724280758445776 0 -0.00039474619859067647 -0.014777005999721253 0 -0.00032567967890773217 -0.014953230726968924 0 -0.00027262577351761994 -0.014904051634647435 0 -0.00017903807847109138 -0.014815863788161264 0 -0.00038826587349581333 -0.014702437590259659 0 -0.00039474619859067647 -0.014777005999721253 0 -0.00039471027957539072 -0.014710338724679443 0 -0.00050821182478001247 -0.014716177761736674 0 -0.00038826587349581333 -0.014702437590259659 0 -0.000542651127910778 -0.014711970409604229 0 -0.00014023817072415172 -0.01490586411854952 0 -0.00027262577351761994 -0.014904051634647435 0 -0.00017903807847109138 -0.014815863788161264 0 -6.3859464423784301e-05 -0.014845422195276178 0 -0.00014023817072415172 -0.01490586411854952 0 -0.00017903807847109138 -0.014815863788161264 0 -6.3859464423784301e-05 -0.014845422195276178 0 -0.00017903807847109138 -0.014815863788161264 0 -9.027391798060804e-05 -0.014682988427785809 0 -0.00017903807847109138 -0.014815863788161264 0 -9.027391798060804e-05 -0.014682988427785809 0 -0.00038826587349581333 -0.014702437590259659 0 -9.027391798060804e-05 -0.014682988427785809 0 -0.00038826587349581333 -0.014702437590259659 0 -0.00021646844369519304 -0.014514018447763439 0 -0.00038826587349581333 -0.014702437590259659 0 -0.00021646844369519304 -0.014514018447763439 0 -0.00045147734237235907 -0.014450748396556495 0 -0.00028410496935066037 -0.014313096798402586 0 -0.00021646844369519304 -0.014514018447763439 0 -0.00045147734237235907 -0.014450748396556495 0 -3.3070099375208785e-06 -0.014494248684400168 0 -9.027391798060804e-05 -0.014682988427785809 0 -0.00021646844369519304 -0.014514018447763439 0 -0.00077627478520324962 -0.014235427085451009 0 -0.00045147734237235907 -0.014450748396556495 0 -0.00078922355866464431 -0.014525926683030778 0 -0.00038826587349581333 -0.014702437590259659 0 -0.00045147734237235907 -0.014450748396556495 0 -0.00055810662681660475 -0.014628093500956221 0 -0.00055810662681660475 -0.014628093500956221 0 -0.00078922355866464431 -0.014525926683030778 0 -0.00064263188657003511 -0.014688392784513034 0 -0.00045147734237235907 -0.014450748396556495 0 -0.00055810662681660475 -0.014628093500956221 0 -0.00078922355866464431 -0.014525926683030778 0 -0.00064263188657003511 -0.014688392784513034 0 -0.000542651127910778 -0.014711970409604229 0 -0.00062973890787246668 -0.014685391310586526 0 -0.00064263188657003511 -0.014688392784513034 0 -0.00062973890787246668 -0.014685391310586526 0 -0.00065144896949111087 -0.014738543932982311 0 -0.00055810662681660475 -0.014628093500956221 0 -0.00064263188657003511 -0.014688392784513034 0 -0.000542651127910778 -0.014711970409604229 0 -0.00038826587349581333 -0.014702437590259659 0 -0.00055810662681660475 -0.014628093500956221 0 -0.000542651127910778 -0.014711970409604229 0 -0.00050821182478001247 -0.014716177761736674 0 -0.000542651127910778 -0.014711970409604229 0 -0.00055672070518016244 -0.014712881902590352 0 -0.000542651127910778 -0.014711970409604229 0 -0.00055672070518016244 -0.014712881902590352 0 -0.00062973890787246668 -0.014685391310586526 0 -0.00062973890787246668 -0.014685391310586526 0 -0.00060753735942543723 -0.014702451238913367 0 -0.00062455492819804841 -0.01457920389626597 0 -0.00055672070518016244 -0.014712881902590352 0 -0.00062973890787246668 -0.014685391310586526 0 -0.00060753735942543723 -0.014702451238913367 0 -0.0013716092617341894 -0.014215973801102866 0 -0.001073831978088759 -0.01381741419092751 0 -0.00082747146510782387 -0.014097410950102583 0 -0.001073831978088759 -0.01381741419092751 0 -0.0013938490852339273 -0.013560048575384809 0 -0.00084584950786467455 -0.01332996357571364 0 -0.0013716092617341894 -0.014215973801102866 0 -0.001073831978088759 -0.01381741419092751 0 -0.0013938490852339273 -0.013560048575384809 0 -0.0013716092617341894 -0.014215973801102866 0 -0.0013938490852339273 -0.013560048575384809 0 -0.0020077753349851016 -0.013883434942486055 0 -0.0013938490852339273 -0.013560048575384809 0 -0.0020077753349851016 -0.013883434942486055 0 -0.0019029021354219811 -0.013279124909861623 0 -0.00095987383165515314 -0.014463591921941871 0 -0.0013536533807062077 -0.014284067528916578 0 -0.00055672070518016244 -0.014712881902590352 0 -0.00060753735942543723 -0.014702451238913367 0 -0.00055621102859316584 -0.014732811827817202 0 -0.00055672070518016244 -0.014712881902590352 0 -0.00055621102859316584 -0.014732811827817202 0 -0.00053340219163012159 -0.014724280758445776 0 -0.00020565091572488965 -0.014991837801480676 0 -0.00012284099472962824 -0.014974407333083488 0 -0.00014968809423635077 -0.015028296449156688 0 -0.00053340219163012159 -0.014724280758445776 0 -0.00054061554199164659 -0.014734258428150154 0 -0.00054136963479364147 -0.014734656711435961 0 -0.00020565091572488965 -0.014991837801480676 0 -0.00014968809423635077 -0.015028296449156688 0 -0.00017237075441794256 -0.015051537291167013 0 -0.00032567967890773217 -0.014953230726968924 0 -0.00082100561538797905 -0.014462266537441263 0 -0.00011926224114766004 -0.015055177379260844 0 -0.0001686804306235173 -0.015030503122872461 0 -0.00013668811288166605 -0.015032249459010284 0 -2.1763929682346597e-05 -0.014958302412692749 0 -0.00082100561538797905 -0.014462266537441263 0 -0.00011947896724528454 -0.015021260362496043 0 -0.00014968809423635077 -0.015028296449156688 0 -0.00017237075441794256 -0.015051537291167013 0 -0.0001697240405685308 -0.015025390678976822 0 -0.0001686804306235173 -0.015030503122872461 0 -0.00013668811288166605 -0.015032249459010284 0 -0.0013073902644243312 -0.013466833238855063 0 -0.0012976451364302324 -0.013471152030861341 0 -0.0013097978946128009 -0.013520456725664209 0 -0.00078912215050585069 -0.014300467765079138 0 -0.00074545600850681431 -0.014282377290712573 0 -0.00080082737278945528 -0.014256300854880322 0 -0.00082100561538797905 -0.014462266537441263 0 -0.00095335781613774338 -0.014265671283383411 0 -0.00119823709600294 -0.01422874520920538 0 -0.00095335781613774338 -0.014265671283383411 0 -0.00082100561538797905 -0.014462266537441263 0 -0.00119823709600294 -0.01422874520920538 0 -0.00011947896724528454 -0.015021260362496043 0 -0.0001697240405685308 -0.015025390678976822 0 -0.00013668811288166605 -0.015032249459010284 0 -0.0013536533807062077 -0.014284067528916578 0 -0.00119823709600294 -0.01422874520920538 0 -0.00055621102859316584 -0.014732811827817202 0 -0.00053340219163012159 -0.014724280758445776 0 -0.00054136963479364147 -0.014734656711435961 0 -0.0020077753349851016 -0.013883434942486055 0 -0.002607368808397978 -0.013596565649614697 0 -0.0019029021354219811 -0.013279124909861623 0 -0.0013073902644243312 -0.013466833238855063 0 -0.0013568727206426561 -0.013521262647575534 0 -0.0014200032523578414 -0.013505322816861988 0 -0.00119823709600294 -0.01422874520920538 0 -0.0017924552087741539 -0.013374587131407855 0 -0.0013568727206426561 -0.013521262647575534 0 -0.0012775872165239296 -0.013566679983416268 0 -0.0014082279194000836 -0.013551666835151252 0 -0.0013073902644243312 -0.013466833238855063 0 -0.0013568727206426561 -0.013521262647575534 0 -0.0013097978946128009 -0.013520456725664209 0 -0.0015535066794431346 -0.013883959933238148 0 -0.0011223650902890193 -0.014084036801197131 0 -0.0013579325768887012 -0.01376249128380407 0 -0.0011223650902890193 -0.014084036801197131 0 -0.0013579325768887012 -0.01376249128380407 0 -0.0012743105535818644 -0.013564104893331878 0 -0.00095335781613774338 -0.014265671283383411 0 -0.001328345957612374 -0.013394455846066142 0 -0.0012976451364302324 -0.013471152030861341 0 -0.0013097978946128009 -0.013520456725664209 0 -0.0012743105535818644 -0.013564104893331878 0 -0.00046832616303256979 -0.014603654970391813 0 -0.00095335781613774338 -0.014265671283383411 0 -0.0013097978946128009 -0.013520456725664209 0 -0.0012743105535818644 -0.013564104893331878 0 -0.0012775872165239296 -0.013566679983416268 0 -0.0013568727206426561 -0.013521262647575534 0 -0.0013097978946128009 -0.013520456725664209 0 -0.0012775872165239296 -0.013566679983416268 0 -0.0013579325768887012 -0.01376249128380407 0 -0.0012743105535818644 -0.013564104893331878 0 -0.0013063116161067399 -0.013542362702095264 0 -0.0013579325768887012 -0.01376249128380407 0 -0.0014244983842693704 -0.013554707457397999 0 -0.0013083529963756921 -0.01353987328422049 0 -0.0015464732187135135 -0.013637348658755761 0 -0.0016492555921842613 -0.013175254625603037 0 -0.0025757367594163995 -0.012380365645343028 0 -0.0023180664239635176 -0.012111369906192387 0 -0.0024473475333679946 -0.011765675354712152 0 -0.0012195965459415672 -0.013714388954050282 0 -0.0011064357933434367 -0.013700072846821048 0 -0.00097212359167261225 -0.013072410211166318 0 -0.00043902481926263022 -0.014170952567572727 0 -0.00043653924548693444 -0.014154487785479643 0 -0.00044078083240618358 -0.014165509635791461 0 -0.0016492555921842613 -0.013175254625603037 0 -0.0011338556847948816 -0.013036876391226708 0 -0.00065943258631219676 -0.014083973710903365 0 -0.0011338556847948816 -0.013036876391226708 0 -0.00065943258631219676 -0.014083973710903365 0 -0.0016492555921842613 -0.013175254625603037 0 -0.0012743105535818644 -0.013564104893331878 0 -0.0013063116161067399 -0.013542362702095264 0 -0.0012775872165239296 -0.013566679983416268 0 -0.0016492555921842613 -0.013175254625603037 0 -0.001966675191237003 -0.012909920574253901 0 -0.0025757367594163995 -0.012380365645343028 0 -0.0024992320545021308 -0.012369802505273088 0 -0.0023180664239635176 -0.012111369906192387 0 -0.001966675191237003 -0.012909920574253901 0 -0.0016192999682076758 -0.012986480144571086 0 -0.002477715807100479 -0.012368696807586304 0 -0.0020729231484937021 -0.012313152256056266 0 -0.0018560094841899438 -0.012390253653965646 0 -0.0024992320545021308 -0.012369802505273088 0 -0.0023180664239635176 -0.012111369906192387 0 -0.0020729231484937021 -0.012313152256056266 0 -0.001966675191237003 -0.012909920574253901 0 -0.0022667749032090189 -0.012347873125447571 0 -0.0020729231484937021 -0.012313152256056266 0 -0.0018945125353947614 -0.012133114780669189 0 -0.0018560094841899438 -0.012390253653965646 0 -0.0023180664239635176 -0.012111369906192387 0 -0.0020729231484937021 -0.012313152256056266 0 -0.0020805109073172043 -0.012028422296426219 0 -0.0020729231484937021 -0.012313152256056266 0 -0.0020805109073172043 -0.012028422296426219 0 -0.0018945125353947614 -0.012133114780669189 0 -0.0018560094841899438 -0.012390253653965646 0 -0.0016329362991929805 -0.012044194466732602 0 -0.0012100796247909464 -0.012422676711881901 0 -0.0018945125353947614 -0.012133114780669189 0 -0.0016329362991929805 -0.012044194466732602 0 -0.001903270941888701 -0.0118211604290721 0 -0.0018945125353947614 -0.012133114780669189 0 -0.0018560094841899438 -0.012390253653965646 0 -0.0016329362991929805 -0.012044194466732602 0 -0.0016329362991929805 -0.012044194466732602 0 -0.0012100796247909464 -0.012422676711881901 0 -0.0012671608777805638 -0.011874787431668051 0 -0.0012100796247909464 -0.012422676711881901 0 -0.00099915998682701302 -0.011931371839834495 0 -0.0012671608777805638 -0.011874787431668051 0 -0.0013938490852339273 -0.013560048575384809 0 -0.001150117898356643 -0.01292308243842883 0 -0.0019029021354219811 -0.013279124909861623 0 -0.0013938490852339273 -0.013560048575384809 0 -0.001150117898356643 -0.01292308243842883 0 -0.00084584950786467455 -0.01332996357571364 0 -0.0013241915413720251 -0.012899910533155401 0 -0.0017924552087741539 -0.013374587131407855 0 -0.0014082279194000836 -0.013551666835151252 0 -0.00151202004262203 -0.013531333605531574 0 -0.0014200032523578414 -0.013505322816861988 0 -0.0016192999682076758 -0.012986480144571086 0 -0.0013241915413720251 -0.012899910533155401 0 -0.0013568727206426561 -0.013521262647575534 0 -0.0014082279194000836 -0.013551666835151252 0 -0.0014200032523578414 -0.013505322816861988 0 -0.00050821100268514264 -0.012790986142940282 0 0.00034905889621769648 -0.012813361178624586 0 -0.00061094586365407946 -0.012700733125350286 0 -8.9720096946121502e-05 -0.012425183841692082 0 0.00040782581711958901 -0.012805591842836075 0 -0.00042066189747158052 -0.01289740956707312 0 -6.4974675225171869e-05 -0.013306111438685066 0 0.00040782581711958901 -0.012805591842836075 0 -0.00042066189747158052 -0.01289740956707312 0 -6.4974675225171869e-05 -0.013306111438685066 0 -0.00044492326194787795 -0.013340900929861 0 -0.001150117898356643 -0.01292308243842883 0 -0.00042066189747158052 -0.01289740956707312 0 -0.00084584950786467455 -0.01332996357571364 0 -0.0013241915413720251 -0.012899910533155401 0 -0.00050821100268514264 -0.012790986142940282 0 -0.00042066189747158052 -0.01289740956707312 0 -0.00044492326194787795 -0.013340900929861 0 -0.00084584950786467455 -0.01332996357571364 0 -0.0016498062661354685 -0.012651073267782087 0 -0.00061094586365407946 -0.012700733125350286 0 -0.00066742840037859765 -0.012239436561438869 0 -0.0012100796247909464 -0.012422676711881901 0 -0.0007808835287858645 -0.012086270340436073 0 -0.00099915998682701302 -0.011931371839834495 0 -0.0012100796247909464 -0.012422676711881901 0 -0.0007808835287858645 -0.012086270340436073 0 -0.00066742840037859765 -0.012239436561438869 0 -0.0013241915413720251 -0.012899910533155401 0 -0.00072664071619390818 -0.012204682704133579 0 -0.0007808835287858645 -0.012086270340436073 0 -0.0003775065855611948 -0.012082172628716864 0 -0.00066742840037859765 -0.012239436561438869 0 -0.0007808835287858645 -0.012086270340436073 0 -0.0003775065855611948 -0.012082172628716864 0 -0.00020896678469893234 -0.011475963314899789 0 -0.00061094586365407946 -0.012700733125350286 0 -0.00066742840037859765 -0.012239436561438869 0 -0.00043566794066979237 -0.012360281378290544 0 -0.00061094586365407946 -0.012700733125350286 0 -0.00043566794066979237 -0.012360281378290544 0 -8.9720096946121502e-05 -0.012425183841692082 0 -0.0003775065855611948 -0.012082172628716864 0 -0.00066742840037859765 -0.012239436561438869 0 -0.00043566794066979237 -0.012360281378290544 0 -0.0003775065855611948 -0.012082172628716864 0 -0.00043566794066979237 -0.012360281378290544 0 -8.9720096946121502e-05 -0.012425183841692082 0 -0.0003775065855611948 -0.012082172628716864 0 -8.9720096946121502e-05 -0.012425183841692082 0 -6.4304732190717778e-05 -0.01181614223748473 0 -8.9720096946121502e-05 -0.012425183841692082 0 0.00040782581711958901 -0.012805591842836075 0 0.0005487176329107569 -0.011729515590726262 0 -8.9720096946121502e-05 -0.012425183841692082 0 0.0005487176329107569 -0.011729515590726262 0 -6.4304732190717778e-05 -0.01181614223748473 0 0.00092806267878295617 -0.012865996324756823 0 0.00040782581711958901 -0.012805591842836075 0 0.0005487176329107569 -0.011729515590726262 0 -0.0012361807499920198 -0.010159083941952845 0 -0.00054364705252106852 -0.0089169084784910448 0 -0.0016946987492227376 -0.0061007469791092717 0 -0.001756193858783694 -0.006238299880308852 0 -0.001806464465310953 -0.006023579969266825 0 -0.00097415706877157396 -0.0056124138417046185 0 -0.0012361807499920198 -0.010159083941952845 0 -0.0017477073576007221 -0.0062026209872682765 0 -0.0016768377518415337 -0.0063887864955331766 0 -0.0016642222162676964 -0.0061926694433927986 0 -0.0016946987492227376 -0.0061007469791092717 0 -0.0017477073576007221 -0.0062026209872682765 0 -0.0016642222162676964 -0.0061926694433927986 0 -0.0012361807499920198 -0.010159083941952845 0 -0.00065693163523090599 -0.014783185511970085 0 0.00092806267878295617 -0.012865996324756823 0 0.00040782581711958901 -0.012805591842836075 0 0.00030220621480945919 -0.013830963289115875 0 -6.4974675225171869e-05 -0.013306111438685066 0 0.00040782581711958901 -0.012805591842836075 0 0.00030220621480945919 -0.013830963289115875 0 -0.0012361807499920198 -0.010159083941952845 0 -0.0016094046289377576 -0.010283935471538152 0 -0.001514757478553392 -0.014361460734700996 0 -0.0015589741246144989 -0.014537835962943092 0 -0.001516464271485438 -0.014535779191854325 0 -0.001516464271485438 -0.014535779191854325 0 -0.0015397287103615671 -0.014576483477533099 0 -0.0015858025408962903 -0.01456997202872911 0 -0.0015589741246144989 -0.014537835962943092 0 -0.001516464271485438 -0.014535779191854325 0 -0.0015397287103615671 -0.014576483477533099 0 -0.0015589741246144989 -0.014537835962943092 0 -0.0015397287103615671 -0.014576483477533099 0 -0.001513553144947429 -0.01460438122688155 0 -0.0015589741246144989 -0.014537835962943092 0 -0.0014425020637148134 -0.014636846122942535 0 -0.001513553144947429 -0.01460438122688155 0 -0.00065693163523090599 -0.014783185511970085 0 -0.00082352617637531809 -0.014468424286981118 0 0.00030220621480945919 -0.013830963289115875 0 -0.00043404984800169148 -0.014145165160551107 0 -0.00029733793681865092 -0.014581078687733754 0 -0.00043404984800169148 -0.014145165160551107 0 -0.00062455492819804841 -0.01457920389626597 0 -0.00029733793681865092 -0.014581078687733754 0 0.00030220621480945919 -0.013830963289115875 0 -0.00043404984800169148 -0.014145165160551107 0 -0.00026445566691582896 -0.013661042396209253 0 -0.00043404984800169148 -0.014145165160551107 0 -0.00026445566691582896 -0.013661042396209253 0 -0.00065478581371260474 -0.013725512451429302 0 -6.4974675225171869e-05 -0.013306111438685066 0 -0.00044492326194787795 -0.013340900929861 0 -0.00026445566691582896 -0.013661042396209253 0 -0.00044492326194787795 -0.013340900929861 0 -0.00026445566691582896 -0.013661042396209253 0 -0.00065478581371260474 -0.013725512451429302 0 -6.4974675225171869e-05 -0.013306111438685066 0 0.00030220621480945919 -0.013830963289115875 0 -0.00026445566691582896 -0.013661042396209253 0 -0.001073831978088759 -0.01381741419092751 0 -0.00084584950786467455 -0.01332996357571364 0 -0.00065478581371260474 -0.013725512451429302 0 -0.00044492326194787795 -0.013340900929861 0 -0.00084584950786467455 -0.01332996357571364 0 -0.00065478581371260474 -0.013725512451429302 0 -0.00043404984800169148 -0.014145165160551107 0 -0.00065478581371260474 -0.013725512451429302 0 -0.00082747146510782387 -0.014097410950102583 0 -0.001073831978088759 -0.01381741419092751 0 -0.00065478581371260474 -0.013725512451429302 0 -0.00082747146510782387 -0.014097410950102583 0 -0.0013716092617341894 -0.014215973801102866 0 -0.00082747146510782387 -0.014097410950102583 0 -0.00062455492819804841 -0.01457920389626597 0 -0.00095987383165515314 -0.014463591921941871 0 -0.00065680012509920533 -0.014577522291394999 0 -0.00043404984800169148 -0.014145165160551107 0 -0.00082747146510782387 -0.014097410950102583 0 -0.00062455492819804841 -0.01457920389626597 0 -0.00062455492819804841 -0.01457920389626597 0 -0.00029733793681865092 -0.014581078687733754 0 -0.00065144896949111087 -0.014738543932982311 0 -0.00062973890787246668 -0.014685391310586526 0 -0.00062455492819804841 -0.01457920389626597 0 -0.00065144896949111087 -0.014738543932982311 0 -0.00082352617637531809 -0.014468424286981118 0 -0.00090645276391782361 -0.014678672628879577 0 -0.0014425020637148134 -0.014636846122942535 0 -0.0013749864167779916 -0.014602083678288948 0 -0.0014580682269064024 -0.014611125029213716 0 -0.0014425020637148134 -0.014636846122942535 0 -0.0013749864167779916 -0.014602083678288948 0 -0.0011797220423088424 -0.014621233750177157 0 -0.0013749864167779916 -0.014602083678288948 0 -0.0011797220423088424 -0.014621233750177157 0 -0.0013236182119061963 -0.014453621256266742 0 -0.00078922355866464431 -0.014525926683030778 0 -0.0011797220423088424 -0.014621233750177157 0 -0.0011055842538738926 -0.014493697276436833 0 -0.00078922355866464431 -0.014525926683030778 0 -0.00064263188657003511 -0.014688392784513034 0 -0.00065144896949111087 -0.014738543932982311 0 -0.00078313552342143837 -0.014503410640419835 0 -0.00090645276391782361 -0.014678672628879577 0 -0.00078922355866464431 -0.014525926683030778 0 -0.0011055842538738926 -0.014493697276436833 0 -0.0010817366476725656 -0.014327422169077271 0 -0.0011055842538738926 -0.014493697276436833 0 -0.0013236182119061963 -0.014453621256266742 0 -0.0010817366476725656 -0.014327422169077271 0 -0.0011797220423088424 -0.014621233750177157 0 -0.0011055842538738926 -0.014493697276436833 0 -0.0013236182119061963 -0.014453621256266742 0 -0.0013236182119061963 -0.014453621256266742 0 -0.0010817366476725656 -0.014327422169077271 0 -0.0014855742732958054 -0.014207166299262402 0 -0.0013595164692289778 -0.013816921376997953 0 -0.0010817366476725656 -0.014327422169077271 0 -0.0014855742732958054 -0.014207166299262402 0 -0.00077627478520324962 -0.014235427085451009 0 -0.00078922355866464431 -0.014525926683030778 0 -0.0010817366476725656 -0.014327422169077271 0 -0.0017110629737835479 -0.013916274648166416 0 -0.0014855742732958054 -0.014207166299262402 0 -0.0017267899572513687 -0.0144077296943426 0 -0.0021339883413096106 -0.013789034647786837 0 -0.0017110629737835479 -0.013916274648166416 0 -0.0017267899572513687 -0.0144077296943426 0 -0.0013595164692289778 -0.013816921376997953 0 -0.0017110629737835479 -0.013916274648166416 0 -0.0014855742732958054 -0.014207166299262402 0 -0.0013236182119061963 -0.014453621256266742 0 -0.0014855742732958054 -0.014207166299262402 0 -0.0017267899572513687 -0.0144077296943426 0 -0.0013236182119061963 -0.014453621256266742 0 -0.0017267899572513687 -0.0144077296943426 0 -0.001513108771256175 -0.014567600442386072 0 -0.0016474036122038395 -0.014527614181734564 0 -0.001513108771256175 -0.014567600442386072 0 -0.0015644986475885027 -0.014577267728583577 0 -0.0017267899572513687 -0.0144077296943426 0 -0.0016474036122038395 -0.014527614181734564 0 -0.001513108771256175 -0.014567600442386072 0 -0.0013749864167779916 -0.014602083678288948 0 -0.0013236182119061963 -0.014453621256266742 0 -0.001513108771256175 -0.014567600442386072 0 -0.0013749864167779916 -0.014602083678288948 0 -0.001513108771256175 -0.014567600442386072 0 -0.0014580682269064024 -0.014611125029213716 0 -0.0014425020637148134 -0.014636846122942535 0 -0.0014580682269064024 -0.014611125029213716 0 -0.001513553144947429 -0.01460438122688155 0 -0.001513108771256175 -0.014567600442386072 0 -0.001513553144947429 -0.01460438122688155 0 -0.0015644986475885027 -0.014577267728583577 0 -0.001513108771256175 -0.014567600442386072 0 -0.0014580682269064024 -0.014611125029213716 0 -0.001513553144947429 -0.01460438122688155 0 -0.0016474036122038395 -0.014527614181734564 0 -0.0015644986475885027 -0.014577267728583577 0 -0.0015858025408962903 -0.01456997202872911 0 -0.0015397287103615671 -0.014576483477533099 0 -0.0015644986475885027 -0.014577267728583577 0 -0.0015858025408962903 -0.01456997202872911 0 -0.0015397287103615671 -0.014576483477533099 0 -0.001513553144947429 -0.01460438122688155 0 -0.0015644986475885027 -0.014577267728583577 0 -0.00094776908860878925 -0.014565664469277734 0 -0.0021030907384621341 -0.011521618901458884 0 -0.001516464271485438 -0.014535779191854325 0 -0.0015858025408962903 -0.01456997202872911 0 -0.0016106172822716448 -0.014559661838644364 0 -0.0016474036122038395 -0.014527614181734564 0 -0.0015858025408962903 -0.01456997202872911 0 -0.001695852657718745 -0.01454236338371402 0 -0.0016154134972129885 -0.0065531182988160137 0 -0.0014703094622960161 -0.0064700360464640134 0 -0.001550825884721242 -0.0064211322021939295 0 -0.0016154134972129885 -0.0065531182988160137 0 -0.0015076224117183152 -0.0066230245099688822 0 -0.0014703094622960161 -0.0064700360464640134 0 -0.0021030907384621341 -0.011521618901458884 0 -0.0020793803939041454 -0.0084711539838832998 0 -0.0025266593528526682 -0.01167080617027417 0 -0.0025066946747366028 -0.01169526639809065 0 -0.0025250626965017762 -0.011700664438711058 0 -0.0017267899572513687 -0.0144077296943426 0 -0.0016474036122038395 -0.014527614181734564 0 -0.0017557009019503035 -0.014464899130038296 0 -0.0016474036122038395 -0.014527614181734564 0 -0.001695852657718745 -0.01454236338371402 0 -0.0017557009019503035 -0.014464899130038296 0 -0.0021030907384621341 -0.011521618901458884 0 -0.0020840921057956527 -0.013231602280182322 0 -0.0017267899572513687 -0.0144077296943426 0 -0.0017557009019503035 -0.014464899130038296 0 -0.0017793049936814722 -0.014419369710332317 0 -0.0016019069389753338 -0.014588559063233064 0 -0.0025779853455687755 -0.013740966381504082 0 -0.0017267899572513687 -0.0144077296943426 0 -0.0026815919655756096 -0.01444402633394796 0 -0.0023894815876743828 -0.014124117547020721 0 -0.0025066946747366028 -0.01169526639809065 0 -0.0025250626965017762 -0.011700664438711058 0 -0.0025207510800909117 -0.011730832375034275 0 -0.0020840921057956527 -0.013231602280182322 0 -0.0025779853455687755 -0.013740966381504082 0 -0.0026893339340639684 -0.014416503894139078 0 -0.0027566274495324523 -0.014239789481184135 0 -0.0036113684320539879 -0.014342038675128526 0 -0.0025779853455687755 -0.013740966381504082 0 -0.0025501297824986474 -0.0141101431808409 0 -0.0026815919655756096 -0.01444402633394796 0 -0.0027566274495324523 -0.014239789481184135 0 -0.0023894815876743828 -0.014124117547020721 0 -0.0026739546598557391 -0.013772374651913007 0 -0.0027566274495324523 -0.014239789481184135 0 -0.0023894815876743828 -0.014124117547020721 0 -0.0026739546598557391 -0.013772374651913007 0 -0.0027566274495324523 -0.014239789481184135 0 -0.0032742305508412051 -0.01389244794920722 0 -0.0021339883413096106 -0.013789034647786837 0 -0.0017267899572513687 -0.0144077296943426 0 -0.0023894815876743828 -0.014124117547020721 0 -0.0021339883413096106 -0.013789034647786837 0 -0.0026739546598557391 -0.013772374651913007 0 -0.0023894815876743828 -0.014124117547020721 0 -0.003977571672354463 -0.014001846780499747 0 -0.0036909425243652244 -0.013859180890528617 0 -0.0036113684320539879 -0.014342038675128526 0 -0.0035961467331152319 -0.014011863690932479 0 -0.0028889753542995114 -0.01186780866959922 0 -0.0040133772820524494 -0.013585110309482588 0 -0.003977571672354463 -0.014001846780499747 0 -0.0036909425243652244 -0.013859180890528617 0 -0.0035486693392572381 -0.013506721384807546 0 -0.0036909425243652244 -0.013859180890528617 0 -0.0032742305508412051 -0.01389244794920722 0 -0.0027566274495324523 -0.014239789481184135 0 -0.0032742305508412051 -0.01389244794920722 0 -0.0036113684320539879 -0.014342038675128526 0 -0.0036909425243652244 -0.013859180890528617 0 -0.0032742305508412051 -0.01389244794920722 0 -0.0036113684320539879 -0.014342038675128526 0 -0.0025779853455687755 -0.013740966381504082 0 -0.0028889753542995114 -0.01186780866959922 0 -0.0025066946747366028 -0.01169526639809065 0 -0.0025207510800909117 -0.011730832375034275 0 -0.0024822781237018384 -0.011721786379684013 0 -0.0020793803939041454 -0.0084711539838832998 0 -0.0028889753542995114 -0.01186780866959922 0 -0.0043457559640412658 -0.014184354724071906 0 -0.003977571672354463 -0.014001846780499747 0 -0.0036870421132365371 -0.014193783528242866 0 -0.0012848624700271319 -0.0066205681312517623 0 -0.0013906233578561027 -0.006736554564600295 0 -0.0013730907909211656 -0.0065419032855854138 0 -0.0012341927774094758 -0.0064694975080421893 0 -0.0012848624700271319 -0.0066205681312517623 0 -0.0013730907909211656 -0.0065419032855854138 0 -0.0015076224117183152 -0.0066230245099688822 0 -0.0013906233578561027 -0.006736554564600295 0 -0.0013730907909211656 -0.0065419032855854138 0 -0.0015076224117183152 -0.0066230245099688822 0 -0.0013730907909211656 -0.0065419032855854138 0 -0.0014703094622960161 -0.0064700360464640134 0 -0.0013730907909211656 -0.0065419032855854138 0 -0.0014703094622960161 -0.0064700360464640134 0 -0.0013205806908212954 -0.0063343227852829618 0 -0.0012341927774094758 -0.0064694975080421893 0 -0.0013730907909211656 -0.0065419032855854138 0 -0.0013205806908212954 -0.0063343227852829618 0 -0.0013198498041731785 -0.0063153821753106467 0 -0.0012934911676214286 -0.0060916173053407706 0 -0.0013205806908212954 -0.0063343227852829618 0 -0.0012598613294879225 -0.0062193123638740674 0 -0.0013848281261883001 -0.0062236445708437702 0 -0.0014408425774642831 -0.0063362083634283485 0 -0.0015203163310251447 -0.0062859128179452587 0 -0.0013848281261883001 -0.0062236445708437702 0 -0.0013205806908212954 -0.0063343227852829618 0 -0.0014408425774642831 -0.0063362083634283485 0 -0.0013848281261883001 -0.0062236445708437702 0 -0.0014703094622960161 -0.0064700360464640134 0 -0.0013205806908212954 -0.0063343227852829618 0 -0.0014408425774642831 -0.0063362083634283485 0 -0.0014408425774642831 -0.0063362083634283485 0 -0.001550825884721242 -0.0064211322021939295 0 -0.0015203163310251447 -0.0062859128179452587 0 -0.0014703094622960161 -0.0064700360464640134 0 -0.0014408425774642831 -0.0063362083634283485 0 -0.001550825884721242 -0.0064211322021939295 0 -0.0016768377518415337 -0.0063887864955331766 0 -0.0016154134972129885 -0.0065531182988160137 0 -0.001550825884721242 -0.0064211322021939295 0 -0.0016094046289377576 -0.010283935471538152 0 -0.0021030907384621341 -0.011521618901458884 0 -0.0016768377518415337 -0.0063887864955331766 0 -0.001550825884721242 -0.0064211322021939295 0 -0.0015203163310251447 -0.0062859128179452587 0 -0.0016768377518415337 -0.0063887864955331766 0 -0.0015203163310251447 -0.0062859128179452587 0 -0.0015912254902319791 -0.0062056027268278776 0 -0.0015203163310251447 -0.0062859128179452587 0 -0.0014766061789074005 -0.0061252352042822046 0 -0.0015912254902319791 -0.0062056027268278776 0 -0.0014766061789074005 -0.0061252352042822046 0 -0.0015912254902319791 -0.0062056027268278776 0 -0.0015968596138625202 -0.0060927147630244864 0 -0.0015203163310251447 -0.0062859128179452587 0 -0.0014766061789074005 -0.0061252352042822046 0 -0.0013848281261883001 -0.0062236445708437702 0 -0.0016768377518415337 -0.0063887864955331766 0 -0.0015912254902319791 -0.0062056027268278776 0 -0.0016642222162676964 -0.0061926694433927986 0 -0.0015912254902319791 -0.0062056027268278776 0 -0.0016642222162676964 -0.0061926694433927986 0 -0.0015968596138625202 -0.0060927147630244864 0 -0.0016946987492227376 -0.0061007469791092717 0 -0.0015968596138625202 -0.0060927147630244864 0 -0.0015974310544502161 -0.0059590511872684116 0 -0.0016946987492227376 -0.0061007469791092717 0 -0.0016642222162676964 -0.0061926694433927986 0 -0.0015968596138625202 -0.0060927147630244864 0 -0.0014766061789074005 -0.0061252352042822046 0 -0.0015968596138625202 -0.0060927147630244864 0 -0.0014819689282676914 -0.0059842172993095051 0 -0.0015968596138625202 -0.0060927147630244864 0 -0.0014819689282676914 -0.0059842172993095051 0 -0.0015974310544502161 -0.0059590511872684116 0 -0.0013328807513127712 -0.006071306996494363 0 -0.0012832086696159433 -0.005959476716699579 0 -0.0013686458031211427 -0.0059072140917096885 0 -0.0014766061789074005 -0.0061252352042822046 0 -0.0014819689282676914 -0.0059842172993095051 0 -0.0013328807513127712 -0.006071306996494363 0 -0.0014819689282676914 -0.0059842172993095051 0 -0.0013328807513127712 -0.006071306996494363 0 -0.0013686458031211427 -0.0059072140917096885 0 -0.0013328807513127712 -0.006071306996494363 0 -0.0012832086696159433 -0.005959476716699579 0 -0.001171831076579981 -0.0059990676223839424 0 -0.0013328807513127712 -0.006071306996494363 0 -0.001171831076579981 -0.0059990676223839424 0 -0.0012598613294879225 -0.0062193123638740674 0 -0.0013328807513127712 -0.006071306996494363 0 -0.0012598613294879225 -0.0062193123638740674 0 -0.0013848281261883001 -0.0062236445708437702 0 -0.0012225100508629412 -0.0058169968062320625 0 -0.0012934911676214286 -0.0060916173053407706 0 -0.0014766061789074005 -0.0061252352042822046 0 -0.0013328807513127712 -0.006071306996494363 0 -0.0013848281261883001 -0.0062236445708437702 0 -0.0012243784301022203 -0.0056462554320736427 0 -0.0011204117284349859 -0.0056282205554739582 0 -0.0011911419230982406 -0.0056545163136636116 0 -0.0012243784301022203 -0.0056462554320736427 0 -0.0013375765834843568 -0.0057853737324628793 0 -0.0014961535269010177 -0.0057680343940885838 0 -0.0012353933691686538 -0.0056483377167013769 0 -0.00126999232585329 -0.0057258601990566385 0 -0.0011966299127186154 -0.0056270819000805135 0 -0.0012243784301022203 -0.0056462554320736427 0 -0.0011911419230982406 -0.0056545163136636116 0 -0.0011732712696084229 -0.0056270500978360602 0 -0.0011966299127186154 -0.0056270819000805135 0 -0.0012243784301022203 -0.0056462554320736427 0 -0.0011732712696084229 -0.0056270500978360602 0 -0.0012243784301022203 -0.0056462554320736427 0 -0.0012627068351899972 -0.0058140088215615383 0 -0.0012243784301022203 -0.0056462554320736427 0 -0.0012627068351899972 -0.0058140088215615383 0 -0.0013375765834843568 -0.0057853737324628793 0 -0.0011732712696084229 -0.0056270500978360602 0 -0.001171831076579981 -0.0059990676223839424 0 -0.0012627068351899972 -0.0058140088215615383 0 -0.0012832086696159433 -0.005959476716699579 0 -0.001171831076579981 -0.0059990676223839424 0 -0.0012627068351899972 -0.0058140088215615383 0 -0.0012832086696159433 -0.005959476716699579 0 -0.0012627068351899972 -0.0058140088215615383 0 -0.0013686458031211427 -0.0059072140917096885 0 -0.0013686458031211427 -0.0059072140917096885 0 -0.0013375765834843568 -0.0057853737324628793 0 -0.0014961535269010177 -0.0057680343940885838 0 -0.0014819689282676914 -0.0059842172993095051 0 -0.0013686458031211427 -0.0059072140917096885 0 -0.0014961535269010177 -0.0057680343940885838 0 -0.0012627068351899972 -0.0058140088215615383 0 -0.0013686458031211427 -0.0059072140917096885 0 -0.0013375765834843568 -0.0057853737324628793 0 -0.0014819689282676914 -0.0059842172993095051 0 -0.0015974310544502161 -0.0059590511872684116 0 -0.0014961535269010177 -0.0057680343940885838 0 -0.0015974310544502161 -0.0059590511872684116 0 -0.0016785869637065927 -0.0058404782219410277 0 -0.0017080244260577662 -0.0059591534193406308 0 -0.0016946987492227376 -0.0061007469791092717 0 -0.0015974310544502161 -0.0059590511872684116 0 -0.0017080244260577662 -0.0059591534193406308 0 -0.0011204117284349859 -0.0056282205554739582 0 -0.00107203882604344 -0.0056893162126269376 0 -0.0010107426856382151 -0.0056423360033029833 0 -0.00126999232585329 -0.0057258601990566385 0 -0.0014732839962793268 -0.0055121855157923153 0 -0.0015974310544502161 -0.0059590511872684116 0 -0.0014961535269010177 -0.0057680343940885838 0 -0.0016785869637065927 -0.0058404782219410277 0 -0.0011204117284349859 -0.0056282205554739582 0 -0.00107203882604344 -0.0056893162126269376 0 -0.0011488126286128527 -0.0056917803729975708 0 -0.00107203882604344 -0.0056893162126269376 0 -0.00099256521352528225 -0.0057533439070463158 0 -0.0010107426856382151 -0.0056423360033029833 0 -0.00107203882604344 -0.0056893162126269376 0 -0.0010806793231111485 -0.0057472769228416997 0 -0.00099256521352528225 -0.0057533439070463158 0 -0.0010806793231111485 -0.0057472769228416997 0 -0.0010298259199660088 -0.0058190021312987299 0 -0.00099256521352528225 -0.0057533439070463158 0 -0.00107203882604344 -0.0056893162126269376 0 -0.0010806793231111485 -0.0057472769228416997 0 -0.0011488126286128527 -0.0056917803729975708 0 -0.0010806793231111485 -0.0057472769228416997 0 -0.0011488126286128527 -0.0056917803729975708 0 -0.0011388317541207358 -0.0057509953353974113 0 -0.0011488126286128527 -0.0056917803729975708 0 -0.0011752805030120007 -0.0057023205239923238 0 -0.0011388317541207358 -0.0057509953353974113 0 -0.0011488126286128527 -0.0056917803729975708 0 -0.0011911419230982406 -0.0056545163136636116 0 -0.0011882433689148625 -0.005663522305362473 0 -0.0011204117284349859 -0.0056282205554739582 0 -0.0011488126286128527 -0.0056917803729975708 0 -0.0011911419230982406 -0.0056545163136636116 0 -0.0012008389171162441 -0.0056300465325940449 0 -0.0011966299127186154 -0.0056270819000805135 0 -0.0011911419230982406 -0.0056545163136636116 0 -0.0012008389171162441 -0.0056300465325940449 0 -0.0011911419230982406 -0.0056545163136636116 0 -0.0011882433689148625 -0.005663522305362473 0 -0.0012057977632874385 -0.0056523186378649448 0 -0.0011882433689148625 -0.005663522305362473 0 -0.0011752805030120007 -0.0057023205239923238 0 -0.0011488126286128527 -0.0056917803729975708 0 -0.0011882433689148625 -0.005663522305362473 0 -0.0011752805030120007 -0.0057023205239923238 0 -0.0011992446277696554 -0.0056988939597737544 0 -0.0011752805030120007 -0.0057023205239923238 0 -0.0011623229301903472 -0.005753885086399178 0 -0.0011752805030120007 -0.0057023205239923238 0 -0.0011623229301903472 -0.005753885086399178 0 -0.0011388317541207358 -0.0057509953353974113 0 -0.0011388317541207358 -0.0057509953353974113 0 -0.0011344682457365366 -0.0057952602037661255 0 -0.0011129276399350439 -0.0058141189388872241 0 -0.0011623229301903472 -0.005753885086399178 0 -0.0011388317541207358 -0.0057509953353974113 0 -0.0011344682457365366 -0.0057952602037661255 0 -0.0011623229301903472 -0.005753885086399178 0 -0.0011344682457365366 -0.0057952602037661255 0 -0.0011443060625885217 -0.0058143817778927775 0 -0.0011992446277696554 -0.0056988939597737544 0 -0.0011623229301903472 -0.005753885086399178 0 -0.0011762065925188931 -0.0057807274661691764 0 -0.0011623229301903472 -0.005753885086399178 0 -0.0011762065925188931 -0.0057807274661691764 0 -0.0011443060625885217 -0.0058143817778927775 0 -0.0011973832526378941 -0.0058312769248090564 0 -0.0011762065925188931 -0.0057807274661691764 0 -0.0011600931044121123 -0.0058430163063483099 0 -0.0011762065925188931 -0.0057807274661691764 0 -0.0011600931044121123 -0.0058430163063483099 0 -0.0011443060625885217 -0.0058143817778927775 0 -0.0011344682457365366 -0.0057952602037661255 0 -0.0011443060625885217 -0.0058143817778927775 0 -0.0011126569620247373 -0.0058470916456212305 0 -0.0011443060625885217 -0.0058143817778927775 0 -0.0011353083864163941 -0.0058709290651634514 0 -0.0011126569620247373 -0.0058470916456212305 0 -0.0011600931044121123 -0.0058430163063483099 0 -0.0011443060625885217 -0.0058143817778927775 0 -0.0011353083864163941 -0.0058709290651634514 0 -0.00079758351223303305 -0.0082796768260430913 0 -0.00019634442337139045 -0.0078766715193479223 0 -0.00037427665104924982 -0.0088470179579238032 0 -0.00090662840952401413 -0.0070517267004444406 0 -0.0009963258771419365 -0.0075852685414809209 0 -0.00079758351223303305 -0.0082796768260430913 0 -0.0014068485112459497 -0.0086797577005197305 0 -0.00087051351773490969 -0.008864325919841487 0 -0.00090662840952401413 -0.0070517267004444406 0 -0.0010530845982714046 -0.0071731536628782747 0 -0.0011600931044121123 -0.0058430163063483099 0 -0.0011353083864163941 -0.0058709290651634514 0 -0.0011702021838035119 -0.0059038883564676379 0 -0.0010706031009446047 -0.0060582495263841437 0 -0.0010706919909824284 -0.0059023558630212723 0 -0.00096292686986819659 -0.0060970280521979456 0 -0.0011973832526378941 -0.0058312769248090564 0 -0.0011600931044121123 -0.0058430163063483099 0 -0.0011702021838035119 -0.0059038883564676379 0 -0.0012018440559585944 -0.0056518409700255807 0 -0.0010530845982714046 -0.0071731536628782747 0 -0.00068965877319472505 -0.010778328955626814 0 -0.00056297225635141776 -0.010159895097063387 0 -0.00027098882577205328 -0.010700388748066942 0 -0.00068965877319472505 -0.010778328955626814 0 -0.00027098882577205328 -0.010700388748066942 0 -0.00037833816235201961 -0.01114767861530588 0 -0.00068965877319472505 -0.010778328955626814 0 -0.0010487282427460339 -0.010491900566082062 0 -0.0011346470368498881 -0.010991114576828871 0 -0.0009963258771419365 -0.0075852685414809209 0 -0.00080858779927331619 -0.010272863794879549 0 -0.0011796448803621637 -0.0060699985993056243 0 -0.001023153254140489 -0.0059398382042613182 0 -0.0011129276399350439 -0.0058141189388872241 0 -0.00068965877319472505 -0.010778328955626814 0 -0.0010487282427460339 -0.010491900566082062 0 -0.00056297225635141776 -0.010159895097063387 0 -0.0009963258771419365 -0.0075852685414809209 0 -0.0011107278739098496 -0.0051202281589385673 0 -0.0009963258771419365 -0.0075852685414809209 0 -0.00086209194470514034 -0.0081821281893294101 0 -0.001023153254140489 -0.0059398382042613182 0 -0.0010298259199660088 -0.0058190021312987299 0 -0.00094536222813719028 -0.0058756927569950977 0 -0.001023153254140489 -0.0059398382042613182 0 -0.0011129276399350439 -0.0058141189388872241 0 -0.0010298259199660088 -0.0058190021312987299 0 -0.0011344682457365366 -0.0057952602037661255 0 -0.0011126569620247373 -0.0058470916456212305 0 -0.0011129276399350439 -0.0058141189388872241 0 -0.0010806793231111485 -0.0057472769228416997 0 -0.0011388317541207358 -0.0057509953353974113 0 -0.0011129276399350439 -0.0058141189388872241 0 -0.0010806793231111485 -0.0057472769228416997 0 -0.0011129276399350439 -0.0058141189388872241 0 -0.0010298259199660088 -0.0058190021312987299 0 -0.0010298259199660088 -0.0058190021312987299 0 -0.00094536222813719028 -0.0058756927569950977 0 -0.00099256521352528225 -0.0057533439070463158 0 -0.00094536222813719028 -0.0058756927569950977 0 -0.00091634808576919772 -0.0057973498039529218 0 -0.00099256521352528225 -0.0057533439070463158 0 -0.00094536222813719028 -0.0058756927569950977 0 -0.00086508975603177168 -0.0058451017282498798 0 -0.00091634808576919772 -0.0057973498039529218 0 -0.00046085519809637473 -0.0076372225675156507 0 8.3112863387143883e-05 -0.0089807702748786935 0 0.0003986249506791201 -0.0099536541008004489 0 -4.5992042084204309e-05 -0.0097927585528864471 0 -0.00012462802238699607 -0.010265272428325279 0 0.0003986249506791201 -0.0099536541008004489 0 -4.5992042084204309e-05 -0.0097927585528864471 0 0.00049716288346687246 -0.0094210688958680198 0 -0.00086209194470514034 -0.0081821281893294101 0 -0.00046085519809637473 -0.0076372225675156507 0 -0.00056297225635141776 -0.010159895097063387 0 -4.5992042084204309e-05 -0.0097927585528864471 0 -0.00012462802238699607 -0.010265272428325279 0 -0.00056297225635141776 -0.010159895097063387 0 -0.00012462802238699607 -0.010265272428325279 0 -0.00027098882577205328 -0.010700388748066942 0 -0.00012462802238699607 -0.010265272428325279 0 0.00029207548063909616 -0.010478379960440988 0 -0.00027098882577205328 -0.010700388748066942 0 0.0003986249506791201 -0.0099536541008004489 0 -0.00012462802238699607 -0.010265272428325279 0 0.00029207548063909616 -0.010478379960440988 0 0.00031629824274028703 -0.010598418113304297 0 0.00025974849244746195 -0.010684353574415377 0 0.00029207548063909616 -0.010478379960440988 0 -0.00027098882577205328 -0.010700388748066942 0 0.00016008419930768847 -0.011030700691236552 0 0.00025974849244746195 -0.010684353574415377 0 0.00017260468122632297 -0.011021726096789331 0 0.00022640409334912212 -0.010960069376953598 0 0.00027279139261662897 -0.011027464857356525 0 0.00016008419930768847 -0.011030700691236552 0 -0.00027098882577205328 -0.010700388748066942 0 -0.00013374721805673766 -0.01103796752354106 0 0.00016008419930768847 -0.011030700691236552 0 0.00038833538642930952 -0.01107416269248653 0 0.0004195898984718947 -0.011154461029434785 0 0.0004156195854276387 -0.011119099864625974 0 0.00039777316384120333 -0.011068216983868536 0 0.00040951750395760788 -0.011072226356885803 0 0.00038833538642930952 -0.01107416269248653 0 0.0004156195854276387 -0.011119099864625974 0 0.0004160412348023493 -0.011126840767596355 0 0.00038833538642930952 -0.01107416269248653 0 0.00027279139261662897 -0.011027464857356525 0 0.00032280793884762696 -0.011135906105543384 0 0.00022640409334912212 -0.010960069376953598 0 0.00027279139261662897 -0.011027464857356525 0 0.00032664231709813506 -0.010944478559668323 0 0.00038833538642930952 -0.01107416269248653 0 0.00027279139261662897 -0.011027464857356525 0 0.00032664231709813506 -0.010944478559668323 0 0.00025729581239208806 -0.010842232198489524 0 0.00022640409334912212 -0.010960069376953598 0 0.00032664231709813506 -0.010944478559668323 0 0.00038833538642930952 -0.01107416269248653 0 0.00032664231709813506 -0.010944478559668323 0 0.00044603478040193393 -0.010928621862519047 0 0.00032664231709813506 -0.010944478559668323 0 0.0003644281555754756 -0.01085250879941837 0 0.00044603478040193393 -0.010928621862519047 0 0.0003644281555754756 -0.01085250879941837 0 0.00040525857928483497 -0.010766810600322469 0 0.00049835752086108435 -0.010829030835639091 0 0.00025729581239208806 -0.010842232198489524 0 0.00032664231709813506 -0.010944478559668323 0 0.0003644281555754756 -0.01085250879941837 0 0.00025729581239208806 -0.010842232198489524 0 0.0003644281555754756 -0.01085250879941837 0 0.00028383645941641109 -0.01073103558177536 0 0.00031629824274028703 -0.010598418113304297 0 8.3112863387143883e-05 -0.0089807702748786935 0 0.00028383645941641109 -0.01073103558177536 0 0.00040525857928483497 -0.010766810600322469 0 0.00040946148090002663 -0.010664069377125317 0 0.0003644281555754756 -0.01085250879941837 0 0.00028383645941641109 -0.01073103558177536 0 0.00040525857928483497 -0.010766810600322469 0 8.3112863387143883e-05 -0.0089807702748786935 0 -0.00031907218929644001 -0.011333034406250206 0 -0.00080579412841546248 -0.010534295911156339 0 -0.00096969216828625155 -0.01045118407315308 0 -0.00023398528283675294 -0.010245252933735925 0 -0.00080579412841546248 -0.010534295911156339 0 -0.00051273883086723157 -0.010729886401682796 0 -0.00023398528283675294 -0.010245252933735925 0 -0.00071936224303298455 -0.011014269691431619 0 -0.00031907218929644001 -0.011333034406250206 0 -0.00080579412841546248 -0.010534295911156339 0 -0.00095734492998140368 -0.010471759265313969 0 -0.001019401634238236 -0.010827892915319312 0 -0.00080579412841546248 -0.010534295911156339 0 -0.001019401634238236 -0.010827892915319312 0 -0.00077778115673942207 -0.010779717097123635 0 -0.00051273883086723157 -0.010729886401682796 0 -0.00076806244288085766 -0.011023147082049168 0 -0.0003667440893971131 -0.011345246634025264 0 -0.00051273883086723157 -0.010729886401682796 0 -0.00077778115673942207 -0.010779717097123635 0 -0.00076806244288085766 -0.011023147082049168 0 -0.00080579412841546248 -0.010534295911156339 0 -0.00051273883086723157 -0.010729886401682796 0 -0.00077778115673942207 -0.010779717097123635 0 -0.001019401634238236 -0.010827892915319312 0 -0.00076806244288085766 -0.011023147082049168 0 -0.00119705570222227 -0.011314654499653652 0 -0.001019401634238236 -0.010827892915319312 0 -0.00077778115673942207 -0.010779717097123635 0 -0.00076806244288085766 -0.011023147082049168 0 -0.00055724114017188483 -0.008252519093398171 0 -0.00080702198226071937 -0.007577282191598313 0 -0.00051273883086723157 -0.010729886401682796 0 -0.00016979544473560564 -0.010428546170789305 0 -0.0003667440893971131 -0.011345246634025264 0 -0.00064252657158901606 -0.0084575411489592658 0 -0.00045825209615460037 -0.0089618650612563345 0 -0.0007424098843880917 -0.008963441316208123 0 -0.00055724114017188483 -0.008252519093398171 0 -0.00061719210603290134 -0.010665573837528671 0 8.3112863387143883e-05 -0.0089807702748786935 0 -0.00055724114017188483 -0.008252519093398171 0 -0.00086508975603177168 -0.0058451017282498798 0 -0.00085079963212553482 -0.0057805432698135534 0 -0.00091634808576919772 -0.0057973498039529218 0 -4.5399195994665325e-05 -0.0098003485682020049 0 -0.00016555422406322088 -0.01042751777980663 0 -0.00023398528283675294 -0.010245252933735925 0 -4.5399195994665325e-05 -0.0098003485682020049 0 -0.00096969216828625155 -0.01045118407315308 0 -0.00023398528283675294 -0.010245252933735925 0 -0.00055724114017188483 -0.008252519093398171 0 -0.00019272459336355877 -0.0094901732205393222 0 -0.00051273883086723157 -0.010729886401682796 0 -0.00016979544473560564 -0.010428546170789305 0 -0.00023398528283675294 -0.010245252933735925 0 -0.00085079963212553482 -0.0057805432698135534 0 -0.00091634808576919772 -0.0057973498039529218 0 -0.0009257831981741969 -0.0057280213414248734 0 -0.00091634808576919772 -0.0057973498039529218 0 -0.00099256521352528225 -0.0057533439070463158 0 -0.0009257831981741969 -0.0057280213414248734 0 -0.00099256521352528225 -0.0057533439070463158 0 -0.0009257831981741969 -0.0057280213414248734 0 -0.0010107426856382151 -0.0056423360033029833 0 -0.00085079963212553482 -0.0057805432698135534 0 -0.0009257831981741969 -0.0057280213414248734 0 -0.00089144808805652592 -0.0056682863972426691 0 -0.0009257831981741969 -0.0057280213414248734 0 -0.00089144808805652592 -0.0056682863972426691 0 -0.0010107426856382151 -0.0056423360033029833 0 -0.00080702198226071937 -0.007577282191598313 0 -0.0014732839962793268 -0.0055121855157923153 0 -0.0018468621746383488 -0.0058753758365752973 0 -0.0016785869637065927 -0.0058404782219410277 0 -0.0017080244260577662 -0.0059591534193406308 0 -0.0016946987492227376 -0.0061007469791092717 0 -0.0017080244260577662 -0.0059591534193406308 0 -0.001806464465310953 -0.006023579969266825 0 -0.0018468621746383488 -0.0058753758365752973 0 -0.0017080244260577662 -0.0059591534193406308 0 -0.001806464465310953 -0.006023579969266825 0 0.00013939512054999978 -0.01061092149786833 0 0.0005487176329107569 -0.011729515590726262 0 -0.00020896678469893234 -0.011475963314899789 0 -0.00080702198226071937 -0.007577282191598313 0 -0.00054364705252106852 -0.0089169084784910448 0 0.0005487176329107569 -0.011729515590726262 0 -6.4304732190717778e-05 -0.01181614223748473 0 -0.00020896678469893234 -0.011475963314899789 0 -0.0007808835287858645 -0.012086270340436073 0 -0.00020896678469893234 -0.011475963314899789 0 -0.00056963084768787173 -0.010609114703144604 0 -0.0003775065855611948 -0.012082172628716864 0 -6.4304732190717778e-05 -0.01181614223748473 0 -0.00020896678469893234 -0.011475963314899789 0 -0.00077704211961162565 -0.012167752527091871 0 -0.00061719210603290134 -0.010665573837528671 0 -0.0007808835287858645 -0.012086270340436073 0 -0.00094422322056663202 -0.011698137452752715 0 -0.00061672130344092157 -0.011332588828124331 0 -0.0007808835287858645 -0.012086270340436073 0 -0.00099915998682701302 -0.011931371839834495 0 -0.00094422322056663202 -0.011698137452752715 0 -0.00099915998682701302 -0.011931371839834495 0 -0.00094422322056663202 -0.011698137452752715 0 -0.0012671608777805638 -0.011874787431668051 0 -0.00094422322056663202 -0.011698137452752715 0 -0.00061672130344092157 -0.011332588828124331 0 -0.00119705570222227 -0.011314654499653652 0 -0.00061719210603290134 -0.010665573837528671 0 -0.0010979814041293765 -0.011438870185199498 0 -0.00076806244288085766 -0.011023147082049168 0 -0.0003667440893971131 -0.011345246634025264 0 -0.00119705570222227 -0.011314654499653652 0 0.00013939512054999978 -0.01061092149786833 0 -0.00020896678469893234 -0.011475963314899789 0 -0.00056963084768787173 -0.010609114703144604 0 -0.00080702198226071937 -0.007577282191598313 0 -0.00061719210603290134 -0.010665573837528671 0 -0.001590292160559803 -0.011566156113759657 0 -0.001903270941888701 -0.0118211604290721 0 -0.0019566421206184555 -0.011278816016828818 0 -0.001590292160559803 -0.011566156113759657 0 -0.0019566421206184555 -0.011278816016828818 0 -0.0015088628660286617 -0.010919023494762869 0 -0.001590292160559803 -0.011566156113759657 0 -0.00119705570222227 -0.011314654499653652 0 -0.0015088628660286617 -0.010919023494762869 0 -0.00094422322056663202 -0.011698137452752715 0 -0.00119705570222227 -0.011314654499653652 0 -0.0012671608777805638 -0.011874787431668051 0 -0.001590292160559803 -0.011566156113759657 0 -0.00119705570222227 -0.011314654499653652 0 -0.0012671608777805638 -0.011874787431668051 0 -0.0016329362991929805 -0.012044194466732602 0 -0.001590292160559803 -0.011566156113759657 0 -0.0012671608777805638 -0.011874787431668051 0 -0.0016329362991929805 -0.012044194466732602 0 -0.001590292160559803 -0.011566156113759657 0 -0.001903270941888701 -0.0118211604290721 0 -0.0020805109073172043 -0.012028422296426219 0 -0.0018945125353947614 -0.012133114780669189 0 -0.001903270941888701 -0.0118211604290721 0 -0.0020805109073172043 -0.012028422296426219 0 -0.001903270941888701 -0.0118211604290721 0 -0.002182884817011013 -0.011770134083537914 0 -0.001903270941888701 -0.0118211604290721 0 -0.002182884817011013 -0.011770134083537914 0 -0.0019566421206184555 -0.011278816016828818 0 -0.0023180664239635176 -0.012111369906192387 0 -0.0020805109073172043 -0.012028422296426219 0 -0.002182884817011013 -0.011770134083537914 0 -0.00080260975088365845 -0.01358974068513343 0 -0.00016012030748432926 -0.014659305276028491 0 -0.00043653924548693444 -0.014154487785479643 0 -0.00043668925551364798 -0.014148081765439248 0 -0.00044078083240618358 -0.014165509635791461 0 5.4834390809963998e-05 -0.014968403984948336 0 2.7920954443775343e-05 -0.014967023528147839 0 2.4584607956202247e-05 -0.014988661785255444 0 -0.0023180664239635176 -0.012111369906192387 0 -0.002182884817011013 -0.011770134083537914 0 -0.0024473475333679946 -0.011765675354712152 0 -0.002182884817011013 -0.011770134083537914 0 -0.0024473475333679946 -0.011765675354712152 0 -0.0023858929341152475 -0.011601798207161616 0 -0.0011338556847948816 -0.013036876391226708 0 -0.00080260975088365845 -0.01358974068513343 0 5.4834390809963998e-05 -0.014968403984948336 0 7.6418241272357168e-05 -0.014922814366781813 0 4.606592541086871e-05 -0.014942962603917042 0 -0.00080260975088365845 -0.01358974068513343 0 -0.0003497818086603794 -0.014179061588768532 0 5.4834390809963998e-05 -0.014968403984948336 0 4.606592541086871e-05 -0.014942962603917042 0 2.7920954443775343e-05 -0.014967023528147839 0 -0.00080260975088365845 -0.01358974068513343 0 -0.0012360865061116543 -0.011955241306166046 0 -0.0006767372887197913 -0.01296075203014314 0 -0.00047552442025773157 -0.012820995940495581 0 -0.0005724500104594102 -0.012714493165825229 0 -0.00080260975088365845 -0.01358974068513343 0 -0.00061464683986926891 -0.012843553083788284 0 -0.002182884817011013 -0.011770134083537914 0 -0.0023858929341152475 -0.011601798207161616 0 -0.0019566421206184555 -0.011278816016828818 0 -0.0005724500104594102 -0.012714493165825229 0 -0.00049737044905716972 -0.012641404733793228 0 -0.00046895750423999632 -0.012504362327188767 0 -0.00078186845974409448 -0.012921710434967201 0 -0.00068585739822405226 -0.01308832046319733 0 -0.00046895750423999632 -0.012504362327188767 0 -0.00091695777884963055 -0.013680156758561513 0 -0.00078186845974409448 -0.012921710434967201 0 -0.00068585739822405226 -0.01308832046319733 0 -0.00047552442025773157 -0.012820995940495581 0 -0.0005724500104594102 -0.012714493165825229 0 -0.00046172064340639169 -0.012711941196156585 0 -0.0005724500104594102 -0.012714493165825229 0 -0.00049737044905716972 -0.012641404733793228 0 -0.00046172064340639169 -0.012711941196156585 0 7.6418241272357168e-05 -0.014922814366781813 0 4.606592541086871e-05 -0.014942962603917042 0 4.658014872776283e-05 -0.01490090036354854 0 7.1001072019543249e-05 -0.014866447605640255 0 4.658014872776283e-05 -0.01490090036354854 0 5.7307325401480553e-05 -0.014860680117082135 0 7.6418241272357168e-05 -0.014922814366781813 0 7.1001072019543249e-05 -0.014866447605640255 0 4.658014872776283e-05 -0.01490090036354854 0 4.658014872776283e-05 -0.01490090036354854 0 5.7307325401480553e-05 -0.014860680117082135 0 3.5511173093782823e-05 -0.014876595144514506 0 7.6418241272357168e-05 -0.014922814366781813 0 7.1001072019543249e-05 -0.014866447605640255 0 0.00011026083120695928 -0.01480387731522164 0 -0.00061464683986926891 -0.012843553083788284 0 -0.00048841525524370006 -0.012555330910853858 0 -0.0003497818086603794 -0.014179061588768532 0 -2.0819287676601265e-05 -0.012990760380135016 0 -0.00078186845974409448 -0.012921710434967201 0 -0.00046895750423999632 -0.012504362327188767 0 -0.00061190895013259661 -0.012170459179680886 0 -0.00049737044905716972 -0.012641404733793228 0 -0.00046895750423999632 -0.012504362327188767 0 -0.00046193470446047308 -0.012523535348279002 0 -0.00049737044905716972 -0.012641404733793228 0 -0.00046193470446047308 -0.012523535348279002 0 -0.00043097882969053252 -0.012580756166881493 0 -0.00036437715857988548 -0.012576996603860691 0 -0.00029881039201199301 -0.012688545391002438 0 -0.00026889619165455667 -0.012502486480399803 0 -0.00046193470446047308 -0.012523535348279002 0 -0.00039037496129156146 -0.012518448127079805 0 -0.00040652920132526682 -0.012436177111555815 0 -0.00046895750423999632 -0.012504362327188767 0 -0.00046193470446047308 -0.012523535348279002 0 -0.00030645075040449163 -0.012338957960182226 0 -0.00053517136582453806 -0.012515881664870242 0 -2.5873563495002183e-05 -0.011612709574133082 0 -0.00039037496129156146 -0.012518448127079805 0 -0.00036437715857988548 -0.012576996603860691 0 -0.00026889619165455667 -0.012502486480399803 0 -0.00039037496129156146 -0.012518448127079805 0 -0.00026889619165455667 -0.012502486480399803 0 -0.00040652920132526682 -0.012436177111555815 0 0.00019237559432040607 -0.011648046219511151 0 -2.5873563495002183e-05 -0.011612709574133082 0 -0.00046193470446047308 -0.012523535348279002 0 -0.00039037496129156146 -0.012518448127079805 0 -0.00043097882969053252 -0.012580756166881493 0 -0.00039037496129156146 -0.012518448127079805 0 -0.00036437715857988548 -0.012576996603860691 0 -0.00043097882969053252 -0.012580756166881493 0 -0.00036437715857988548 -0.012576996603860691 0 -0.00043097882969053252 -0.012580756166881493 0 -0.00041805646535302433 -0.012643222185235439 0 -0.00049737044905716972 -0.012641404733793228 0 -0.00043097882969053252 -0.012580756166881493 0 -0.00041805646535302433 -0.012643222185235439 0 -0.00041805646535302433 -0.012643222185235439 0 -0.00046172064340639169 -0.012711941196156585 0 -0.00029881039201199301 -0.012688545391002438 0 -0.00047552442025773157 -0.012820995940495581 0 -0.00046172064340639169 -0.012711941196156585 0 -0.00029881039201199301 -0.012688545391002438 0 -0.0012360865061116543 -0.011955241306166046 0 -0.00094686211661163422 -0.011839820338455861 0 -0.00049737044905716972 -0.012641404733793228 0 -0.00041805646535302433 -0.012643222185235439 0 -0.00046172064340639169 -0.012711941196156585 0 -0.00036437715857988548 -0.012576996603860691 0 -0.00041805646535302433 -0.012643222185235439 0 -0.00029881039201199301 -0.012688545391002438 0 -0.00095734492998140368 -0.010471759265313969 0 -0.001019401634238236 -0.010827892915319312 0 -0.0015088628660286617 -0.010919023494762869 0 -0.00031907218929644001 -0.011333034406250206 0 -0.00094686211661163422 -0.011839820338455861 0 -0.001019401634238236 -0.010827892915319312 0 -0.00119705570222227 -0.011314654499653652 0 -0.0015088628660286617 -0.010919023494762869 0 -0.00031907218929644001 -0.011333034406250206 0 0.00019237559432040607 -0.011648046219511151 0 -0.00013123911178499717 -0.012565773531702594 0 -0.00029881039201199301 -0.012688545391002438 0 -0.00026889619165455667 -0.012502486480399803 0 0.00040525857928483497 -0.010766810600322469 0 0.00040946148090002663 -0.010664069377125317 0 0.00048340866058045389 -0.010705726166339155 0 0.00040525857928483497 -0.010766810600322469 0 0.00048340866058045389 -0.010705726166339155 0 0.00049835752086108435 -0.010829030835639091 0 -2.5873563495002183e-05 -0.011612709574133082 0 0.00052905094391452834 -0.010932581834520066 0 0.00031700916634791704 -0.011390747406059875 0 0.00031259341398683928 -0.011298641914418919 0 0.00038743534305537072 -0.01126617571244822 0 0.00048340866058045389 -0.010705726166339155 0 0.0005508582973730796 -0.01074621780122835 0 0.00049835752086108435 -0.010829030835639091 0 0.00031700916634791704 -0.011390747406059875 0 0.00031259341398683928 -0.011298641914418919 0 0.00024005190393448165 -0.011355300501307243 0 0.00031259341398683928 -0.011298641914418919 0 0.00038743534305537072 -0.01126617571244822 0 0.00035035517599556112 -0.011203034794719249 0 0.00031259341398683928 -0.011298641914418919 0 0.00035035517599556112 -0.011203034794719249 0 0.00027310437707564022 -0.011239300979732657 0 0.0003644281555754756 -0.01085250879941837 0 0.00049835752086108435 -0.010829030835639091 0 0.00044603478040193393 -0.010928621862519047 0 0.00052905094391452834 -0.010932581834520066 0 0.00040951750395760788 -0.011072226356885803 0 0.00038743534305537072 -0.01126617571244822 0 0.0004195898984718947 -0.011154461029434785 0 0.00035035517599556112 -0.011203034794719249 0 0.0004195898984718947 -0.011154461029434785 0 0.00037665427359647097 -0.011153244688026148 0 0.00035035517599556112 -0.011203034794719249 0 0.00035035517599556112 -0.011203034794719249 0 0.00031057897080501298 -0.011146134714002472 0 0.00027310437707564022 -0.011239300979732657 0 0.00037665427359647097 -0.011153244688026148 0 0.00035035517599556112 -0.011203034794719249 0 0.00031057897080501298 -0.011146134714002472 0 0.00033898252902857967 -0.011198820559437019 0 0.00036160615630872204 -0.011133394739609434 0 0.0004156195854276387 -0.011119099864625974 0 0.00037665427359647097 -0.011153244688026148 0 0.00031057897080501298 -0.011146134714002472 0 0.0004156195854276387 -0.011119099864625974 0 0.00045674451076899874 -0.011358728804690155 0 0.00036826814977712364 -0.011081596816976709 0 0.0003361089672157759 -0.011229362031141084 0 0.00033898252902857967 -0.011198820559437019 0 0.0004156195854276387 -0.011119099864625974 0 0.00045674451076899874 -0.011358728804690155 0 0.00043171233140192842 -0.011263888919739173 0 0.00033460142553157365 -0.011256561538565305 0 0.00033898252902857967 -0.011198820559437019 0 0.00029814060446703276 -0.011206985266695325 0 0.00033898252902857967 -0.011198820559437019 0 0.00036160615630872204 -0.011133394739609434 0 0.00029814060446703276 -0.011206985266695325 0 0.0004195898984718947 -0.011154461029434785 0 0.00037665427359647097 -0.011153244688026148 0 0.0004156195854276387 -0.011119099864625974 0 4.1026768717074387e-05 -0.013928189788796078 0 0.00011501370672620207 -0.01391559924231772 0 0.00018488089691191188 -0.012896581734169878 0 0.000271474909692473 -0.012726585680747979 0 0.00015866106716657093 -0.012596845511123299 0 -0.00010825475277509177 -0.014931735624576456 0 -8.0043050069810026e-05 -0.014950278511848894 0 -0.00010300902196534486 -0.01496527417472774 0 0.00018488089691191188 -0.012896581734169878 0 0.00027436507289748063 -0.012860153162537875 0 0.00030027552614420434 -0.012922607210424793 0 0.00018488089691191188 -0.012896581734169878 0 0.00027436507289748063 -0.012860153162537875 0 0.000271474909692473 -0.012726585680747979 0 0.00036155967534143762 -0.011452846247777102 0 0.00037630865221129284 -0.012087201323042843 0 0.00036160615630872204 -0.011133394739609434 0 0.00029814060446703276 -0.011206985266695325 0 0.00022980456513347307 -0.011209108931601777 0 0.00032218207134623975 -0.011889429155241547 0 0.00042847894431633556 -0.011824957014987467 0 0.00037320715301095825 -0.011913184133183014 0 0.00027436507289748063 -0.012860153162537875 0 0.000271474909692473 -0.012726585680747979 0 0.00034084687629679609 -0.012895569872974039 0 0.00029814060446703276 -0.011206985266695325 0 0.00027615077925992505 -0.011237485764700333 0 0.00022980456513347307 -0.011209108931601777 0 0.00033460142553157365 -0.011256561538565305 0 0.00029814060446703276 -0.011206985266695325 0 0.00027615077925992505 -0.011237485764700333 0 0.00027436507289748063 -0.012860153162537875 0 0.00034084687629679609 -0.012895569872974039 0 0.00030027552614420434 -0.012922607210424793 0 0.00027615077925992505 -0.011237485764700333 0 0.00022980456513347307 -0.011209108931601777 0 0.0002454175264644777 -0.011279428595424662 0 0.00037630865221129284 -0.012087201323042843 0 0.00029163142909210493 -0.012201499103919225 0 0.00034214070116887334 -0.012895697770680541 0 0.00030027552614420434 -0.012922607210424793 0 0.00029476092519960934 -0.013157865483764689 0 0.00045674451076899874 -0.011358728804690155 0 0.00041145474591150325 -0.011767954660088214 0 0.00067278922973825731 -0.011691914303094278 0 -2.519018190831493e-05 -0.012125786542761943 0 0.00049162222447491158 -0.012513150823581884 0 0.00037630865221129284 -0.012087201323042843 0 0.00017706223681237163 -0.012515738936639913 0 0.00022980456513347307 -0.011209108931601777 0 0.0002454175264644777 -0.011279428595424662 0 0.00019971018132770597 -0.011353052596414712 0 0.00033460142553157365 -0.011256561538565305 0 0.00027615077925992505 -0.011237485764700333 0 0.0002454175264644777 -0.011279428595424662 0 0.00033460142553157365 -0.011256561538565305 0 0.0002454175264644777 -0.011279428595424662 0 0.00019971018132770597 -0.011353052596414712 0 0.00045674451076899874 -0.011358728804690155 0 0.00017706223681237163 -0.012515738936639913 0 4.1026768717074387e-05 -0.013928189788796078 0 -0.00011141752115046936 -0.013846558636017525 0 -0.00011274329271717678 -0.014893789804460414 0 -8.2345015229687681e-05 -0.014879316847867642 0 -7.6184777928465028e-05 -0.014921922997567581 0 0.00018488089691191188 -0.012896581734169878 0 0.00029476092519960934 -0.013157865483764689 0 0.00020993976014145393 -0.013211099353387748 0 0.00017706223681237163 -0.012515738936639913 0 -0.00011141752115046936 -0.013846558636017525 0 -0.00010825475277509177 -0.014931735624576456 0 -0.00011274329271717678 -0.014893789804460414 0 -7.6184777928465028e-05 -0.014921922997567581 0 0.00018488089691191188 -0.012896581734169878 0 0.00030027552614420434 -0.012922607210424793 0 0.00029476092519960934 -0.013157865483764689 0 6.5471080797793529e-05 -0.013151382209575568 0 -0.00010663808045229667 -0.013257819424660429 0 -5.341156235908752e-05 -0.01383557461820769 0 4.6765153774543768e-05 -0.014851017421612437 0 6.3780623237863406e-05 -0.014848140251039024 0 3.686669103880615e-05 -0.014834309140514198 0 -3.545693583072624e-05 -0.014177132515983015 0 -3.598203087088481e-05 -0.014180337722464119 0 -7.0976601423335876e-05 -0.014165063361974983 0 -0.00011141752115046936 -0.013846558636017525 0 -3.2188988849478867e-05 -0.01467833489984819 0 -3.8771169337728436e-05 -0.014141920407313812 0 -3.545693583072624e-05 -0.014177132515983015 0 -7.0976601423335876e-05 -0.014165063361974983 0 -0.00011141752115046936 -0.013846558636017525 0 -4.5811914309997122e-06 -0.013845240680144607 0 4.5410756099832913e-06 -0.014177394615993641 0 -3.2188988849478867e-05 -0.01467833489984819 0 0.00017706223681237163 -0.012515738936639913 0 -4.5811914309997122e-06 -0.013845240680144607 0 0.00041145474591150325 -0.011767954660088214 0 -2.0819287676601265e-05 -0.012990760380135016 0 -2.519018190831493e-05 -0.012125786542761943 0 -0.00017524663938971868 -0.013012717720634398 0 0.00049162222447491158 -0.012513150823581884 0 0.00031259341398683928 -0.011298641914418919 0 0.00027310437707564022 -0.011239300979732657 0 0.00024005190393448165 -0.011355300501307243 0 -0.00017524663938971868 -0.013012717720634398 0 0.00049162222447491158 -0.012513150823581884 0 0.00030886721133185506 -0.013333300565094013 0 7.1001072019543249e-05 -0.014866447605640255 0 0.00011026083120695928 -0.01480387731522164 0 5.4501523157945091e-05 -0.014770296490351493 0 -0.00017524663938971868 -0.013012717720634398 0 0.00030886721133185506 -0.013333300565094013 0 -0.00018696710021371202 -0.013082140830892252 0 -2.0819287676601265e-05 -0.012990760380135016 0 4.5410756099832913e-06 -0.014177394615993641 0 -2.5873563495002183e-05 -0.011612709574133082 0 -2.0819287676601265e-05 -0.012990760380135016 0 -0.00046895750423999632 -0.012504362327188767 0 -0.00030645075040449163 -0.012338957960182226 0 -0.00061190895013259661 -0.012170459179680886 0 7.1001072019543249e-05 -0.014866447605640255 0 6.3780623237863406e-05 -0.014848140251039024 0 5.7307325401480553e-05 -0.014860680117082135 0 9.4061977299277779e-05 -0.015079001481995844 0 4.5410756099832913e-06 -0.014177394615993641 0 4.6765153774543768e-05 -0.014851017421612437 0 5.7901916392820751e-05 -0.014852279650117388 0 5.7307325401480553e-05 -0.014860680117082135 0 5.7901916392820751e-05 -0.014852279650117388 0 6.3780623237863406e-05 -0.014848140251039024 0 5.7307325401480553e-05 -0.014860680117082135 0 4.6765153774543768e-05 -0.014851017421612437 0 5.7901916392820751e-05 -0.014852279650117388 0 6.3780623237863406e-05 -0.014848140251039024 0 -4.5811914309997122e-06 -0.013845240680144607 0 4.5410756099832913e-06 -0.014177394615993641 0 4.6765153774543768e-05 -0.014851017421612437 0 5.7307325401480553e-05 -0.014860680117082135 0 3.5511173093782823e-05 -0.014876595144514506 0 3.5511173093782823e-05 -0.014876595144514506 0 3.0520976688511188e-05 -0.014859970052744375 0 5.9433435444428889e-06 -0.014885895091169379 0 3.0520976688511188e-05 -0.014859970052744375 0 5.9433435444428889e-06 -0.014885895091169379 0 1.8722641444282877e-05 -0.014847095555656855 0 4.6765153774543768e-05 -0.014851017421612437 0 3.5511173093782823e-05 -0.014876595144514506 0 3.0520976688511188e-05 -0.014859970052744375 0 5.9433435444428889e-06 -0.014885895091169379 0 -1.147769404861709e-05 -0.014859032418216638 0 1.8722641444282877e-05 -0.014847095555656855 0 5.9433435444428889e-06 -0.014885895091169379 0 -1.147769404861709e-05 -0.014859032418216638 0 -3.7797916541510226e-05 -0.014890982508252956 0 -1.7938960222098122e-06 -0.014838399868021643 0 3.5800586287551334e-05 -0.014835952539051209 0 -9.9767331802708839e-06 -0.014815816399226365 0 -1.7938960222098122e-06 -0.014838399868021643 0 -9.9767331802708839e-06 -0.014815816399226365 0 -4.4838419946278571e-05 -0.014838714977663987 0 -1.147769404861709e-05 -0.014859032418216638 0 -1.7938960222098122e-06 -0.014838399868021643 0 1.8722641444282877e-05 -0.014847095555656855 0 -3.2188988849478867e-05 -0.01467833489984819 0 -2.1101720882489024e-05 -0.014881168788477823 0 -1.7938960222098122e-06 -0.014838399868021643 0 3.5800586287551334e-05 -0.014835952539051209 0 1.8722641444282877e-05 -0.014847095555656855 0 4.6765153774543768e-05 -0.014851017421612437 0 3.0520976688511188e-05 -0.014859970052744375 0 3.686669103880615e-05 -0.014834309140514198 0 3.0520976688511188e-05 -0.014859970052744375 0 3.686669103880615e-05 -0.014834309140514198 0 1.8722641444282877e-05 -0.014847095555656855 0 -3.2188988849478867e-05 -0.01467833489984819 0 -1.1556353052508719e-05 -0.01479272396566661 0 -8.2345015229687681e-05 -0.014879316847867642 0 -7.6184777928465028e-05 -0.014921922997567581 0 -3.9011736068737662e-05 -0.01491367724988824 0 -7.6184777928465028e-05 -0.014921922997567581 0 -3.9011736068737662e-05 -0.01491367724988824 0 -5.0510306497701692e-05 -0.014953311548292509 0 -3.9011736068737662e-05 -0.01491367724988824 0 -5.0510306497701692e-05 -0.014953311548292509 0 -2.2918254735370587e-05 -0.014964074833764295 0 -5.0510306497701692e-05 -0.014953311548292509 0 -8.0043050069810026e-05 -0.014950278511848894 0 -6.0074652698633539e-05 -0.01497825763849637 0 -7.6184777928465028e-05 -0.014921922997567581 0 -5.0510306497701692e-05 -0.014953311548292509 0 -8.0043050069810026e-05 -0.014950278511848894 0 -0.00010825475277509177 -0.014931735624576456 0 -7.6184777928465028e-05 -0.014921922997567581 0 -8.0043050069810026e-05 -0.014950278511848894 0 -1.2707067338695675e-08 -0.014999946796348151 0 5.6099978519416554e-07 -0.014984607582848832 0 1.846391415401849e-08 -0.015000011330663339 0 3.9682788459434797e-07 -0.01498246892766892 0 -1.3338569572324394e-05 -0.014927721467461838 0 -1.2707067338695675e-08 -0.014999946796348151 0 5.6099978519416554e-07 -0.014984607582848832 0 1.2217596227684579e-06 -0.014987598298344444 0 2.6762871700488152e-08 -0.014999997838548317 0 -1.3338569572324394e-05 -0.014927721467461838 0 -5.0510306497701692e-05 -0.014953311548292509 0 -2.2918254735370587e-05 -0.014964074833764295 0 -1.5909788698887195e-05 -0.014990679710285358 0 5.6099978519416554e-07 -0.014984607582848832 0 -2.2918254735370587e-05 -0.014964074833764295 0 -1.5909788698887195e-05 -0.014990679710285358 0 5.6099978519416554e-07 -0.014984607582848832 0 -2.2918254735370587e-05 -0.014964074833764295 0 5.4573463251485243e-07 -0.014954330217649347 0 -3.9011736068737662e-05 -0.01491367724988824 0 -2.2918254735370587e-05 -0.014964074833764295 0 5.4573463251485243e-07 -0.014954330217649347 0 -2.1101720882489024e-05 -0.014881168788477823 0 -1.3338569572324394e-05 -0.014927721467461838 0 -9.9767331802708839e-06 -0.014815816399226365 0 -5.3590456226682497e-05 -0.014796043784805013 0 -4.4838419946278571e-05 -0.014838714977663987 0 -1.3338569572324394e-05 -0.014927721467461838 0 -2.6007102073555778e-05 -0.014913058392217677 0 -6.4823283907490747e-07 -0.014999992877808772 0 -3.5516526850489485e-09 -0.015000002507024964 0 -1.9391083827389328e-06 -0.015000117072740885 0 9.4843356622411074e-10 -0.014999999021959908 0 -6.4823283907490747e-07 -0.014999992877808772 0 -3.5516526850489485e-09 -0.015000002507024964 0 -3.5516526850489485e-09 -0.015000002507024964 0 -1.9391083827389328e-06 -0.015000117072740885 0 -1.9957571269841389e-06 -0.014999921319795549 0 -1.147769404861709e-05 -0.014859032418216638 0 -1.7938960222098122e-06 -0.014838399868021643 0 -4.4838419946278571e-05 -0.014838714977663987 0 -2.6007102073555778e-05 -0.014913058392217677 0 -2.0750038573405303e-05 -0.014946019730643594 0 -1.9391083827389328e-06 -0.015000117072740885 0 -1.9957571269841389e-06 -0.014999921319795549 0 -6.8898249082520158e-06 -0.014998303026099826 0 -1.147769404861709e-05 -0.014859032418216638 0 -4.4838419946278571e-05 -0.014838714977663987 0 -3.7797916541510226e-05 -0.014890982508252956 0 -3.5516526850489485e-09 -0.015000002507024964 0 -1.9957571269841389e-06 -0.014999921319795549 0 3.0381057715293572e-09 -0.014999993488613457 0 -1.9957571269841389e-06 -0.014999921319795549 0 3.0381057715293572e-09 -0.014999993488613457 0 -6.8898249082520158e-06 -0.014998303026099826 0 3.0381057715293572e-09 -0.014999993488613457 0 -2.0700764028877761e-06 -0.014989362577216158 0 -6.8898249082520158e-06 -0.014998303026099826 0 -2.0700764028877761e-06 -0.014989362577216158 0 -3.9914742683185646e-09 -0.014999973101191815 0 -5.0436187664837125e-06 -0.014986694704185847 0 3.0381057715293572e-09 -0.014999993488613457 0 -2.0700764028877761e-06 -0.014989362577216158 0 -3.9914742683185646e-09 -0.014999973101191815 0 -2.0700764028877761e-06 -0.014989362577216158 0 -1.1877203219836533e-05 -0.014967072030244801 0 -5.0436187664837125e-06 -0.014986694704185847 0 -2.0700764028877761e-06 -0.014989362577216158 0 -1.1877203219836533e-05 -0.014967072030244801 0 -6.8898249082520158e-06 -0.014998303026099826 0 -1.3729505706544373e-05 -0.014964824276993902 0 -2.0750038573405303e-05 -0.014946019730643594 0 5.9433435444428889e-06 -0.014885895091169379 0 -1.1877203219836533e-05 -0.014967072030244801 0 -3.7797916541510226e-05 -0.014890982508252956 0 5.9433435444428889e-06 -0.014885895091169379 0 -1.1877203219836533e-05 -0.014967072030244801 0 2.0693734131274722e-05 -0.01491337945420413 0 4.658014872776283e-05 -0.01490090036354854 0 2.0693734131274722e-05 -0.01491337945420413 0 2.5469277404974452e-05 -0.014938878633177707 0 3.5511173093782823e-05 -0.014876595144514506 0 5.9433435444428889e-06 -0.014885895091169379 0 2.0693734131274722e-05 -0.01491337945420413 0 4.658014872776283e-05 -0.01490090036354854 0 3.5511173093782823e-05 -0.014876595144514506 0 2.0693734131274722e-05 -0.01491337945420413 0 4.606592541086871e-05 -0.014942962603917042 0 4.658014872776283e-05 -0.01490090036354854 0 2.5469277404974452e-05 -0.014938878633177707 0 4.606592541086871e-05 -0.014942962603917042 0 2.5469277404974452e-05 -0.014938878633177707 0 2.7920954443775343e-05 -0.014967023528147839 0 -1.1877203219836533e-05 -0.014967072030244801 0 2.0693734131274722e-05 -0.01491337945420413 0 2.5469277404974452e-05 -0.014938878633177707 0 -1.1877203219836533e-05 -0.014967072030244801 0 2.5469277404974452e-05 -0.014938878633177707 0 1.0136726685607953e-05 -0.014964692759682844 0 -1.1877203219836533e-05 -0.014967072030244801 0 1.0136726685607953e-05 -0.014964692759682844 0 2.8719189362744015e-06 -0.01498257237294072 0 1.0136726685607953e-05 -0.014964692759682844 0 2.7920954443775343e-05 -0.014967023528147839 0 2.8719189362744015e-06 -0.01498257237294072 0 2.5469277404974452e-05 -0.014938878633177707 0 1.0136726685607953e-05 -0.014964692759682844 0 2.7920954443775343e-05 -0.014967023528147839 0 2.7920954443775343e-05 -0.014967023528147839 0 2.4584607956202247e-05 -0.014988661785255444 0 2.8719189362744015e-06 -0.01498257237294072 0 6.2703992085627931e-06 -0.014997289436676524 0 2.4584607956202247e-05 -0.014988661785255444 0 2.8719189362744015e-06 -0.01498257237294072 0 6.2703992085627931e-06 -0.014997289436676524 0 2.8719189362744015e-06 -0.01498257237294072 0 -1.3439799290992184e-06 -0.014994679208744114 0 2.8719189362744015e-06 -0.01498257237294072 0 -1.3439799290992184e-06 -0.014994679208744114 0 -5.0436187664837125e-06 -0.014986694704185847 0 -1.3439799290992184e-06 -0.014994679208744114 0 -6.2555108865231188e-09 -0.014999987074410723 0 -5.0436187664837125e-06 -0.014986694704185847 0 -3.9914742683185646e-09 -0.014999973101191815 0 -6.2555108865231188e-09 -0.014999987074410723 0 -5.0436187664837125e-06 -0.014986694704185847 0 -1.1877203219836533e-05 -0.014967072030244801 0 2.8719189362744015e-06 -0.01498257237294072 0 -5.0436187664837125e-06 -0.014986694704185847 0 -7.3842647120509724e-06 -0.014996005147993366 0 -2.9420274402333499e-06 -0.015001489419596229 0 -3.7220398765381682e-06 -0.01499510182666379 0 -8.2374288358106908e-06 -0.014981177990914073 0 -1.4038802740370194e-06 -0.014990131800101702 0 -7.6533406705354074e-06 -0.014990611866624304 0 -2.8787176016890019e-05 -0.01478201067636787 0 1.3781967191647541e-05 -0.015013148044424886 0 -1.3919158554778417e-05 -0.014999100738397119 0 -7.3842647120509724e-06 -0.014996005147993366 0 -2.9420274402333499e-06 -0.015001489419596229 0 -4.7787982892220825e-10 -0.014999999884730195 0 -2.9420274402333499e-06 -0.015001489419596229 0 -3.7220398765381682e-06 -0.01499510182666379 0 -4.7787982892220825e-10 -0.014999999884730195 0 -2.9420274402333499e-06 -0.015001489419596229 0 -1.5798553792383038e-09 -0.015000004217769912 0 -1.4038802740370194e-06 -0.014990131800101702 0 6.3625069902980702e-09 -0.014999979598726109 0 -2.6696764111474478e-06 -0.01499578552292974 0 1.3781967191647541e-05 -0.015013148044424886 0 -2.0650829146336157e-08 -0.014999983283132802 0 -1.4038802740370194e-06 -0.014990131800101702 0 -7.6533406705354074e-06 -0.014990611866624304 0 -2.6696764111474478e-06 -0.01499578552292974 0 -0.00026460073828410652 -0.012984794707747773 0 -0.00015624601114335585 -0.013155518099539441 0 -0.00025405411693169201 -0.013333226746329989 0 -0.00036796054568607106 -0.013179488728976894 0 -0.00026460073828410652 -0.012984794707747773 0 -0.00025792856894447008 -0.012721316038564268 0 -0.00036796054568607106 -0.013179488728976894 0 -0.00026460073828410652 -0.012984794707747773 0 -0.00023750612383507112 -0.013426674155313406 0 -8.5241025780570732e-06 -0.014206737243352495 0 -0.00010609501624710768 -0.014161290740325433 0 5.5527095280674618e-05 -0.013933931426037679 0 -0.00019021460305814646 -0.013675994168648255 0 5.8002952265874964e-05 -0.013145322027071246 0 -0.00013416858705786778 -0.014444016876741954 0 -8.5241025780570732e-06 -0.014206737243352495 0 -0.00010609501624710768 -0.014161290740325433 0 -0.00025957461224409466 -0.013054863821986971 0 -0.00024673240245369726 -0.013324359341094206 0 -0.00026460073828410652 -0.012984794707747773 0 -2.1282658480091506e-05 -0.01308899876999187 0 -0.00025792856894447008 -0.012721316038564268 0 -2.1282658480091506e-05 -0.01308899876999187 0 0.00036726260627101932 -0.012965360203209661 0 -0.00025792856894447008 -0.012721316038564268 0 -0.00026460073828410652 -0.012984794707747773 0 -0.00015624601114335585 -0.013155518099539441 0 -2.1282658480091506e-05 -0.01308899876999187 0 -0.00015624601114335585 -0.013155518099539441 0 -2.1282658480091506e-05 -0.01308899876999187 0 -6.0867024004486175e-05 -0.013318682208575152 0 -1.1810400279222969e-05 -0.013505906029967053 0 -0.00025405411693169201 -0.013333226746329989 0 -0.0002535203495406851 -0.013699198405114965 0 -2.1282658480091506e-05 -0.01308899876999187 0 -6.0867024004486175e-05 -0.013318682208575152 0 0.00023403445766220668 -0.013358742398517769 0 -6.0867024004486175e-05 -0.013318682208575152 0 -1.1810400279222969e-05 -0.013505906029967053 0 0.00023403445766220668 -0.013358742398517769 0 -0.00015624601114335585 -0.013155518099539441 0 -6.0867024004486175e-05 -0.013318682208575152 0 -0.00025405411693169201 -0.013333226746329989 0 -6.0867024004486175e-05 -0.013318682208575152 0 -1.1810400279222969e-05 -0.013505906029967053 0 -0.00025405411693169201 -0.013333226746329989 0 -1.1810400279222969e-05 -0.013505906029967053 0 0.00021168108327591323 -0.01370173080762949 0 0.00023403445766220668 -0.013358742398517769 0 -0.00023750612383507112 -0.013426674155313406 0 -0.00049294853555572672 -0.013711198542164309 0 -0.00022090489439083015 -0.013906883942299966 0 -0.00024673240245369726 -0.013324359341094206 0 -0.00015166562518062262 -0.014118478976487525 0 -0.00013416858705786778 -0.014444016876741954 0 -8.5241025780570732e-06 -0.014206737243352495 0 -7.4094187718037796e-05 -0.014486784371377326 0 -2.8787176016890019e-05 -0.01478201067636787 0 -5.6160477268981969e-05 -0.014512674332182824 0 -0.00036796054568607106 -0.013179488728976894 0 -0.00023750612383507112 -0.013426674155313406 0 -0.00049294853555572672 -0.013711198542164309 0 -0.00019021460305814646 -0.013675994168648255 0 -0.0001438507179998435 -0.01445954570572104 0 -2.8787176016890019e-05 -0.01478201067636787 0 -0.0001438507179998435 -0.01445954570572104 0 -1.4601091954284621e-06 -0.014849192123530225 0 2.0567878877283228e-05 -0.014864972760904477 0 -1.000542881977393e-05 -0.01497532006122684 0 -0.0001438507179998435 -0.01445954570572104 0 -6.1064770692799118e-06 -0.015128583998564468 0 2.9429604421358886e-07 -0.014915964143875639 0 2.6091434332618883e-05 -0.014936412970949636 0 -5.7298116145550494e-06 -0.014982745502094712 0 -0.0001438507179998435 -0.01445954570572104 0 -0.00015166562518062262 -0.014118478976487525 0 -1.1810400279222969e-05 -0.013505906029967053 0 -1.1422661886386254e-05 -0.013880929203071858 0 0.00021168108327591323 -0.01370173080762949 0 -0.00027940606930662533 -0.013690756606360039 0 -1.1422661886386254e-05 -0.013880929203071858 0 -3.8291727563169281e-05 -0.01413048422817925 0 -1.1810400279222969e-05 -0.013505906029967053 0 -0.0002535203495406851 -0.013699198405114965 0 -1.1422661886386254e-05 -0.013880929203071858 0 -0.00015166562518062262 -0.014118478976487525 0 -0.00015218359242756053 -0.013848017468663822 0 -1.1422661886386254e-05 -0.013880929203071858 0 0.00020543674226910998 -0.014038988592215996 0 0.00021168108327591323 -0.01370173080762949 0 -0.00027940606930662533 -0.013690756606360039 0 -3.8291727563169281e-05 -0.01413048422817925 0 -0.00026627847213061444 -0.014319709305113466 0 -3.8291727563169281e-05 -0.01413048422817925 0 -0.00026627847213061444 -0.014319709305113466 0 0.0002076474674910464 -0.014401800734648322 0 -6.4720990262360004e-05 -0.014684693347344393 0 0.00011572377009895934 -0.014378687781572043 0 -1.1422661886386254e-05 -0.013880929203071858 0 -3.8291727563169281e-05 -0.01413048422817925 0 0.00020543674226910998 -0.014038988592215996 0 -3.8291727563169281e-05 -0.01413048422817925 0 0.0002076474674910464 -0.014401800734648322 0 0.00020543674226910998 -0.014038988592215996 0 2.6091434332618883e-05 -0.014936412970949636 0 2.0657213597473644e-05 -0.014997962495869039 0 -5.7298116145550494e-06 -0.014982745502094712 0 2.0657213597473644e-05 -0.014997962495869039 0 -1.220822932460773e-05 -0.01498688946099761 0 -5.7298116145550494e-06 -0.014982745502094712 0 -0.00015166562518062262 -0.014118478976487525 0 -6.4720990262360004e-05 -0.014684693347344393 0 -2.9436042088144799e-05 -0.014965568524862857 0 5.4238937285176506e-06 -0.014976248201836177 0 2.1037726899910167e-06 -0.014943345956494382 0 -6.4720990262360004e-05 -0.014684693347344393 0 1.5140973745953957e-05 -0.015009352002390366 0 -1.220822932460773e-05 -0.01498688946099761 0 -1.0376297413376252e-05 -0.014983096603763832 0 -7.7275608697958677e-06 -0.014988746098213629 0 -1.0376297413376252e-05 -0.014983096603763832 0 -9.1017153691862462e-06 -0.014983732446702897 0 -7.7275608697958677e-06 -0.014988746098213629 0 -1.220822932460773e-05 -0.01498688946099761 0 -1.0376297413376252e-05 -0.014983096603763832 0 -5.7298116145550494e-06 -0.014982745502094712 0 -1.0376297413376252e-05 -0.014983096603763832 0 -1.000542881977393e-05 -0.01497532006122684 0 -9.1017153691862462e-06 -0.014983732446702897 0 -1.0376297413376252e-05 -0.014983096603763832 0 -5.7298116145550494e-06 -0.014982745502094712 0 -1.000542881977393e-05 -0.01497532006122684 0 -1.3919158554778417e-05 -0.014999100738397119 0 -1.000542881977393e-05 -0.01497532006122684 0 -7.8552884064387238e-06 -0.01498833702241199 0 2.0567878877283228e-05 -0.014864972760904477 0 -5.7298116145550494e-06 -0.014982745502094712 0 -1.000542881977393e-05 -0.01497532006122684 0 -1.000542881977393e-05 -0.01497532006122684 0 -9.1017153691862462e-06 -0.014983732446702897 0 -7.8552884064387238e-06 -0.01498833702241199 0 -2.8787176016890019e-05 -0.01478201067636787 0 -1.014828000128318e-05 -0.015026824203496004 0 -9.1017153691862462e-06 -0.014983732446702897 0 -7.7275608697958677e-06 -0.014988746098213629 0 -7.8552884064387238e-06 -0.01498833702241199 0 -7.7275608697958677e-06 -0.014988746098213629 0 -7.8552884064387238e-06 -0.01498833702241199 0 -3.7220398765381682e-06 -0.01499510182666379 0 -7.3842647120509724e-06 -0.014996005147993366 0 -7.8552884064387238e-06 -0.01498833702241199 0 -3.7220398765381682e-06 -0.01499510182666379 0 -1.3919158554778417e-05 -0.014999100738397119 0 -7.3842647120509724e-06 -0.014996005147993366 0 -7.8552884064387238e-06 -0.01498833702241199 0 -7.7275608697958677e-06 -0.014988746098213629 0 -3.7220398765381682e-06 -0.01499510182666379 0 -4.0682939762856168e-09 -0.014999970940075009 0 -4.7787982892220825e-10 -0.014999999884730195 0 -3.7220398765381682e-06 -0.01499510182666379 0 -4.0682939762856168e-09 -0.014999970940075009 0 5.4238937285176506e-06 -0.014976248201836177 0 5.1734324580434505e-09 -0.01499998639416361 0 2.438344139667665e-06 -0.014974827066958678 0 -1.220822932460773e-05 -0.01498688946099761 0 -7.7275608697958677e-06 -0.014988746098213629 0 -4.0682939762856168e-09 -0.014999970940075009 0 1.5140973745953957e-05 -0.015009352002390366 0 -2.438821430755076e-08 -0.014999980311536534 0 6.6458319854256647e-09 -0.014999954588395235 0 2.438344139667665e-06 -0.014974827066958678 0 -2.9916783849387378e-06 -0.014960092249790813 0 5.1734324580434505e-09 -0.01499998639416361 0 6.6458319854256647e-09 -0.014999954588395235 0 2.438344139667665e-06 -0.014974827066958678 0 5.4238937285176506e-06 -0.014976248201836177 0 2.438344139667665e-06 -0.014974827066958678 0 2.1037726899910167e-06 -0.014943345956494382 0 2.438344139667665e-06 -0.014974827066958678 0 2.1037726899910167e-06 -0.014943345956494382 0 -2.9916783849387378e-06 -0.014960092249790813 0 6.6458319854256647e-09 -0.014999954588395235 0 -2.9916783849387378e-06 -0.014960092249790813 0 -1.3381848357385815e-08 -0.014999973975041082 0 -1.3381848357385815e-08 -0.014999973975041082 0 -7.1823041187007992e-06 -0.014990118016802364 0 -1.5474558560514344e-08 -0.015000005152501933 0 -2.9916783849387378e-06 -0.014960092249790813 0 -1.3381848357385815e-08 -0.014999973975041082 0 -7.1823041187007992e-06 -0.014990118016802364 0 -7.1823041187007992e-06 -0.014990118016802364 0 -9.4864335279545652e-06 -0.01501433867552888 0 5.5694174164290104e-06 -0.014971281420206465 0 -2.9916783849387378e-06 -0.014960092249790813 0 -7.1823041187007992e-06 -0.014990118016802364 0 5.5694174164290104e-06 -0.014971281420206465 0 -8.238227731068398e-06 -0.014995269521492183 0 -2.8161498533591221e-09 -0.015000003702691894 0 5.6099978519416554e-07 -0.014984607582848832 0 -1.5909788698887195e-05 -0.014990679710285358 0 1.846391415401849e-08 -0.015000011330663339 0 -7.1823041187007992e-06 -0.014990118016802364 0 -9.4864335279545652e-06 -0.01501433867552888 0 -1.5474558560514344e-08 -0.015000005152501933 0 8.0847183407965759e-06 -0.015123134699451887 0 0.00011501370672620207 -0.01391559924231772 0 7.7504444294979613e-05 -0.015067001199059675 0 0.00027551355271504823 -0.015096353108511575 0 0.00025405010581804066 -0.01508277756680412 0 7.7504444294979613e-05 -0.015067001199059675 0 0.00019713049272955532 -0.015028131565559386 0 0.00025405010581804066 -0.01508277756680412 0 -8.0043050069810026e-05 -0.014950278511848894 0 -6.0074652698633539e-05 -0.01497825763849637 0 -0.00010300902196534486 -0.01496527417472774 0 -8.238227731068398e-06 -0.014995269521492183 0 8.0847183407965759e-06 -0.015123134699451887 0 -9.4864335279545652e-06 -0.01501433867552888 0 7.7504444294979613e-05 -0.015067001199059675 0 5.5694174164290104e-06 -0.014971281420206465 0 -5.0510306497701692e-05 -0.014953311548292509 0 -1.5909788698887195e-05 -0.014990679710285358 0 -6.0074652698633539e-05 -0.01497825763849637 0 5.5694174164290104e-06 -0.014971281420206465 0 0.00010072632968233286 -0.01497363414288679 0 -2.3648167672407921e-06 -0.014862754209595696 0 7.7504444294979613e-05 -0.015067001199059675 0 5.5694174164290104e-06 -0.014971281420206465 0 0.00010072632968233286 -0.01497363414288679 0 7.7504444294979613e-05 -0.015067001199059675 0 0.00010072632968233286 -0.01497363414288679 0 0.00019713049272955532 -0.015028131565559386 0 0.00010072632968233286 -0.01497363414288679 0 0.00019713049272955532 -0.015028131565559386 0 0.0002022338397506706 -0.014975773105292703 0 0.00010072632968233286 -0.01497363414288679 0 0.0002022338397506706 -0.014975773105292703 0 0.00024255209405338779 -0.014885648593209351 0 0.00010072632968233286 -0.01497363414288679 0 -2.3648167672407921e-06 -0.014862754209595696 0 0.00024255209405338779 -0.014885648593209351 0 -2.3648167672407921e-06 -0.014862754209595696 0 0.00026783996658969437 -0.014676377953886608 0 0.00024255209405338779 -0.014885648593209351 0 -2.9916783849387378e-06 -0.014960092249790813 0 5.5694174164290104e-06 -0.014971281420206465 0 -2.3648167672407921e-06 -0.014862754209595696 0 2.1037726899910167e-06 -0.014943345956494382 0 -2.9916783849387378e-06 -0.014960092249790813 0 -2.3648167672407921e-06 -0.014862754209595696 0 -2.9436042088144799e-05 -0.014965568524862857 0 2.1037726899910167e-06 -0.014943345956494382 0 -2.3648167672407921e-06 -0.014862754209595696 0 -6.4720990262360004e-05 -0.014684693347344393 0 -1.0169664669516039e-05 -0.014842936545076483 0 -7.981038272592613e-05 -0.014373499887767925 0 -2.3648167672407921e-06 -0.014862754209595696 0 0.0002076474674910464 -0.014401800734648322 0 -2.3648167672407921e-06 -0.014862754209595696 0 0.0002076474674910464 -0.014401800734648322 0 0.00026783996658969437 -0.014676377953886608 0 0.00026783996658969437 -0.014676377953886608 0 0.00045354074599885161 -0.014799402183180618 0 0.00066516925923267435 -0.014312158030453756 0 0.0002076474674910464 -0.014401800734648322 0 0.00026783996658969437 -0.014676377953886608 0 0.00066516925923267435 -0.014312158030453756 0 0.00039084163322369896 -0.013403791017090516 0 0.00049981508500335865 -0.013279579366730961 0 0.00036730803985461142 -0.012160655712352145 0 0.00031260112154627123 -0.012180994398531136 0 0.00037298068100335172 -0.012225256562712686 0 0.00036730803985461142 -0.012160655712352145 0 0.00032388970865285309 -0.012177139543039223 0 0.00037298068100335172 -0.012225256562712686 0 0.00036730803985461142 -0.012160655712352145 0 0.00031260112154627123 -0.012180994398531136 0 0.00030796361624876558 -0.012340965931666417 0 0.00026783996658969437 -0.014676377953886608 0 0.00045354074599885161 -0.014799402183180618 0 0.00024255209405338779 -0.014885648593209351 0 0.00045354074599885161 -0.014799402183180618 0 0.00028074884801093978 -0.01501339167269679 0 0.00026944011048029946 -0.015061917540389314 0 0.0002022338397506706 -0.014975773105292703 0 0.00024255209405338779 -0.014885648593209351 0 0.00028074884801093978 -0.01501339167269679 0 0.00039084163322369896 -0.013403791017090516 0 0.00025447840571393742 -0.014180651432054497 0 0.00045354074599885161 -0.014799402183180618 0 0.00024255209405338779 -0.014885648593209351 0 0.00028074884801093978 -0.01501339167269679 0 0.00031260112154627123 -0.012180994398531136 0 0.00030796361624876558 -0.012340965931666417 0 0.00017060506109453294 -0.012474162160639251 0 0.00019713049272955532 -0.015028131565559386 0 0.00028074884801093978 -0.01501339167269679 0 0.00027420821497711035 -0.015040204395482201 0 0.00019713049272955532 -0.015028131565559386 0 0.0002022338397506706 -0.014975773105292703 0 0.00028074884801093978 -0.01501339167269679 0 0.00028830543561474158 -0.0146477810812039 0 0.00025447840571393742 -0.014180651432054497 0 0.00030796361624876558 -0.012340965931666417 0 0.00017060506109453294 -0.012474162160639251 0 0.00028276226762288131 -0.012468916689533189 0 0.00037853347997570118 -0.012142870657851194 0 0.00039335587638972421 -0.012290533472908993 0 0.00036730803985461142 -0.012160655712352145 0 0.00030796361624876558 -0.012340965931666417 0 0.0003980772389147306 -0.012478234634775124 0 0.00036730803985461142 -0.012160655712352145 0 0.00040787291247873953 -0.011972904305382944 0 0.00035307666515169936 -0.012038388682270564 0 0.00040787291247873953 -0.011972904305382944 0 0.0003316684604112191 -0.011968377863750428 0 0.00035307666515169936 -0.012038388682270564 0 0.00030796361624876558 -0.012340965931666417 0 0.0003980772389147306 -0.012478234634775124 0 0.00028276226762288131 -0.012468916689533189 0 0.0003980772389147306 -0.012478234634775124 0 0.00027553137099143427 -0.012593187526660374 0 0.00028276226762288131 -0.012468916689533189 0 0.00042847894431633556 -0.011824957014987467 0 0.00040787291247873953 -0.011972904305382944 0 0.00037320715301095825 -0.011913184133183014 0 0.000271474909692473 -0.012726585680747979 0 0.00034084687629679609 -0.012895569872974039 0 0.0003980772389147306 -0.012478234634775124 0 0.00037630865221129284 -0.012087201323042843 0 0.00039335587638972421 -0.012290533472908993 0 0.00040787291247873953 -0.011972904305382944 0 0.00037320715301095825 -0.011913184133183014 0 0.0003316684604112191 -0.011968377863750428 0 0.000271474909692473 -0.012726585680747979 0 0.0003980772389147306 -0.012478234634775124 0 0.00027553137099143427 -0.012593187526660374 0 0.000271474909692473 -0.012726585680747979 0 0.00027553137099143427 -0.012593187526660374 0 0.00015866106716657093 -0.012596845511123299 0 0.00022165715961946971 -0.013410068260202752 0 0.00011501370672620207 -0.01391559924231772 0 0.00015079232903632457 -0.014856527216052962 0 0.00025447840571393742 -0.014180651432054497 0 0.00027551355271504823 -0.015096353108511575 0 0.00025405010581804066 -0.01508277756680412 0 0.00027657530018723774 -0.015007282588947891 0 0.00019713049272955532 -0.015028131565559386 0 0.00025405010581804066 -0.01508277756680412 0 0.00027420821497711035 -0.015040204395482201 0 0.00017556935743145998 -0.012592396307892377 0 0.00017060506109453294 -0.012474162160639251 0 0.00028276226762288131 -0.012468916689533189 0 0.00027553137099143427 -0.012593187526660374 0 0.00017556935743145998 -0.012592396307892377 0 0.00028276226762288131 -0.012468916689533189 0 0.00011501370672620207 -0.01391559924231772 0 0.00025447840571393742 -0.014180651432054497 0 0.00036160615630872204 -0.011133394739609434 0 0.0004156195854276387 -0.011119099864625974 0 0.00042726737261488627 -0.011126034213988294 0 0.00037267112507193451 -0.011623063749556654 0 0.00019502586529434541 -0.011863027409171483 0 0.00021809316995055852 -0.011957150561972085 0 0.00027133321813448222 -0.011934399155520838 0 0.00028425865938308987 -0.011982746656404687 0 0.0004156195854276387 -0.011119099864625974 0 0.00042726737261488627 -0.011126034213988294 0 0.0004160412348023493 -0.011126840767596355 0 0.00036155967534143762 -0.011452846247777102 0 0.00037267112507193451 -0.011623063749556654 0 0.00032218207134623975 -0.011889429155241547 0 0.00021513377845189819 -0.011955765537393673 0 0.00027133321813448222 -0.011934399155520838 0 0.00032218207134623975 -0.011889429155241547 0 0.00027133321813448222 -0.011934399155520838 0 0.0003316684604112191 -0.011968377863750428 0 0.00032218207134623975 -0.011889429155241547 0 0.00037320715301095825 -0.011913184133183014 0 0.0003316684604112191 -0.011968377863750428 0 0.00027133321813448222 -0.011934399155520838 0 0.0003316684604112191 -0.011968377863750428 0 0.00028425865938308987 -0.011982746656404687 0 0.00028425865938308987 -0.011982746656404687 0 0.00030516223123627832 -0.012039406759522198 0 0.0002494320390644091 -0.012012332840712179 0 0.0003316684604112191 -0.011968377863750428 0 0.00028425865938308987 -0.011982746656404687 0 0.00030516223123627832 -0.012039406759522198 0 0.0003316684604112191 -0.011968377863750428 0 0.00035307666515169936 -0.012038388682270564 0 0.00030516223123627832 -0.012039406759522198 0 0.00035307666515169936 -0.012038388682270564 0 0.00033045165281159943 -0.012088586534172103 0 0.00030516223123627832 -0.012039406759522198 0 0.00033045165281159943 -0.012088586534172103 0 0.00030516223123627832 -0.012039406759522198 0 0.00030096540163747766 -0.01211601514633978 0 0.00030516223123627832 -0.012039406759522198 0 0.0002662214270975171 -0.012065192996517602 0 0.0002494320390644091 -0.012012332840712179 0 0.00030516223123627832 -0.012039406759522198 0 0.0002662214270975171 -0.012065192996517602 0 0.00030096540163747766 -0.01211601514633978 0 0.0002662214270975171 -0.012065192996517602 0 0.0002494320390644091 -0.012012332840712179 0 0.00022257669074384829 -0.012043838155105117 0 0.00021809316995055852 -0.011957150561972085 0 0.00028425865938308987 -0.011982746656404687 0 0.0002494320390644091 -0.012012332840712179 0 0.0002494320390644091 -0.012012332840712179 0 0.00020248724321448585 -0.012004786530713071 0 0.00022257669074384829 -0.012043838155105117 0 0.00021809316995055852 -0.011957150561972085 0 0.0002494320390644091 -0.012012332840712179 0 0.00020248724321448585 -0.012004786530713071 0 0.00020248724321448585 -0.012004786530713071 0 0.00022257669074384829 -0.012043838155105117 0 0.00018121618738424928 -0.012029439242844369 0 0.00022257669074384829 -0.012043838155105117 0 0.0001891153162314587 -0.01206786603236922 0 0.00018121618738424928 -0.012029439242844369 0 0.0001891153162314587 -0.01206786603236922 0 0.000238408471198522 -0.012093780413176625 0 0.00019898450096438684 -0.012120377431451378 0 0.00022257669074384829 -0.012043838155105117 0 0.0001891153162314587 -0.01206786603236922 0 0.000238408471198522 -0.012093780413176625 0 0.0002662214270975171 -0.012065192996517602 0 0.00022257669074384829 -0.012043838155105117 0 0.000238408471198522 -0.012093780413176625 0 0.000238408471198522 -0.012093780413176625 0 0.00026181407581184684 -0.012149647353354429 0 0.00030096540163747766 -0.01211601514633978 0 0.000238408471198522 -0.012093780413176625 0 0.00026181407581184684 -0.012149647353354429 0 0.00019898450096438684 -0.012120377431451378 0 0.00036730803985461142 -0.012160655712352145 0 0.00035307666515169936 -0.012038388682270564 0 0.00033045165281159943 -0.012088586534172103 0 0.00036730803985461142 -0.012160655712352145 0 0.00033045165281159943 -0.012088586534172103 0 0.00030096540163747766 -0.01211601514633978 0 0.0002662214270975171 -0.012065192996517602 0 0.000238408471198522 -0.012093780413176625 0 0.00030096540163747766 -0.01211601514633978 0 0.00026181407581184684 -0.012149647353354429 0 0.00030096540163747766 -0.01211601514633978 0 0.00032388970865285309 -0.012177139543039223 0 0.00036730803985461142 -0.012160655712352145 0 0.00030096540163747766 -0.01211601514633978 0 0.00032388970865285309 -0.012177139543039223 0 0.00032388970865285309 -0.012177139543039223 0 0.00028836473132280233 -0.012204443607806358 0 0.00037298068100335172 -0.012225256562712686 0 0.00026181407581184684 -0.012149647353354429 0 0.00032388970865285309 -0.012177139543039223 0 0.00028836473132280233 -0.012204443607806358 0 0.00026181407581184684 -0.012149647353354429 0 0.00019898450096438684 -0.012120377431451378 0 0.00021131592182139234 -0.012190676029419496 0 0.00026181407581184684 -0.012149647353354429 0 0.00028836473132280233 -0.012204443607806358 0 0.00021131592182139234 -0.012190676029419496 0 0.00028836473132280233 -0.012204443607806358 0 0.00021131592182139234 -0.012190676029419496 0 0.00024348039623584366 -0.012296969024597275 0 0.00042600082647651223 -0.012445916044896598 0 0.00021023166941989122 -0.013023005008436929 0 0.0006831548297130133 -0.012949503133401312 0 0.00042600082647651223 -0.012445916044896598 0 0.00021023166941989122 -0.013023005008436929 0 -1.2972595663437431e-05 -0.012592258316423492 0 0.00042600082647651223 -0.012445916044896598 0 0.0010194836936968873 -0.012757283294668891 0 0.0006831548297130133 -0.012949503133401312 0 0.00030404261310932684 -0.012286924297877557 0 0.00069433874412216955 -0.01305027758153247 0 0.00024348039623584366 -0.012296969024597275 0 0.00037298068100335172 -0.012225256562712686 0 0.00035076761315682662 -0.012353468125365042 0 0.00028836473132280233 -0.012204443607806358 0 0.00024348039623584366 -0.012296969024597275 0 0.00037298068100335172 -0.012225256562712686 0 0.00066516925923267435 -0.014312158030453756 0 0.00042877164562937802 -0.014100720373206152 0 0.00059603499686939146 -0.013801449154200469 0 0.00049981508500335865 -0.013279579366730961 0 0.00069433874412216955 -0.01305027758153247 0 0.0002076474674910464 -0.014401800734648322 0 0.00066516925923267435 -0.014312158030453756 0 0.00042877164562937802 -0.014100720373206152 0 0.00042877164562937802 -0.014100720373206152 0 0.00020543674226910998 -0.014038988592215996 0 0.00039070262981600842 -0.013861301977483368 0 0.0002076474674910464 -0.014401800734648322 0 0.00042877164562937802 -0.014100720373206152 0 0.00020543674226910998 -0.014038988592215996 0 0.00020543674226910998 -0.014038988592215996 0 0.00039070262981600842 -0.013861301977483368 0 0.00021168108327591323 -0.01370173080762949 0 0.00042877164562937802 -0.014100720373206152 0 0.00039070262981600842 -0.013861301977483368 0 0.00059603499686939146 -0.013801449154200469 0 0.00039070262981600842 -0.013861301977483368 0 0.00059603499686939146 -0.013801449154200469 0 0.00046710631727024025 -0.013586583800753844 0 0.00039070262981600842 -0.013861301977483368 0 0.00021168108327591323 -0.01370173080762949 0 0.00046710631727024025 -0.013586583800753844 0 0.00066516925923267435 -0.014312158030453756 0 0.00059603499686939146 -0.013801449154200469 0 0.00084644062055432305 -0.013673059422331164 0 0.00059603499686939146 -0.013801449154200469 0 0.00061983599722447889 -0.013623528800043966 0 0.00046710631727024025 -0.013586583800753844 0 0.00059603499686939146 -0.013801449154200469 0 0.00061983599722447889 -0.013623528800043966 0 0.00074880829761058505 -0.013624321250506864 0 0.00061983599722447889 -0.013623528800043966 0 0.00074880829761058505 -0.013624321250506864 0 0.00072625609455447763 -0.013529525087139102 0 0.00074880829761058505 -0.013624321250506864 0 0.00084026551727159717 -0.013665568999688031 0 0.00072625609455447763 -0.013529525087139102 0 0.00059603499686939146 -0.013801449154200469 0 0.00074880829761058505 -0.013624321250506864 0 0.00084644062055432305 -0.013673059422331164 0 0.00080017462414169532 -0.013183363006467417 0 0.00069433874412216955 -0.01305027758153247 0 0.00084026551727159717 -0.013665568999688031 0 0.00076021927468828017 -0.013386517001037965 0 0.00087215405050390681 -0.013205266497193783 0 0.00069433874412216955 -0.01305027758153247 0 0.00088490616208275355 -0.01324736307031312 0 0.00084026551727159717 -0.013665568999688031 0 0.00076021927468828017 -0.013386517001037965 0 0.00072625609455447763 -0.013529525087139102 0 0.00076021927468828017 -0.013386517001037965 0 0.00072625609455447763 -0.013529525087139102 0 0.00064134960511535511 -0.013481328794388686 0 0.00061983599722447889 -0.013623528800043966 0 0.00064134960511535511 -0.013481328794388686 0 0.00046710631727024025 -0.013586583800753844 0 0.00061983599722447889 -0.013623528800043966 0 0.00072625609455447763 -0.013529525087139102 0 0.00064134960511535511 -0.013481328794388686 0 0.00064134960511535511 -0.013481328794388686 0 0.0006237349828919237 -0.013308346522895498 0 0.00046710631727024025 -0.013586583800753844 0 0.00076021927468828017 -0.013386517001037965 0 0.00064134960511535511 -0.013481328794388686 0 0.0006237349828919237 -0.013308346522895498 0 0.00076021927468828017 -0.013386517001037965 0 0.0006237349828919237 -0.013308346522895498 0 0.00087215405050390681 -0.013205266497193783 0 0.0006237349828919237 -0.013308346522895498 0 0.00088470969192196776 -0.013224035659321683 0 0.00087215405050390681 -0.013205266497193783 0 0.0006237349828919237 -0.013308346522895498 0 0.00046710631727024025 -0.013586583800753844 0 0.00023403445766220668 -0.013358742398517769 0 0.00021168108327591323 -0.01370173080762949 0 0.00046710631727024025 -0.013586583800753844 0 0.00023403445766220668 -0.013358742398517769 0 0.0006237349828919237 -0.013308346522895498 0 0.00023403445766220668 -0.013358742398517769 0 0.00036726260627101932 -0.012965360203209661 0 -2.1282658480091506e-05 -0.01308899876999187 0 0.00023403445766220668 -0.013358742398517769 0 0.00036726260627101932 -0.012965360203209661 0 0.0006237349828919237 -0.013308346522895498 0 0.00036726260627101932 -0.012965360203209661 0 0.00088470969192196776 -0.013224035659321683 0 0.00026094203107308297 -0.01179121580870791 0 0.0002279364818705348 -0.012039707121915807 0 8.8533996110270929e-05 -0.010960168627405138 0 -0.00038929842230471772 -0.010824194003291366 0 -0.000329081305604656 -0.011388871582854732 0 -0.00038929842230471772 -0.010824194003291366 0 -0.00079316475295539157 -0.0106126901889722 0 -0.00064938910004675148 -0.011051669656366331 0 0.0002279364818705348 -0.012039707121915807 0 -0.00027614192730516059 -0.011804447008364334 0 0.00088470969192196776 -0.013224035659321683 0 0.00021023166941989122 -0.013023005008436929 0 0.0006831548297130133 -0.012949503133401312 0 0.0010194836936968873 -0.012757283294668891 0 0.0006831548297130133 -0.012949503133401312 0 0.00087215405050390681 -0.013205266497193783 0 0.00088470969192196776 -0.013224035659321683 0 0.0006831548297130133 -0.012949503133401312 0 0.00087215405050390681 -0.013205266497193783 0 -0.00079316475295539157 -0.0106126901889722 0 -0.0010667298674315951 -0.010601311991001724 0 -0.00064938910004675148 -0.011051669656366331 0 -0.00079316475295539157 -0.0106126901889722 0 -0.0010667298674315951 -0.010601311991001724 0 -0.00098926533366624873 -0.010593903049946908 0 -0.00027614192730516059 -0.011804447008364334 0 -0.00078323299480797116 -0.011771268686884703 0 -0.0010667298674315951 -0.010601311991001724 0 -0.00085499097619898517 -0.010343701422449392 0 -0.00089266798470168519 -0.010529251980022776 0 -0.0010667298674315951 -0.010601311991001724 0 -0.00085499097619898517 -0.010343701422449392 0 -0.00093423580624026514 -0.010228515170084457 0 -0.00069011956012952382 -0.01027863399190797 0 -0.00058446075386118016 -0.010107655664710235 0 -0.00072459132470269031 -0.010183246274713488 0 -0.00085499097619898517 -0.010343701422449392 0 -0.00069011956012952382 -0.01027863399190797 0 -0.00072459132470269031 -0.010183246274713488 0 -0.00085499097619898517 -0.010343701422449392 0 -0.00069011956012952382 -0.01027863399190797 0 -0.00075583721756195823 -0.010418402795045871 0 -0.00085499097619898517 -0.010343701422449392 0 -0.00075583721756195823 -0.010418402795045871 0 -0.00089266798470168519 -0.010529251980022776 0 -0.00069011956012952382 -0.01027863399190797 0 -0.00065279163520042113 -0.010396319538976507 0 -0.00051669614537150517 -0.010221292491714006 0 -0.00069011956012952382 -0.01027863399190797 0 -0.00075583721756195823 -0.010418402795045871 0 -0.00065279163520042113 -0.010396319538976507 0 -0.00075583721756195823 -0.010418402795045871 0 -0.00065279163520042113 -0.010396319538976507 0 -0.00071940083389548709 -0.010517123709966401 0 -0.0002119917022830504 -0.010020559940243876 0 -0.00021924704090700507 -0.010011827764630114 0 -0.00022359628134556602 -0.010007608512059472 0 -0.00077885125226168073 -0.010613905897778381 0 -0.00077967854432665895 -0.010758912814516533 0 -0.00056785185085690161 -0.010547321214460507 0 -0.00071940083389548709 -0.010517123709966401 0 -0.00077885125226168073 -0.010613905897778381 0 -0.00056785185085690161 -0.010547321214460507 0 -0.00065279163520042113 -0.010396319538976507 0 -0.00071940083389548709 -0.010517123709966401 0 -0.00056785185085690161 -0.010547321214460507 0 -0.00071940083389548709 -0.010517123709966401 0 -0.00077885125226168073 -0.010613905897778381 0 -0.00089266798470168519 -0.010529251980022776 0 -0.00075583721756195823 -0.010418402795045871 0 -0.00071940083389548709 -0.010517123709966401 0 -0.00089266798470168519 -0.010529251980022776 0 -0.00077885125226168073 -0.010613905897778381 0 -0.00089266798470168519 -0.010529251980022776 0 -0.00098926533366624873 -0.010593903049946908 0 -0.0010667298674315951 -0.010601311991001724 0 -0.00089266798470168519 -0.010529251980022776 0 -0.00098926533366624873 -0.010593903049946908 0 -0.001089223931523401 -0.01247642400268947 0 -0.00056526518719323272 -0.012328200944278158 0 -0.00045279402343442976 -0.012741651850817359 0 -0.00077885125226168073 -0.010613905897778381 0 -0.00077967854432665895 -0.010758912814516533 0 -0.00098926533366624873 -0.010593903049946908 0 -0.00050495464366961625 -0.01087365094640765 0 -0.00078323299480797116 -0.011771268686884703 0 -0.00050495464366961625 -0.01087365094640765 0 -0.00037244335908252399 -0.010160160188017305 0 -0.0002119917022830504 -0.010020559940243876 0 -0.00020002574391528064 -0.010014341106955673 0 -0.00021924704090700507 -0.010011827764630114 0 -0.0002119917022830504 -0.010020559940243876 0 -0.00019311518868539936 -0.010020641663106721 0 -0.00020002574391528064 -0.010014341106955673 0 -0.00050495464366961625 -0.01087365094640765 0 -0.00023718488097159161 -0.01010195008901409 0 -0.00023002357948145993 -0.010014209030314254 0 -0.00024953886614982162 -0.010047732913556692 0 -0.00020907103954592428 -0.01005518251425894 0 -0.00023002357948145993 -0.010014209030314254 0 -0.00020907103954592428 -0.01005518251425894 0 -0.00019311518868539936 -0.010020641663106721 0 -0.00050495464366961625 -0.01087365094640765 0 -0.00058415392901394196 -0.011133166853583518 0 -0.001089223931523401 -0.01247642400268947 0 -0.00091480920880431861 -0.012167683416404977 0 -0.00056526518719323272 -0.012328200944278158 0 -0.00091480920880431861 -0.012167683416404977 0 -0.00056526518719323272 -0.012328200944278158 0 -0.00073955365822405404 -0.011850692463019842 0 -0.00056526518719323272 -0.012328200944278158 0 -0.00016079271027473404 -0.012141657504226159 0 -0.00073955365822405404 -0.011850692463019842 0 -0.00056526518719323272 -0.012328200944278158 0 -1.2972595663437431e-05 -0.012592258316423492 0 -0.00016079271027473404 -0.012141657504226159 0 -0.00056526518719323272 -0.012328200944278158 0 -0.00045279402343442976 -0.012741651850817359 0 -1.2972595663437431e-05 -0.012592258316423492 0 0.00021023166941989122 -0.013023005008436929 0 -0.00045279402343442976 -0.012741651850817359 0 -1.2972595663437431e-05 -0.012592258316423492 0 0.00021131592182139234 -0.012190676029419496 0 0.00024348039623584366 -0.012296969024597275 0 0.00011356827649692331 -0.012238197481745728 0 0.00030404261310932684 -0.012286924297877557 0 5.2467594632158252e-06 -0.012295909969015802 0 0.00042600082647651223 -0.012445916044896598 0 -1.2972595663437431e-05 -0.012592258316423492 0 -0.00016079271027473404 -0.012141657504226159 0 0.00021131592182139234 -0.012190676029419496 0 0.00011356827649692331 -0.012238197481745728 0 0.00014528897818996038 -0.012145244439540806 0 0.00011356827649692331 -0.012238197481745728 0 0.00014528897818996038 -0.012145244439540806 0 7.249117486355916e-05 -0.012125587358412954 0 0.00019898450096438684 -0.012120377431451378 0 0.00021131592182139234 -0.012190676029419496 0 0.00014528897818996038 -0.012145244439540806 0 5.2467594632158252e-06 -0.012295909969015802 0 -0.00037560948554250014 -0.011315546116058294 0 0.00011356827649692331 -0.012238197481745728 0 7.249117486355916e-05 -0.012125587358412954 0 -5.0604876331829848e-05 -0.012150805633440854 0 7.249117486355916e-05 -0.012125587358412954 0 5.6929414413036486e-06 -0.012089383072432654 0 -5.0604876331829848e-05 -0.012150805633440854 0 4.1702699621404824e-05 -0.012069363492926239 0 4.7371425738870858e-06 -0.012020879229587493 0 5.6929414413036486e-06 -0.012089383072432654 0 7.249117486355916e-05 -0.012125587358412954 0 4.1702699621404824e-05 -0.012069363492926239 0 5.6929414413036486e-06 -0.012089383072432654 0 7.249117486355916e-05 -0.012125587358412954 0 8.1899639294155384e-05 -0.012042337629994201 0 0.00014172439088383179 -0.012079149337191715 0 7.249117486355916e-05 -0.012125587358412954 0 4.1702699621404824e-05 -0.012069363492926239 0 8.1899639294155384e-05 -0.012042337629994201 0 4.1702699621404824e-05 -0.012069363492926239 0 8.1899639294155384e-05 -0.012042337629994201 0 4.7371425738870858e-06 -0.012020879229587493 0 0.00019898450096438684 -0.012120377431451378 0 0.00014528897818996038 -0.012145244439540806 0 0.00014172439088383179 -0.012079149337191715 0 0.00014528897818996038 -0.012145244439540806 0 7.249117486355916e-05 -0.012125587358412954 0 0.00014172439088383179 -0.012079149337191715 0 8.1899639294155384e-05 -0.012042337629994201 0 0.00012362680613304348 -0.012040840596579883 0 0.00014172439088383179 -0.012079149337191715 0 0.00012362680613304348 -0.012040840596579883 0 0.00014172439088383179 -0.012079149337191715 0 0.0001503637101175586 -0.012041300980219671 0 0.0001891153162314587 -0.01206786603236922 0 0.00019898450096438684 -0.012120377431451378 0 0.00014172439088383179 -0.012079149337191715 0 0.0001891153162314587 -0.01206786603236922 0 0.00014172439088383179 -0.012079149337191715 0 0.0001503637101175586 -0.012041300980219671 0 0.0001503637101175586 -0.012041300980219671 0 0.00018121618738424928 -0.012029439242844369 0 0.00012158868201450672 -0.012005093078172262 0 0.00037267112507193451 -0.011623063749556654 0 0.00022897088203930978 -0.011840323898503305 0 0.00055953654663152001 -0.011520858663650832 0 0.00034672010003516024 -0.011651317862089863 0 0.00029159026710768687 -0.011619519276880446 0 0.00021809316995055852 -0.011957150561972085 0 0.00020248724321448585 -0.012004786530713071 0 0.00012158868201450672 -0.012005093078172262 0 0.00037267112507193451 -0.011623063749556654 0 0.00036410247290772171 -0.011400403704838642 0 0.00020248724321448585 -0.012004786530713071 0 0.00018121618738424928 -0.012029439242844369 0 0.00012158868201450672 -0.012005093078172262 0 0.0001891153162314587 -0.01206786603236922 0 0.0001503637101175586 -0.012041300980219671 0 0.00018121618738424928 -0.012029439242844369 0 0.00012362680613304348 -0.012040840596579883 0 0.0001503637101175586 -0.012041300980219671 0 0.00012158868201450672 -0.012005093078172262 0 8.1899639294155384e-05 -0.012042337629994201 0 0.00012362680613304348 -0.012040840596579883 0 0.00012158868201450672 -0.012005093078172262 0 0.0003816587056943827 -0.011255847070427231 0 0.00020635111474872291 -0.011239646058368554 0 9.5563384616689618e-05 -0.011520033879318384 0 0.00029159026710768687 -0.011619519276880446 0 -3.299304651206561e-05 -0.01173439276632746 0 0.00010191420273847247 -0.011812620072112579 0 8.1899639294155384e-05 -0.012042337629994201 0 0.00012158868201450672 -0.012005093078172262 0 4.7371425738870858e-06 -0.012020879229587493 0 0.00036410247290772171 -0.011400403704838642 0 3.6628625985484837e-06 -0.011636201883744479 0 0.00022897088203930978 -0.011840323898503305 0 4.2482147486404075e-05 -0.011917355954619539 0 0.00034672010003516024 -0.011651317862089863 0 0.00029159026710768687 -0.011619519276880446 0 0.00010191420273847247 -0.011812620072112579 0 0.0003816587056943827 -0.011255847070427231 0 0.00032280793884762696 -0.011135906105543384 0 0.00020635111474872291 -0.011239646058368554 0 0.00027279139261662897 -0.011027464857356525 0 0.00032280793884762696 -0.011135906105543384 0 0.00016008419930768847 -0.011030700691236552 0 0.0003816587056943827 -0.011255847070427231 0 0.00032280793884762696 -0.011135906105543384 0 0.00039851467877321991 -0.01114810114420094 0 0.00042726737261488627 -0.011126034213988294 0 0.0003816587056943827 -0.011255847070427231 0 0.00039851467877321991 -0.01114810114420094 0 0.00038833538642930952 -0.01107416269248653 0 0.00032280793884762696 -0.011135906105543384 0 0.00039851467877321991 -0.01114810114420094 0 0.00038833538642930952 -0.01107416269248653 0 0.0004160412348023493 -0.011126840767596355 0 0.00039851467877321991 -0.01114810114420094 0 0.00042726737261488627 -0.011126034213988294 0 0.0004160412348023493 -0.011126840767596355 0 0.00039851467877321991 -0.01114810114420094 0 -0.00027098882577205328 -0.010700388748066942 0 -0.00013374721805673766 -0.01103796752354106 0 -0.00037833816235201961 -0.01114767861530588 0 -0.00013374721805673766 -0.01103796752354106 0 -2.8675981872232573e-05 -0.011258549804355509 0 -0.00037833816235201961 -0.01114767861530588 0 -0.00013374721805673766 -0.01103796752354106 0 0.00016008419930768847 -0.011030700691236552 0 -2.8675981872232573e-05 -0.011258549804355509 0 0.00032280793884762696 -0.011135906105543384 0 0.00016008419930768847 -0.011030700691236552 0 0.00020635111474872291 -0.011239646058368554 0 0.00016008419930768847 -0.011030700691236552 0 0.00020635111474872291 -0.011239646058368554 0 -2.8675981872232573e-05 -0.011258549804355509 0 0.00020635111474872291 -0.011239646058368554 0 9.5563384616689618e-05 -0.011520033879318384 0 -2.8675981872232573e-05 -0.011258549804355509 0 9.5563384616689618e-05 -0.011520033879318384 0 -2.8675981872232573e-05 -0.011258549804355509 0 -0.00024629004327163614 -0.011452789917954936 0 -2.8675981872232573e-05 -0.011258549804355509 0 -0.00024629004327163614 -0.011452789917954936 0 -0.00037833816235201961 -0.01114767861530588 0 3.6628625985484837e-06 -0.011636201883744479 0 -0.0004123522856224049 -0.011813722891715154 0 9.5563384616689618e-05 -0.011520033879318384 0 -0.00024629004327163614 -0.011452789917954936 0 -0.00043852234831201275 -0.011826187062935496 0 -3.299304651206561e-05 -0.01173439276632746 0 -0.00030435699546656414 -0.011966073298144387 0 -0.00043852234831201275 -0.011826187062935496 0 -3.299304651206561e-05 -0.01173439276632746 0 -0.00030435699546656414 -0.011966073298144387 0 -0.00020201485763426366 -0.012014245542108549 0 -3.299304651206561e-05 -0.01173439276632746 0 0.00010191420273847247 -0.011812620072112579 0 -0.00020201485763426366 -0.012014245542108549 0 4.2482147486404075e-05 -0.011917355954619539 0 -0.00018482066266443684 -0.012018516616233653 0 4.7371425738870858e-06 -0.012020879229587493 0 5.6929414413036486e-06 -0.012089383072432654 0 -0.00020201485763426366 -0.012014245542108549 0 5.6929414413036486e-06 -0.012089383072432654 0 -5.0604876331829848e-05 -0.012150805633440854 0 -0.00020201485763426366 -0.012014245542108549 0 -0.00058415392901394196 -0.011133166853583518 0 -0.00037560948554250014 -0.011315546116058294 0 -0.00030435699546656414 -0.011966073298144387 0 -5.0604876331829848e-05 -0.012150805633440854 0 -0.00020201485763426366 -0.012014245542108549 0 -0.00024953886614982162 -0.010047732913556692 0 -0.00027012566322181072 -0.010087528290078798 0 -0.00020907103954592428 -0.01005518251425894 0 -0.00022808941235053393 -0.01102303143222831 0 -0.00037560948554250014 -0.011315546116058294 0 -0.00021361220244048288 -0.010102672400314969 0 -0.00027012566322181072 -0.010087528290078798 0 -0.00020907103954592428 -0.01005518251425894 0 -0.00021361220244048288 -0.010102672400314969 0 -0.00016645014630150559 -0.010060602170625576 0 -0.00013461027238630523 -0.01007635427705077 0 -0.00021361220244048288 -0.010102672400314969 0 -0.00020907103954592428 -0.01005518251425894 0 -0.00016645014630150559 -0.010060602170625576 0 -0.00020907103954592428 -0.01005518251425894 0 -0.00016645014630150559 -0.010060602170625576 0 -0.00015797605879750183 -0.010030588236099383 0 -0.00016645014630150559 -0.010060602170625576 0 -0.00011518070884312381 -0.010044706961798397 0 -0.00015797605879750183 -0.010030588236099383 0 -0.00016645014630150559 -0.010060602170625576 0 -0.00011518070884312381 -0.010044706961798397 0 -0.00013461027238630523 -0.01007635427705077 0 -0.00011518070884312381 -0.010044706961798397 0 -0.00013461027238630523 -0.01007635427705077 0 -8.8322795695720087e-05 -0.010071409186492146 0 -0.00015244690999485932 -0.010122077389230382 0 -6.2525681663444524e-05 -0.010126823919560848 0 -8.8322795695720087e-05 -0.010071409186492146 0 -0.00013461027238630523 -0.01007635427705077 0 -0.00015244690999485932 -0.010122077389230382 0 -8.8322795695720087e-05 -0.010071409186492146 0 -0.00015244690999485932 -0.010122077389230382 0 -6.9804439967681859e-05 -0.010160416435444498 0 -6.2525681663444524e-05 -0.010126823919560848 0 -0.00021361220244048288 -0.010102672400314969 0 -0.00013461027238630523 -0.01007635427705077 0 -0.00015244690999485932 -0.010122077389230382 0 -0.00030435699546656414 -0.011966073298144387 0 -0.0007483532332387046 -0.011715120869023441 0 -0.00043852234831201275 -0.011826187062935496 0 -0.00022808941235053393 -0.01102303143222831 0 -0.00047814386887635709 -0.010953780995983216 0 -0.0007483532332387046 -0.011715120869023441 0 -0.00043852234831201275 -0.011826187062935496 0 -0.00057811597398125007 -0.011451674162927961 0 -0.00024629004327163614 -0.011452789917954936 0 -0.00043852234831201275 -0.011826187062935496 0 -0.00057811597398125007 -0.011451674162927961 0 -0.00024629004327163614 -0.011452789917954936 0 -0.00057811597398125007 -0.011451674162927961 0 -0.00037833816235201961 -0.01114767861530588 0 -0.00090059519769290428 -0.011404361985565692 0 -0.0011346470368498881 -0.010991114576828871 0 -0.0012233968378086929 -0.011474612572844397 0 -0.00047814386887635709 -0.010953780995983216 0 -0.0003984715267324269 -0.010378256881693205 0 -0.0007483532332387046 -0.011715120869023441 0 -0.00090059519769290428 -0.011404361985565692 0 -0.0012233968378086929 -0.011474612572844397 0 -0.0007483532332387046 -0.011715120869023441 0 -0.00057811597398125007 -0.011451674162927961 0 -0.00090059519769290428 -0.011404361985565692 0 -0.00057811597398125007 -0.011451674162927961 0 -0.00090059519769290428 -0.011404361985565692 0 -0.00074404935848701849 -0.011156702399309914 0 -0.00090059519769290428 -0.011404361985565692 0 -0.00074404935848701849 -0.011156702399309914 0 -0.0011346470368498881 -0.010991114576828871 0 -0.00068965877319472505 -0.010778328955626814 0 -0.00074404935848701849 -0.011156702399309914 0 -0.0011346470368498881 -0.010991114576828871 0 -0.00057811597398125007 -0.011451674162927961 0 -0.00074404935848701849 -0.011156702399309914 0 -0.00037833816235201961 -0.01114767861530588 0 -0.00068965877319472505 -0.010778328955626814 0 -0.00074404935848701849 -0.011156702399309914 0 -0.00037833816235201961 -0.01114767861530588 0 -0.00055137760042643842 -0.0077527269671902686 0 4.4044142806173476e-05 -0.0089034094459337684 0 -0.0012946808320733166 -0.0082458236955953012 0 -0.0014068485112459497 -0.0086797577005197305 0 -0.00087051351773490969 -0.008864325919841487 0 -0.0009039238055540905 -0.0096542604636847811 0 -0.0010530845982714046 -0.0071731536628782747 0 -0.00016029063523110334 -0.0098581432010368623 0 -0.0010530845982714046 -0.0071731536628782747 0 -0.00068859761158756509 -0.0076722813627641724 0 -0.00080858779927331619 -0.010272863794879549 0 -0.0003984715267324269 -0.010378256881693205 0 -0.00087051351773490969 -0.008864325919841487 0 -0.00037427665104924982 -0.0088470179579238032 0 -0.0009039238055540905 -0.0096542604636847811 0 -0.00079758351223303305 -0.0082796768260430913 0 -0.00087051351773490969 -0.008864325919841487 0 -0.00037427665104924982 -0.0088470179579238032 0 -0.00037427665104924982 -0.0088470179579238032 0 -0.0009039238055540905 -0.0096542604636847811 0 -0.00055692483517248269 -0.0098247215269939049 0 -0.0003984715267324269 -0.010378256881693205 0 -0.00013781796820202738 -0.010123274350112748 0 -4.9466483060136512e-05 -0.010103204764917282 0 -6.0949841799984966e-05 -0.010069271355505159 0 -3.9640777820317893e-05 -0.010070114520215515 0 -0.00022332286715224739 -0.010028697418857401 0 -0.00013108164575371909 -0.01007381714427435 0 -0.00014954273664233308 -0.010170026218578054 0 -0.00016029063523110334 -0.0098581432010368623 0 -0.00013781796820202738 -0.010123274350112748 0 -0.00016029063523110334 -0.0098581432010368623 0 -0.0003984715267324269 -0.010378256881693205 0 -4.9466483060136512e-05 -0.010103204764917282 0 1.2679184537429873e-06 -0.010082792776723953 0 -3.9640777820317893e-05 -0.010070114520215515 0 -0.00016029063523110334 -0.0098581432010368623 0 -0.00068859761158756509 -0.0076722813627641724 0 -4.9466483060136512e-05 -0.010103204764917282 0 1.2679184537429873e-06 -0.010082792776723953 0 7.370062726387523e-05 -0.010160779864328886 0 1.2679184537429873e-06 -0.010082792776723953 0 1.3174736977250376e-05 -0.010055157165204982 0 5.2471740940979957e-05 -0.010077746212328497 0 1.2679184537429873e-06 -0.010082792776723953 0 1.3174736977250376e-05 -0.010055157165204982 0 -1.4233263455708246e-05 -0.010057173167800564 0 -6.830559934880712e-05 -0.010067610230069253 0 2.484899042964134e-05 -0.010046347910375718 0 1.3174736977250376e-05 -0.010055157165204982 0 5.2471740940979957e-05 -0.010077746212328497 0 3.7404790373818236e-05 -0.010042699010936074 0 2.5690673755028144e-05 -0.010021947291449285 0 -2.3801351137242836e-05 -0.010019437555222652 0 7.3921913608975784e-05 -0.010010828284894866 0 1.8755856087759834e-05 -0.010036555874114662 0 3.7404790373818236e-05 -0.010042699010936074 0 3.8996676687412604e-05 -0.01002807951738271 0 1.8755856087759834e-05 -0.010036555874114662 0 1.3174736977250376e-05 -0.010055157165204982 0 3.7404790373818236e-05 -0.010042699010936074 0 1.8755856087759834e-05 -0.010036555874114662 0 6.3997112826284798e-06 -0.010046514794670804 0 1.3174736977250376e-05 -0.010055157165204982 0 6.3997112826284798e-06 -0.010046514794670804 0 1.3174736977250376e-05 -0.010055157165204982 0 -1.4233263455708246e-05 -0.010057173167800564 0 6.3997112826284798e-06 -0.010046514794670804 0 -5.6306183685532274e-06 -0.010046910772070835 0 3.1710370916806056e-06 -0.010040641596696914 0 1.8755856087759834e-05 -0.010036555874114662 0 6.3997112826284798e-06 -0.010046514794670804 0 3.1710370916806056e-06 -0.010040641596696914 0 1.2679184537429873e-06 -0.010082792776723953 0 -1.4233263455708246e-05 -0.010057173167800564 0 -3.9640777820317893e-05 -0.010070114520215515 0 -3.6703506053565003e-05 -0.010060759020382101 0 -1.4233263455708246e-05 -0.010057173167800564 0 -3.9640777820317893e-05 -0.010070114520215515 0 -3.6703506053565003e-05 -0.010060759020382101 0 -2.8359031721026898e-05 -0.01005374757966122 0 -1.4233263455708246e-05 -0.010057173167800564 0 -3.6703506053565003e-05 -0.010060759020382101 0 -2.8359031721026898e-05 -0.01005374757966122 0 -3.9900001569334771e-05 -0.010055517289615418 0 -2.8359031721026898e-05 -0.01005374757966122 0 -1.4233263455708246e-05 -0.010057173167800564 0 -1.7018794858896759e-05 -0.010047929492597267 0 6.3997112826284798e-06 -0.010046514794670804 0 -1.4233263455708246e-05 -0.010057173167800564 0 -5.6306183685532274e-06 -0.010046910772070835 0 -1.4233263455708246e-05 -0.010057173167800564 0 -5.6306183685532274e-06 -0.010046910772070835 0 -1.7018794858896759e-05 -0.010047929492597267 0 -5.6306183685532274e-06 -0.010046910772070835 0 -6.466846173092231e-06 -0.010041966236460996 0 -1.7018794858896759e-05 -0.010047929492597267 0 -6.466846173092231e-06 -0.010041966236460996 0 -1.7018794858896759e-05 -0.010047929492597267 0 -1.440410155007986e-05 -0.010040723795842466 0 -1.7018794858896759e-05 -0.010047929492597267 0 -1.440410155007986e-05 -0.010040723795842466 0 -2.9312431747659708e-05 -0.010045690678202747 0 -6.466846173092231e-06 -0.010041966236460996 0 -1.440410155007986e-05 -0.010040723795842466 0 2.0469876378513473e-06 -0.010033592853438137 0 -2.8359031721026898e-05 -0.01005374757966122 0 -2.9312431747659708e-05 -0.010045690678202747 0 -3.9900001569334771e-05 -0.010055517289615418 0 -2.8359031721026898e-05 -0.01005374757966122 0 -1.7018794858896759e-05 -0.010047929492597267 0 -2.9312431747659708e-05 -0.010045690678202747 0 -2.9312431747659708e-05 -0.010045690678202747 0 -1.7600553616202443e-05 -0.010032936864076946 0 -4.1117940625041154e-05 -0.010039202059985089 0 -2.9312431747659708e-05 -0.010045690678202747 0 -4.4893972920022628e-05 -0.01005048441191376 0 -4.1117940625041154e-05 -0.010039202059985089 0 -1.440410155007986e-05 -0.010040723795842466 0 -2.9312431747659708e-05 -0.010045690678202747 0 -1.7600553616202443e-05 -0.010032936864076946 0 -1.440410155007986e-05 -0.010040723795842466 0 -1.7600553616202443e-05 -0.010032936864076946 0 2.0469876378513473e-06 -0.010033592853438137 0 -1.7600553616202443e-05 -0.010032936864076946 0 2.5690673755028144e-05 -0.010021947291449285 0 2.0469876378513473e-06 -0.010033592853438137 0 1.8755856087759834e-05 -0.010036555874114662 0 2.5690673755028144e-05 -0.010021947291449285 0 2.0469876378513473e-06 -0.010033592853438137 0 1.8755856087759834e-05 -0.010036555874114662 0 2.5690673755028144e-05 -0.010021947291449285 0 3.8996676687412604e-05 -0.01002807951738271 0 1.8755856087759834e-05 -0.010036555874114662 0 3.1710370916806056e-06 -0.010040641596696914 0 2.0469876378513473e-06 -0.010033592853438137 0 -6.466846173092231e-06 -0.010041966236460996 0 3.1710370916806056e-06 -0.010040641596696914 0 2.0469876378513473e-06 -0.010033592853438137 0 -5.6306183685532274e-06 -0.010046910772070835 0 -6.466846173092231e-06 -0.010041966236460996 0 3.1710370916806056e-06 -0.010040641596696914 0 -6.0949841799984966e-05 -0.010069271355505159 0 -5.5689328527795173e-05 -0.010064345692524887 0 -6.3568269756995535e-05 -0.010063449301276903 0 -5.5689328527795173e-05 -0.010064345692524887 0 -4.6900027576596112e-05 -0.010062658823008339 0 -5.1713914328070495e-05 -0.01005858047021359 0 -5.5689328527795173e-05 -0.010064345692524887 0 -5.3323806693650557e-05 -0.010066966519589347 0 -4.6900027576596112e-05 -0.010062658823008339 0 -6.0949841799984966e-05 -0.010069271355505159 0 -5.5689328527795173e-05 -0.010064345692524887 0 -5.3323806693650557e-05 -0.010066966519589347 0 -6.0949841799984966e-05 -0.010069271355505159 0 -5.3323806693650557e-05 -0.010066966519589347 0 -3.9640777820317893e-05 -0.010070114520215515 0 -3.6703506053565003e-05 -0.010060759020382101 0 -3.9640777820317893e-05 -0.010070114520215515 0 -4.6900027576596112e-05 -0.010062658823008339 0 -5.3323806693650557e-05 -0.010066966519589347 0 -3.9640777820317893e-05 -0.010070114520215515 0 -4.6900027576596112e-05 -0.010062658823008339 0 -4.6900027576596112e-05 -0.010062658823008339 0 -3.9900001569334771e-05 -0.010055517289615418 0 -5.1713914328070495e-05 -0.01005858047021359 0 -3.6703506053565003e-05 -0.010060759020382101 0 -4.6900027576596112e-05 -0.010062658823008339 0 -3.9900001569334771e-05 -0.010055517289615418 0 -2.9312431747659708e-05 -0.010045690678202747 0 -3.9900001569334771e-05 -0.010055517289615418 0 -4.4893972920022628e-05 -0.01005048441191376 0 -3.9900001569334771e-05 -0.010055517289615418 0 -4.4893972920022628e-05 -0.01005048441191376 0 -5.1713914328070495e-05 -0.01005858047021359 0 -4.4893972920022628e-05 -0.01005048441191376 0 -5.9001456663775933e-05 -0.010052134209125027 0 -5.1713914328070495e-05 -0.01005858047021359 0 -4.4893972920022628e-05 -0.01005048441191376 0 -5.9001456663775933e-05 -0.010052134209125027 0 -4.1117940625041154e-05 -0.010039202059985089 0 -5.9001456663775933e-05 -0.010052134209125027 0 -5.1713914328070495e-05 -0.01005858047021359 0 -6.3568269756995535e-05 -0.010063449301276903 0 -5.5689328527795173e-05 -0.010064345692524887 0 -5.1713914328070495e-05 -0.01005858047021359 0 -6.3568269756995535e-05 -0.010063449301276903 0 -6.0949841799984966e-05 -0.010069271355505159 0 -6.3568269756995535e-05 -0.010063449301276903 0 -8.8322795695720087e-05 -0.010071409186492146 0 -5.9001456663775933e-05 -0.010052134209125027 0 -6.3568269756995535e-05 -0.010063449301276903 0 -8.8322795695720087e-05 -0.010071409186492146 0 -0.00013781796820202738 -0.010123274350112748 0 -9.4668023385153049e-05 -0.010081611821456638 0 -6.9064363810452807e-05 -0.010038897983675979 0 -2.3801351137242836e-05 -0.010019437555222652 0 -9.2883563423029408e-05 -0.010014178106048132 0 -6.830559934880712e-05 -0.010067610230069253 0 -0.00012057331395220507 -0.010050733731582714 0 -5.9001456663775933e-05 -0.010052134209125027 0 -8.8322795695720087e-05 -0.010071409186492146 0 -6.9064363810452807e-05 -0.010038897983675979 0 -0.00011518070884312381 -0.010044706961798397 0 -8.8322795695720087e-05 -0.010071409186492146 0 -6.9064363810452807e-05 -0.010038897983675979 0 -6.9064363810452807e-05 -0.010038897983675979 0 -4.1117940625041154e-05 -0.010039202059985089 0 -2.3801351137242836e-05 -0.010019437555222652 0 -5.9001456663775933e-05 -0.010052134209125027 0 -6.9064363810452807e-05 -0.010038897983675979 0 -4.1117940625041154e-05 -0.010039202059985089 0 -0.00011518070884312381 -0.010044706961798397 0 -6.9064363810452807e-05 -0.010038897983675979 0 -9.2883563423029408e-05 -0.010014178106048132 0 -0.00011517641173971253 -0.010109997887654798 0 -0.00010280332708426821 -0.010094256713789483 0 -0.00015056725917215788 -0.010086187020283268 0 -0.00011517641173971253 -0.010109997887654798 0 -0.00010280332708426821 -0.010094256713789483 0 -8.125818909162883e-05 -0.010133977053547566 0 -1.7600553616202443e-05 -0.010032936864076946 0 2.5690673755028144e-05 -0.010021947291449285 0 -2.3801351137242836e-05 -0.010019437555222652 0 -1.7600553616202443e-05 -0.010032936864076946 0 -4.1117940625041154e-05 -0.010039202059985089 0 -2.3801351137242836e-05 -0.010019437555222652 0 -7.965396058056425e-06 -0.009938169179805327 0 -1.8613514351710159e-05 -0.0098787891061951107 0 8.7612411481814213e-05 -0.0097762048507496167 0 8.7447549455444161e-05 -0.0096976965021622254 0 0.00011779052706435188 -0.009716765653875999 0 -0.00010280332708426821 -0.010094256713789483 0 -0.00012391914905083703 -0.010052411964829783 0 -0.00015056725917215788 -0.010086187020283268 0 8.7447549455444161e-05 -0.0096976965021622254 0 0.00014928747309787894 -0.0096638122272123036 0 0.00011779052706435188 -0.009716765653875999 0 8.7447549455444161e-05 -0.0096976965021622254 0 0.00010761418632876077 -0.0096901664977666283 0 0.00014928747309787894 -0.0096638122272123036 0 -0.00012391914905083703 -0.010052411964829783 0 -0.00015056725917215788 -0.010086187020283268 0 -0.00016302325738356988 -0.010040903687602111 0 -9.2883563423029408e-05 -0.010014178106048132 0 -0.00015797605879750183 -0.010030588236099383 0 -0.00016149780012486068 -0.010002177304202902 0 -0.00012057331395220507 -0.010050733731582714 0 -0.00017557307190108209 -0.010030936151170263 0 -0.00011518070884312381 -0.010044706961798397 0 -9.2883563423029408e-05 -0.010014178106048132 0 -0.00015797605879750183 -0.010030588236099383 0 -0.00020907103954592428 -0.01005518251425894 0 -0.00015797605879750183 -0.010030588236099383 0 -0.00019311518868539936 -0.010020641663106721 0 -0.00015797605879750183 -0.010030588236099383 0 -0.00019311518868539936 -0.010020641663106721 0 -0.00016149780012486068 -0.010002177304202902 0 -0.00020002574391528064 -0.010014341106955673 0 -0.00016149780012486068 -0.010002177304202902 0 -0.00021924704090700507 -0.010011827764630114 0 -0.00019411251232647522 -0.010057669748826098 0 -0.00021924704090700507 -0.010011827764630114 0 -0.00020481168521812855 -0.010025470676713291 0 -0.00017557307190108209 -0.010030936151170263 0 -0.00021218294660275123 -0.010014160572502782 0 -0.00019311518868539936 -0.010020641663106721 0 -0.00020002574391528064 -0.010014341106955673 0 -0.00016149780012486068 -0.010002177304202902 0 -0.00015056725917215788 -0.010086187020283268 0 -0.00016302325738356988 -0.010040903687602111 0 -0.00019411251232647522 -0.010057669748826098 0 -0.00016302325738356988 -0.010040903687602111 0 -0.00019411251232647522 -0.010057669748826098 0 -0.00020481168521812855 -0.010025470676713291 0 -0.00018775850204104012 -0.010017317300137911 0 -0.00021339056294756765 -0.0099859962122074413 0 -0.00013051657378556451 -0.010014080617755937 0 -0.00016302325738356988 -0.010040903687602111 0 -0.00018775850204104012 -0.010017317300137911 0 -0.00013051657378556451 -0.010014080617755937 0 -0.00016302325738356988 -0.010040903687602111 0 -0.00018775850204104012 -0.010017317300137911 0 -0.00020481168521812855 -0.010025470676713291 0 -0.00018775850204104012 -0.010017317300137911 0 -0.00020481168521812855 -0.010025470676713291 0 -0.00021202284121356359 -0.010009228339142359 0 -0.00018775850204104012 -0.010017317300137911 0 -0.00021202284121356359 -0.010009228339142359 0 -0.00021339056294756765 -0.0099859962122074413 0 -0.00021924704090700507 -0.010011827764630114 0 -0.00021646660394622982 -0.010012403831759482 0 -0.00022359628134556602 -0.010007608512059472 0 -0.00021924704090700507 -0.010011827764630114 0 -0.00021646660394622982 -0.010012403831759482 0 -0.00020481168521812855 -0.010025470676713291 0 -0.00021646660394622982 -0.010012403831759482 0 -0.00020481168521812855 -0.010025470676713291 0 -0.00021202284121356359 -0.010009228339142359 0 -0.00021202284121356359 -0.010009228339142359 0 -0.00022359628134556602 -0.010007608512059472 0 -0.00021339056294756765 -0.0099859962122074413 0 -0.00021646660394622982 -0.010012403831759482 0 -0.00021202284121356359 -0.010009228339142359 0 -0.00022359628134556602 -0.010007608512059472 0 -0.00056785185085690161 -0.010547321214460507 0 -0.00051669614537150517 -0.010221292491714006 0 -0.00027310904207843005 -0.0099429486652997945 0 -0.00022359628134556602 -0.010007608512059472 0 -0.00021339056294756765 -0.0099859962122074413 0 -0.00027310904207843005 -0.0099429486652997945 0 -0.00037244335908252399 -0.010160160188017305 0 -0.00028790996361540181 -0.01000741382805413 0 -0.00065279163520042113 -0.010396319538976507 0 -0.00056785185085690161 -0.010547321214460507 0 -0.00051669614537150517 -0.010221292491714006 0 -0.00051669614537150517 -0.010221292491714006 0 -0.00027310904207843005 -0.0099429486652997945 0 -0.00046902200953776824 -0.010048127850836339 0 -0.00069011956012952382 -0.01027863399190797 0 -0.00051669614537150517 -0.010221292491714006 0 -0.00058446075386118016 -0.010107655664710235 0 -0.00051669614537150517 -0.010221292491714006 0 -0.00058446075386118016 -0.010107655664710235 0 -0.00046902200953776824 -0.010048127850836339 0 -0.00021339056294756765 -0.0099859962122074413 0 -0.00018492614926996341 -0.0099422396737769946 0 -0.00027310904207843005 -0.0099429486652997945 0 -0.00018492614926996341 -0.0099422396737769946 0 -0.00013051657378556451 -0.010014080617755937 0 -0.00012692701991767614 -0.0098165136487345234 0 -0.00021339056294756765 -0.0099859962122074413 0 -0.00018492614926996341 -0.0099422396737769946 0 -0.00013051657378556451 -0.010014080617755937 0 -4.3324679675375884e-05 -0.009864656961307984 0 -0.00011982255322885084 -0.0098016891011932991 0 6.5328217344144278e-05 -0.0097336240433167007 0 6.1284518742316048e-05 -0.0097340826654584121 0 -0.00012692701991767614 -0.0098165136487345234 0 0.00010761418632876077 -0.0096901664977666283 0 6.5328217344144278e-05 -0.0097336240433167007 0 6.1284518742316048e-05 -0.0097340826654584121 0 0.00010761418632876077 -0.0096901664977666283 0 6.1284518742316048e-05 -0.0097340826654584121 0 0.00012311229746125472 -0.0096939568198058587 0 8.7447549455444161e-05 -0.0096976965021622254 0 0.00010761418632876077 -0.0096901664977666283 0 6.5328217344144278e-05 -0.0097336240433167007 0 -0.00012391914905083703 -0.010052411964829783 0 -0.00016302325738356988 -0.010040903687602111 0 -0.00013051657378556451 -0.010014080617755937 0 -1.8613514351710159e-05 -0.0098787891061951107 0 -4.3324679675375884e-05 -0.009864656961307984 0 2.1164359930359693e-05 -0.0093228225827630597 0 -0.00017373588711860606 -0.0091061584279835805 0 0.0001245879209366851 -0.0096079042398387621 0 -1.836221906163356e-05 -0.0096829366895253843 0 -0.00018344500543074956 -0.009533091890867193 0 0.0001245879209366851 -0.0096079042398387621 0 -0.00018344500543074956 -0.009533091890867193 0 -0.00018114637696989961 -0.0090992131213326524 0 -5.2328675909172224e-05 -0.0090636077114603607 0 -6.0104217789917474e-05 -0.0089201678347841529 0 0.00012461504463844592 -0.008902000638904459 0 0.0001245879209366851 -0.0096079042398387621 0 6.1284518742316048e-05 -0.0097340826654584121 0 0.00012311229746125472 -0.0096939568198058587 0 2.1164359930359693e-05 -0.0093228225827630597 0 0.00011096797664748663 -0.009436424089878586 0 -5.2328675909172224e-05 -0.0090636077114603607 0 0.00019165867149558753 -0.0090530137878753122 0 9.1338973128420725e-05 -0.0091838020751580408 0 0.0001245879209366851 -0.0096079042398387621 0 -1.836221906163356e-05 -0.0096829366895253843 0 6.1284518742316048e-05 -0.0097340826654584121 0 -1.836221906163356e-05 -0.0096829366895253843 0 6.1284518742316048e-05 -0.0097340826654584121 0 -0.00012692701991767614 -0.0098165136487345234 0 -0.00012692701991767614 -0.0098165136487345234 0 -0.00036645139050135234 -0.0096913328105519055 0 -0.00018344500543074956 -0.009533091890867193 0 -1.836221906163356e-05 -0.0096829366895253843 0 -0.00012692701991767614 -0.0098165136487345234 0 -0.00018344500543074956 -0.009533091890867193 0 -0.00018492614926996341 -0.0099422396737769946 0 -0.00012692701991767614 -0.0098165136487345234 0 -0.00027310904207843005 -0.0099429486652997945 0 -0.00012692701991767614 -0.0098165136487345234 0 -0.00027310904207843005 -0.0099429486652997945 0 -0.00036645139050135234 -0.0096913328105519055 0 -0.00058446075386118016 -0.010107655664710235 0 -0.00049211279357308816 -0.0099202960588244266 0 -0.0006667614203489324 -0.010000347102315931 0 -0.00058446075386118016 -0.010107655664710235 0 -0.00046902200953776824 -0.010048127850836339 0 -0.00049211279357308816 -0.0099202960588244266 0 -0.00027310904207843005 -0.0099429486652997945 0 -0.00046902200953776824 -0.010048127850836339 0 -0.00049211279357308816 -0.0099202960588244266 0 -0.00027310904207843005 -0.0099429486652997945 0 -0.00049211279357308816 -0.0099202960588244266 0 -0.00036645139050135234 -0.0096913328105519055 0 -0.00049211279357308816 -0.0099202960588244266 0 -0.00061366353046989248 -0.0097700733437072022 0 -0.0006667614203489324 -0.010000347102315931 0 -0.00049211279357308816 -0.0099202960588244266 0 -0.00036645139050135234 -0.0096913328105519055 0 -0.00061366353046989248 -0.0097700733437072022 0 -0.00036645139050135234 -0.0096913328105519055 0 -0.0005259034025392285 -0.0095498068536525507 0 -0.00061366353046989248 -0.0097700733437072022 0 -0.00036645139050135234 -0.0096913328105519055 0 -0.00043028034306164957 -0.0094102373091654954 0 -0.0005259034025392285 -0.0095498068536525507 0 -0.0005259034025392285 -0.0095498068536525507 0 -0.00063633233196928505 -0.0095560060532275011 0 -0.00061366353046989248 -0.0097700733437072022 0 -0.00043028034306164957 -0.0094102373091654954 0 -0.0005259034025392285 -0.0095498068536525507 0 -0.00056144309755482263 -0.009419380223507497 0 -0.0005259034025392285 -0.0095498068536525507 0 -0.00056144309755482263 -0.009419380223507497 0 -0.00063633233196928505 -0.0095560060532275011 0 -0.00043028034306164957 -0.0094102373091654954 0 -0.00018344500543074956 -0.009533091890867193 0 -0.00018114637696989961 -0.0090992131213326524 0 -0.00036645139050135234 -0.0096913328105519055 0 -0.00043028034306164957 -0.0094102373091654954 0 -0.00018344500543074956 -0.009533091890867193 0 -0.00043028034306164957 -0.0094102373091654954 0 -0.00018114637696989961 -0.0090992131213326524 0 -0.00037124111307895486 -0.0087877174724886285 0 -0.00043286602776091467 -0.0093636289367134747 0 -0.00033188152873369888 -0.0089792176802421225 0 -0.00018114637696989961 -0.0090992131213326524 0 -0.00037124111307895486 -0.0087877174724886285 0 -0.00017335335684630577 -0.0088806997420423795 0 -0.00051276389138710482 -0.0092862879976088053 0 -0.00051947344398118255 -0.0090947317331962919 0 -0.00072112518468981106 -0.0093474962682520354 0 -0.00043028034306164957 -0.0094102373091654954 0 -0.00051276389138710482 -0.0092862879976088053 0 -0.000309189550699557 -0.0091764861064209842 0 -0.00056144309755482263 -0.009419380223507497 0 -0.00051276389138710482 -0.0092862879976088053 0 -0.00072112518468981106 -0.0093474962682520354 0 -0.00043028034306164957 -0.0094102373091654954 0 -0.00056144309755482263 -0.009419380223507497 0 -0.00051276389138710482 -0.0092862879976088053 0 -0.00051276389138710482 -0.0092862879976088053 0 -0.00051947344398118255 -0.0090947317331962919 0 -0.000309189550699557 -0.0091764861064209842 0 -0.00057937809347942686 -0.0092990428592507352 0 -0.00076169996921211227 -0.0095326673754747362 0 -0.00065402006397688884 -0.0095361620224806605 0 -0.00066230864034371448 -0.0094134408148088301 0 -0.00074984325074754223 -0.0095389331314863265 0 -0.000309189550699557 -0.0091764861064209842 0 -0.00017882129765425789 -0.0088984767705714667 0 -0.00034154716196709055 -0.0090054369238101086 0 -0.00051947344398118255 -0.0090947317331962919 0 -0.000309189550699557 -0.0091764861064209842 0 -0.00034154716196709055 -0.0090054369238101086 0 -0.00033188152873369888 -0.0089792176802421225 0 -0.00025718484842360121 -0.0086742834996926428 0 -0.00037124111307895486 -0.0087877174724886285 0 -0.00013943179663064752 -0.0086931877243327012 0 -0.00031730747246510032 -0.008405397629366311 0 -0.00037124111307895486 -0.0087877174724886285 0 -0.00013943179663064752 -0.0086931877243327012 0 -0.00017335335684630577 -0.0088806997420423795 0 -0.00013943179663064752 -0.0086931877243327012 0 -0.00017335335684630577 -0.0088806997420423795 0 -6.0104217789917474e-05 -0.0089201678347841529 0 -5.2328675909172224e-05 -0.0090636077114603607 0 -0.00018114637696989961 -0.0090992131213326524 0 -6.0104217789917474e-05 -0.0089201678347841529 0 -0.00018114637696989961 -0.0090992131213326524 0 -0.00017335335684630577 -0.0088806997420423795 0 -6.0104217789917474e-05 -0.0089201678347841529 0 -6.0104217789917474e-05 -0.0089201678347841529 0 4.7912485628849889e-05 -0.0087371182944641374 0 0.00012461504463844592 -0.008902000638904459 0 -0.00013943179663064752 -0.0086931877243327012 0 4.7912485628849889e-05 -0.0087371182944641374 0 -3.776927128229979e-05 -0.0085687410755708546 0 -0.00013943179663064752 -0.0086931877243327012 0 -6.0104217789917474e-05 -0.0089201678347841529 0 4.7912485628849889e-05 -0.0087371182944641374 0 -0.00013943179663064752 -0.0086931877243327012 0 -3.776927128229979e-05 -0.0085687410755708546 0 -0.00013681446102830467 -0.0084645975773673856 0 4.7912485628849889e-05 -0.0087371182944641374 0 -3.776927128229979e-05 -0.0085687410755708546 0 7.6589581166471929e-05 -0.0085197958953297757 0 -3.2318103494126868e-05 -0.008034949557935411 0 2.0032681655189568e-07 -0.0090043290782393648 0 3.2412279238449868e-07 -0.007044309614196124 0 -3.776927128229979e-05 -0.0085687410755708546 0 -3.4030553440269271e-05 -0.0083566858783778661 0 7.6589581166471929e-05 -0.0085197958953297757 0 -3.776927128229979e-05 -0.0085687410755708546 0 -3.4030553440269271e-05 -0.0083566858783778661 0 -0.00013681446102830467 -0.0084645975773673856 0 -3.4030553440269271e-05 -0.0083566858783778661 0 -0.00013681446102830467 -0.0084645975773673856 0 -0.00016275421231347172 -0.0082679634772082622 0 -0.00013943179663064752 -0.0086931877243327012 0 -0.00013681446102830467 -0.0084645975773673856 0 -0.00031730747246510032 -0.008405397629366311 0 -0.00013681446102830467 -0.0084645975773673856 0 -0.00031730747246510032 -0.008405397629366311 0 -0.00016275421231347172 -0.0082679634772082622 0 -0.00031730747246510032 -0.008405397629366311 0 -0.00016275421231347172 -0.0082679634772082622 0 -0.00021811218851170997 -0.0080534829989194374 0 -0.00017882129765425789 -0.0088984767705714667 0 -4.7176922945356077e-05 -0.0086070575541611245 0 -0.0001674892106702537 -0.0085876001679701299 0 -0.00025718484842360121 -0.0086742834996926428 0 -6.0609188918897346e-05 -0.0082037710477797197 0 -3.4030553440269271e-05 -0.0083566858783778661 0 -2.0573970212031291e-05 -0.0080438431050318775 0 0.00014769197509194792 -0.0082437403924904579 0 -6.0609188918897346e-05 -0.0082037710477797197 0 -7.4412885182250014e-05 -0.0080433796305930411 0 -0.00016275421231347172 -0.0082679634772082622 0 -0.00021811218851170997 -0.0080534829989194374 0 -2.0573970212031291e-05 -0.0080438431050318775 0 -3.4030553440269271e-05 -0.0083566858783778661 0 -0.00016275421231347172 -0.0082679634772082622 0 -2.0573970212031291e-05 -0.0080438431050318775 0 -2.0573970212031291e-05 -0.0080438431050318775 0 -5.8501763869585221e-05 -0.0079089565616263374 0 -3.0036906571693961e-05 -0.0077418553934308606 0 -5.8501763869585221e-05 -0.0079089565616263374 0 -3.2318103494126868e-05 -0.008034949557935411 0 -3.0036906571693961e-05 -0.0077418553934308606 0 -0.00011134304335839605 -0.0080060294871296903 0 -2.0573970212031291e-05 -0.0080438431050318775 0 -5.8501763869585221e-05 -0.0079089565616263374 0 -0.00018769762939818894 -0.0084819591704978214 0 6.4984767272873031e-05 -0.0079492475579257555 0 -6.0609188918897346e-05 -0.0082037710477797197 0 -7.9634228908213819e-06 -0.0078498664261095318 0 -5.8501763869585221e-05 -0.0079089565616263374 0 0.00011910624415576735 -0.0077712160785126071 0 -3.2318103494126868e-05 -0.008034949557935411 0 -4.5515264114076808e-05 -0.0085713519829389417 0 -4.2808477202177765e-05 -0.0084688308250330819 0 -3.2318103494126868e-05 -0.008034949557935411 0 8.3302942149236895e-06 -0.007754576166551657 0 -5.8501763869585221e-05 -0.0079089565616263374 0 0.00011910624415576735 -0.0077712160785126071 0 -6.0609188918897346e-05 -0.0082037710477797197 0 -0.00018769762939818894 -0.0084819591704978214 0 -4.2808477202177765e-05 -0.0084688308250330819 0 -3.2318103494126868e-05 -0.008034949557935411 0 -2.0451050974142636e-05 -0.0085549396419468942 0 -3.2318103494126868e-05 -0.008034949557935411 0 2.0032681655189568e-07 -0.0090043290782393648 0 -2.0451050974142636e-05 -0.0085549396419468942 0 2.0032681655189568e-07 -0.0090043290782393648 0 4.3450161743707429e-05 -0.0089019181845598396 0 2.9864353404548651e-05 -0.0096354122580461412 0 2.0032681655189568e-07 -0.0090043290782393648 0 -2.0451050974142636e-05 -0.0085549396419468942 0 4.3450161743707429e-05 -0.0089019181845598396 0 -2.0451050974142636e-05 -0.0085549396419468942 0 4.3450161743707429e-05 -0.0089019181845598396 0 -3.9496322844034342e-06 -0.0085715325161858195 0 4.3450161743707429e-05 -0.0089019181845598396 0 -3.9496322844034342e-06 -0.0085715325161858195 0 0.00013658632640323003 -0.0085150089044541046 0 -0.00018769762939818894 -0.0084819591704978214 0 5.29521324720181e-05 -0.0095219383304166166 0 -4.5515264114076808e-05 -0.0085713519829389417 0 -3.9496322844034342e-06 -0.0085715325161858195 0 0.00013658632640323003 -0.0085150089044541046 0 -0.00032392211814639564 -0.0091201038679817499 0 -0.00059333695120294494 -0.0090804691625938835 0 -0.00048012351459804516 -0.0091859596296159033 0 -4.2808477202177765e-05 -0.0084688308250330819 0 -2.0451050974142636e-05 -0.0085549396419468942 0 -3.9496322844034342e-06 -0.0085715325161858195 0 -4.5515264114076808e-05 -0.0085713519829389417 0 -4.2808477202177765e-05 -0.0084688308250330819 0 -3.9496322844034342e-06 -0.0085715325161858195 0 4.3450161743707429e-05 -0.0089019181845598396 0 8.5437859975520322e-05 -0.0094970464416272472 0 2.9864353404548651e-05 -0.0096354122580461412 0 0.00012739346657000543 -0.0088102096422609209 0 5.29521324720181e-05 -0.0095219383304166166 0 -0.00059333695120294494 -0.0090804691625938835 0 -0.00057724989638663143 -0.009257389748437787 0 -0.00069566078280150598 -0.0092928925191485944 0 5.29521324720181e-05 -0.0095219383304166166 0 -3.2727496510666511e-05 -0.010130709533832894 0 -0.00059333695120294494 -0.0090804691625938835 0 -0.00057724989638663143 -0.009257389748437787 0 -0.00048012351459804516 -0.0091859596296159033 0 -0.00032392211814639564 -0.0091201038679817499 0 -0.00048012351459804516 -0.0091859596296159033 0 -0.00048746135784755623 -0.009339929196247005 0 -0.00018769762939818894 -0.0084819591704978214 0 -0.00044819595996820852 -0.0091598309734073173 0 -0.00017882129765425789 -0.0088984767705714667 0 -0.0001674892106702537 -0.0085876001679701299 0 -0.00035168634735562168 -0.0088500913111534268 0 -0.00057724989638663143 -0.009257389748437787 0 -0.00048012351459804516 -0.0091859596296159033 0 -0.00048746135784755623 -0.009339929196247005 0 -0.00051947344398118255 -0.0090947317331962919 0 -0.00035168634735562168 -0.0088500913111534268 0 -0.00034154716196709055 -0.0090054369238101086 0 -0.00017882129765425789 -0.0088984767705714667 0 -0.00035168634735562168 -0.0088500913111534268 0 -0.00034154716196709055 -0.0090054369238101086 0 -0.00057937809347942686 -0.0092990428592507352 0 -0.00044819595996820852 -0.0091598309734073173 0 -0.00065402006397688884 -0.0095361620224806605 0 -0.00048746135784755623 -0.009339929196247005 0 -0.00066230864034371448 -0.0094134408148088301 0 -0.00069566078280150598 -0.0092928925191485944 0 -0.00066230864034371448 -0.0094134408148088301 0 -0.00077583922083840926 -0.0094762934523754689 0 -0.00057724989638663143 -0.009257389748437787 0 -0.00069566078280150598 -0.0092928925191485944 0 -0.00066230864034371448 -0.0094134408148088301 0 -0.00057724989638663143 -0.009257389748437787 0 -0.00048746135784755623 -0.009339929196247005 0 -0.00066230864034371448 -0.0094134408148088301 0 -3.2727496510666511e-05 -0.010130709533832894 0 -0.00060001682935303621 -0.010562747222884484 0 0.00058109162375970691 -0.010993169009733414 0 0.00022885484658876205 -0.011228566141291297 0 0.00028332752736564556 -0.011408145613584803 0 0.00058109162375970691 -0.010993169009733414 0 0.00022885484658876205 -0.011228566141291297 0 7.2231638185399336e-05 -0.011076624817397717 0 -0.00069566078280150598 -0.0092928925191485944 0 -0.00077583922083840926 -0.0094762934523754689 0 -0.00079148554194278403 -0.0094913945710142708 0 -0.00066230864034371448 -0.0094134408148088301 0 -0.00077583922083840926 -0.0094762934523754689 0 -0.00074984325074754223 -0.0095389331314863265 0 -0.00055969210452649345 -0.01047545563920003 0 -0.00060001682935303621 -0.010562747222884484 0 0.000156769908074247 -0.011355344320388113 0 0.00022885484658876205 -0.011228566141291297 0 5.3838999007866071e-05 -0.011317615865674367 0 0.000156769908074247 -0.011355344320388113 0 0.00022885484658876205 -0.011228566141291297 0 0.00028332752736564556 -0.011408145613584803 0 0.00022885484658876205 -0.011228566141291297 0 5.3838999007866071e-05 -0.011317615865674367 0 7.2231638185399336e-05 -0.011076624817397717 0 -0.00014049620651752825 -0.011321219430699438 0 7.2231638185399336e-05 -0.011076624817397717 0 -0.00015857967383461883 -0.011077613352811636 0 -0.00014049620651752825 -0.011321219430699438 0 5.3838999007866071e-05 -0.011317615865674367 0 -0.00010742388806514078 -0.01144252915445758 0 0.000156769908074247 -0.011355344320388113 0 5.3838999007866071e-05 -0.011317615865674367 0 3.9487978875119928e-05 -0.011428948355026423 0 -0.00014049620651752825 -0.011321219430699438 0 5.3838999007866071e-05 -0.011317615865674367 0 7.2231638185399336e-05 -0.011076624817397717 0 7.2231638185399336e-05 -0.011076624817397717 0 3.3479217763886468e-05 -0.010267368470536709 0 -0.00015857967383461883 -0.011077613352811636 0 0.00058109162375970691 -0.010993169009733414 0 7.2231638185399336e-05 -0.011076624817397717 0 3.3479217763886468e-05 -0.010267368470536709 0 2.0032681655189568e-07 -0.0090043290782393648 0 2.9864353404548651e-05 -0.0096354122580461412 0 -4.3505284776841037e-07 -0.010479501329777138 0 3.3479217763886468e-05 -0.010267368470536709 0 2.9864353404548651e-05 -0.0096354122580461412 0 -4.3505284776841037e-07 -0.010479501329777138 0 0.00085198832316656981 -0.010415214588117743 0 0.00058109162375970691 -0.010993169009733414 0 3.3479217763886468e-05 -0.010267368470536709 0 8.5437859975520322e-05 -0.0094970464416272472 0 3.3479217763886468e-05 -0.010267368470536709 0 2.9864353404548651e-05 -0.0096354122580461412 0 5.29521324720181e-05 -0.0095219383304166166 0 0.00020161339568017003 -0.010325442217816424 0 3.3479217763886468e-05 -0.010267368470536709 0 -0.00013029827414403873 -0.010908964161160774 0 -0.00015857967383461883 -0.011077613352811636 0 -4.3505284776841037e-07 -0.010479501329777138 0 -0.00013029827414403873 -0.010908964161160774 0 -0.00014487967032986314 -0.011472082065182207 0 3.3479217763886468e-05 -0.010267368470536709 0 -4.3505284776841037e-07 -0.010479501329777138 0 -0.00013029827414403873 -0.010908964161160774 0 -0.00013029827414403873 -0.010908964161160774 0 -0.00024542960266372933 -0.011255832568530395 0 -0.00014487967032986314 -0.011472082065182207 0 -0.00013029827414403873 -0.010908964161160774 0 -0.00024542960266372933 -0.011255832568530395 0 -0.00015857967383461883 -0.011077613352811636 0 -0.00014049620651752825 -0.011321219430699438 0 -0.00015857967383461883 -0.011077613352811636 0 -0.00029656883555709669 -0.011386277559127642 0 -0.00024542960266372933 -0.011255832568530395 0 -0.00015857967383461883 -0.011077613352811636 0 -0.00029656883555709669 -0.011386277559127642 0 -0.00024542960266372933 -0.011255832568530395 0 -0.00029656883555709669 -0.011386277559127642 0 -0.00037149688480733154 -0.011460420654666086 0 -0.00024542960266372933 -0.011255832568530395 0 -0.00037149688480733154 -0.011460420654666086 0 -0.00041950837924825077 -0.011462111921252247 0 -0.00040690010369110011 -0.011522658748444691 0 -0.00040300834994261232 -0.011541064821602564 0 -0.00028038215254603014 -0.011478448308088722 0 -0.00029656883555709669 -0.011386277559127642 0 -0.00040690010369110011 -0.011522658748444691 0 -0.00028038215254603014 -0.011478448308088722 0 -0.00029656883555709669 -0.011386277559127642 0 -0.00037149688480733154 -0.011460420654666086 0 -0.00040690010369110011 -0.011522658748444691 0 -0.00040300834994261232 -0.011541064821602564 0 -0.00053518506649697902 -0.011501656326109942 0 -0.00050195849355728005 -0.011547033211911513 0 -0.00040690010369110011 -0.011522658748444691 0 -0.00040300834994261232 -0.011541064821602564 0 -0.00050195849355728005 -0.011547033211911513 0 -0.00040300834994261232 -0.011541064821602564 0 -0.00028038215254603014 -0.011478448308088722 0 -0.0001864279973112614 -0.011597689093082855 0 -0.00040300834994261232 -0.011541064821602564 0 -0.0001864279973112614 -0.011597689093082855 0 -0.00053518506649697902 -0.011501656326109942 0 -0.00064528759876111526 -0.011466085680175016 0 -0.00070493324071037853 -0.011215158121695072 0 -0.00028038215254603014 -0.011478448308088722 0 -0.00010742388806514078 -0.01144252915445758 0 -0.0001864279973112614 -0.011597689093082855 0 -0.00014049620651752825 -0.011321219430699438 0 -0.00029656883555709669 -0.011386277559127642 0 -0.00028038215254603014 -0.011478448308088722 0 -0.00014049620651752825 -0.011321219430699438 0 -0.00028038215254603014 -0.011478448308088722 0 -0.00010742388806514078 -0.01144252915445758 0 -0.0011585558801285192 -0.011129978532616068 0 -0.0011180877465870598 -0.011123765474410061 0 -0.0011505517584975971 -0.011109124555397079 0 -0.00060001682935303621 -0.010562747222884484 0 -0.00064528759876111526 -0.011466085680175016 0 3.9487978875119928e-05 -0.011428948355026423 0 0.00028332752736564556 -0.011408145613584803 0 -0.0001864279973112614 -0.011597689093082855 0 -0.00010742388806514078 -0.01144252915445758 0 3.9487978875119928e-05 -0.011428948355026423 0 -0.0001864279973112614 -0.011597689093082855 0 5.3838999007866071e-05 -0.011317615865674367 0 -0.00010742388806514078 -0.01144252915445758 0 3.9487978875119928e-05 -0.011428948355026423 0 -0.00065402006397688884 -0.0095361620224806605 0 -0.00074984325074754223 -0.0095389331314863265 0 -0.000803538396976893 -0.009694287463930161 0 -0.00060001682935303621 -0.010562747222884484 0 -0.0010627221826764201 -0.010357180524255006 0 -0.00078988843680463194 -0.0094906701322028057 0 -0.0008066403317800963 -0.009597727818269031 0 -0.00089890975008687351 -0.009671157463503572 0 -0.00074984325074754223 -0.0095389331314863265 0 -0.0008066403317800963 -0.009597727818269031 0 -0.000803538396976893 -0.009694287463930161 0 -0.00074984325074754223 -0.0095389331314863265 0 -0.00078988843680463194 -0.0094906701322028057 0 -0.0008066403317800963 -0.009597727818269031 0 -0.00077583922083840926 -0.0094762934523754689 0 -0.00074984325074754223 -0.0095389331314863265 0 -0.00078988843680463194 -0.0094906701322028057 0 0.000156769908074247 -0.011355344320388113 0 3.9487978875119928e-05 -0.011428948355026423 0 0.00028332752736564556 -0.011408145613584803 0 -0.000803538396976893 -0.009694287463930161 0 -0.00089890975008687351 -0.009671157463503572 0 -0.00095503193236405744 -0.0098496086291061571 0 -0.0008066403317800963 -0.009597727818269031 0 -0.000803538396976893 -0.009694287463930161 0 -0.00089890975008687351 -0.009671157463503572 0 -0.00056144309755482263 -0.009419380223507497 0 -0.00072112518468981106 -0.0093474962682520354 0 -0.00063633233196928505 -0.0095560060532275011 0 -0.0011180877465870598 -0.011123765474410061 0 -0.0011505517584975971 -0.011109124555397079 0 -0.001138352072703102 -0.010977805240153175 0 -0.00089890975008687351 -0.009671157463503572 0 -0.00095503193236405744 -0.0098496086291061571 0 -0.0010531948647055913 -0.0098623854706000724 0 -0.0010627221826764201 -0.010357180524255006 0 -0.0010744513287685819 -0.010429198954238257 0 -0.00095503193236405744 -0.0098496086291061571 0 -0.0010531948647055913 -0.0098623854706000724 0 -0.00089675621909486429 -0.0099992960084546601 0 -0.00095503193236405744 -0.0098496086291061571 0 -0.00084164980444718961 -0.0098746627420372261 0 -0.00089675621909486429 -0.0099992960084546601 0 -0.00072112518468981106 -0.0093474962682520354 0 -0.00095503193236405744 -0.0098496086291061571 0 -0.00075920334833941532 -0.0097233578263621317 0 -0.00072112518468981106 -0.0093474962682520354 0 -0.00063633233196928505 -0.0095560060532275011 0 -0.00075920334833941532 -0.0097233578263621317 0 -0.00076169996921211227 -0.0095326673754747362 0 -0.00094009762587090944 -0.0098132695691177264 0 -0.00095503193236405744 -0.0098496086291061571 0 -0.00075920334833941532 -0.0097233578263621317 0 -0.00084164980444718961 -0.0098746627420372261 0 -0.00075920334833941532 -0.0097233578263621317 0 -0.00084164980444718961 -0.0098746627420372261 0 -0.00077491565540800547 -0.0099427564047720116 0 -0.00075920334833941532 -0.0097233578263621317 0 -0.00061366353046989248 -0.0097700733437072022 0 -0.00077491565540800547 -0.0099427564047720116 0 -0.00063633233196928505 -0.0095560060532275011 0 -0.00075920334833941532 -0.0097233578263621317 0 -0.00061366353046989248 -0.0097700733437072022 0 -0.00061366353046989248 -0.0097700733437072022 0 -0.00077491565540800547 -0.0099427564047720116 0 -0.0006667614203489324 -0.010000347102315931 0 -0.00077491565540800547 -0.0099427564047720116 0 -0.00082356680003552564 -0.010153031559831065 0 -0.0006667614203489324 -0.010000347102315931 0 -0.00084164980444718961 -0.0098746627420372261 0 -0.00077491565540800547 -0.0099427564047720116 0 -0.00089675621909486429 -0.0099992960084546601 0 -0.00077491565540800547 -0.0099427564047720116 0 -0.00082356680003552564 -0.010153031559831065 0 -0.00089675621909486429 -0.0099992960084546601 0 -0.00085499097619898517 -0.010343701422449392 0 -0.00082356680003552564 -0.010153031559831065 0 -0.00072459132470269031 -0.010183246274713488 0 -0.00082356680003552564 -0.010153031559831065 0 -0.0006667614203489324 -0.010000347102315931 0 -0.00072459132470269031 -0.010183246274713488 0 -0.00058446075386118016 -0.010107655664710235 0 -0.0006667614203489324 -0.010000347102315931 0 -0.00072459132470269031 -0.010183246274713488 0 -0.0010667298674315951 -0.010601311991001724 0 -0.0010531948647055913 -0.0098623854706000724 0 -0.00093423580624026514 -0.010228515170084457 0 -0.0010531948647055913 -0.0098623854706000724 0 -0.00089675621909486429 -0.0099992960084546601 0 -0.00093423580624026514 -0.010228515170084457 0 -0.00085499097619898517 -0.010343701422449392 0 -0.00082356680003552564 -0.010153031559831065 0 -0.00093423580624026514 -0.010228515170084457 0 -0.00082356680003552564 -0.010153031559831065 0 -0.00089675621909486429 -0.0099992960084546601 0 -0.00093423580624026514 -0.010228515170084457 0 -0.0010735804391294945 -0.010555297482276967 0 -0.0010744513287685819 -0.010429198954238257 0 -0.0010667298674315951 -0.010601311991001724 0 -0.001138352072703102 -0.010977805240153175 0 -0.00097825963009785083 -0.010884364613383674 0 -0.0010667298674315951 -0.010601311991001724 0 -0.00097825963009785083 -0.010884364613383674 0 -0.00064938910004675148 -0.011051669656366331 0 -0.00097825963009785083 -0.010884364613383674 0 -0.00092955202493644738 -0.011007863941932542 0 -0.00064938910004675148 -0.011051669656366331 0 -0.00070493324071037853 -0.011215158121695072 0 -0.00063049432935629039 -0.011056903178934853 0 -0.00053518506649697902 -0.011501656326109942 0 -0.00064938910004675148 -0.011051669656366331 0 -0.00050195849355728005 -0.011547033211911513 0 -0.0011180877465870598 -0.011123765474410061 0 -0.001138352072703102 -0.010977805240153175 0 -0.00092955202493644738 -0.011007863941932542 0 -0.001138352072703102 -0.010977805240153175 0 -0.00097825963009785083 -0.010884364613383674 0 -0.00092955202493644738 -0.011007863941932542 0 -0.00046842405663128213 -0.011545936522436122 0 -0.00064938910004675148 -0.011051669656366331 0 -0.000329081305604656 -0.011388871582854732 0 -0.00046842405663128213 -0.011545936522436122 0 -0.000329081305604656 -0.011388871582854732 0 -0.00040297826850870037 -0.011728238317769623 0 -0.00046842405663128213 -0.011545936522436122 0 -0.00064938910004675148 -0.011051669656366331 0 -0.00050195849355728005 -0.011547033211911513 0 -0.00038929842230471772 -0.010824194003291366 0 -0.00064938910004675148 -0.011051669656366331 0 -0.000329081305604656 -0.011388871582854732 0 8.8533996110270929e-05 -0.010960168627405138 0 0.00024356096596777154 -0.01147167623420167 0 -0.000329081305604656 -0.011388871582854732 0 0.00024356096596777154 -0.01147167623420167 0 0.0002381664145264133 -0.012020561588043868 0 -0.00036942407727919772 -0.011973626153243912 0 0.00024356096596777154 -0.01147167623420167 0 -0.000329081305604656 -0.011388871582854732 0 -0.00036942407727919772 -0.011973626153243912 0 -0.000329081305604656 -0.011388871582854732 0 -0.00040297826850870037 -0.011728238317769623 0 -0.00036942407727919772 -0.011973626153243912 0 -0.00040297826850870037 -0.011728238317769623 0 -0.00036942407727919772 -0.011973626153243912 0 -0.00040837533003827074 -0.011658210291954295 0 -0.00036942407727919772 -0.011973626153243912 0 -0.00018808142107680685 -0.013781928225496185 0 0.00023663652027390483 -0.012735729711739361 0 0.0002381664145264133 -0.012020561588043868 0 -0.00036942407727919772 -0.011973626153243912 0 0.00023663652027390483 -0.012735729711739361 0 -0.0003974626132086784 -0.012122735789651907 0 -0.0003372000303592376 -0.012678149874448395 0 -0.00036942407727919772 -0.011973626153243912 0 -0.00052895501373886617 -0.011710681768519313 0 -0.00040837533003827074 -0.011658210291954295 0 -0.00040297826850870037 -0.011728238317769623 0 -0.00040837533003827074 -0.011658210291954295 0 -0.00042611311914349969 -0.011596740984142522 0 -0.00046842405663128213 -0.011545936522436122 0 -0.00040297826850870037 -0.011728238317769623 0 -0.00042611311914349969 -0.011596740984142522 0 -0.00046842405663128213 -0.011545936522436122 0 -0.00050195849355728005 -0.011547033211911513 0 -0.00042611311914349969 -0.011596740984142522 0 -0.00040690010369110011 -0.011522658748444691 0 -0.00050195849355728005 -0.011547033211911513 0 -0.00042611311914349969 -0.011596740984142522 0 -0.00037149688480733154 -0.011460420654666086 0 -0.00040690010369110011 -0.011522658748444691 0 -0.00042611311914349969 -0.011596740984142522 0 -0.00037149688480733154 -0.011460420654666086 0 -0.00042611311914349969 -0.011596740984142522 0 -0.00041950837924825077 -0.011462111921252247 0 -4.3505284776841037e-07 -0.010479501329777138 0 -0.00014487967032986314 -0.011472082065182207 0 -1.012396909588965e-07 -0.012427079269306997 0 -0.00040837533003827074 -0.011658210291954295 0 -0.00042611311914349969 -0.011596740984142522 0 -0.00041950837924825077 -0.011462111921252247 0 -0.00040837533003827074 -0.011658210291954295 0 -0.00041950837924825077 -0.011462111921252247 0 -0.00044215038032351545 -0.01156347099430277 0 -0.00016233199106842995 -0.011725256584094935 0 -0.00011602625856876997 -0.01205924246951693 0 -0.00013687425414221838 -0.012148358784539279 0 -0.0002918071936082509 -0.011599436549564194 0 -0.00036674452124362043 -0.011700472315874715 0 -0.00024542960266372933 -0.011255832568530395 0 -0.00016233199106842995 -0.011725256584094935 0 -0.00014487967032986314 -0.011472082065182207 0 -0.00016233199106842995 -0.011725256584094935 0 -0.00014487967032986314 -0.011472082065182207 0 -0.00011602625856876997 -0.01205924246951693 0 -0.00026261677641348295 -0.011316004751483021 0 -0.0002918071936082509 -0.011599436549564194 0 -0.00014487967032986314 -0.011472082065182207 0 -0.00011602625856876997 -0.01205924246951693 0 -1.012396909588965e-07 -0.012427079269306997 0 -1.012396909588965e-07 -0.012427079269306997 0 -4.5794027055414972e-05 -0.012582909453081272 0 0.00013345388246471004 -0.0136438156328755 0 -0.00011602625856876997 -0.01205924246951693 0 -1.012396909588965e-07 -0.012427079269306997 0 -4.5794027055414972e-05 -0.012582909453081272 0 -4.5794027055414972e-05 -0.012582909453081272 0 -0.00013687425414221838 -0.012148358784539279 0 0.00012484727036020117 -0.012322485142840027 0 -0.00011602625856876997 -0.01205924246951693 0 -4.5794027055414972e-05 -0.012582909453081272 0 -0.00013687425414221838 -0.012148358784539279 0 -0.00052895501373886617 -0.011710681768519313 0 -0.00040837533003827074 -0.011658210291954295 0 -0.00044215038032351545 -0.01156347099430277 0 -0.0003372000303592376 -0.012678149874448395 0 0.00012462920939719009 -0.013224929255610083 0 -0.00036674452124362043 -0.011700472315874715 0 0.00012462920939719009 -0.013224929255610083 0 -0.00052895501373886617 -0.011710681768519313 0 -0.00044215038032351545 -0.01156347099430277 0 -0.00057196134258694217 -0.011610291593842479 0 -0.00018808142107680685 -0.013781928225496185 0 0.00035900111655515747 -0.014633000485241911 0 0.0005315129744235599 -0.01425287087212157 0 0.00035900111655515747 -0.014633000485241911 0 0.00042336777224123723 -0.014460494620463393 0 0.0005315129744235599 -0.01425287087212157 0 -1.012396909588965e-07 -0.012427079269306997 0 0.00013345388246471004 -0.0136438156328755 0 2.1599825164726953e-07 -0.014999364754083394 0 0.00012462920939719009 -0.013224929255610083 0 0.00038085401440699992 -0.014566161673965456 0 0.00029190585098731969 -0.014698301521359694 0 0.00016235019947796384 -0.014461514036632159 0 0.00011026056028086115 -0.014690673611482409 0 0.00038085401440699992 -0.014566161673965456 0 0.0001553833228532093 -0.014653248473884065 0 0.00042336777224123723 -0.014460494620463393 0 0.00011026056028086115 -0.014690673611482409 0 0.0002845329051984591 -0.014602499488690017 0 0.00042336777224123723 -0.014460494620463393 0 0.0002845329051984591 -0.014602499488690017 0 0.0005315129744235599 -0.01425287087212157 0 0.00029190585098731969 -0.014698301521359694 0 0.00016235019947796384 -0.014461514036632159 0 0.00050747082421124081 -0.014316092192756088 0 0.00012462920939719009 -0.013224929255610083 0 0.00034783136041041717 -0.013568557521632215 0 -4.5794027055414972e-05 -0.012582909453081272 0 0.00012484727036020117 -0.012322485142840027 0 0.00021752501586139498 -0.012703065042502544 0 0.00064476712093062822 -0.014658827716615095 0 0.00029190585098731969 -0.014698301521359694 0 0.00050747082421124081 -0.014316092192756088 0 0.00034783136041041717 -0.013568557521632215 0 0.00018850223212643359 -0.013557673986160663 0 -4.5794027055414972e-05 -0.012582909453081272 0 0.00021752501586139498 -0.012703065042502544 0 0.00013345388246471004 -0.0136438156328755 0 0.00016235019947796384 -0.014461514036632159 0 0.00050747082421124081 -0.014316092192756088 0 0.00013345388246471004 -0.0136438156328755 0 0.00016235019947796384 -0.014461514036632159 0 0.00013345388246471004 -0.0136438156328755 0 6.1409006472968184e-06 -0.014552845151715526 0 2.1599825164726953e-07 -0.014999364754083394 0 6.1409006472968184e-06 -0.014552845151715526 0 -1.2449988023401995e-07 -0.014999010814247263 0 0.00013345388246471004 -0.0136438156328755 0 2.1599825164726953e-07 -0.014999364754083394 0 6.1409006472968184e-06 -0.014552845151715526 0 0.00016235019947796384 -0.014461514036632159 0 6.1409006472968184e-06 -0.014552845151715526 0 0.00011026056028086115 -0.014690673611482409 0 6.1409006472968184e-06 -0.014552845151715526 0 -1.2449988023401995e-07 -0.014999010814247263 0 0.00011026056028086115 -0.014690673611482409 0 -1.2449988023401995e-07 -0.014999010814247263 0 0.00011026056028086115 -0.014690673611482409 0 4.1299116981082047e-05 -0.014895379234120513 0 -1.2449988023401995e-07 -0.014999010814247263 0 4.1299116981082047e-05 -0.014895379234120513 0 1.1729536690440076e-07 -0.015000200421817562 0 4.1299116981082047e-05 -0.014895379234120513 0 8.3707564152212064e-05 -0.014943626264736706 0 1.1729536690440076e-07 -0.015000200421817562 0 8.3707564152212064e-05 -0.014943626264736706 0 0.00023776336939550525 -0.014876819605071853 0 0.00012871814855456093 -0.01499899612889017 0 4.1299116981082047e-05 -0.014895379234120513 0 8.3707564152212064e-05 -0.014943626264736706 0 0.00013836971380617045 -0.014789164213878428 0 8.3707564152212064e-05 -0.014943626264736706 0 0.00013836971380617045 -0.014789164213878428 0 0.00023776336939550525 -0.014876819605071853 0 0.00011026056028086115 -0.014690673611482409 0 4.1299116981082047e-05 -0.014895379234120513 0 0.00013836971380617045 -0.014789164213878428 0 0.00013836971380617045 -0.014789164213878428 0 0.0002845329051984591 -0.014602499488690017 0 0.00023776336939550525 -0.014876819605071853 0 0.00011026056028086115 -0.014690673611482409 0 0.00013836971380617045 -0.014789164213878428 0 0.0002845329051984591 -0.014602499488690017 0 0.00051549146307890961 -0.014220802851145195 0 0.00073761834779537605 -0.013518237844407205 0 -0.00018808142107680685 -0.013781928225496185 0 0.0005315129744235599 -0.01425287087212157 0 0.00023663652027390483 -0.012735729711739361 0 0.0002845329051984591 -0.014602499488690017 0 0.0005315129744235599 -0.01425287087212157 0 0.00041413870198772553 -0.014951997514259935 0 0.0005315129744235599 -0.01425287087212157 0 0.00023663652027390483 -0.012735729711739361 0 0.00093205283773548976 -0.012042756937255535 0 0.0002381664145264133 -0.012020561588043868 0 0.00023663652027390483 -0.012735729711739361 0 0.00093205283773548976 -0.012042756937255535 0 0.0002845329051984591 -0.014602499488690017 0 0.00041413870198772553 -0.014951997514259935 0 0.00023776336939550525 -0.014876819605071853 0 0.00023776336939550525 -0.014876819605071853 0 0.00018981812042852763 -0.015110377077214314 0 0.00012871814855456093 -0.01499899612889017 0 0.00041413870198772553 -0.014951997514259935 0 0.00023776336939550525 -0.014876819605071853 0 0.00023887516048603271 -0.015188292654448843 0 0.00041413870198772553 -0.014951997514259935 0 0.00023887516048603271 -0.015188292654448843 0 0.00032845242052825183 -0.015213581522415484 0 0.00073761834779537605 -0.013518237844407205 0 5.8002952265874964e-05 -0.013145322027071246 0 0.00023237867468975745 -0.015052746388724956 0 0.00021286738865152185 -0.014765769941115068 0 0.00024356096596777154 -0.01147167623420167 0 0.0002381664145264133 -0.012020561588043868 0 0.00093205283773548976 -0.012042756937255535 0 0.00024356096596777154 -0.01147167623420167 0 0.00093205283773548976 -0.012042756937255535 0 0.00091591034966944252 -0.01112883074539826 0 8.8533996110270929e-05 -0.010960168627405138 0 0.00024356096596777154 -0.01147167623420167 0 0.00091591034966944252 -0.01112883074539826 0 0.00026094203107308297 -0.01179121580870791 0 5.8002952265874964e-05 -0.013145322027071246 0 -5.6160477268981969e-05 -0.014512674332182824 0 0.00021286738865152185 -0.014765769941115068 0 -0.00010609501624710768 -0.014161290740325433 0 -7.8084765256203085e-05 -0.013887185278503951 0 5.5527095280674618e-05 -0.013933931426037679 0 0.00021286738865152185 -0.014765769941115068 0 5.8002952265874964e-05 -0.013145322027071246 0 -7.6533406705354074e-06 -0.014990611866624304 0 -5.5817654987673285e-06 -0.014996569975245344 0 -2.6696764111474478e-06 -0.01499578552292974 0 0.00021286738865152185 -0.014765769941115068 0 3.5558228306894854e-05 -0.015028051476947694 0 -5.5817654987673285e-06 -0.014996569975245344 0 -2.6696764111474478e-06 -0.01499578552292974 0 -1.3857368701973852e-06 -0.014999073956072055 0 6.3625069902980702e-09 -0.014999979598726109 0 -4.2873415216163133e-09 -0.015000009682387424 0 -1.3857368701973852e-06 -0.014999073956072055 0 6.3625069902980702e-09 -0.014999979598726109 0 -2.6696764111474478e-06 -0.01499578552292974 0 -1.3857368701973852e-06 -0.014999073956072055 0 8.3707564152212064e-05 -0.014943626264736706 0 1.1729536690440076e-07 -0.015000200421817562 0 7.4949005356317864e-05 -0.015047262065041254 0 1.3395786707512237e-08 -0.01500000999839048 0 3.5558228306894854e-05 -0.015028051476947694 0 0.00018981812042852763 -0.015110377077214314 0 7.4949005356317864e-05 -0.015047262065041254 0 0.00012871814855456093 -0.01499899612889017 0 8.3707564152212064e-05 -0.014943626264736706 0 7.4949005356317864e-05 -0.015047262065041254 0 0.00012871814855456093 -0.01499899612889017 0 -0.00081259825566206887 0.00059944916574523508 0 -0.0005824648042732863 0.00030418182812461125 0 -0.00095169128560376758 0.00013792314383596747 0 -0.00081259825566206887 0.00059944916574523508 0 -0.0012391399851041395 0.00073910109776048898 0 -0.00095169128560376758 0.00013792314383596747 0 -0.0012391399851041395 0.00073910109776048898 0 -0.00095169128560376758 0.00013792314383596747 0 -0.0014588487172478269 0.00032638605843732037 0 -0.0012391399851041395 0.00073910109776048898 0 -0.0015334318028351636 0.0011348626527426806 0 -0.00078067090334715599 0.0010776926898815582 0 -0.00081259825566206887 0.00059944916574523508 0 -0.00053620486902463869 0.00064802191380650771 0 -0.00078067090334715599 0.0010776926898815582 0 -0.00081259825566206887 0.00059944916574523508 0 -0.0012391399851041395 0.00073910109776048898 0 -0.00078067090334715599 0.0010776926898815582 0 -0.00019529701871654216 0.00077665039185671975 0 -0.00078067090334715599 0.0010776926898815582 0 -2.6388291796397953e-05 0.0010364845673483569 0 -0.00053620486902463869 0.00064802191380650771 0 -0.00019529701871654216 0.00077665039185671975 0 -0.00078067090334715599 0.0010776926898815582 0 -0.00019529701871654216 0.00077665039185671975 0 -3.6301358877366562e-05 0.00057355200551339374 0 -2.6388291796397953e-05 0.0010364845673483569 0 -3.6301358877366562e-05 0.00057355200551339374 0 -2.6388291796397953e-05 0.0010364845673483569 0 0.00031908014808156135 0.00045165508708559061 0 -0.00019529701871654216 0.00077665039185671975 0 -3.6301358877366562e-05 0.00057355200551339374 0 -0.00030639815988391306 0.00048463701977856263 0 -0.00064070911220780158 0.00051630763895298723 0 -0.00016668029416931594 -0.0016065791641368533 0 -3.6301358877366562e-05 0.00057355200551339374 0 -0.00030639815988391306 0.00048463701977856263 0 -5.797590671002208e-05 0.00020455016104344839 0 -0.00016668029416931594 -0.0016065791641368533 0 5.6849585454754362e-05 -0.0017858612675923197 0 -3.6301358877366562e-05 0.00057355200551339374 0 -5.797590671002208e-05 0.00020455016104344839 0 0.00031908014808156135 0.00045165508708559061 0 -0.00030639815988391306 0.00048463701977856263 0 -0.0005824648042732863 0.00030418182812461125 0 -0.00043979148527589854 -6.5741494497646772e-06 0 -0.00081259825566206887 0.00059944916574523508 0 -0.00053620486902463869 0.00064802191380650771 0 -0.0005824648042732863 0.00030418182812461125 0 -0.00053620486902463869 0.00064802191380650771 0 -0.00030639815988391306 0.00048463701977856263 0 -0.0005824648042732863 0.00030418182812461125 0 -0.00053620486902463869 0.00064802191380650771 0 -0.00019529701871654216 0.00077665039185671975 0 -0.00030639815988391306 0.00048463701977856263 0 -6.5924524154746178e-05 -0.00056554397456366583 0 -0.00012485186504322969 -0.00060303867601467509 0 -0.00087043961874063163 -0.00032983995707612756 0 -0.0005824648042732863 0.00030418182812461125 0 -0.00043979148527589854 -6.5741494497646772e-06 0 -0.00095169128560376758 0.00013792314383596747 0 -0.00059531749727726802 -0.0024312881893378941 0 -0.00036898571525081675 -0.002495691145017969 0 -0.00065035286275037471 -0.0024667286298266687 0 -0.00032479115176410253 -0.0011709275641463609 0 -0.0001608768261995758 -0.0011521204226853743 0 -0.00032479115176410253 -0.0011709275641463609 0 -0.00027458072475511358 -0.0016086176119538243 0 -0.00030639815988391306 0.00048463701977856263 0 -0.00043979148527589854 -6.5741494497646772e-06 0 -7.0165736136859562e-05 0.00023077503824826999 0 -0.00036898571525081675 -0.002495691145017969 0 -0.00065035286275037471 -0.0024667286298266687 0 0.00019840228857744582 -0.0027677590449726257 0 -0.0001608768261995758 -0.0011521204226853743 0 -1.1467061241275433e-05 -0.0030995071569230831 0 -0.00016668029416931594 -0.0016065791641368533 0 0.00021105322411069203 -0.003632767406917405 0 -0.00032479115176410253 -0.0011709275641463609 0 -0.00016668029416931594 -0.0016065791641368533 0 -0.00059494560738395763 -0.0024360986048845676 0 -0.00036898571525081675 -0.002495691145017969 0 -4.5553552020102463e-05 -0.0020748097300171474 0 -0.00036898571525081675 -0.002495691145017969 0 -4.5553552020102463e-05 -0.0020748097300171474 0 5.5636236470735389e-05 -0.0026355248365954125 0 -4.5553552020102463e-05 -0.0020748097300171474 0 5.5636236470735389e-05 -0.0026355248365954125 0 0.00038255814024216621 -0.0025229672136824451 0 -0.00036898571525081675 -0.002495691145017969 0 5.5636236470735389e-05 -0.0026355248365954125 0 0.00019840228857744582 -0.0027677590449726257 0 5.5636236470735389e-05 -0.0026355248365954125 0 0.00020081965551010643 -0.0027745473036671006 0 0.00038255814024216621 -0.0025229672136824451 0 7.7170031387582374e-05 -0.0025228968116188344 0 0.00020449329306837429 -0.0025341130507599272 0 0.00015143413196651889 -0.0026213779828412596 0 -4.1981389548809913e-05 -0.0029529895917017315 0 -1.1467061241275433e-05 -0.0030995071569230831 0 7.7170031387582374e-05 -0.0025228968116188344 0 1.3694230409827585e-05 -0.0026147204778323384 0 7.2346053410157537e-05 -0.0026430133075212147 0 7.7170031387582374e-05 -0.0025228968116188344 0 7.2346053410157537e-05 -0.0026430133075212147 0 0.00015143413196651889 -0.0026213779828412596 0 -0.0001608768261995758 -0.0011521204226853743 0 -0.00010109314061178054 -0.0011023354480270981 0 1.3694230409827585e-05 -0.0026147204778323384 0 2.3874622170407698e-05 -0.002618645549445808 0 7.2346053410157537e-05 -0.0026430133075212147 0 -0.00019120600566692689 0.00040417433036323274 0 -0.00031457536516679816 0.00033432636105960764 0 -0.00030458219364863811 0.00045652994227754267 0 -0.0001608768261995758 -0.0011521204226853743 0 -0.00071345537050585635 0.00029868527477501543 0 -0.00032479115176410253 -0.0011709275641463609 0 -0.00071345537050585635 0.00029868527477501543 0 -0.00071345537050585635 0.00029868527477501543 0 -0.0011520016994758049 0.00058330879933203171 0 -0.00071345537050585635 0.00029868527477501543 0 -0.00058286582201796694 0.00066143614222810261 0 -0.00030458219364863811 0.00045652994227754267 0 -0.00039472669440230549 0.00038886295538085518 0 -0.00042497646467778863 0.00050544059056160354 0 -0.0006408992725360598 0.00070313692682312957 0 -0.0008350905915174428 0.00079888680609326208 0 -0.00083840858629600254 0.00081572403421121598 0 -0.00031457536516679816 0.00033432636105960764 0 -0.00039472669440230549 0.00038886295538085518 0 -0.00043920944311037947 0.00025592957854972257 0 -0.00031457536516679816 0.00033432636105960764 0 -0.00030458219364863811 0.00045652994227754267 0 -0.00039472669440230549 0.00038886295538085518 0 1.3694230409827585e-05 -0.0026147204778323384 0 2.3874622170407698e-05 -0.002618645549445808 0 8.4762449660104127e-05 -0.0026349942790377958 0 -0.00039472669440230549 0.00038886295538085518 0 -0.00049405704027480845 0.00039207143713233225 0 -0.00043920944311037947 0.00025592957854972257 0 -0.00049405704027480845 0.00039207143713233225 0 -0.00054229380873427476 0.00028295055094042888 0 -0.00043920944311037947 0.00025592957854972257 0 -0.00049405704027480845 0.00039207143713233225 0 -0.00063490848721119294 0.00039428078738783793 0 -0.00054229380873427476 0.00028295055094042888 0 -0.00049405704027480845 0.00039207143713233225 0 -0.00063490848721119294 0.00039428078738783793 0 -0.00055149923382056371 0.00055482967427668707 0 -0.00063490848721119294 0.00039428078738783793 0 -0.00068524341824983666 0.00060269623515820574 0 -0.00055149923382056371 0.00055482967427668707 0 -0.00039472669440230549 0.00038886295538085518 0 -0.00049405704027480845 0.00039207143713233225 0 -0.00042497646467778863 0.00050544059056160354 0 -0.00049405704027480845 0.00039207143713233225 0 -0.00042497646467778863 0.00050544059056160354 0 -0.00055149923382056371 0.00055482967427668707 0 0.00042952832840163855 0.0028589982846572068 0 0.00084612075441742253 0.002826347869162674 0 0.000483730868437178 0.0031418663677806168 0 0.00075613216176588017 0.0028295550907811032 0 0.00044299222564332267 0.0029988843289541511 0 0.00074250770166230638 0.0027732430661792217 0 0.00060085807039255443 0.0025568490007665053 0 0.00037487817129616051 0.0029178922648042567 0 0.00074250770166230638 0.0027732430661792217 0 0.00049963557088653272 0.0030821637764749583 0 0.00060305001214228961 0.003246238026973013 0 7.8523405779990684e-05 0.0016052951975413089 0 -0.00040139771617649631 0.0018786963487337218 0 0.00074250770166230638 0.0027732430661792217 0 0.00037487817129616051 0.0029178922648042567 0 0.00049963557088653272 0.0030821637764749583 0 0.00044299222564332267 0.0029988843289541511 0 0.00027158787424689217 0.0032224490248039198 0 0.00037487817129616051 0.0029178922648042567 0 0.00038568073755556817 0.0031885818760695162 0 0.00025590294067645108 0.0032371439586758909 0 0.00037487817129616051 0.0029178922648042567 0 0.00049963557088653272 0.0030821637764749583 0 0.00038568073755556817 0.0031885818760695162 0 0.00038568073755556817 0.0031885818760695162 0 0.00034031301021955341 0.0033461391166235664 0 0.00025590294067645108 0.0032371439586758909 0 0.00038568073755556817 0.0031885818760695162 0 0.00046843803858829874 0.0032663405422242546 0 0.00034031301021955341 0.0033461391166235664 0 0.00049963557088653272 0.0030821637764749583 0 0.00038568073755556817 0.0031885818760695162 0 0.00046843803858829874 0.0032663405422242546 0 -0.0011811942470887143 0.00099388732824787088 0 -0.0011724412674682194 0.00095188509530725804 0 -0.0010177551459083305 0.00091311800427478461 0 0.00046843803858829874 0.0032663405422242546 0 0.00054244688811327468 0.0032888763859344468 0 0.00055186712680221038 0.0032385775237796532 0 0.00032956353054161422 0.0025179298238832987 0 -0.00040139771617649631 0.0018786963487337218 0 -0.00098209314164124525 0.0019646336604968681 0 -0.00040139771617649631 0.0018786963487337218 0 0.00049963557088653272 0.0030821637764749583 0 0.00046843803858829874 0.0032663405422242546 0 0.00060305001214228961 0.003246238026973013 0 -0.0024404852377508317 0.00069233538499762816 0 -0.0025314448331349125 0.001092082100858886 0 -0.0020983636393754339 0.00092994862468767571 0 -0.00098209314164124525 0.0019646336604968681 0 -0.0016720413932443078 0.0018242543615413637 0 0.00046843803858829874 0.0032663405422242546 0 0.00054244688811327468 0.0032888763859344468 0 0.00034031301021955341 0.0033461391166235664 0 -0.00093632946077568298 0.0029990122969270638 0 -0.00085887542930334953 0.0026596836284881659 0 -0.00053674072351328863 0.002884065798249528 0 -0.00098209314164124525 0.0019646336604968681 0 1.0053717061360117e-05 0.0031049074686152625 0 -0.00085887542930334953 0.0026596836284881659 0 -0.00053674072351328863 0.002884065798249528 0 -0.00045545210556757564 0.002536366754760217 0 -0.00083840858629600254 0.00081572403421121598 0 -0.0010177551459083305 0.00091311800427478461 0 -0.0010115762837343196 0.00088317918498871325 0 -0.0008350905915174428 0.00079888680609326208 0 -0.00083840858629600254 0.00081572403421121598 0 -0.0010115762837343196 0.00088317918498871325 0 -0.0012391399851041395 0.00073910109776048898 0 -0.0014588487172478269 0.00032638605843732037 0 -0.0019582588284829615 0.00051315974116929728 0 -0.0011520016994758049 0.00058330879933203171 0 -0.0015945155233854594 0.00065787925907196277 0 -0.00058286582201796694 0.00066143614222810261 0 -0.00084848159236204407 0.0006684917354265517 0 -0.00098209314164124525 0.0019646336604968681 0 -0.0015945155233854594 0.00065787925907196277 0 -0.00040139771617649631 0.0018786963487337218 0 -0.00084848159236204407 0.0006684917354265517 0 -0.0011724412674682194 0.00095188509530725804 0 -0.0010177551459083305 0.00091311800427478461 0 -0.0010115762837343196 0.00088317918498871325 0 -0.0019582588284829615 0.00051315974116929728 0 -0.0020983636393754339 0.00092994862468767571 0 -0.0015334318028351636 0.0011348626527426806 0 -0.0024404852377508317 0.00069233538499762816 0 -0.0019582588284829615 0.00051315974116929728 0 -0.0020983636393754339 0.00092994862468767571 0 -0.0012391399851041395 0.00073910109776048898 0 -0.0019582588284829615 0.00051315974116929728 0 -0.0015334318028351636 0.0011348626527426806 0 -0.0015334318028351636 0.0011348626527426806 0 -0.0019461820356585441 0.0012313079835916012 0 -0.0019307357397774958 0.0015375062311114858 0 -0.0020983636393754339 0.00092994862468767571 0 -0.0019461820356585441 0.0012313079835916012 0 -0.0023021132331114101 0.0013910043265816202 0 -0.0019461820356585441 0.0012313079835916012 0 -0.0019307357397774958 0.0015375062311114858 0 -0.0023021132331114101 0.0013910043265816202 0 -0.0020983636393754339 0.00092994862468767571 0 -0.0015334318028351636 0.0011348626527426806 0 -0.0019461820356585441 0.0012313079835916012 0 -0.0019307357397774958 0.0015375062311114858 0 -0.0023021132331114101 0.0013910043265816202 0 -0.0022994375283924033 0.0017050402166797942 0 -0.0019307357397774958 0.0015375062311114858 0 -0.0022994375283924033 0.0017050402166797942 0 -0.0019437996582248528 0.0019231061487797125 0 -0.0015334318028351636 0.0011348626527426806 0 -0.0019307357397774958 0.0015375062311114858 0 -0.001559798027900334 0.0018411455552706428 0 -0.0019307357397774958 0.0015375062311114858 0 -0.001559798027900334 0.0018411455552706428 0 -0.0019437996582248528 0.0019231061487797125 0 -0.00085887542930334953 0.0026596836284881659 0 -0.00078143006430036696 0.0023121274457729712 0 -0.00045545210556757564 0.002536366754760217 0 -0.0015058491115214066 0.0036004590981389886 0 -0.00053649326230397094 0.003811281916120911 0 -0.00071638127635473953 0.0041456465135161448 0 -0.0015017519691289739 0.002342072426640376 0 -0.00052329384957527057 0.0033896566380374627 0 -0.0025314448331349125 0.001092082100858886 0 -0.0023021132331114101 0.0013910043265816202 0 -0.0026181805018286519 0.0014950461586351145 0 -0.0025314448331349125 0.001092082100858886 0 -0.0020983636393754339 0.00092994862468767571 0 -0.0023021132331114101 0.0013910043265816202 0 -0.0016720413932443078 0.0018242543615413637 0 -0.0015017519691289739 0.002342072426640376 0 -0.0023021132331114101 0.0013910043265816202 0 -0.0025626724564246531 0.0015333770036874722 0 -0.0026181805018286519 0.0014950461586351145 0 -0.0023021132331114101 0.0013910043265816202 0 -0.0022994375283924033 0.0017050402166797942 0 -0.002411975644473637 0.0015806078087420143 0 -0.0022994375283924033 0.0017050402166797942 0 -0.0025749457786275942 0.0018604605660855192 0 -0.0022480276970825485 0.0019351930691016369 0 -0.0022994375283924033 0.0017050402166797942 0 -0.0025057179385398736 0.0016932434684854593 0 -0.0025816396740549756 0.0018713708432942454 0 -0.0022295349222729122 0.0018890515507661966 0 -0.0021508725697071667 0.0029074457552056812 0 -0.0023021132331114101 0.0013910043265816202 0 -0.002411975644473637 0.0015806078087420143 0 -0.0025626724564246531 0.0015333770036874722 0 -0.0025057179385398736 0.0016932434684854593 0 -0.002411975644473637 0.0015806078087420143 0 -0.0025626724564246531 0.0015333770036874722 0 -0.0022994375283924033 0.0017050402166797942 0 -0.0025057179385398736 0.0016932434684854593 0 -0.002411975644473637 0.0015806078087420143 0 -0.0015597760550966524 0.0035467229494902035 0 -0.00062731812960269281 0.004879324222344059 0 -0.0015058491115214066 0.0036004590981389886 0 -0.0013671232928546672 0.0030038299696840656 0 -0.00053649326230397094 0.003811281916120911 0 -0.0010684213228423446 0.0054456342204130554 0 -0.00081874004937079086 0.005303899958367656 0 -0.00065845538546265698 0.0054620306695626819 0 -0.0015017519691289739 0.002342072426640376 0 -0.0015597760550966524 0.0035467229494902035 0 -0.0025057179385398736 0.0016932434684854593 0 -0.0025626724564246531 0.0015333770036874722 0 -0.0026792216794520878 0.001776185519323003 0 -0.0025626724564246531 0.0015333770036874722 0 -0.0026162636936023047 0.0014968019753465968 0 -0.0026792216794520878 0.001776185519323003 0 -0.0017867986021255051 0.0021399852791611756 0 -0.0015017519691289739 0.002342072426640376 0 -0.0025057179385398736 0.0016932434684854593 0 -0.0026792216794520878 0.001776185519323003 0 -0.0025816396740549756 0.0018713708432942454 0 -0.0017526149320342612 0.003315256525519234 0 -0.0017963028673089029 0.0034998557324507447 0 -0.0016475266035963589 0.0034181031538870186 0 -0.0015597760550966524 0.0035467229494902035 0 -0.0021508725697071667 0.0029074457552056812 0 -0.0015597760550966524 0.0035467229494902035 0 -0.001834585517069537 0.0039481243091646287 0 -0.0018735758545131334 0.0038504141481771003 0 -0.001933884189560199 0.0039458060926629819 0 -0.001690056869820121 0.0038283779314734023 0 -0.001834585517069537 0.0039481243091646287 0 -0.0010427261963835907 0.0051474077878314838 0 -0.0010368668200744851 0.0053022335102400247 0 -0.00069655748704470512 0.0051216268107714836 0 -0.00081874004937079086 0.005303899958367656 0 -0.0018356057706195176 0.0037903096331235258 0 -0.0018735758545131334 0.0038504141481771003 0 -0.001690056869820121 0.0038283779314734023 0 -0.0018356057706195176 0.0037903096331235258 0 -0.0018735758545131334 0.0038504141481771003 0 -0.0019558768345165779 0.003818802060239183 0 -0.0010684213228423446 0.0054456342204130554 0 -0.0010368668200744851 0.0053022335102400247 0 -0.00081874004937079086 0.005303899958367656 0 -0.001933884189560199 0.0039458060926629819 0 -0.0019789965519580806 0.0038943821683210837 0 -0.0019348811938209843 0.0038745680637882231 0 -0.0018735758545131334 0.0038504141481771003 0 -0.001933884189560199 0.0039458060926629819 0 -0.0019348811938209843 0.0038745680637882231 0 -0.001834585517069537 0.0039481243091646287 0 -0.0021508725697071667 0.0029074457552056812 0 -0.001933884189560199 0.0039458060926629819 0 -0.0020179857041745125 0.003987557400242708 0 -0.0019789965519580806 0.0038943821683210837 0 -0.0019789965519580806 0.0038943821683210837 0 -0.0019558768345165779 0.003818802060239183 0 -0.0020805475552173572 0.0037989550943832145 0 -0.0019789965519580806 0.0038943821683210837 0 -0.0019348811938209843 0.0038745680637882231 0 -0.0019558768345165779 0.003818802060239183 0 -0.0018735758545131334 0.0038504141481771003 0 -0.0019348811938209843 0.0038745680637882231 0 -0.0019558768345165779 0.003818802060239183 0 -0.0021508725697071667 0.0029074457552056812 0 -0.0021463424248699733 0.0027400540422917912 0 -0.0020179857041745125 0.003987557400242708 0 -0.0020805475552173572 0.0037989550943832145 0 -0.0022713002373678012 0.0037364762099368893 0 -0.0025749457786275942 0.0018604605660855192 0 -0.0022480276970825485 0.0019351930691016369 0 -0.0021736629465380348 0.00225218692550348 0 -0.0020179857041745125 0.003987557400242708 0 -0.0019789965519580806 0.0038943821683210837 0 -0.0020805475552173572 0.0037989550943832145 0 -0.0024867553988460432 0.0026718214336900791 0 -0.0023549233065737556 0.0025796611807102901 0 -0.001969321576351578 0.0024726481764379723 0 -0.0020805475552173572 0.0037989550943832145 0 -0.0021557916640774681 0.0035792383649052842 0 -0.0022713002373678012 0.0037364762099368893 0 -0.0021953407079847061 0.0036391816021631523 0 -0.0021463424248699733 0.0027400540422917912 0 -0.0023549233065737556 0.0025796611807102901 0 -0.002411810966803497 0.0025590581199431469 0 -0.0022099383665719566 0.002270531227763716 0 -0.0024867553988460432 0.0026718214336900791 0 -0.0023549233065737556 0.0025796611807102901 0 -0.002410937484618353 0.0025604023856269776 0 -0.002276833986581277 0.0035542592641324131 0 -0.0021953407079847061 0.0036391816021631523 0 -0.0021642964252346127 0.0048766804600064413 0 -0.0021611214020207854 0.0048701477830982902 0 -0.0021772398943051929 0.0048717858148424114 0 -0.0021953407079847061 0.0036391816021631523 0 -0.0021139912878106112 0.0042517881872328727 0 -0.002304446774554349 0.0035757813234569853 0 -0.0021953407079847061 0.0036391816021631523 0 -0.0020805475552173572 0.0037989550943832145 0 -0.0021557916640774681 0.0035792383649052842 0 -0.0019283106929865556 0.0036698749337434259 0 -0.0019558768345165779 0.003818802060239183 0 -0.0020805475552173572 0.0037989550943832145 0 -0.0019283106929865556 0.0036698749337434259 0 -0.0018356057706195176 0.0037903096331235258 0 -0.0019558768345165779 0.003818802060239183 0 -0.0019283106929865556 0.0036698749337434259 0 -0.0021139912878106112 0.0042517881872328727 0 -0.0016353171049454487 0.0053144651448915987 0 -0.0018356057706195176 0.0037903096331235258 0 -0.0019283106929865556 0.0036698749337434259 0 -0.0016970125938424669 0.0037647614759132838 0 -0.001559798027900334 0.0018411455552706428 0 -0.0018042500826321469 0.0021666483960551207 0 -0.0019437996582248528 0.0019231061487797125 0 -0.001559798027900334 0.0018411455552706428 0 -0.0018042500826321469 0.0021666483960551207 0 -0.001488563341349661 0.0022469375115173867 0 -0.0018042500826321469 0.0021666483960551207 0 -0.0019437996582248528 0.0019231061487797125 0 -0.0022043627009651181 0.0022658016025526445 0 -0.0022994375283924033 0.0017050402166797942 0 -0.0022480276970825485 0.0019351930691016369 0 -0.0019437996582248528 0.0019231061487797125 0 -0.0019006508529914976 0.0018658120698479559 0 -0.0021463424248699733 0.0027400540422917912 0 -0.0022480276970825485 0.0019351930691016369 0 -0.0019437996582248528 0.0019231061487797125 0 -0.0021736629465380348 0.00225218692550348 0 -0.0018042500826321469 0.0021666483960551207 0 -0.0019493697567931597 0.0023380574506259686 0 -0.0022043627009651181 0.0022658016025526445 0 -0.0019493697567931597 0.0023380574506259686 0 -0.001969321576351578 0.0024726481764379723 0 -0.0017300447193113852 0.0024138373177788465 0 -0.002304446774554349 0.0035757813234569853 0 -0.0020200446680225755 0.0023574477293878981 0 -0.0019493697567931597 0.0023380574506259686 0 -0.0020681021991815849 0.0024051992642607775 0 -0.001969321576351578 0.0024726481764379723 0 -0.0023549233065737556 0.0025796611807102901 0 -0.0022099383665719566 0.002270531227763716 0 -0.0020681021991815849 0.0024051992642607775 0 -0.0019493697567931597 0.0023380574506259686 0 -0.0022043627009651181 0.0022658016025526445 0 -0.0020681021991815849 0.0024051992642607775 0 -0.0021463424248699733 0.0027400540422917912 0 -0.0022178437429528335 0.0024905972598260962 0 -0.0023549233065737556 0.0025796611807102901 0 -0.0020681021991815849 0.0024051992642607775 0 -0.001969321576351578 0.0024726481764379723 0 -0.0019403622742679197 0.0026520621331189483 0 -0.001969321576351578 0.0024726481764379723 0 -0.0018348640411225694 0.0025726013332650613 0 -0.001969321576351578 0.0024726481764379723 0 -0.0018348640411225694 0.0025726013332650613 0 -0.0017300447193113852 0.0024138373177788465 0 -0.001684482319789555 0.002718331296584955 0 -0.0018348640411225694 0.0025726013332650613 0 -0.0017300447193113852 0.0024138373177788465 0 -0.001684482319789555 0.002718331296584955 0 -0.0017300447193113852 0.0024138373177788465 0 -0.001488563341349661 0.0022469375115173867 0 -0.0018042500826321469 0.0021666483960551207 0 -0.0019493697567931597 0.0023380574506259686 0 -0.0017300447193113852 0.0024138373177788465 0 -0.0018042500826321469 0.0021666483960551207 0 -0.0017300447193113852 0.0024138373177788465 0 -0.001488563341349661 0.0022469375115173867 0 -0.0018086339018229917 0.0028443952431017388 0 -0.0012585660442454363 0.0024406709002944339 0 -0.001684482319789555 0.002718331296584955 0 -0.001488563341349661 0.0022469375115173867 0 -0.0010762555634614033 0.0023468716063205627 0 -0.00099782015951313009 0.0028717841435953171 0 -0.0014545427196554152 0.0025437995623302312 0 -0.00096594842494206331 0.0024957822732589135 0 -0.0011251079921556883 0.0019670315915037398 0 -0.00084599213958044058 0.0016846405884285373 0 -0.00076529225630602566 0.0020556437505609509 0 -0.0010762555634614033 0.0023468716063205627 0 -0.0011251079921556883 0.0019670315915037398 0 -0.00076529225630602566 0.0020556437505609509 0 -0.0010762555634614033 0.0023468716063205627 0 -0.00076529225630602566 0.0020556437505609509 0 -0.00053334125281646622 0.0020071976758913555 0 -0.0012585660442454363 0.0024406709002944339 0 -0.00063953373638139419 0.0020540956260420747 0 -0.001559798027900334 0.0018411455552706428 0 -0.001488563341349661 0.0022469375115173867 0 -0.0011251079921556883 0.0019670315915037398 0 -0.001488563341349661 0.0022469375115173867 0 -0.0010762555634614033 0.0023468716063205627 0 -0.0011251079921556883 0.0019670315915037398 0 -0.0015334318028351636 0.0011348626527426806 0 -0.001559798027900334 0.0018411455552706428 0 -0.0011705208766598578 0.0015588544802653548 0 -0.001559798027900334 0.0018411455552706428 0 -0.0011251079921556883 0.0019670315915037398 0 -0.0011705208766598578 0.0015588544802653548 0 -0.0011251079921556883 0.0019670315915037398 0 -0.0011705208766598578 0.0015588544802653548 0 -0.00084599213958044058 0.0016846405884285373 0 -0.0011705208766598578 0.0015588544802653548 0 -0.00084599213958044058 0.0016846405884285373 0 -0.000862237129179055 0.0011360974428043791 0 -0.0015334318028351636 0.0011348626527426806 0 -0.0011705208766598578 0.0015588544802653548 0 -0.000862237129179055 0.0011360974428043791 0 -0.0015242593807936759 0.0011090335025901476 0 -0.00078366795427036026 0.001191735462005845 0 -0.00026287089767682617 0.0010443339724760582 0 -0.00053388445667081779 0.0015539498042259892 0 -7.7103605307838775e-05 0.0013495863138398498 0 -0.00030410861111770357 0.00049815003622897961 0 -0.00052464739289057039 0.001681859313286387 0 -0.00078366795427036026 0.001191735462005845 0 -0.00030410861111770357 0.00049815003622897961 0 -0.00084599213958044058 0.0016846405884285373 0 -0.000862237129179055 0.0011360974428043791 0 -0.00046928234403425032 0.0015892900179313308 0 -0.000862237129179055 0.0011360974428043791 0 -0.0001880764132458723 0.0011136585786882573 0 -0.00046928234403425032 0.0015892900179313308 0 -0.00052464739289057039 0.001681859313286387 0 -0.00073290732789309254 0.0019790032037115624 0 -0.00084599213958044058 0.0016846405884285373 0 -0.00046928234403425032 0.0015892900179313308 0 -0.00076529225630602566 0.0020556437505609509 0 -0.00028120111208435327 0.0016536261459636074 0 -0.00053334125281646622 0.0020071976758913555 0 2.3996977676160413e-05 0.0016905814198898952 0 -0.00053388445667081779 0.0015539498042259892 0 -0.00028120111208435327 0.0016536261459636074 0 -7.7103605307838775e-05 0.0013495863138398498 0 -0.00053388445667081779 0.0015539498042259892 0 -0.00028120111208435327 0.0016536261459636074 0 -0.00053334125281646622 0.0020071976758913555 0 -0.00025740503548822216 0.0021867891391332221 0 -0.0007613755527312295 0.0021012791425756789 0 2.3996977676160413e-05 0.0016905814198898952 0 -0.00025740503548822216 0.0021867891391332221 0 -0.0007613755527312295 0.0021012791425756789 0 -0.00063694116272396302 0.0024586473228884681 0 -0.00063953373638139419 0.0020540956260420747 0 -7.0948565412969302e-06 0.001709228294597781 0 -0.00053388445667081779 0.0015539498042259892 0 -0.00076529225630602566 0.0020556437505609509 0 -0.00053334125281646622 0.0020071976758913555 0 -0.0014545427196554152 0.0025437995623302312 0 -0.0007613755527312295 0.0021012791425756789 0 -0.00096594842494206331 0.0024957822732589135 0 -0.0007613755527312295 0.0021012791425756789 0 -0.00096594842494206331 0.0024957822732589135 0 -0.00063694116272396302 0.0024586473228884681 0 -0.00099782015951313009 0.0028717841435953171 0 -0.00096594842494206331 0.0024957822732589135 0 -0.00063694116272396302 0.0024586473228884681 0 -0.00099782015951313009 0.0028717841435953171 0 -0.00063694116272396302 0.0024586473228884681 0 -0.00021880570043921686 0.0026278938316111264 0 -0.00025740503548822216 0.0021867891391332221 0 -0.00063694116272396302 0.0024586473228884681 0 -0.00021880570043921686 0.0026278938316111264 0 -0.0006501726748068769 0.0028924001748209301 0 -0.00033895705606323595 0.00085739498091055117 0 -0.00025740503548822216 0.0021867891391332221 0 -0.00021880570043921686 0.0026278938316111264 0 0.00016678172917856956 0.0020866336200026868 0 -0.00021880570043921686 0.0026278938316111264 0 0.00016678172917856956 0.0020866336200026868 0 0.00055194689721778769 0.0023493891523965115 0 -0.00025740503548822216 0.0021867891391332221 0 0.00016678172917856956 0.0020866336200026868 0 2.3996977676160413e-05 0.0016905814198898952 0 0.00016678172917856956 0.0020866336200026868 0 2.3996977676160413e-05 0.0016905814198898952 0 0.00027529601866536994 0.0017696690934088661 0 0.00016678172917856956 0.0020866336200026868 0 0.00058622372595240287 0.0018858230814488928 0 0.00055194689721778769 0.0023493891523965115 0 -0.00014598695865133702 -0.00092943762049247107 0 -0.0001707914699136003 -0.00069499607804655167 0 -4.6563443945514459e-05 -0.0007380928049176734 0 2.4507379613281033e-05 -0.00089889139430448085 0 -0.00033895705606323595 0.00085739498091055117 0 0.00016678172917856956 0.0020866336200026868 0 0.00058622372595240287 0.0018858230814488928 0 0.00027529601866536994 0.0017696690934088661 0 2.4507379613281033e-05 -0.00089889139430448085 0 -0.00051239152389439603 -0.0022186982121876527 0 -0.00073360960308783388 0.0027676640974271462 0 -0.0011181927573848175 0.0027236166449845787 0 -0.00070845769192337093 0.0025446401076634536 0 -0.00033895705606323595 0.00085739498091055117 0 -0.00051239152389439603 -0.0022186982121876527 0 -0.00096851646666697502 -0.0015487369068608915 0 -0.00073666367378840433 -0.0013763231751431208 0 -0.00054798552070444827 -0.0016852378646541855 0 -0.001032474049284785 -0.00086564301221477567 0 -0.00073666367378840433 -0.0013763231751431208 0 -0.00039770514725767945 -0.0014055687917420416 0 -0.0008100180591319936 -0.00038681109702631968 0 -0.00033895705606323595 0.00085739498091055117 0 -0.001032474049284785 -0.00086564301221477567 0 -0.00096851646666697502 -0.0015487369068608915 0 -0.00073666367378840433 -0.0013763231751431208 0 -0.0010519132210261668 -0.0034062110884233586 0 -0.00094401478398590079 -0.0032049748820831541 0 -0.0004952553010224111 -0.0035851237471972099 0 -0.0012679221201364406 -0.005138757448042694 0 -0.0012277176616195256 -0.0050769217093846906 0 -0.0012959133232005528 -0.0051172786323077724 0 -0.0012679221201364406 -0.005138757448042694 0 -0.001335636597120736 -0.0051704661110842601 0 -0.0012937791653571883 -0.0051780482146369169 0 -0.0008100180591319936 -0.00038681109702631968 0 -0.00099780788971999329 -0.0038142450642759409 0 -0.0014688532061751399 -0.0055039321260700134 0 -0.00099780788971999329 -0.0038142450642759409 0 -0.00099780788971999329 -0.0038142450642759409 0 -0.00069921238157189913 -0.0041558808515320313 0 -0.00051239152389439603 -0.0022186982121876527 0 -0.00099780788971999329 -0.0038142450642759409 0 -0.00073666367378840433 -0.0013763231751431208 0 -0.00054798552070444827 -0.0016852378646541855 0 -0.00039770514725767945 -0.0014055687917420416 0 -0.0012277176616195256 -0.0050769217093846906 0 -0.0012959133232005528 -0.0051172786323077724 0 -0.0012867839015446038 -0.0050684957469807933 0 -0.0012277176616195256 -0.0050769217093846906 0 -0.0012867839015446038 -0.0050684957469807933 0 -0.0012722675530171385 -0.0050353008580030422 0 -0.0013388910344464731 -0.0051445516617958029 0 -0.0012959133232005528 -0.0051172786323077724 0 -0.0013286631815571104 -0.0050996424061864982 0 -0.0012959133232005528 -0.0051172786323077724 0 -0.0012867839015446038 -0.0050684957469807933 0 -0.0013286631815571104 -0.0050996424061864982 0 -0.0012867839015446038 -0.0050684957469807933 0 -0.001321660191142048 -0.005050025511631139 0 -0.0013286631815571104 -0.0050996424061864982 0 -0.001321660191142048 -0.005050025511631139 0 -0.0012849807769566093 -0.0050297316188647589 0 -0.0013411034557533608 -0.0049705737261243584 0 -0.0012849807769566093 -0.0050297316188647589 0 -0.0012680194991745277 -0.0050348140223589162 0 -0.0013411034557533608 -0.0049705737261243584 0 -0.00069921238157189913 -0.0041558808515320313 0 -0.00097459962861473008 -0.004619560675649342 0 -0.00019413632014219918 -0.0034635286434060867 0 -0.00013660375486796724 -0.0037039582883717742 0 0.00014183624689305627 -0.0037549718982020108 0 -0.0012867839015446038 -0.0050684957469807933 0 -0.001321660191142048 -0.005050025511631139 0 -0.0012849807769566093 -0.0050297316188647589 0 -0.0012867839015446038 -0.0050684957469807933 0 -0.0012849807769566093 -0.0050297316188647589 0 -0.0012722675530171385 -0.0050353008580030422 0 -0.00085239849629290822 -0.0042430948812475179 0 -0.00069921238157189913 -0.0041558808515320313 0 -0.00019413632014219918 -0.0034635286434060867 0 -0.00013660375486796724 -0.0037039582883717742 0 -0.00026481598719198599 -0.0036409594918598029 0 -0.00051239152389439603 -0.0022186982121876527 0 -0.00069921238157189913 -0.0041558808515320313 0 -0.0005319242619934182 -0.0033450692530143269 0 -0.00019413632014219918 -0.0034635286434060867 0 -0.00041537821072220693 -0.0035780380096411767 0 -0.00068296955944745317 -0.0036291761089192716 0 -0.0005319242619934182 -0.0033450692530143269 0 -0.00041537821072220693 -0.0035780380096411767 0 -0.00019413632014219918 -0.0034635286434060867 0 -0.00026481598719198599 -0.0036409594918598029 0 -0.00041537821072220693 -0.0035780380096411767 0 -0.00026481598719198599 -0.0036409594918598029 0 -0.00041537821072220693 -0.0035780380096411767 0 -0.00031354071864600724 -0.0038187959493474195 0 -0.00068296955944745317 -0.0036291761089192716 0 -0.00041537821072220693 -0.0035780380096411767 0 -0.0004906169747044977 -0.0038608595996052126 0 -0.00041537821072220693 -0.0035780380096411767 0 -0.0004906169747044977 -0.0038608595996052126 0 -0.00031354071864600724 -0.0038187959493474195 0 -0.0004906169747044977 -0.0038608595996052126 0 -0.00031354071864600724 -0.0038187959493474195 0 -0.00038510895809088468 -0.0040083730927716055 0 -0.00031354071864600724 -0.0038187959493474195 0 -0.00038510895809088468 -0.0040083730927716055 0 -0.00022918424414888344 -0.0040503602217463134 0 -0.0004906169747044977 -0.0038608595996052126 0 -0.00038510895809088468 -0.0040083730927716055 0 -0.00048876192726694605 -0.0040798900833325796 0 -0.0004906169747044977 -0.0038608595996052126 0 -0.00048876192726694605 -0.0040798900833325796 0 -0.00064247934909766619 -0.0040190413723168918 0 -0.00013660375486796724 -0.0037039582883717742 0 -0.00010105401688412719 -0.0038825737893811792 0 0.00014183624689305627 -0.0037549718982020108 0 -0.00013660375486796724 -0.0037039582883717742 0 -0.00031354071864600724 -0.0038187959493474195 0 -0.00010105401688412719 -0.0038825737893811792 0 -0.00013660375486796724 -0.0037039582883717742 0 -0.00026481598719198599 -0.0036409594918598029 0 -0.00031354071864600724 -0.0038187959493474195 0 -0.00031354071864600724 -0.0038187959493474195 0 -0.00010105401688412719 -0.0038825737893811792 0 -0.00022918424414888344 -0.0040503602217463134 0 -0.00010105401688412719 -0.0038825737893811792 0 -0.00022918424414888344 -0.0040503602217463134 0 4.7132716774815346e-05 -0.004089831847992156 0 -0.00010105401688412719 -0.0038825737893811792 0 4.7132716774815346e-05 -0.004089831847992156 0 0.00014183624689305627 -0.0037549718982020108 0 2.6211664077228121e-05 -0.0072474509031299449 0 0.00080515363102002092 -0.0097786222596112794 0 -0.00022918424414888344 -0.0040503602217463134 0 4.7132716774815346e-05 -0.004089831847992156 0 -0.00036741376430661054 -0.0043607108034104695 0 2.6211664077228121e-05 -0.0072474509031299449 0 0.00011929726199400588 -0.0061824329193828327 0 0.0010127497504112011 -0.0085859256094806338 0 0.00063979005698590428 -0.0088632603005558124 0 0.00087736816129483828 -0.0090808412621590992 0 -0.00049082759832734611 -0.0042339749918480062 0 -0.00064247934909766619 -0.0040190413723168918 0 -0.00059206240798448785 -0.0043744785039421218 0 -0.00048876192726694605 -0.0040798900833325796 0 -0.00049082759832734611 -0.0042339749918480062 0 -0.00064247934909766619 -0.0040190413723168918 0 -0.00048876192726694605 -0.0040798900833325796 0 -0.00038138282260062877 -0.0042039320849102547 0 -0.00049082759832734611 -0.0042339749918480062 0 -0.00038510895809088468 -0.0040083730927716055 0 -0.00022918424414888344 -0.0040503602217463134 0 -0.00038138282260062877 -0.0042039320849102547 0 -0.00022918424414888344 -0.0040503602217463134 0 -0.00038138282260062877 -0.0042039320849102547 0 -0.00036741376430661054 -0.0043607108034104695 0 -0.00038510895809088468 -0.0040083730927716055 0 -0.00048876192726694605 -0.0040798900833325796 0 -0.00038138282260062877 -0.0042039320849102547 0 -0.00038138282260062877 -0.0042039320849102547 0 -0.00037392830881018808 -0.0043353497573158156 0 -0.00049082759832734611 -0.0042339749918480062 0 -0.00014242010490369932 -0.0045222847206208144 0 0.00011929726199400588 -0.0061824329193828327 0 -0.00037392830881018808 -0.0043353497573158156 0 -0.00049082759832734611 -0.0042339749918480062 0 -0.00048263240846996958 -0.0043754369001053556 0 -0.00049082759832734611 -0.0042339749918480062 0 -0.00059206240798448785 -0.0043744785039421218 0 -0.00048263240846996958 -0.0043754369001053556 0 0.00016710709614877777 -0.0015188988680048961 0 9.9384119244623706e-05 -0.0013762264554609094 0 -3.4373768246199428e-05 -0.0016296588146702297 0 0.00016710709614877777 -0.0015188988680048961 0 -3.4373768246199428e-05 -0.0016296588146702297 0 0.0002828959781002286 -0.001650041225725762 0 0.00016710709614877777 -0.0015188988680048961 0 0.00025985039475298838 -0.0013856883593266411 0 0.0002828959781002286 -0.001650041225725762 0 -0.00016975714125706733 -0.0029700071323560638 0 -5.820699296437078e-05 -0.0028552587418661166 0 0.00016710709614877777 -0.0015188988680048961 0 0.00025985039475298838 -0.0013856883593266411 0 9.9384119244623706e-05 -0.0013762264554609094 0 -7.7103605307838775e-05 0.0013495863138398498 0 0.00032070518865058204 0.0014347207564213902 0 9.5863978631344039e-05 0.00102457540660693 0 0.00034430265002643025 0.0003311693274989446 0 0.00011795430953005609 -0.00087726774890518877 0 -0.00026287089767682617 0.0010443339724760582 0 -7.7103605307838775e-05 0.0013495863138398498 0 9.5863978631344039e-05 0.00102457540660693 0 -7.7103605307838775e-05 0.0013495863138398498 0 2.3996977676160413e-05 0.0016905814198898952 0 0.00032070518865058204 0.0014347207564213902 0 -0.00028120111208435327 0.0016536261459636074 0 -7.7103605307838775e-05 0.0013495863138398498 0 2.3996977676160413e-05 0.0016905814198898952 0 2.3996977676160413e-05 0.0016905814198898952 0 0.00027529601866536994 0.0017696690934088661 0 0.00032070518865058204 0.0014347207564213902 0 0.00058622372595240287 0.0018858230814488928 0 0.00027529601866536994 0.0017696690934088661 0 0.00032070518865058204 0.0014347207564213902 0 0.00023112179203373754 -0.0011159816145062638 0 0.00025985039475298838 -0.0013856883593266411 0 9.9384119244623706e-05 -0.0013762264554609094 0 2.4507379613281033e-05 -0.00089889139430448085 0 -0.00016975714125706733 -0.0029700071323560638 0 2.4507379613281033e-05 -0.00089889139430448085 0 0.00034430265002643025 0.0003311693274989446 0 -0.00068296955944745317 -0.0036291761089192716 0 -0.0004906169747044977 -0.0038608595996052126 0 -0.00064247934909766619 -0.0040190413723168918 0 5.2471740940979957e-05 -0.010077746212328497 0 0.00012473553253492849 -0.010092569063589976 0 7.370062726387523e-05 -0.010160779864328886 0 -0.00068859761158756509 -0.0076722813627641724 0 -0.00067765906158239841 -0.0073469247871384051 0 0.00012473553253492849 -0.010092569063589976 0 7.370062726387523e-05 -0.010160779864328886 0 0.0002033535718691002 -0.010102706190352535 0 1.2679184537429873e-06 -0.010082792776723953 0 5.2471740940979957e-05 -0.010077746212328497 0 7.370062726387523e-05 -0.010160779864328886 0 5.2471740940979957e-05 -0.010077746212328497 0 8.9728850953665733e-05 -0.010061239321677568 0 0.00012473553253492849 -0.010092569063589976 0 5.2471740940979957e-05 -0.010077746212328497 0 8.9728850953665733e-05 -0.010061239321677568 0 6.3153987458740952e-05 -0.010047311952237816 0 8.9728850953665733e-05 -0.010061239321677568 0 0.00014109646237199459 -0.010065438917497029 0 0.00011730623108953198 -0.010035551576989644 0 0.00014109646237199459 -0.010065438917497029 0 0.00016189462432805301 -0.010027431020201989 0 0.00011730623108953198 -0.010035551576989644 0 8.9728850953665733e-05 -0.010061239321677568 0 0.00014109646237199459 -0.010065438917497029 0 0.00012473553253492849 -0.010092569063589976 0 -0.0010706031009446047 -0.0060582495263841437 0 -0.00096292686986819659 -0.0060970280521979456 0 -0.0010882827266137153 -0.0061748569447119903 0 -0.0011586457533270358 -0.0060553457138214466 0 -0.0010706031009446047 -0.0060582495263841437 0 -0.0010882827266137153 -0.0061748569447119903 0 -0.0012818310978154868 -0.0060861606619048107 0 -0.0008819429520837309 -0.0062937926583980924 0 -0.0011726249645435309 -0.0064758273564144795 0 -0.0013548189368859371 -0.0060005062961167839 0 -0.0012818310978154868 -0.0060861606619048107 0 -0.0011726249645435309 -0.0064758273564144795 0 -0.0014936748504795617 -0.0057147550532399326 0 -0.00068859761158756509 -0.0076722813627641724 0 -0.0014190876416083423 -0.0053043528975038482 0 -0.00067765906158239841 -0.0073469247871384051 0 -0.0012724131687879652 -0.0051792405407699912 0 -0.0010461752008792719 -0.0055688298133831143 0 -0.0012365637883551793 -0.0055122120113158769 0 -0.0012818310978154868 -0.0060861606619048107 0 -0.0011586457533270358 -0.0060553457138214466 0 -0.0010882827266137153 -0.0061748569447119903 0 0.00020751837980929354 -0.010105020617687213 0 0.00040080997955640308 -0.0099970965815338632 0 0.00026259222373450615 -0.0099874303005253167 0 0.00012473553253492849 -0.010092569063589976 0 0.0002033535718691002 -0.010102706190352535 0 0.00019947322728806072 -0.01008831941613637 0 -0.00067765906158239841 -0.0073469247871384051 0 -0.00047033752763262225 -0.0078720095925436263 0 0.00019947322728806072 -0.01008831941613637 0 0.00018314864568110123 -0.010057434982163495 0 0.00021306445256397618 -0.010029850150483023 0 0.00014109646237199459 -0.010065438917497029 0 0.00012473553253492849 -0.010092569063589976 0 0.00019947322728806072 -0.01008831941613637 0 0.00020751837980929354 -0.010105020617687213 0 0.00019947322728806072 -0.01008831941613637 0 0.00021306445256397618 -0.010029850150483023 0 0.00014109646237199459 -0.010065438917497029 0 0.00019947322728806072 -0.01008831941613637 0 0.00018314864568110123 -0.010057434982163495 0 0.00014109646237199459 -0.010065438917497029 0 0.00018314864568110123 -0.010057434982163495 0 0.00016189462432805301 -0.010027431020201989 0 0.00018314864568110123 -0.010057434982163495 0 0.00021306445256397618 -0.010029850150483023 0 0.00016189462432805301 -0.010027431020201989 0 0.00020751837980929354 -0.010105020617687213 0 0.00021306445256397618 -0.010029850150483023 0 0.00026259222373450615 -0.0099874303005253167 0 -0.0010461752008792719 -0.0055688298133831143 0 -0.0012365637883551793 -0.0055122120113158769 0 -0.0013379797571625733 -0.0057727434602417756 0 -0.00067765906158239841 -0.0073469247871384051 0 -0.00057498769602001897 -0.0080539113948045488 0 -0.0013522344603411483 -0.0055863661743889396 0 -0.0012365637883551793 -0.0055122120113158769 0 -0.0013379797571625733 -0.0057727434602417756 0 -0.0013522344603411483 -0.0055863661743889396 0 -0.0012365637883551793 -0.0055122120113158769 0 -0.0013408823651613786 -0.0053987933123812162 0 -0.0012724131687879652 -0.0051792405407699912 0 -0.0012365637883551793 -0.0055122120113158769 0 -0.0013408823651613786 -0.0053987933123812162 0 -0.0013751329623142067 -0.0051755619933503234 0 -0.0013408823651613786 -0.0053987933123812162 0 -0.0015268177765927976 -0.0055616822224393179 0 -0.0013838864692762582 -0.0051542246599839345 0 -0.0014246372313784037 -0.0053599113707878277 0 -0.0013751329623142067 -0.0051755619933503234 0 -0.0013286631815571104 -0.0050996424061864982 0 -0.0013594230900714366 -0.0050273965033668577 0 -0.001321660191142048 -0.005050025511631139 0 -0.0013286631815571104 -0.0050996424061864982 0 -0.0013594230900714366 -0.0050273965033668577 0 -0.001321660191142048 -0.005050025511631139 0 -0.0013594230900714366 -0.0050273965033668577 0 -0.0013411034557533608 -0.0049705737261243584 0 -0.0015268177765927976 -0.0055616822224393179 0 -0.0015699392870964358 -0.005741395244669544 0 -0.0013379797571625733 -0.0057727434602417756 0 -0.0013522344603411483 -0.0055863661743889396 0 -0.0013408823651613786 -0.0053987933123812162 0 -0.0015268177765927976 -0.0055616822224393179 0 -0.0013522344603411483 -0.0055863661743889396 0 -0.0015268177765927976 -0.0055616822224393179 0 -0.0013379797571625733 -0.0057727434602417756 0 -0.0014246372313784037 -0.0053599113707878277 0 -0.00097459962861473008 -0.004619560675649342 0 0.00059422717660044728 -0.0098859958262819212 0 0.00043226773863608455 -0.0098359797387241547 0 0.00040080997955640308 -0.0099970965815338632 0 2.6211664077228121e-05 -0.0072474509031299449 0 -0.00057498769602001897 -0.0080539113948045488 0 -0.0016233365034602791 -0.0059862524150241349 0 -0.0015699392870964358 -0.005741395244669544 0 -0.0013379797571625733 -0.0057727434602417756 0 2.6211664077228121e-05 -0.0072474509031299449 0 -0.00097459962861473008 -0.004619560675649342 0 0.00059422717660044728 -0.0098859958262819212 0 0.00043226773863608455 -0.0098359797387241547 0 0.00052592697934243161 -0.0097385279948907309 0 0.00059422717660044728 -0.0098859958262819212 0 0.00052592697934243161 -0.0097385279948907309 0 0.00069105080450917729 -0.0096819533639167388 0 0.00043226773863608455 -0.0098359797387241547 0 0.00028629058620848201 -0.0097878250989373462 0 0.00039728243607322223 -0.0096994075112936933 0 0.00043226773863608455 -0.0098359797387241547 0 0.00031085615089142385 -0.0098983870543929795 0 0.00028629058620848201 -0.0097878250989373462 0 0.00043226773863608455 -0.0098359797387241547 0 0.00031085615089142385 -0.0098983870543929795 0 0.00040080997955640308 -0.0099970965815338632 0 0.00031085615089142385 -0.0098983870543929795 0 0.00040080997955640308 -0.0099970965815338632 0 0.00026259222373450615 -0.0099874303005253167 0 0.00021306445256397618 -0.010029850150483023 0 0.00026259222373450615 -0.0099874303005253167 0 0.00019057082107361899 -0.0099781310344263727 0 0.00026259222373450615 -0.0099874303005253167 0 0.00019057082107361899 -0.0099781310344263727 0 0.00023199661057962784 -0.0099298597041369719 0 0.00021306445256397618 -0.010029850150483023 0 0.00016189462432805301 -0.010027431020201989 0 0.00019057082107361899 -0.0099781310344263727 0 0.00016189462432805301 -0.010027431020201989 0 0.00019057082107361899 -0.0099781310344263727 0 0.00013471293493025395 -0.010001170852107787 0 0.00023199661057962784 -0.0099298597041369719 0 0.00022572143037014283 -0.0098653343850170043 0 0.00017040816784624118 -0.0099218592706910528 0 0.00019057082107361899 -0.0099781310344263727 0 0.00023199661057962784 -0.0099298597041369719 0 0.00017040816784624118 -0.0099218592706910528 0 0.00031085615089142385 -0.0098983870543929795 0 0.00026259222373450615 -0.0099874303005253167 0 0.00023199661057962784 -0.0099298597041369719 0 0.00031085615089142385 -0.0098983870543929795 0 0.00028629058620848201 -0.0097878250989373462 0 0.00022572143037014283 -0.0098653343850170043 0 0.00031085615089142385 -0.0098983870543929795 0 0.00023199661057962784 -0.0099298597041369719 0 0.00022572143037014283 -0.0098653343850170043 0 0.00028629058620848201 -0.0097878250989373462 0 0.00022572143037014283 -0.0098653343850170043 0 0.00018290971838105441 -0.0098133269579701067 0 0.00022572143037014283 -0.0098653343850170043 0 0.00016587253880125883 -0.0098674725783479411 0 0.00018290971838105441 -0.0098133269579701067 0 0.00022572143037014283 -0.0098653343850170043 0 0.00016587253880125883 -0.0098674725783479411 0 0.00017040816784624118 -0.0099218592706910528 0 -7.965396058056425e-06 -0.009938169179805327 0 2.484899042964134e-05 -0.010046347910375718 0 0.00016587253880125883 -0.0098674725783479411 0 0.00013199057973955212 -0.0099016324253813175 0 0.00017040816784624118 -0.0099218592706910528 0 8.7612411481814213e-05 -0.0097762048507496167 0 0.00012536377712380113 -0.0098500845191572314 0 0.00011087958390624056 -0.0099532426319496863 0 0.00016587253880125883 -0.0098674725783479411 0 0.00018290971838105441 -0.0098133269579701067 0 0.00012536377712380113 -0.0098500845191572314 0 0.00016587253880125883 -0.0098674725783479411 0 0.00012536377712380113 -0.0098500845191572314 0 0.00013199057973955212 -0.0099016324253813175 0 0.00018290971838105441 -0.0098133269579701067 0 0.00012536377712380113 -0.0098500845191572314 0 0.00013447638369722484 -0.0097808317339962893 0 8.7612411481814213e-05 -0.0097762048507496167 0 0.00012536377712380113 -0.0098500845191572314 0 0.00013447638369722484 -0.0097808317339962893 0 2.5690673755028144e-05 -0.010021947291449285 0 5.4701521801588717e-05 -0.010017294947998098 0 7.3921913608975784e-05 -0.010010828284894866 0 2.5690673755028144e-05 -0.010021947291449285 0 5.4701521801588717e-05 -0.010017294947998098 0 3.8996676687412604e-05 -0.01002807951738271 0 5.4701521801588717e-05 -0.010017294947998098 0 7.3921913608975784e-05 -0.010010828284894866 0 7.0984495022089207e-05 -0.010016358037048855 0 0.00012536377712380113 -0.0098500845191572314 0 0.00013199057973955212 -0.0099016324253813175 0 0.00011087958390624056 -0.0099532426319496863 0 0.00013199057973955212 -0.0099016324253813175 0 0.00017040816784624118 -0.0099218592706910528 0 0.00013916164564244519 -0.009933352047102011 0 0.00017040816784624118 -0.0099218592706910528 0 0.0001456024124597543 -0.0099561764588113975 0 0.00013916164564244519 -0.009933352047102011 0 0.00019057082107361899 -0.0099781310344263727 0 0.00017040816784624118 -0.0099218592706910528 0 0.0001456024124597543 -0.0099561764588113975 0 0.00013199057973955212 -0.0099016324253813175 0 0.00013916164564244519 -0.009933352047102011 0 0.00011087958390624056 -0.0099532426319496863 0 0.0001456024124597543 -0.0099561764588113975 0 0.00013916164564244519 -0.009933352047102011 0 0.00011087958390624056 -0.0099532426319496863 0 0.0001456024124597543 -0.0099561764588113975 0 0.00011087958390624056 -0.0099532426319496863 0 0.00013471293493025395 -0.010001170852107787 0 7.4739075367458941e-05 -0.0099999223245245267 0 8.7570784926203695e-05 -0.010007548857331421 0 0.00013471293493025395 -0.010001170852107787 0 2.484899042964134e-05 -0.010046347910375718 0 2.7002792350895748e-05 -0.010044046363498264 0 2.484899042964134e-05 -0.010046347910375718 0 7.4846521463780625e-05 -0.010047606836674095 0 8.7570784926203695e-05 -0.010007548857331421 0 0.00013471293493025395 -0.010001170852107787 0 0.00010319259551958132 -0.010018619923820424 0 8.7570784926203695e-05 -0.010007548857331421 0 0.00010319259551958132 -0.010018619923820424 0 8.2502530626845161e-05 -0.010032150406807003 0 0.00019057082107361899 -0.0099781310344263727 0 0.0001456024124597543 -0.0099561764588113975 0 0.00013471293493025395 -0.010001170852107787 0 0.00016189462432805301 -0.010027431020201989 0 0.00013471293493025395 -0.010001170852107787 0 0.00011730623108953198 -0.010035551576989644 0 8.9728850953665733e-05 -0.010061239321677568 0 0.00011730623108953198 -0.010035551576989644 0 8.2502530626845161e-05 -0.010032150406807003 0 0.00010319259551958132 -0.010018619923820424 0 0.00011730623108953198 -0.010035551576989644 0 8.2502530626845161e-05 -0.010032150406807003 0 0.00013471293493025395 -0.010001170852107787 0 0.00010319259551958132 -0.010018619923820424 0 0.00011730623108953198 -0.010035551576989644 0 8.9728850953665733e-05 -0.010061239321677568 0 6.3153987458740952e-05 -0.010047311952237816 0 8.2502530626845161e-05 -0.010032150406807003 0 5.2471740940979957e-05 -0.010077746212328497 0 6.3153987458740952e-05 -0.010047311952237816 0 3.7404790373818236e-05 -0.010042699010936074 0 6.3153987458740952e-05 -0.010047311952237816 0 8.2502530626845161e-05 -0.010032150406807003 0 5.7971634373687692e-05 -0.010026259929536041 0 6.3153987458740952e-05 -0.010047311952237816 0 3.7404790373818236e-05 -0.010042699010936074 0 5.7971634373687692e-05 -0.010026259929536041 0 3.7404790373818236e-05 -0.010042699010936074 0 3.8996676687412604e-05 -0.01002807951738271 0 5.7971634373687692e-05 -0.010026259929536041 0 5.4701521801588717e-05 -0.010017294947998098 0 3.8996676687412604e-05 -0.01002807951738271 0 5.7971634373687692e-05 -0.010026259929536041 0 5.4701521801588717e-05 -0.010017294947998098 0 7.0984495022089207e-05 -0.010016358037048855 0 5.7971634373687692e-05 -0.010026259929536041 0 7.3921913608975784e-05 -0.010010828284894866 0 8.7570784926203695e-05 -0.010007548857331421 0 7.0984495022089207e-05 -0.010016358037048855 0 8.2502530626845161e-05 -0.010032150406807003 0 7.0984495022089207e-05 -0.010016358037048855 0 5.7971634373687692e-05 -0.010026259929536041 0 8.7570784926203695e-05 -0.010007548857331421 0 8.2502530626845161e-05 -0.010032150406807003 0 7.0984495022089207e-05 -0.010016358037048855 0 0.00014928747309787894 -0.0096638122272123036 0 0.00011779052706435188 -0.009716765653875999 0 0.00017447061535823608 -0.0097396483550434339 0 8.7612411481814213e-05 -0.0097762048507496167 0 0.00011779052706435188 -0.009716765653875999 0 0.00013447638369722484 -0.0097808317339962893 0 0.00011779052706435188 -0.009716765653875999 0 0.00013447638369722484 -0.0097808317339962893 0 0.00017447061535823608 -0.0097396483550434339 0 0.00018290971838105441 -0.0098133269579701067 0 0.00013447638369722484 -0.0097808317339962893 0 0.00017447061535823608 -0.0097396483550434339 0 0.00014928747309787894 -0.0096638122272123036 0 0.00017447061535823608 -0.0097396483550434339 0 0.00025590965267635314 -0.0096863918423023276 0 0.00028629058620848201 -0.0097878250989373462 0 0.00018290971838105441 -0.0098133269579701067 0 0.00017447061535823608 -0.0097396483550434339 0 0.00028629058620848201 -0.0097878250989373462 0 0.00017447061535823608 -0.0097396483550434339 0 0.00025590965267635314 -0.0096863918423023276 0 0.00014928747309787894 -0.0096638122272123036 0 0.00025590965267635314 -0.0096863918423023276 0 0.00031806982754982455 -0.0095622502178067843 0 0.00031806982754982455 -0.0095622502178067843 0 0.00039728243607322223 -0.0096994075112936933 0 0.00051871184869866293 -0.0095986484977493153 0 0.00025590965267635314 -0.0096863918423023276 0 0.00031806982754982455 -0.0095622502178067843 0 0.00039728243607322223 -0.0096994075112936933 0 0.00028629058620848201 -0.0097878250989373462 0 0.00025590965267635314 -0.0096863918423023276 0 0.00039728243607322223 -0.0096994075112936933 0 0.00043226773863608455 -0.0098359797387241547 0 0.00039728243607322223 -0.0096994075112936933 0 0.00052592697934243161 -0.0097385279948907309 0 0.00039728243607322223 -0.0096994075112936933 0 0.00052592697934243161 -0.0097385279948907309 0 0.00051871184869866293 -0.0095986484977493153 0 0.00052592697934243161 -0.0097385279948907309 0 0.00051871184869866293 -0.0095986484977493153 0 0.00069105080450917729 -0.0096819533639167388 0 0.00031806982754982455 -0.0095622502178067843 0 0.00051871184869866293 -0.0095986484977493153 0 0.00055798161853919072 -0.0094318768493513692 0 0.00051871184869866293 -0.0095986484977493153 0 0.00055798161853919072 -0.0094318768493513692 0 0.00064474494721071497 -0.0094893571831394727 0 0.00055798161853919072 -0.0094318768493513692 0 0.00064474494721071497 -0.0094893571831394727 0 0.00068605472136018465 -0.0093868304599817199 0 0.00055798161853919072 -0.0094318768493513692 0 0.00063382144011096223 -0.0093156123048963365 0 0.00068605472136018465 -0.0093868304599817199 0 0.00055798161853919072 -0.0094318768493513692 0 0.00049025895255299398 -0.0093369636414734735 0 0.00063382144011096223 -0.0093156123048963365 0 0.00063382144011096223 -0.0093156123048963365 0 0.00056933580240953869 -0.0092060096783782904 0 0.00069105862102712213 -0.0091539395425803329 0 0.00056933580240953869 -0.0092060096783782904 0 0.00069105862102712213 -0.0091539395425803329 0 0.00064054295946808183 -0.0090812742897113212 0 0.00049025895255299398 -0.0093369636414734735 0 0.00063382144011096223 -0.0093156123048963365 0 0.00056933580240953869 -0.0092060096783782904 0 0.00049025895255299398 -0.0093369636414734735 0 0.00056933580240953869 -0.0092060096783782904 0 0.00038077231474663021 -0.0092643331179283802 0 0.00056933580240953869 -0.0092060096783782904 0 0.00038077231474663021 -0.0092643331179283802 0 0.00053841956347604311 -0.0090747638200346387 0 0.00031806982754982455 -0.0095622502178067843 0 0.00049025895255299398 -0.0093369636414734735 0 0.00038077231474663021 -0.0092643331179283802 0 0.00031806982754982455 -0.0095622502178067843 0 0.00055798161853919072 -0.0094318768493513692 0 0.00049025895255299398 -0.0093369636414734735 0 0.00014928747309787894 -0.0096638122272123036 0 0.00031806982754982455 -0.0095622502178067843 0 0.00016663458655988709 -0.0096320708825729118 0 0.00031806982754982455 -0.0095622502178067843 0 0.00038077231474663021 -0.0092643331179283802 0 0.00020641695560154867 -0.0093394480644081179 0 0.00031260904068261476 -0.0095707091497395699 0 0.00019677384081942103 -0.0094934461046885295 0 0.00038077231474663021 -0.0092643331179283802 0 0.00020641695560154867 -0.0093394480644081179 0 0.00024711520651474249 -0.009181982619413942 0 0.00019677384081942103 -0.0094934461046885295 0 0.00011096797664748663 -0.009436424089878586 0 0.00020641695560154867 -0.0093394480644081179 0 9.1338973128420725e-05 -0.0091838020751580408 0 0.00024711520651474249 -0.009181982619413942 0 0.00010761418632876077 -0.0096901664977666283 0 0.00016663458655988709 -0.0096320708825729118 0 0.00012311229746125472 -0.0096939568198058587 0 0.00010761418632876077 -0.0096901664977666283 0 0.00014928747309787894 -0.0096638122272123036 0 0.00016663458655988709 -0.0096320708825729118 0 0.00041729889117763969 -0.0039152394437275998 0 -6.8954414861369031e-05 -0.0037590331535951723 0 0.00080196326638755117 -0.0031974774276075837 0 0.00041729889117763969 -0.0039152394437275998 0 0.00080196326638755117 -0.0031974774276075837 0 0.00090698650857102138 -0.0042142135608143217 0 -0.00060923383454474628 -0.0040941159962375696 0 3.4455827166147075e-05 -0.0039342052263483373 0 -7.2484480820266082e-05 -0.0037471717053761261 0 0.00041729889117763969 -0.0039152394437275998 0 3.4455827166147075e-05 -0.0039342052263483373 0 -6.8954414861369031e-05 -0.0037590331535951723 0 0.00042655577043680491 -0.0029787032199622204 0 5.6849585454754362e-05 -0.0017858612675923197 0 -0.00031026436013332608 -0.0014734704612594817 0 -0.00014069690876532541 -0.0017590004362918084 0 -0.00015228659300797382 -0.001553738416167835 0 -0.00014069690876532541 -0.0017590004362918084 0 -0.00015228659300797382 -0.001553738416167835 0 0.00014286055286531023 -0.0015817634647449835 0 -0.00015228659300797382 -0.001553738416167835 0 -0.00011907924398541866 -0.0014962335652012476 0 0.00014286055286531023 -0.0015817634647449835 0 -0.00030410861111770357 0.00049815003622897961 0 5.6849585454754362e-05 -0.0017858612675923197 0 -0.00031026436013332608 -0.0014734704612594817 0 -0.00015228659300797382 -0.001553738416167835 0 -0.00011488105881921133 -0.0014825094809571679 0 -0.00030410861111770357 0.00049815003622897961 0 0.00011795430953005609 -0.00087726774890518877 0 -0.00010002459075837087 -0.0013334345150960703 0 0.00011795430953005609 -0.00087726774890518877 0 0.00011795430953005609 -0.00087726774890518877 0 -5.820699296437078e-05 -0.0028552587418661166 0 -0.00011907924398541866 -0.0014962335652012476 0 0.00013697961404250195 -0.0015222677375972557 0 0.00014286055286531023 -0.0015817634647449835 0 5.6849585454754362e-05 -0.0017858612675923197 0 0.00029364856902033723 -0.0039778860260024545 0 -5.820699296437078e-05 -0.0028552587418661166 0 0.00029364856902033723 -0.0039778860260024545 0 0.00071420743339558452 -0.005863385667045147 0 0.00018598457197383083 -0.0062127266008025761 0 0.0008089670714586791 -0.0070074057018135816 0 -0.00037392830881018808 -0.0043353497573158156 0 -0.000568424721255123 -0.004458543505082643 0 -0.00048263240846996958 -0.0043754369001053556 0 -5.820699296437078e-05 -0.0028552587418661166 0 -0.00034649562981675799 -0.0032292107047035864 0 0.00011929726199400588 -0.0061824329193828327 0 0.00083317598381077776 -0.0083899095658726865 0 0.00011929726199400588 -0.0061824329193828327 0 0.00029364856902033723 -0.0039778860260024545 0 -0.00057509002725726784 -0.0043696506791633099 0 -0.000568424721255123 -0.004458543505082643 0 -0.00048263240846996958 -0.0043754369001053556 0 0.00063979005698590428 -0.0088632603005558124 0 0.00087736816129483828 -0.0090808412621590992 0 0.00073117487633937305 -0.0092772283207461607 0 0.00069105080450917729 -0.0096819533639167388 0 0.00064474494721071497 -0.0094893571831394727 0 0.00076755323060957064 -0.0093515079072543517 0 0.00051871184869866293 -0.0095986484977493153 0 0.00069105080450917729 -0.0096819533639167388 0 0.00064474494721071497 -0.0094893571831394727 0 0.00087736816129483828 -0.0090808412621590992 0 0.00073117487633937305 -0.0092772283207461607 0 0.00076755323060957064 -0.0093515079072543517 0 0.00080515363102002092 -0.0097786222596112794 0 0.00078965194140434146 -0.0091969643718883311 0 0.00018598457197383083 -0.0062127266008025761 0 0.0008089670714586791 -0.0070074057018135816 0 0.00032690188591289913 -0.0075384687088419691 0 0.00029364856902033723 -0.0039778860260024545 0 0.00063756071689529173 -0.0060824131239717227 0 0.00083317598381077776 -0.0083899095658726865 0 0.00081613520750119727 -0.0086504049217338373 0 0.0008089670714586791 -0.0070074057018135816 0 0.00032690188591289913 -0.0075384687088419691 0 0.00086447482787228456 -0.0080839144798122761 0 0.00073117487633937305 -0.0092772283207461607 0 0.00080102977138140925 -0.0093582237891979662 0 0.00076755323060957064 -0.0093515079072543517 0 0.00063382144011096223 -0.0093156123048963365 0 0.00080102977138140925 -0.0093582237891979662 0 0.00068605472136018465 -0.0093868304599817199 0 0.00064474494721071497 -0.0094893571831394727 0 0.00068605472136018465 -0.0093868304599817199 0 0.00076755323060957064 -0.0093515079072543517 0 0.00080102977138140925 -0.0093582237891979662 0 0.00068605472136018465 -0.0093868304599817199 0 0.00076755323060957064 -0.0093515079072543517 0 0.00063382144011096223 -0.0093156123048963365 0 0.00080102977138140925 -0.0093582237891979662 0 0.00069105862102712213 -0.0091539395425803329 0 0.00080102977138140925 -0.0093582237891979662 0 0.00069105862102712213 -0.0091539395425803329 0 0.00081226191484995533 -0.0089678033709829595 0 0.00081613520750119727 -0.0086504049217338373 0 0.00082284090157288701 -0.0089688523274738478 0 0.00032690188591289913 -0.0075384687088419691 0 0.00086447482787228456 -0.0080839144798122761 0 0.00049184401761471054 -0.0086944082268345223 0 0.00086447482787228456 -0.0080839144798122761 0 0.00049184401761471054 -0.0086944082268345223 0 0.00081226191484995533 -0.0089678033709829595 0 0.00063756071689529173 -0.0060824131239717227 0 0.00085873398942907305 -0.0067349196341576698 0 0.0011936957256096518 -0.0057098317816974657 0 -0.00023487634919196163 -0.0052366608135480672 0 0.00053003436178434714 -0.0060386819052067704 0 0.0010089433212030821 -0.0052634865054422501 0 0.00041429686298726556 -0.004483181601718335 0 0.00022923471053692965 -0.0049961626842328971 0 0.00085873398942907305 -0.0067349196341576698 0 0.00026201569766290915 -0.0042554515122800443 0 0.00026201569766290915 -0.0042554515122800443 0 0.00060527966205378193 -0.0052655478780578571 0 0.00090698650857102138 -0.0042142135608143217 0 0.0010089433212030821 -0.0052634865054422501 0 0.00041429686298726556 -0.004483181601718335 0 0.00041729889117763969 -0.0039152394437275998 0 3.4455827166147075e-05 -0.0039342052263483373 0 0.00041429686298726556 -0.004483181601718335 0 0.00041729889117763969 -0.0039152394437275998 0 0.00090698650857102138 -0.0042142135608143217 0 0.00041429686298726556 -0.004483181601718335 0 -0.00060923383454474628 -0.0040941159962375696 0 3.4455827166147075e-05 -0.0039342052263483373 0 -0.00018920359900686162 -0.0045456609044648034 0 0.00041429686298726556 -0.004483181601718335 0 -0.00018920359900686162 -0.0045456609044648034 0 0.00022923471053692965 -0.0049961626842328971 0 3.4455827166147075e-05 -0.0039342052263483373 0 0.00041429686298726556 -0.004483181601718335 0 -0.00018920359900686162 -0.0045456609044648034 0 -1.1467061241275433e-05 -0.0030995071569230831 0 0.00039119578879953263 -0.0035413368304677206 0 -0.00065279888623614979 -0.0036639946237892245 0 0.00022325154728192596 -0.0039588318092262983 0 0.00055098391048420735 -0.0047620172542043402 0 0.00020081965551010643 -0.0027745473036671006 0 0.00038255814024216621 -0.0025229672136824451 0 0.00081856342606700884 -0.0029925515289127712 0 -1.1467061241275433e-05 -0.0030995071569230831 0 0.00026201569766290915 -0.0042554515122800443 0 0.00021105322411069203 -0.003632767406917405 0 0.00026201569766290915 -0.0042554515122800443 0 0.00020449329306837429 -0.0025341130507599272 0 0.00041469968689413275 -0.0026428993772616306 0 0.00020356926858070839 -0.0027080130603824417 0 0.00046588512021116814 -0.00285944777412277 0 0.00041469968689413275 -0.0026428993772616306 0 0.00020356926858070839 -0.0027080130603824417 0 0.00044346285148885186 -0.002836672210711638 0 0.00012889104000032644 -0.0026845514991585958 0 0.00020442954021296681 -0.002786348124461018 0 3.1467890185344616e-05 -0.0026370868182770866 0 8.9622152435287148e-05 -0.0027619159464709136 0 0.00020442954021296681 -0.002786348124461018 0 0.00020704252525521473 -0.0028038630319385028 0 8.9622152435287148e-05 -0.0027619159464709136 0 0.00020442954021296681 -0.002786348124461018 0 0.00046588512021116814 -0.00285944777412277 0 3.1467890185344616e-05 -0.0026370868182770866 0 0.00019708041800836268 -0.0028476565935750854 0 0.00020639308146778112 -0.0030151314290316664 0 0.00046588512021116814 -0.00285944777412277 0 0.00041469968689413275 -0.0026428993772616306 0 0.00088238290527756311 -0.0029021822336857757 0 0.00046588512021116814 -0.00285944777412277 0 0.0002282661623177097 -0.0032821134739155493 0 0.00064059998971489418 -0.0033216975622637093 0 0.00020442954021296681 -0.002786348124461018 0 0.00046588512021116814 -0.00285944777412277 0 0.0002282661623177097 -0.0032821134739155493 0 0.00055098391048420735 -0.0047620172542043402 0 0.00083719012117220045 -0.0045999203027359339 0 0.0014724534648300884 -0.0052672612598556913 0 0.00039119578879953263 -0.0035413368304677206 0 0.0010968017745942257 -0.0056710464103172046 0 0.00022325154728192596 -0.0039588318092262983 0 0.00055098391048420735 -0.0047620172542043402 0 0.00083719012117220045 -0.0045999203027359339 0 0.0011936957256096518 -0.0057098317816974657 0 0.00053003436178434714 -0.0060386819052067704 0 0.0012961150997000115 -0.0068385465852611625 0 0.00055098391048420735 -0.0047620172542043402 0 0.0014933539550251666 -0.0056204201964231201 0 0.0014724534648300884 -0.0052672612598556913 0 0.00085873398942907305 -0.0067349196341576698 0 0.00098961245478347234 -0.0073622662569013198 0 0.00049184401761471054 -0.0086944082268345223 0 0.00081226191484995533 -0.0089678033709829595 0 0.00066865495334954836 -0.0090181368243297186 0 0.00081226191484995533 -0.0089678033709829595 0 0.00066865495334954836 -0.0090181368243297186 0 0.00074926436366498845 -0.0089863654500341068 0 0.00060527966205378193 -0.0052655478780578571 0 0.00098961245478347234 -0.0073622662569013198 0 0.00069105862102712213 -0.0091539395425803329 0 0.0007221983813003297 -0.0090014438040727281 0 0.00064054295946808183 -0.0090812742897113212 0 0.00069105862102712213 -0.0091539395425803329 0 0.00081226191484995533 -0.0089678033709829595 0 0.0007221983813003297 -0.0090014438040727281 0 0.00081226191484995533 -0.0089678033709829595 0 0.0007604343121466894 -0.0089729970628869178 0 0.0007221983813003297 -0.0090014438040727281 0 0.0007604343121466894 -0.0089729970628869178 0 0.0007221983813003297 -0.0090014438040727281 0 0.00072401879198680881 -0.0089577374198331356 0 0.00081226191484995533 -0.0089678033709829595 0 0.0007604343121466894 -0.0089729970628869178 0 0.00074926436366498845 -0.0089863654500341068 0 0.00066838470610944506 -0.0089889865571463265 0 0.0007221983813003297 -0.0090014438040727281 0 0.00064054295946808183 -0.0090812742897113212 0 0.00066838470610944506 -0.0089889865571463265 0 0.0007221983813003297 -0.0090014438040727281 0 0.00072401879198680881 -0.0089577374198331356 0 0.00070356524016178452 -0.0088833392619232336 0 0.00077967729145865896 -0.0089166056840980258 0 0.00067818143552700468 -0.0088187450181610883 0 0.00066838470610944506 -0.0089889865571463265 0 0.00068032243448821854 -0.0089308356239286291 0 0.00072401879198680881 -0.0089577374198331356 0 0.00068032243448821854 -0.0089308356239286291 0 0.00072401879198680881 -0.0089577374198331356 0 0.00073580360271552467 -0.0089290861199097411 0 0.00072401879198680881 -0.0089577374198331356 0 0.00075007815520989338 -0.0089618746185688748 0 0.00073580360271552467 -0.0089290861199097411 0 0.0007604343121466894 -0.0089729970628869178 0 0.00072401879198680881 -0.0089577374198331356 0 0.00075007815520989338 -0.0089618746185688748 0 0.0007604343121466894 -0.0089729970628869178 0 0.00075007815520989338 -0.0089618746185688748 0 0.00074926436366498845 -0.0089863654500341068 0 0.00075007815520989338 -0.0089618746185688748 0 0.00073580360271552467 -0.0089290861199097411 0 0.00076989759652190801 -0.0089445338116273705 0 0.00073580360271552467 -0.0089290861199097411 0 0.00070356524016178452 -0.0088833392619232336 0 0.00077967729145865896 -0.0089166056840980258 0 0.00073580360271552467 -0.0089290861199097411 0 0.00076989759652190801 -0.0089445338116273705 0 0.00077967729145865896 -0.0089166056840980258 0 0.00068032243448821854 -0.0089308356239286291 0 0.00073580360271552467 -0.0089290861199097411 0 0.00070356524016178452 -0.0088833392619232336 0 0.00046588512021116814 -0.00285944777412277 0 0.00088238290527756311 -0.0029021822336857757 0 0.0010651615373757158 -0.0030612563834138745 0 0.00046588512021116814 -0.00285944777412277 0 0.0010651615373757158 -0.0030612563834138745 0 0.00064059998971489418 -0.0033216975622637093 0 0.0010968017745942257 -0.0056710464103172046 0 0.00098961245478347234 -0.0073622662569013198 0 0.00098961245478347234 -0.0073622662569013198 0 0.0011644779756962182 -0.008654963952017319 0 0.00066865495334954836 -0.0090181368243297186 0 0.00074926436366498845 -0.0089863654500341068 0 0.00076989759652190801 -0.0089445338116273705 0 0.00075007815520989338 -0.0089618746185688748 0 0.00074926436366498845 -0.0089863654500341068 0 0.00076989759652190801 -0.0089445338116273705 0 0.00076751950758894975 -0.0089286876078922689 0 0.00076642406513196279 -0.0089081001464823908 0 0.00076989759652190801 -0.0089445338116273705 0 0.0010968017745942257 -0.0056710464103172046 0 0.0010004515202251313 -0.0057392379456863351 0 0.00076751950758894975 -0.0089286876078922689 0 0.00076989759652190801 -0.0089445338116273705 0 0.00077967729145865896 -0.0089166056840980258 0 0.0010602664318562186 -0.0037329182638862765 0 0.00034447239302107772 -0.0038081401325788166 0 0.00064059998971489418 -0.0033216975622637093 0 0.0010651615373757158 -0.0030612563834138745 0 0.0010602664318562186 -0.0037329182638862765 0 0.00064059998971489418 -0.0033216975622637093 0 0.00077967729145865896 -0.0089166056840980258 0 0.00067818143552700468 -0.0088187450181610883 0 0.00067004212455406718 -0.008727264060198317 0 0.0010004515202251313 -0.0057392379456863351 0 0.00090439173268982249 -0.0071420494616853125 0 0.0010651615373757158 -0.0030612563834138745 0 0.0010602664318562186 -0.0037329182638862765 0 0.0018514409694082776 -0.0037616861881032142 0 0.0010602664318562186 -0.0037329182638862765 0 0.0014388734300836269 -0.0040834784798995808 0 0.0018514409694082776 -0.0037616861881032142 0 0.0014388734300836269 -0.0040834784798995808 0 0.0018514409694082776 -0.0037616861881032142 0 0.0018175855953227477 -0.0044271160107698026 0 0.0010602664318562186 -0.0037329182638862765 0 0.0014388734300836269 -0.0040834784798995808 0 0.0010331188602755027 -0.004460922677121123 0 0.0010602664318562186 -0.0037329182638862765 0 0.00034447239302107772 -0.0038081401325788166 0 0.0010331188602755027 -0.004460922677121123 0 0.00010910869906557961 -0.0036874761756981165 0 0.00045558112177325401 -0.0042959929007230346 0 0.00010910869906557961 -0.0036874761756981165 0 -3.0890001412568193e-05 -0.0040883548473461028 0 0.00025913818092826278 -0.0029082011847806322 0 0.00019132983486561543 -0.0029634233838187318 0 0.00031560138766633105 -0.003049387820854363 0 -0.00021626517885703074 -0.0043999699526636009 0 -0.00029462315987632278 -0.0042402772395982238 0 -0.00023246253857784314 -0.004445268728409309 0 -0.00021626517885703074 -0.0043999699526636009 0 -0.00029462315987632278 -0.0042402772395982238 0 -4.5233575596124663e-05 -0.0044646673168476482 0 0.00019132983486561543 -0.0029634233838187318 0 0.0001594201071629996 -0.0028597357493324229 0 6.3599228950437302e-05 -0.0028788596355398253 0 0.00019132983486561543 -0.0029634233838187318 0 6.2418766203623495e-05 -0.0030540629762495254 0 6.3599228950437302e-05 -0.0028788596355398253 0 0.00025913818092826278 -0.0029082011847806322 0 0.00019132983486561543 -0.0029634233838187318 0 0.0001594201071629996 -0.0028597357493324229 0 0.0001594201071629996 -0.0028597357493324229 0 0.00020704252525521473 -0.0028038630319385028 0 8.9622152435287148e-05 -0.0027619159464709136 0 0.0001594201071629996 -0.0028597357493324229 0 6.3599228950437302e-05 -0.0028788596355398253 0 8.9622152435287148e-05 -0.0027619159464709136 0 0.00025913818092826278 -0.0029082011847806322 0 0.0001594201071629996 -0.0028597357493324229 0 0.00020704252525521473 -0.0028038630319385028 0 0.00010910869906557961 -0.0036874761756981165 0 0.00020639308146778112 -0.0030151314290316664 0 0.00034447239302107772 -0.0038081401325788166 0 0.0002282661623177097 -0.0032821134739155493 0 0.00064059998971489418 -0.0033216975622637093 0 0.00019165867149558753 -0.0090530137878753122 0 0.00039045457927867357 -0.0088829393924282143 0 0.00012461504463844592 -0.008902000638904459 0 -5.2328675909172224e-05 -0.0090636077114603607 0 0.00019165867149558753 -0.0090530137878753122 0 0.00012461504463844592 -0.008902000638904459 0 0.00019165867149558753 -0.0090530137878753122 0 9.1338973128420725e-05 -0.0091838020751580408 0 0.00024711520651474249 -0.009181982619413942 0 0.00019165867149558753 -0.0090530137878753122 0 0.00024711520651474249 -0.009181982619413942 0 0.0003812348985664652 -0.0090708483591569519 0 0.00038077231474663021 -0.0092643331179283802 0 0.00024711520651474249 -0.009181982619413942 0 0.0003812348985664652 -0.0090708483591569519 0 0.00019165867149558753 -0.0090530137878753122 0 0.0003812348985664652 -0.0090708483591569519 0 0.00039045457927867357 -0.0088829393924282143 0 0.00051741096358769981 -0.008967645779029268 0 0.0003812348985664652 -0.0090708483591569519 0 0.00039045457927867357 -0.0088829393924282143 0 0.00051741096358769981 -0.008967645779029268 0 0.00053359293474114836 -0.0088606711708812281 0 0.00039045457927867357 -0.0088829393924282143 0 0.00038077231474663021 -0.0092643331179283802 0 0.0003812348985664652 -0.0090708483591569519 0 0.00053841956347604311 -0.0090747638200346387 0 0.00051741096358769981 -0.008967645779029268 0 0.0003812348985664652 -0.0090708483591569519 0 0.00053841956347604311 -0.0090747638200346387 0 0.00056933580240953869 -0.0092060096783782904 0 0.00053841956347604311 -0.0090747638200346387 0 0.00064054295946808183 -0.0090812742897113212 0 0.00066838470610944506 -0.0089889865571463265 0 0.00053841956347604311 -0.0090747638200346387 0 0.00064054295946808183 -0.0090812742897113212 0 0.00066838470610944506 -0.0089889865571463265 0 0.00053841956347604311 -0.0090747638200346387 0 0.00060636606598516904 -0.0089581277670978503 0 0.00066838470610944506 -0.0089889865571463265 0 0.00068032243448821854 -0.0089308356239286291 0 0.00060636606598516904 -0.0089581277670978503 0 0.00051741096358769981 -0.008967645779029268 0 0.00053841956347604311 -0.0090747638200346387 0 0.00060636606598516904 -0.0089581277670978503 0 0.00051741096358769981 -0.008967645779029268 0 0.00062483092303927104 -0.0088701672205080927 0 0.00053359293474114836 -0.0088606711708812281 0 0.00051741096358769981 -0.008967645779029268 0 0.00060636606598516904 -0.0089581277670978503 0 0.00062483092303927104 -0.0088701672205080927 0 0.00068032243448821854 -0.0089308356239286291 0 0.00060636606598516904 -0.0089581277670978503 0 0.00062483092303927104 -0.0088701672205080927 0 0.00068032243448821854 -0.0089308356239286291 0 0.00070356524016178452 -0.0088833392619232336 0 0.00062483092303927104 -0.0088701672205080927 0 0.0006094915888835837 -0.0087932463570595063 0 0.00067640921606511902 -0.0087246681659553221 0 0.00053996432445149148 -0.0087407330515759558 0 0.00062483092303927104 -0.0088701672205080927 0 0.00067818143552700468 -0.0088187450181610883 0 0.0006094915888835837 -0.0087932463570595063 0 0.00070356524016178452 -0.0088833392619232336 0 0.00062483092303927104 -0.0088701672205080927 0 0.00067818143552700468 -0.0088187450181610883 0 0.00062483092303927104 -0.0088701672205080927 0 0.0006094915888835837 -0.0087932463570595063 0 0.00053359293474114836 -0.0088606711708812281 0 0.00067818143552700468 -0.0088187450181610883 0 0.0006094915888835837 -0.0087932463570595063 0 0.00066558747406694871 -0.008757517749828192 0 0.00067818143552700468 -0.0088187450181610883 0 0.00066558747406694871 -0.008757517749828192 0 0.00067004212455406718 -0.008727264060198317 0 0.0006094915888835837 -0.0087932463570595063 0 0.00066558747406694871 -0.008757517749828192 0 0.00067640921606511902 -0.0087246681659553221 0 0.00085372889579774056 -0.0077377920724800335 0 0.00090439173268982249 -0.0071420494616853125 0 0.00095984847326952038 -0.0087754039692357465 0 0.00056889353262253831 -0.0084819230554072055 0 0.00098474674672730878 -0.0084386838699614612 0 0.00090439173268982249 -0.0071420494616853125 0 0.0014395093010221086 -0.0063234883312748638 0 0.00090439173268982249 -0.0071420494616853125 0 0.00068332656092579458 -0.0090114317252473763 0 0.00044075147562040138 -0.0086584544323761482 0 0.00053996432445149148 -0.0087407330515759558 0 0.00056889353262253831 -0.0084819230554072055 0 0.00067640921606511902 -0.0087246681659553221 0 0.00053996432445149148 -0.0087407330515759558 0 0.00056889353262253831 -0.0084819230554072055 0 0.00044075147562040138 -0.0086584544323761482 0 0.00053996432445149148 -0.0087407330515759558 0 0.00039045457927867357 -0.0088829393924282143 0 0.00053996432445149148 -0.0087407330515759558 0 0.00053359293474114836 -0.0088606711708812281 0 0.00039045457927867357 -0.0088829393924282143 0 0.0006094915888835837 -0.0087932463570595063 0 0.00053996432445149148 -0.0087407330515759558 0 0.00053359293474114836 -0.0088606711708812281 0 0.00039045457927867357 -0.0088829393924282143 0 0.00024298184988503854 -0.0086637028071592671 0 0.00012461504463844592 -0.008902000638904459 0 0.00044075147562040138 -0.0086584544323761482 0 0.00039045457927867357 -0.0088829393924282143 0 0.00024298184988503854 -0.0086637028071592671 0 0.00044075147562040138 -0.0086584544323761482 0 0.00024298184988503854 -0.0086637028071592671 0 0.00039505863020301661 -0.00836772258784357 0 4.7912485628849889e-05 -0.0087371182944641374 0 0.00024298184988503854 -0.0086637028071592671 0 7.6589581166471929e-05 -0.0085197958953297757 0 0.00024298184988503854 -0.0086637028071592671 0 7.6589581166471929e-05 -0.0085197958953297757 0 0.00021783815504731227 -0.0084512043281884178 0 4.7912485628849889e-05 -0.0087371182944641374 0 0.00024298184988503854 -0.0086637028071592671 0 0.00012461504463844592 -0.008902000638904459 0 -2.0573970212031291e-05 -0.0080438431050318775 0 0.00014769197509194792 -0.0082437403924904579 0 0.00012723765325329192 -0.0079782453624629279 0 0.00014769197509194792 -0.0082437403924904579 0 0.00033246460532583051 -0.0081092739026818687 0 0.00012723765325329192 -0.0079782453624629279 0 -3.4030553440269271e-05 -0.0083566858783778661 0 0.00014769197509194792 -0.0082437403924904579 0 7.6589581166471929e-05 -0.0085197958953297757 0 0.00014769197509194792 -0.0082437403924904579 0 7.6589581166471929e-05 -0.0085197958953297757 0 0.00021783815504731227 -0.0084512043281884178 0 0.00024298184988503854 -0.0086637028071592671 0 0.00021783815504731227 -0.0084512043281884178 0 0.00039505863020301661 -0.00836772258784357 0 0.00014769197509194792 -0.0082437403924904579 0 0.00021783815504731227 -0.0084512043281884178 0 0.00039505863020301661 -0.00836772258784357 0 0.00014769197509194792 -0.0082437403924904579 0 0.00039505863020301661 -0.00836772258784357 0 0.00033246460532583051 -0.0081092739026818687 0 0.00039505863020301661 -0.00836772258784357 0 0.00033246460532583051 -0.0081092739026818687 0 0.00051500898242658351 -0.0082266327659985313 0 0.00033246460532583051 -0.0081092739026818687 0 0.0005534569719453633 -0.0079743982903793201 0 0.00051500898242658351 -0.0082266327659985313 0 0.0005534569719453633 -0.0079743982903793201 0 0.00071453547842441313 -0.0081818587219834229 0 0.00075445075421381839 -0.0078495434786867626 0 0.0005534569719453633 -0.0079743982903793201 0 0.00071453547842441313 -0.0081818587219834229 0 0.00051500898242658351 -0.0082266327659985313 0 0.00071453547842441313 -0.0081818587219834229 0 0.00051500898242658351 -0.0082266327659985313 0 0.00056889353262253831 -0.0084819230554072055 0 0.00071453547842441313 -0.0081818587219834229 0 0.00056889353262253831 -0.0084819230554072055 0 0.00084275432445376532 -0.0082872382795345194 0 0.00044075147562040138 -0.0086584544323761482 0 0.00039505863020301661 -0.00836772258784357 0 0.00056889353262253831 -0.0084819230554072055 0 0.00039505863020301661 -0.00836772258784357 0 0.00051500898242658351 -0.0082266327659985313 0 0.00056889353262253831 -0.0084819230554072055 0 0.00056889353262253831 -0.0084819230554072055 0 0.00084275432445376532 -0.0082872382795345194 0 0.00098474674672730878 -0.0084386838699614612 0 0.0014395093010221086 -0.0063234883312748638 0 0.00088584813411944521 -0.0062892105399958206 0 0.00084275432445376532 -0.0082872382795345194 0 0.00098474674672730878 -0.0084386838699614612 0 0.001016266819716101 -0.0080936514719683536 0 0.00071453547842441313 -0.0081818587219834229 0 0.00084275432445376532 -0.0082872382795345194 0 0.001016266819716101 -0.0080936514719683536 0 0.00088584813411944521 -0.0062892105399958206 0 0.0010285572739523452 -0.0082751097742061169 0 0.00071453547842441313 -0.0081818587219834229 0 0.001016266819716101 -0.0080936514719683536 0 0.00075445075421381839 -0.0078495434786867626 0 0.00093031638578375817 -0.0080486737582304395 0 0.00093378220200695345 -0.0080145810294940112 0 0.00075445075421381839 -0.0078495434786867626 0 0.00088584813411944521 -0.0062892105399958206 0 0.00058276204199256027 -0.0060578076115671798 0 6.135393334870596e-05 -0.0061124355238560985 0 -4.2124558556837859e-05 -0.0060391945695255043 0 -2.6657128880993052e-05 -0.0061335949161147891 0 0.00093378220200695345 -0.0080145810294940112 0 0.0006837893635303925 -0.0077137374126417437 0 0.00075445075421381839 -0.0078495434786867626 0 0.00058276204199256027 -0.0060578076115671798 0 0.00031825022282126319 -0.0071027998064167736 0 6.1783691861155404e-05 -0.006183797837802903 0 6.135393334870596e-05 -0.0061124355238560985 0 -2.6657128880993052e-05 -0.0061335949161147891 0 0.00058276204199256027 -0.0060578076115671798 0 9.7192722130218253e-05 -0.0054224962257374233 0 -4.2124558556837859e-05 -0.0060391945695255043 0 -3.2396612138668184e-07 -0.0063192937418139871 0 3.3999173371370541e-07 -0.0055969635047163641 0 6.135393334870596e-05 -0.0061124355238560985 0 -4.2124558556837859e-05 -0.0060391945695255043 0 3.3999173371370541e-07 -0.0055969635047163641 0 -4.2124558556837859e-05 -0.0060391945695255043 0 -3.2396612138668184e-07 -0.0063192937418139871 0 -2.6657128880993052e-05 -0.0061335949161147891 0 0.0005534569719453633 -0.0079743982903793201 0 0.0006837893635303925 -0.0077137374126417437 0 0.00075445075421381839 -0.0078495434786867626 0 0.00033246460532583051 -0.0081092739026818687 0 0.0002561835080895516 -0.0077986361781512822 0 0.00012723765325329192 -0.0079782453624629279 0 0.00033246460532583051 -0.0081092739026818687 0 0.0005534569719453633 -0.0079743982903793201 0 0.0002561835080895516 -0.0077986361781512822 0 0.0005534569719453633 -0.0079743982903793201 0 0.0006837893635303925 -0.0077137374126417437 0 0.0002561835080895516 -0.0077986361781512822 0 0.00031825022282126319 -0.0071027998064167736 0 -1.4896967076811942e-07 -0.0070421600528030167 0 0.0006837893635303925 -0.0077137374126417437 0 0.0002561835080895516 -0.0077986361781512822 0 3.2412279238449868e-07 -0.007044309614196124 0 -3.2396612138668184e-07 -0.0063192937418139871 0 -2.6657128880993052e-05 -0.0061335949161147891 0 3.2621826772529762e-07 -0.0070416919908059877 0 0.0002561835080895516 -0.0077986361781512822 0 3.2412279238449868e-07 -0.007044309614196124 0 -3.0036906571693961e-05 -0.0077418553934308606 0 -3.2318103494126868e-05 -0.008034949557935411 0 3.2412279238449868e-07 -0.007044309614196124 0 -3.0036906571693961e-05 -0.0077418553934308606 0 0.0002561835080895516 -0.0077986361781512822 0 -3.0036906571693961e-05 -0.0077418553934308606 0 0.00012723765325329192 -0.0079782453624629279 0 -2.0573970212031291e-05 -0.0080438431050318775 0 -3.0036906571693961e-05 -0.0077418553934308606 0 0.00012723765325329192 -0.0079782453624629279 0 -1.2378479192747962e-06 -0.0048677353189727464 0 -3.4912178911860425e-05 -0.0049182128878923577 0 -5.8441872263356472e-05 -0.0048689176571705475 0 -1.2378479192747962e-06 -0.0048677353189727464 0 -5.8441872263356472e-05 -0.0048689176571705475 0 -4.0137026046669818e-05 -0.0048042826753975747 0 0.00026661018559212221 -0.003226491860450004 0 0.0001770472927800656 -0.0031045688817199126 0 4.2880633191130112e-05 -0.0032444004525212034 0 0.00026661018559212221 -0.003226491860450004 0 0.00021699435943064337 -0.0034284135758082895 0 4.2880633191130112e-05 -0.0032444004525212034 0 0.0001770472927800656 -0.0031045688817199126 0 4.2880633191130112e-05 -0.0032444004525212034 0 6.2418766203623495e-05 -0.0030540629762495254 0 0.00019132983486561543 -0.0029634233838187318 0 0.0001770472927800656 -0.0031045688817199126 0 6.2418766203623495e-05 -0.0030540629762495254 0 0.00015373687646846833 -0.0040171577337079307 0 -3.0890001412568193e-05 -0.0040883548473461028 0 0.00019132983486561543 -0.0029634233838187318 0 0.0001770472927800656 -0.0031045688817199126 0 0.00031560138766633105 -0.003049387820854363 0 -3.0890001412568193e-05 -0.0040883548473461028 0 -8.1929452120478339e-05 -0.0048595899375829324 0 0.00026661018559212221 -0.003226491860450004 0 0.0001770472927800656 -0.0031045688817199126 0 0.00031560138766633105 -0.003049387820854363 0 -9.3191833313426397e-05 -0.0042371375032185885 0 -3.0890001412568193e-05 -0.0040883548473461028 0 -0.00021626517885703074 -0.0043999699526636009 0 -0.00023237803160661529 -0.0044472813157196318 0 -4.5233575596124663e-05 -0.0044646673168476482 0 -0.00023237803160661529 -0.0044472813157196318 0 -4.5233575596124663e-05 -0.0044646673168476482 0 -8.6751222501824362e-05 -0.0045703659320919 0 -0.00023237803160661529 -0.0044472813157196318 0 -8.6751222501824362e-05 -0.0045703659320919 0 -0.0001554506311414537 -0.0046616964849695297 0 -4.5233575596124663e-05 -0.0044646673168476482 0 -8.6751222501824362e-05 -0.0045703659320919 0 5.949217263686311e-05 -0.0046037878380542742 0 0.0018175855953227477 -0.0044271160107698026 0 0.0017736545900293307 -0.005116840584675251 0 0.0010331188602755027 -0.004460922677121123 0 0.00088584813411944521 -0.0062892105399958206 0 0.00045558112177325401 -0.0042959929007230346 0 0.00021183406305419692 -0.00470972711926198 0 -4.5233575596124663e-05 -0.0044646673168476482 0 5.949217263686311e-05 -0.0046037878380542742 0 0.0014388734300836269 -0.0040834784798995808 0 0.0018175855953227477 -0.0044271160107698026 0 0.0010331188602755027 -0.004460922677121123 0 5.949217263686311e-05 -0.0046037878380542742 0 2.7877716217647656e-05 -0.0047677614371963092 0 -4.2261849779258815e-05 -0.0046679926026347573 0 0.00018867893408041172 -0.0047058950098200136 0 5.949217263686311e-05 -0.0046037878380542742 0 2.7877716217647656e-05 -0.0047677614371963092 0 0.00058276204199256027 -0.0060578076115671798 0 -0.00022182124711992801 -0.0044449212671083121 0 0.00021183406305419692 -0.00470972711926198 0 0.00020971536448173919 -0.0047456932454740981 0 5.949217263686311e-05 -0.0046037878380542742 0 -5.8441872263356472e-05 -0.0048689176571705475 0 -9.4243756250424369e-05 -0.0048254012715884028 0 -4.0137026046669818e-05 -0.0048042826753975747 0 -8.1929452120478339e-05 -0.0048595899375829324 0 -0.00010553907278163724 -0.0047843602657823003 0 -0.0001554506311414537 -0.0046616964849695297 0 -4.2261849779258815e-05 -0.0046679926026347573 0 -9.4243756250424369e-05 -0.0048254012715884028 0 2.7877716217647656e-05 -0.0047677614371963092 0 -4.2261849779258815e-05 -0.0046679926026347573 0 -9.4243756250424369e-05 -0.0048254012715884028 0 -8.6751222501824362e-05 -0.0045703659320919 0 -0.0001554506311414537 -0.0046616964849695297 0 -4.2261849779258815e-05 -0.0046679926026347573 0 -8.6751222501824362e-05 -0.0045703659320919 0 5.949217263686311e-05 -0.0046037878380542742 0 -4.2261849779258815e-05 -0.0046679926026347573 0 -9.4243756250424369e-05 -0.0048254012715884028 0 -6.4591467421631991e-05 -0.0049723932663933608 0 -6.510227896680662e-05 -0.0047085203419388062 0 2.7877716217647656e-05 -0.0047677614371963092 0 -9.4243756250424369e-05 -0.0048254012715884028 0 -6.4591467421631991e-05 -0.0049723932663933608 0 0.00018867893408041172 -0.0047058950098200136 0 0.00018210801717549391 -0.0049494698611465254 0 2.7877716217647656e-05 -0.0047677614371963092 0 0.00018210801717549391 -0.0049494698611465254 0 2.7877716217647656e-05 -0.0047677614371963092 0 -6.4591467421631991e-05 -0.0049723932663933608 0 9.7192722130218253e-05 -0.0054224962257374233 0 6.1785288608199335e-08 -0.0055961606217070905 0 0.00018210801717549391 -0.0049494698611465254 0 6.496880422310972e-07 -0.0055950065064392443 0 -6.4591467421631991e-05 -0.0049723932663933608 0 6.496880422310972e-07 -0.0055950065064392443 0 -6.4591467421631991e-05 -0.0049723932663933608 0 -6.165452976124164e-07 -0.0047686486788610137 0 -6.4591467421631991e-05 -0.0049723932663933608 0 -6.165452976124164e-07 -0.0047686486788610137 0 -6.510227896680662e-05 -0.0047085203419388062 0 -6.510227896680662e-05 -0.0047085203419388062 0 8.8671005275532824e-05 -0.0046913260139125092 0 6.1673816235302873e-07 -0.0039422685920325598 0 -6.165452976124164e-07 -0.0047686486788610137 0 -6.510227896680662e-05 -0.0047085203419388062 0 6.1673816235302873e-07 -0.0039422685920325598 0 -1.2378479192747962e-06 -0.0048677353189727464 0 -4.0137026046669818e-05 -0.0048042826753975747 0 8.8671005275532824e-05 -0.0046913260139125092 0 0.00015373687646846833 -0.0040171577337079307 0 0.00012214355002157881 -0.0040658830882998242 0 -9.4243756250424369e-05 -0.0048254012715884028 0 -6.510227896680662e-05 -0.0047085203419388062 0 -4.0137026046669818e-05 -0.0048042826753975747 0 -6.510227896680662e-05 -0.0047085203419388062 0 -4.0137026046669818e-05 -0.0048042826753975747 0 8.8671005275532824e-05 -0.0046913260139125092 0 0.00021699435943064337 -0.0034284135758082895 0 -2.2467345074292427e-05 -0.0034240856726207914 0 4.2880633191130112e-05 -0.0032444004525212034 0 0.00021699435943064337 -0.0034284135758082895 0 5.9352819241488087e-07 -0.0039402602667678978 0 -2.2467345074292427e-05 -0.0034240856726207914 0 0.00012214355002157881 -0.0040658830882998242 0 6.6459669823238063e-08 -0.0039412973981075572 0 5.9352819241488087e-07 -0.0039402602667678978 0 -5.2850099250027481e-07 -0.0033823040916541439 0 -2.2467345074292427e-05 -0.0034240856726207914 0 -5.2850099250027481e-07 -0.0033823040916541439 0 -8.8408155329554284e-05 -0.0032934234244540342 0 -2.2467345074292427e-05 -0.0034240856726207914 0 -5.2850099250027481e-07 -0.0033823040916541439 0 4.6648504475410323e-07 -0.0028251699406184353 0 -8.8408155329554284e-05 -0.0032934234244540342 0 -6.1020346123977525e-09 -0.0028238006011615021 0 -2.353244608154021e-05 -0.0027429505762597973 0 -8.8408155329554284e-05 -0.0032934234244540342 0 -2.2467345074292427e-05 -0.0034240856726207914 0 4.2880633191130112e-05 -0.0032444004525212034 0 4.8613095531211605e-08 -0.0028225377562630253 0 3.392978829197706e-07 -0.0019526178308421989 0 -3.5736188248983552e-05 -0.0020866364211075067 0 -3.5736188248983552e-05 -0.0020866364211075067 0 2.5472059187993336e-05 -0.0021023305539902793 0 0.00015009058465843437 -0.0016502464873266157 0 3.392978829197706e-07 -0.0019526178308421989 0 -3.5736188248983552e-05 -0.0020866364211075067 0 0.00015009058465843437 -0.0016502464873266157 0 4.8613095531211605e-08 -0.0028225377562630253 0 5.3266459126487068e-05 -0.002186804822907837 0 -5.4393763808427028e-05 -0.0021821809879885331 0 4.8613095531211605e-08 -0.0028225377562630253 0 -3.5736188248983552e-05 -0.0020866364211075067 0 -5.4393763808427028e-05 -0.0021821809879885331 0 5.3266459126487068e-05 -0.002186804822907837 0 -5.4393763808427028e-05 -0.0021821809879885331 0 -6.4816716393185999e-06 -0.0022051589762428535 0 -5.4393763808427028e-05 -0.0021821809879885331 0 2.5472059187993336e-05 -0.0021023305539902793 0 -6.4816716393185999e-06 -0.0022051589762428535 0 -3.5736188248983552e-05 -0.0020866364211075067 0 -5.4393763808427028e-05 -0.0021821809879885331 0 2.5472059187993336e-05 -0.0021023305539902793 0 0.00010176073957236634 -0.0022877925341134708 0 -6.4816716393185999e-06 -0.0022051589762428535 0 3.5676621432522386e-05 -0.0023424971806322837 0 2.5472059187993336e-05 -0.0021023305539902793 0 0.00010176073957236634 -0.0022877925341134708 0 -6.4816716393185999e-06 -0.0022051589762428535 0 -6.4816716393185999e-06 -0.0022051589762428535 0 3.5676621432522386e-05 -0.0023424971806322837 0 -6.5970771937505081e-05 -0.0022730743529538527 0 5.3266459126487068e-05 -0.002186804822907837 0 -6.4816716393185999e-06 -0.0022051589762428535 0 -6.5970771937505081e-05 -0.0022730743529538527 0 3.5676621432522386e-05 -0.0023424971806322837 0 -6.5970771937505081e-05 -0.0022730743529538527 0 5.5425691967009156e-08 -0.0024330372125558114 0 3.5676621432522386e-05 -0.0023424971806322837 0 0.00010745671686362632 -0.0023751285274789878 0 6.6977933913361161e-05 -0.0024326680273543825 0 0.00010176073957236634 -0.0022877925341134708 0 3.5676621432522386e-05 -0.0023424971806322837 0 0.00010745671686362632 -0.0023751285274789878 0 4.2880633191130112e-05 -0.0032444004525212034 0 -0.00011157054102970062 -0.0031601857810204495 0 6.2418766203623495e-05 -0.0030540629762495254 0 -8.8408155329554284e-05 -0.0032934234244540342 0 4.2880633191130112e-05 -0.0032444004525212034 0 -0.00011157054102970062 -0.0031601857810204495 0 -2.353244608154021e-05 -0.0027429505762597973 0 -8.3135866655416861e-05 -0.0027197913137520058 0 -6.5970771937505081e-05 -0.0022730743529538527 0 -0.00010118674415163473 -0.0024513744669236925 0 5.5425691967009156e-08 -0.0024330372125558114 0 -8.3135866655416861e-05 -0.0027197913137520058 0 -9.8740530683159085e-05 -0.0026997962826577127 0 -0.00011157054102970062 -0.0031601857810204495 0 6.2418766203623495e-05 -0.0030540629762495254 0 -0.00011042047288107111 -0.0029523139724088546 0 6.2418766203623495e-05 -0.0030540629762495254 0 6.3599228950437302e-05 -0.0028788596355398253 0 -0.00011042047288107111 -0.0029523139724088546 0 6.3599228950437302e-05 -0.0028788596355398253 0 -6.2863024126134004e-05 -0.0026778011559951331 0 8.9622152435287148e-05 -0.0027619159464709136 0 -7.2782122738800889e-05 -0.0026764403113291174 0 -9.8740530683159085e-05 -0.0026997962826577127 0 6.3599228950437302e-05 -0.0028788596355398253 0 -6.2863024126134004e-05 -0.0026778011559951331 0 -0.00011042047288107111 -0.0029523139724088546 0 -6.2863024126134004e-05 -0.0026778011559951331 0 -0.00010118674415163473 -0.0024513744669236925 0 -1.1342017036151401e-05 -0.0025441138460239082 0 3.5676621432522386e-05 -0.0023424971806322837 0 5.5425691967009156e-08 -0.0024330372125558114 0 6.6977933913361161e-05 -0.0024326680273543825 0 5.5425691967009156e-08 -0.0024330372125558114 0 5.1765981364662727e-05 -0.0025170906866655391 0 -1.1342017036151401e-05 -0.0025441138460239082 0 -0.00010118674415163473 -0.0024513744669236925 0 5.5425691967009156e-08 -0.0024330372125558114 0 -1.1342017036151401e-05 -0.0025441138460239082 0 6.6977933913361161e-05 -0.0024326680273543825 0 5.1765981364662727e-05 -0.0025170906866655391 0 0.00013041045332273991 -0.0024563990468785802 0 0.00010745671686362632 -0.0023751285274789878 0 6.6977933913361161e-05 -0.0024326680273543825 0 0.00013041045332273991 -0.0024563990468785802 0 5.5425691967009156e-08 -0.0024330372125558114 0 6.6977933913361161e-05 -0.0024326680273543825 0 5.1765981364662727e-05 -0.0025170906866655391 0 5.1765981364662727e-05 -0.0025170906866655391 0 0.0001076820146400416 -0.0025187734572036731 0 0.00013041045332273991 -0.0024563990468785802 0 5.1765981364662727e-05 -0.0025170906866655391 0 7.1373415848992281e-05 -0.0025537317241521116 0 0.0001076820146400416 -0.0025187734572036731 0 5.1765981364662727e-05 -0.0025170906866655391 0 7.1373415848992281e-05 -0.0025537317241521116 0 1.4710069674791988e-05 -0.0025913200192407204 0 -6.2863024126134004e-05 -0.0026778011559951331 0 -1.1342017036151401e-05 -0.0025441138460239082 0 1.4710069674791988e-05 -0.0025913200192407204 0 5.1765981364662727e-05 -0.0025170906866655391 0 -1.1342017036151401e-05 -0.0025441138460239082 0 1.4710069674791988e-05 -0.0025913200192407204 0 1.4710069674791988e-05 -0.0025913200192407204 0 -7.1592255977123797e-06 -0.0026210857632901967 0 5.7940102553195073e-05 -0.0025669431558450208 0 -6.2863024126134004e-05 -0.0026778011559951331 0 1.4710069674791988e-05 -0.0025913200192407204 0 -7.1592255977123797e-06 -0.0026210857632901967 0 -7.1592255977123797e-06 -0.0026210857632901967 0 5.7940102553195073e-05 -0.0025669431558450208 0 3.5456424871020318e-05 -0.0026168369061520444 0 7.1373415848992281e-05 -0.0025537317241521116 0 1.4710069674791988e-05 -0.0025913200192407204 0 5.7940102553195073e-05 -0.0025669431558450208 0 7.1373415848992281e-05 -0.0025537317241521116 0 5.7940102553195073e-05 -0.0025669431558450208 0 0.00013615543642501074 -0.0025535863825801382 0 2.3874622170407698e-05 -0.002618645549445808 0 3.5456424871020318e-05 -0.0026168369061520444 0 8.4762449660104127e-05 -0.0026349942790377958 0 -0.00010109314061178054 -0.0011023354480270981 0 -0.00027036916663807407 -0.0012891368559501916 0 5.7940102553195073e-05 -0.0025669431558450208 0 3.5456424871020318e-05 -0.0026168369061520444 0 8.4762449660104127e-05 -0.0026349942790377958 0 2.3874622170407698e-05 -0.002618645549445808 0 3.5456424871020318e-05 -0.0026168369061520444 0 6.1864478351437472e-06 -0.0026229875498190803 0 -7.1592255977123797e-06 -0.0026210857632901967 0 6.1864478351437472e-06 -0.0026229875498190803 0 -2.0235495169043852e-05 -0.0026314596235400851 0 2.1891885640817283e-05 -0.0026219122843572644 0 2.6885321129210311e-05 -0.0026349893199516567 0 2.3874622170407698e-05 -0.002618645549445808 0 6.1864478351437472e-06 -0.0026229875498190803 0 -2.0235495169043852e-05 -0.0026314596235400851 0 -7.1592255977123797e-06 -0.0026210857632901967 0 3.5456424871020318e-05 -0.0026168369061520444 0 6.1864478351437472e-06 -0.0026229875498190803 0 -7.1592255977123797e-06 -0.0026210857632901967 0 -2.0235495169043852e-05 -0.0026314596235400851 0 -1.9295133051274954e-05 -0.002652682839072188 0 2.6885321129210311e-05 -0.0026349893199516567 0 0.00012889104000032644 -0.0026845514991585958 0 -2.0235495169043852e-05 -0.0026314596235400851 0 3.1467890185344616e-05 -0.0026370868182770866 0 -1.9295133051274954e-05 -0.002652682839072188 0 7.2346053410157537e-05 -0.0026430133075212147 0 0.00020356926858070839 -0.0027080130603824417 0 0.00015143413196651889 -0.0026213779828412596 0 0.00020449329306837429 -0.0025341130507599272 0 0.00020356926858070839 -0.0027080130603824417 0 0.00015143413196651889 -0.0026213779828412596 0 3.1467890185344616e-05 -0.0026370868182770866 0 -1.9295133051274954e-05 -0.002652682839072188 0 8.9622152435287148e-05 -0.0027619159464709136 0 -6.2863024126134004e-05 -0.0026778011559951331 0 -1.9295133051274954e-05 -0.002652682839072188 0 8.9622152435287148e-05 -0.0027619159464709136 0 -6.2863024126134004e-05 -0.0026778011559951331 0 -7.1592255977123797e-06 -0.0026210857632901967 0 -1.9295133051274954e-05 -0.002652682839072188 0 0.0010808883031500354 0.0020985971397115516 0 0.00081848586310638289 0.0021958695674938709 0 0.00085120818667661362 0.0024440269140818612 0 0.0010808883031500354 0.0020985971397115516 0 0.00085120818667661362 0.0024440269140818612 0 0.001242163601259263 0.0023571280792036692 0 0.0010808883031500354 0.0020985971397115516 0 0.00081848586310638289 0.0021958695674938709 0 0.00067702215970488202 0.0019731462160511009 0 0.00049941261329890479 0.0023538615031125885 0 0.00067702215970488202 0.0019731462160511009 0 0.00015686302873093943 0.0017164358052342349 0 0.00081848586310638289 0.0021958695674938709 0 0.00049941261329890479 0.0023538615031125885 0 0.00067702215970488202 0.0019731462160511009 0 0.00081848586310638289 0.0021958695674938709 0 0.00049941261329890479 0.0023538615031125885 0 0.00085120818667661362 0.0024440269140818612 0 0.00049941261329890479 0.0023538615031125885 0 0.00065593184494639465 0.0026224781268825272 0 0.00085120818667661362 0.0024440269140818612 0 0.00042952832840163855 0.0028589982846572068 0 0.00084612075441742253 0.002826347869162674 0 0.00065593184494639465 0.0026224781268825272 0 0.00042952832840163855 0.0028589982846572068 0 0.00049941261329890479 0.0023538615031125885 0 0.00065593184494639465 0.0026224781268825272 0 0.00075613216176588017 0.0028295550907811032 0 0.00032824602609982643 0.0011075699639338421 0 0.00074250770166230638 0.0027732430661792217 0 0.00060085807039255443 0.0025568490007665053 0 0.00088572494996522005 0.0021698447124392653 0 0.00084612075441742253 0.002826347869162674 0 0.00085120818667661362 0.0024440269140818612 0 0.001242163601259263 0.0023571280792036692 0 0.00084612075441742253 0.002826347869162674 0 0.00065593184494639465 0.0026224781268825272 0 0.00085120818667661362 0.0024440269140818612 0 -0.00063490848721119294 0.00039428078738783793 0 -0.00054229380873427476 0.00028295055094042888 0 -0.00058176139579859776 0.00019956192320690598 0 7.8523405779990684e-05 0.0016052951975413089 0 0.00032824602609982643 0.0011075699639338421 0 -0.00054229380873427476 0.00028295055094042888 0 -0.00056313655626755513 0.0001756012571641564 0 -0.00058176139579859776 0.00019956192320690598 0 -0.00054229380873427476 0.00028295055094042888 0 -0.00043920944311037947 0.00025592957854972257 0 -0.00056313655626755513 0.0001756012571641564 0 -0.00027036916663807407 -0.0012891368559501916 0 0.00022001177982936329 -0.00057149070102465555 0 8.4762449660104127e-05 -0.0026349942790377958 0 0.00015926816388162985 -0.0025295236216474975 0 0.00032982548745490587 -0.0025112158922816503 0 5.7940102553195073e-05 -0.0025669431558450208 0 8.4762449660104127e-05 -0.0026349942790377958 0 0.00015926816388162985 -0.0025295236216474975 0 5.7940102553195073e-05 -0.0025669431558450208 0 0.00015926816388162985 -0.0025295236216474975 0 0.00018088888060638502 -0.0024526683797266888 0 0.00015926816388162985 -0.0025295236216474975 0 0.00018088888060638502 -0.0024526683797266888 0 0.00032982548745490587 -0.0025112158922816503 0 0.00018088888060638502 -0.0024526683797266888 0 0.00015227777291437904 -0.0023584068609700578 0 0.00024392743838782768 -0.0023719112863362988 0 5.7940102553195073e-05 -0.0025669431558450208 0 0.00018088888060638502 -0.0024526683797266888 0 0.00015227777291437904 -0.0023584068609700578 0 0.00013105384186049907 -0.0024841560975878184 0 -3.590535291291878e-05 -0.0026315600392104927 0 0.0010808883031500354 0.0020985971397115516 0 0.001272855847825599 0.0022285430941410595 0 0.001242163601259263 0.0023571280792036692 0 0.00067142366752495403 0.00018666004430501948 0 0.00032824602609982643 0.0011075699639338421 0 0.00084251541180670522 -0.00018255996456499228 0 0.00045584194030218368 -0.00043876256604807103 0 0.00020617999544830456 0.00062817680953055005 0 0.00022001177982936329 -0.00057149070102465555 0 0.00067142366752495403 0.00018666004430501948 0 0.00022001177982936329 -0.00057149070102465555 0 0.00032824602609982643 0.0011075699639338421 0 0.00022001177982936329 -0.00057149070102465555 0 0.00065332728739293854 -0.0025501737889052846 0 0.00018088888060638502 -0.0024526683797266888 0 0.00032982548745490587 -0.0025112158922816503 0 0.00024392743838782768 -0.0023719112863362988 0 0.0003374268015550799 -0.0024742885479744981 0 0.00035625217955139013 -0.0024629485103870121 0 0.00024392743838782768 -0.0023719112863362988 0 0.0010808883031500354 0.0020985971397115516 0 0.0012894066809497097 0.002230468285729707 0 0.001197203031346899 0.0018556502234629666 0 0.0015353085785182301 0.0016194444734683908 0 0.00067142366752495403 0.00018666004430501948 0 0.00067142366752495403 0.00018666004430501948 0 0.00060509110091032088 -0.00059506317305610976 0 0.0012894066809497097 0.002230468285729707 0 0.001197203031346899 0.0018556502234629666 0 0.0014518010235532936 0.0015675504605933178 0 0.00035625217955139013 -0.0024629485103870121 0 0.00030236383417041362 -0.0021952821840616238 0 0.00024392743838782768 -0.0023719112863362988 0 0.001197203031346899 0.0018556502234629666 0 0.0014518010235532936 0.0015675504605933178 0 0.00094187937236042804 0.0016161898500875961 0 0.00021772575714150503 -0.0024815473607974134 0 0.00015244566164257498 -0.0025010033105683513 0 0.00013041045332273991 -0.0024563990468785802 0 7.1373415848992281e-05 -0.0025537317241521116 0 0.00013615543642501074 -0.0025535863825801382 0 0.0001076820146400416 -0.0025187734572036731 0 0.00013615543642501074 -0.0025535863825801382 0 0.00015244566164257498 -0.0025010033105683513 0 0.0001076820146400416 -0.0025187734572036731 0 0.00030236383417041362 -0.0021952821840616238 0 0.00015227777291437904 -0.0023584068609700578 0 0.00024392743838782768 -0.0023719112863362988 0 0.00060509110091032088 -0.00059506317305610976 0 -3.590535291291878e-05 -0.0026315600392104927 0 0.00021772575714150503 -0.0024815473607974134 0 0.00013615543642501074 -0.0025535863825801382 0 0.00015244566164257498 -0.0025010033105683513 0 0.00015244566164257498 -0.0025010033105683513 0 0.0001076820146400416 -0.0025187734572036731 0 0.00013041045332273991 -0.0024563990468785802 0 0.00021772575714150503 -0.0024815473607974134 0 0.00013041045332273991 -0.0024563990468785802 0 0.00020134174486910426 -0.002353065922233766 0 0.00060509110091032088 -0.00059506317305610976 0 0.00072236694130325594 0.00095794822043187742 0 0.0003401155072238198 0.00043062904926499435 0 0.00019935182207237036 0.00030432488624337466 0 0.00039271042829994786 0.00024463787758491676 0 0.00060509110091032088 -0.00059506317305610976 0 0.00027513936504586022 -0.0011396248476236443 0 0.0014518010235532936 0.0015675504605933178 0 0.00097261936339944908 0.0010757024753911986 0 0.00094187937236042804 0.0016161898500875961 0 0.00097261936339944908 0.0010757024753911986 0 0.00094187937236042804 0.0016161898500875961 0 0.00036878703954536219 0.0012779474044487906 0 0.0010808883031500354 0.0020985971397115516 0 0.00094187937236042804 0.0016161898500875961 0 0.00067702215970488202 0.0019731462160511009 0 0.00094187937236042804 0.0016161898500875961 0 0.00067702215970488202 0.0019731462160511009 0 0.00036878703954536219 0.0012779474044487906 0 0.0010808883031500354 0.0020985971397115516 0 0.001197203031346899 0.0018556502234629666 0 0.00094187937236042804 0.0016161898500875961 0 0.00067702215970488202 0.0019731462160511009 0 0.00036878703954536219 0.0012779474044487906 0 0.00015686302873093943 0.0017164358052342349 0 0.00036878703954536219 0.0012779474044487906 0 0.00022665305415718584 0.00047608299250317211 0 4.8563204152894755e-07 0.0007217561121469387 0 0.00097261936339944908 0.0010757024753911986 0 0.00036878703954536219 0.0012779474044487906 0 0.00022665305415718584 0.00047608299250317211 0 0.00019935182207237036 0.00030432488624337466 0 0.00022665305415718584 0.00047608299250317211 0 0.00020411014176542261 0.0001514333246301299 0 0.00072236694130325594 0.00095794822043187742 0 0.00019384138352011084 0.00038699312830843031 0 0.00022665305415718584 0.00047608299250317211 0 0.00020411014176542261 0.0001514333246301299 0 4.7278445792418595e-05 -0.00022256100784741076 0 0.00022665305415718584 0.00047608299250317211 0 1.5988259893783154e-05 0.00025045255819000796 0 4.7278445792418595e-05 -0.00022256100784741076 0 0.00022665305415718584 0.00047608299250317211 0 1.5988259893783154e-05 0.00025045255819000796 0 4.8563204152894755e-07 0.0007217561121469387 0 0.00010176073957236634 -0.0022877925341134708 0 0.00010745671686362632 -0.0023751285274789878 0 0.00020134174486910426 -0.002353065922233766 0 0.00010745671686362632 -0.0023751285274789878 0 0.00013041045332273991 -0.0024563990468785802 0 0.00020134174486910426 -0.002353065922233766 0 0.00019935182207237036 0.00030432488624337466 0 0.00039271042829994786 0.00024463787758491676 0 0.00020411014176542261 0.0001514333246301299 0 0.00020411014176542261 0.0001514333246301299 0 0.00046187757213088181 -0.00027404885030432108 0 4.7278445792418595e-05 -0.00022256100784741076 0 0.00039271042829994786 0.00024463787758491676 0 0.00020411014176542261 0.0001514333246301299 0 0.00046187757213088181 -0.00027404885030432108 0 0.00027513936504586022 -0.0011396248476236443 0 0.00030292679841321485 -0.0012263817394993939 0 0.00010176073957236634 -0.0022877925341134708 0 0.00020134174486910426 -0.002353065922233766 0 0.00021226753285587342 -0.0022192242920943319 0 2.5472059187993336e-05 -0.0021023305539902793 0 0.00010176073957236634 -0.0022877925341134708 0 0.00021226753285587342 -0.0022192242920943319 0 2.5472059187993336e-05 -0.0021023305539902793 0 0.00021226753285587342 -0.0022192242920943319 0 0.00015009058465843437 -0.0016502464873266157 0 0.00046187757213088181 -0.00027404885030432108 0 0.00012783009869228267 -0.00082266354363473245 0 0.00015009058465843437 -0.0016502464873266157 0 0.00030292679841321485 -0.0012263817394993939 0 0.00019540424011701648 -0.0015798969201364567 0 0.00046187757213088181 -0.00027404885030432108 0 0.00012783009869228267 -0.00082266354363473245 0 4.7278445792418595e-05 -0.00022256100784741076 0 0.00012783009869228267 -0.00082266354363473245 0 2.045820682515248e-07 -0.0010808195176283334 0 4.7278445792418595e-05 -0.00022256100784741076 0 0.00012783009869228267 -0.00082266354363473245 0 2.045820682515248e-07 -0.0010808195176283334 0 0.00015009058465843437 -0.0016502464873266157 0 3.392978829197706e-07 -0.0019526178308421989 0 2.045820682515248e-07 -0.0010808195176283334 0 0.00015009058465843437 -0.0016502464873266157 0 1.5988259893783154e-05 0.00025045255819000796 0 4.7278445792418595e-05 -0.00022256100784741076 0 -1.4293056570715126e-07 -0.00020996344945640061 0 2.045820682515248e-07 -0.0010808195176283334 0 4.7278445792418595e-05 -0.00022256100784741076 0 -1.4293056570715126e-07 -0.00020996344945640061 0 1.5988259893783154e-05 0.00025045255819000796 0 -1.4293056570715126e-07 -0.00020996344945640061 0 -6.6880933703109211e-05 0.00046294647954063994 0 -1.4293056570715126e-07 -0.00020996344945640061 0 -6.6880933703109211e-05 0.00046294647954063994 0 -2.2053474626828923e-07 0.00066122243589628049 0 1.5988259893783154e-05 0.00025045255819000796 0 -6.6880933703109211e-05 0.00046294647954063994 0 -0.00013318212243002142 0.00069204597927940211 0 -0.00016373473558902655 0.00093297210625062615 0 -0.00027329871416147637 0.00094944705024429968 0 -0.00013318212243002142 0.00069204597927940211 0 -6.6880933703109211e-05 0.00046294647954063994 0 -0.00016373473558902655 0.00093297210625062615 0 -0.00013318212243002142 0.00069204597927940211 0 -6.6880933703109211e-05 0.00046294647954063994 0 -2.2053474626828923e-07 0.00066122243589628049 0 -0.00016373473558902655 0.00093297210625062615 0 -3.1795992309842884e-07 0.0015322898921996599 0 -0.0001207191491739365 0.0013201846464941127 0 -0.00016373473558902655 0.00093297210625062615 0 -2.2053474626828923e-07 0.00066122243589628049 0 -3.1795992309842884e-07 0.0015322898921996599 0 -0.00016373473558902655 0.00093297210625062615 0 -3.1795992309842884e-07 0.0015322898921996599 0 -0.0001207191491739365 0.0013201846464941127 0 -6.4189872831614674e-05 0.0016641170821508915 0 -0.00024033037161267062 0.0011427834416860856 0 -6.4189872831614674e-05 0.0016641170821508915 0 -3.7832633000959327e-05 0.0012428992719473295 0 -0.0001207191491739365 0.0013201846464941127 0 -0.00024033037161267062 0.0011427834416860856 0 -6.4189872831614674e-05 0.0016641170821508915 0 -0.0001207191491739365 0.0013201846464941127 0 -0.00016373473558902655 0.00093297210625062615 0 -0.00024033037161267062 0.0011427834416860856 0 -0.00016373473558902655 0.00093297210625062615 0 -0.00027329871416147637 0.00094944705024429968 0 -0.00024033037161267062 0.0011427834416860856 0 -0.00027329871416147637 0.00094944705024429968 0 -0.00024033037161267062 0.0011427834416860856 0 -0.00042165206553758058 0.0011208644841195765 0 -0.00024033037161267062 0.0011427834416860856 0 -0.00042165206553758058 0.0011208644841195765 0 -0.00019743033441319618 0.0011344118935414638 0 -0.00080635678994187866 0.00061839100915041061 0 0.00022276841644777446 0.0023544546224391069 0 -0.00017393921806596632 0.0012904015891558361 0 0.00022276841644777446 0.0023544546224391069 0 -0.00083740891626545933 0.0012238964158973033 0 -0.00042165206553758058 0.0011208644841195765 0 -0.00080088308485861087 0.001584117340349487 0 -0.00083740891626545933 0.0012238964158973033 0 -0.00042165206553758058 0.0011208644841195765 0 -0.00089117333255885642 0.00085887577611833729 0 -0.00027329871416147637 0.00094944705024429968 0 -0.00042165206553758058 0.0011208644841195765 0 -0.00013466665737236263 0.0011212433359995262 0 -0.00013466665737236263 0.0011212433359995262 0 4.8563204152894755e-07 0.0007217561121469387 0 -0.00013318212243002142 0.00069204597927940211 0 0.00036878703954536219 0.0012779474044487906 0 -0.00013466665737236263 0.0011212433359995262 0 4.8563204152894755e-07 0.0007217561121469387 0 1.5988259893783154e-05 0.00025045255819000796 0 4.8563204152894755e-07 0.0007217561121469387 0 -0.00013318212243002142 0.00069204597927940211 0 -0.00027329871416147637 0.00094944705024429968 0 -0.00013466665737236263 0.0011212433359995262 0 -0.00013318212243002142 0.00069204597927940211 0 0.00030091063636310299 0.0045751153677232115 0 2.5073263681913821e-06 0.0032768795737192669 0 -7.3254197784351193e-07 0.0040043076042613531 0 -2.3573351292125902e-07 0.0032744685770683389 0 0.0010528720605929472 0.0033668344956766776 0 0.00030091063636310299 0.0045751153677232115 0 2.5073263681913821e-06 0.0032768795737192669 0 0.00083556800741467875 0.0045962720954664032 0 2.5073263681913821e-06 0.0032768795737192669 0 0.00083556800741467875 0.0045962720954664032 0 0.0016413075758692935 0.0043697187292775627 0 0.00030091063636310299 0.0045751153677232115 0 0.00083556800741467875 0.0045962720954664032 0 0.00091488676251781219 0.0054164559238519842 0 0.00083556800741467875 0.0045962720954664032 0 0.0016413075758692935 0.0043697187292775627 0 0.001311438910271925 0.0050169809573946539 0 0.0016413075758692935 0.0043697187292775627 0 0.0025098434204003641 0.0051839076337440223 0 0.0017549274203563171 0.0050581840747212104 0 0.0016413075758692935 0.0043697187292775627 0 0.0017549274203563171 0.0050581840747212104 0 0.001311438910271925 0.0050169809573946539 0 5.460161301841888e-07 0.0032741136265759482 0 0.0001439761558699525 0.0020051377463153322 0 -1.9530021646235176e-09 0.0024034760008107246 0 0.0001439761558699525 0.0020051377463153322 0 -1.9530021646235176e-09 0.0024034760008107246 0 -6.4189872831614674e-05 0.0016641170821508915 0 -3.1795992309842884e-07 0.0015322898921996599 0 -1.9530021646235176e-09 0.0024034760008107246 0 -6.4189872831614674e-05 0.0016641170821508915 0 0.0001439761558699525 0.0020051377463153322 0 -6.4189872831614674e-05 0.0016641170821508915 0 -3.7832633000959327e-05 0.0012428992719473295 0 0.0010528720605929472 0.0033668344956766776 0 0.00022276841644777446 0.0023544546224391069 0 -0.00089117333255885642 0.00085887577611833729 0 -0.0011075293666020153 0.0011879667427017299 0 -0.0014115157833205442 0.0010917940919899054 0 -0.00083740891626545933 0.0012238964158973033 0 -0.00089117333255885642 0.00085887577611833729 0 -0.0011075293666020153 0.0011879667427017299 0 -0.00083740891626545933 0.0012238964158973033 0 -0.0011075293666020153 0.0011879667427017299 0 -0.0010991408246032034 0.0014311294287996175 0 -0.0011075293666020153 0.0011879667427017299 0 -0.0013298190118733108 0.0013521641630967144 0 -0.0014115157833205442 0.0010917940919899054 0 -0.0011075293666020153 0.0011879667427017299 0 -0.0013298190118733108 0.0013521641630967144 0 -0.0010991408246032034 0.0014311294287996175 0 -0.0013298190118733108 0.0013521641630967144 0 -0.0014115157833205442 0.0010917940919899054 0 -0.0015919403170733934 0.0013904373517123758 0 0.00022276841644777446 0.0023544546224391069 0 -2.565716314135433e-05 0.0032454354675818435 0 0.0025098434204003641 0.0051839076337440223 0 0.0014091721806002066 0.005587245860388306 0 0.0017549274203563171 0.0050581840747212104 0 0.0014091721806002066 0.005587245860388306 0 0.0017549274203563171 0.0050581840747212104 0 0.001311438910271925 0.0050169809573946539 0 0.00083556800741467875 0.0045962720954664032 0 0.001311438910271925 0.0050169809573946539 0 0.00091488676251781219 0.0054164559238519842 0 0.0014091721806002066 0.005587245860388306 0 0.001311438910271925 0.0050169809573946539 0 0.00091488676251781219 0.0054164559238519842 0 0.0014091721806002066 0.005587245860388306 0 0.00091488676251781219 0.0054164559238519842 0 0.00043242587282101079 0.0059220813742715634 0 -2.565716314135433e-05 0.0032454354675818435 0 6.9093332266513481e-05 0.0050083476828828065 0 -0.0014115157833205442 0.0010917940919899054 0 -0.0015919403170733934 0.0013904373517123758 0 -0.0019308231353826627 0.0013239432781408172 0 0.00082574889970932544 0.0056635011996243774 0 6.9093332266513481e-05 0.0050083476828828065 0 -0.0015919403170733934 0.0013904373517123758 0 -0.0019308231353826627 0.0013239432781408172 0 -0.0018184700763733005 0.0014714757248677514 0 -0.0019308231353826627 0.0013239432781408172 0 -0.0019641189770424482 0.0015122292526353282 0 -0.0018184700763733005 0.0014714757248677514 0 6.9093332266513481e-05 0.0050083476828828065 0 0.00040718413397701779 0.0060822086548110305 0 6.9093332266513481e-05 0.0050083476828828065 0 0.00033047141306090372 0.0052905558191010836 0 0.0010520604022633405 0.0062297886683666676 0 0.00054491515670898735 0.006723267471664871 0 0.00038525766721402764 0.0064748985320937568 0 0.0010520604022633405 0.0062297886683666676 0 0.00052844021505160351 0.0068233898046059548 0 0.00054491515670898735 0.006723267471664871 0 -0.0019308231353826627 0.0013239432781408172 0 -0.0019641189770424482 0.0015122292526353282 0 -0.0021263058121850963 0.0015443749296285426 0 0.00064314785937454391 0.0061038308826952071 0 0.00040385415256195074 0.0059509696154462508 0 0.00038525766721402764 0.0064748985320937568 0 0.00064314785937454391 0.0061038308826952071 0 0.00051933180707337833 0.0055161891660480359 0 0.00040385415256195074 0.0059509696154462508 0 0.00030091063636310299 0.0045751153677232115 0 0.00091488676251781219 0.0054164559238519842 0 0.00051933180707337833 0.0055161891660480359 0 0.00051933180707337833 0.0055161891660480359 0 0.00016186462322091575 0.0053713749244683204 0 0.00040385415256195074 0.0059509696154462508 0 0.00030091063636310299 0.0045751153677232115 0 0.00051933180707337833 0.0055161891660480359 0 0.00016186462322091575 0.0053713749244683204 0 0.00091488676251781219 0.0054164559238519842 0 0.00064314785937454391 0.0061038308826952071 0 0.00051933180707337833 0.0055161891660480359 0 -0.0019763184706693012 0.0021118586115368718 0 -0.0019842204977713546 0.0018641756128786376 0 -0.0022173859839827613 0.0020194308398404446 0 -0.0019763184706693012 0.0021118586115368718 0 -0.0018497948551019015 0.0018946827552390813 0 -0.0017295216297349828 0.0020193224635598624 0 -0.0018497948551019015 0.0018946827552390813 0 -0.0018592998589661582 0.0017258140671754601 0 -0.0017091456970658304 0.001763304823496281 0 -0.0018497948551019015 0.0018946827552390813 0 -0.0019842204977713546 0.0018641756128786376 0 -0.0018592998589661582 0.0017258140671754601 0 -0.0019763184706693012 0.0021118586115368718 0 -0.0018497948551019015 0.0018946827552390813 0 -0.0019842204977713546 0.0018641756128786376 0 -0.0019842204977713546 0.0018641756128786376 0 -0.0020091774551606965 0.001704292752771483 0 -0.0022173859839827613 0.0020194308398404446 0 -0.0019842204977713546 0.0018641756128786376 0 -0.0020091774551606965 0.001704292752771483 0 -0.0018592998589661582 0.0017258140671754601 0 -0.0020091774551606965 0.001704292752771483 0 -0.0019641189770424482 0.0015122292526353282 0 -0.0021263058121850963 0.0015443749296285426 0 -0.0020091774551606965 0.001704292752771483 0 -0.0019641189770424482 0.0015122292526353282 0 -0.0018777818990734845 0.0015666897915287844 0 -0.0018184700763733005 0.0014714757248677514 0 -0.0018777818990734845 0.0015666897915287844 0 -0.0017273609896595432 0.0015651597757954186 0 -0.0019641189770424482 0.0015122292526353282 0 -0.0018184700763733005 0.0014714757248677514 0 -0.0018777818990734845 0.0015666897915287844 0 -0.0018777818990734845 0.0015666897915287844 0 -0.0018592998589661582 0.0017258140671754601 0 -0.0017273609896595432 0.0015651597757954186 0 -0.0020091774551606965 0.001704292752771483 0 -0.0018777818990734845 0.0015666897915287844 0 -0.0018592998589661582 0.0017258140671754601 0 -0.0018592998589661582 0.0017258140671754601 0 -0.0017091456970658304 0.001763304823496281 0 -0.0017273609896595432 0.0015651597757954186 0 -0.0017091456970658304 0.001763304823496281 0 -0.0017273609896595432 0.0015651597757954186 0 -0.0015878004743417257 0.001633739020952035 0 -0.0015919403170733934 0.0013904373517123758 0 -0.0017273609896595432 0.0015651597757954186 0 -0.0015878004743417257 0.001633739020952035 0 -0.0015919403170733934 0.0013904373517123758 0 -0.0018184700763733005 0.0014714757248677514 0 -0.0017273609896595432 0.0015651597757954186 0 -0.0015919403170733934 0.0013904373517123758 0 -0.0015878004743417257 0.001633739020952035 0 -0.0013798095231141337 0.0016132512689857258 0 -0.0017091456970658304 0.001763304823496281 0 -0.0015878004743417257 0.001633739020952035 0 -0.0015317172223146662 0.0018386281968544276 0 -0.0015878004743417257 0.001633739020952035 0 -0.0015317172223146662 0.0018386281968544276 0 -0.0013798095231141337 0.0016132512689857258 0 -0.0017091456970658304 0.001763304823496281 0 -0.0015317172223146662 0.0018386281968544276 0 -0.0017295216297349828 0.0020193224635598624 0 -0.0018497948551019015 0.0018946827552390813 0 -0.0017091456970658304 0.001763304823496281 0 -0.0017295216297349828 0.0020193224635598624 0 -0.0015317172223146662 0.0018386281968544276 0 -0.0017295216297349828 0.0020193224635598624 0 -0.0014679598600835075 0.0021321779196626124 0 -0.0012965821821460067 0.0020437867161205046 0 -0.0013397995981584707 0.0018997653302532086 0 -0.0014679598600835075 0.0021321779196626124 0 -0.0015317172223146662 0.0018386281968544276 0 -0.0013397995981584707 0.0018997653302532086 0 -0.0014679598600835075 0.0021321779196626124 0 -0.0012965821821460067 0.0020437867161205046 0 -0.0013397995981584707 0.0018997653302532086 0 -0.001157071387340382 0.00199444953918933 0 -0.0012965821821460067 0.0020437867161205046 0 -0.001157071387340382 0.00199444953918933 0 -0.001235969917714971 0.0021376357301556553 0 -0.0013397995981584707 0.0018997653302532086 0 -0.0013798095231141337 0.0016132512689857258 0 -0.0011297019238300852 0.0017464156356963977 0 -0.0013397995981584707 0.0018997653302532086 0 -0.0011297019238300852 0.0017464156356963977 0 -0.001157071387340382 0.00199444953918933 0 -0.0015317172223146662 0.0018386281968544276 0 -0.0013397995981584707 0.0018997653302532086 0 -0.0013798095231141337 0.0016132512689857258 0 -0.0013298190118733108 0.0013521641630967144 0 -0.0015919403170733934 0.0013904373517123758 0 -0.0013798095231141337 0.0016132512689857258 0 -0.0013298190118733108 0.0013521641630967144 0 -0.0013798095231141337 0.0016132512689857258 0 -0.0010991408246032034 0.0014311294287996175 0 -0.0013798095231141337 0.0016132512689857258 0 -0.0010991408246032034 0.0014311294287996175 0 -0.0011297019238300852 0.0017464156356963977 0 -0.0010991408246032034 0.0014311294287996175 0 -0.0011297019238300852 0.0017464156356963977 0 -0.00080088308485861087 0.001584117340349487 0 -0.00083740891626545933 0.0012238964158973033 0 -0.0010991408246032034 0.0014311294287996175 0 -0.00080088308485861087 0.001584117340349487 0 -0.0011297019238300852 0.0017464156356963977 0 -0.0010042144735853387 0.0019377728489140713 0 -0.00080088308485861087 0.001584117340349487 0 -0.001157071387340382 0.00199444953918933 0 -0.0010042144735853387 0.0019377728489140713 0 -0.00113940528721623 0.0022123408375273124 0 -0.0011297019238300852 0.0017464156356963977 0 -0.001157071387340382 0.00199444953918933 0 -0.0010042144735853387 0.0019377728489140713 0 -0.0010042144735853387 0.0019377728489140713 0 -0.001181064011352752 0.0021976249927005923 0 -0.00072402859614331639 0.0020256392426407084 0 -0.00051326552508399066 0.0036813024616635039 0 -0.00025930849127284877 0.0027126017516456847 0 -0.00079276470021336337 0.0018136236423248627 0 -0.00051326552508399066 0.0036813024616635039 0 0.0001459139596203913 0.0031988740784233273 0 0.0002130291321238114 0.0033814210733801066 0 0.00019655335273188138 0.0033172345919785114 0 0.0001459139596203913 0.0031988740784233273 0 0.0002130291321238114 0.0033814210733801066 0 0.00024558321464968801 0.0036287692380512215 0 -0.00051326552508399066 0.0036813024616635039 0 -0.00053690619522529597 0.0056893797348961861 0 0.0001459139596203913 0.0031988740784233273 0 0.00024558321464968801 0.0036287692380512215 0 -0.00028973886075929099 0.0036454974194833119 0 -0.00033153694510410696 0.0065044115456089234 0 -0.00084261589574770063 0.0067552272371073823 0 -0.00082166235619659329 0.0072619999129665946 0 -0.00033153694510410696 0.0065044115456089234 0 -0.00059536265566940212 0.0064247242049242084 0 -0.00084261589574770063 0.0067552272371073823 0 -0.00113940528721623 0.0022123408375273124 0 -0.0013101458323700012 0.0021580603590768545 0 -0.001235969917714971 0.0021376357301556553 0 -0.001157071387340382 0.00199444953918933 0 -0.00113940528721623 0.0022123408375273124 0 -0.001235969917714971 0.0021376357301556553 0 -0.00051326552508399066 0.0036813024616635039 0 -0.001019294803473451 0.0032602627868364839 0 -0.001019294803473451 0.0032602627868364839 0 -0.001046207125319706 0.0030959733550887381 0 -0.0012965821821460067 0.0020437867161205046 0 -0.0013071352207636151 0.0021609299356498551 0 -0.001235969917714971 0.0021376357301556553 0 -0.0012965821821460067 0.0020437867161205046 0 -0.0013071352207636151 0.0021609299356498551 0 -0.0014679598600835075 0.0021321779196626124 0 -0.001019294803473451 0.0032602627868364839 0 -0.001579874933530891 0.0025315085213806097 0 -0.001019294803473451 0.0032602627868364839 0 -0.0017863789588159619 0.0044995791776884239 0 -0.00059536265566940212 0.0064247242049242084 0 -0.00084261589574770063 0.0067552272371073823 0 -0.0012626515061329908 0.0066458964665438505 0 -0.0012840244516134261 0.0021908198702625054 0 -0.0014679598600835075 0.0021321779196626124 0 -0.0017888188755544028 0.0023567748363823313 0 -0.0017295216297349828 0.0020193224635598624 0 -0.0014679598600835075 0.0021321779196626124 0 -0.0017888188755544028 0.0023567748363823313 0 -0.00084261589574770063 0.0067552272371073823 0 -0.0011610679867637276 0.0069388007190918149 0 -0.00082166235619659329 0.0072619999129665946 0 -0.00084261589574770063 0.0067552272371073823 0 -0.0011610679867637276 0.0069388007190918149 0 -0.0012626515061329908 0.0066458964665438505 0 -0.0011610679867637276 0.0069388007190918149 0 -0.00082166235619659329 0.0072619999129665946 0 -0.0012437136873983871 0.0072428165846791827 0 -0.0011610679867637276 0.0069388007190918149 0 -0.0014731354178919042 0.0070547869207720397 0 -0.0012626515061329908 0.0066458964665438505 0 -0.0014731354178919042 0.0070547869207720397 0 -0.0012626515061329908 0.0066458964665438505 0 -0.0018376710645642729 0.0068187700999964547 0 -0.0011610679867637276 0.0069388007190918149 0 -0.0014731354178919042 0.0070547869207720397 0 -0.0012437136873983871 0.0072428165846791827 0 -0.0019763184706693012 0.0021118586115368718 0 -0.0017888188755544028 0.0023567748363823313 0 -0.0022945174374763211 0.0025291150864632105 0 -0.0017863789588159619 0.0044995791776884239 0 -0.00066871628979116792 0.0059909810345156744 0 -0.0019763184706693012 0.0021118586115368718 0 -0.0017295216297349828 0.0020193224635598624 0 -0.0017888188755544028 0.0023567748363823313 0 0.00015686302873093943 0.0017164358052342349 0 -0.00034375035362409673 0.0015884800878393569 0 -0.00017839301900748401 0.0021510138571117191 0 0.00036878703954536219 0.0012779474044487906 0 -0.00013466665737236263 0.0011212433359995262 0 0.00015686302873093943 0.0017164358052342349 0 -0.00013466665737236263 0.0011212433359995262 0 0.00015686302873093943 0.0017164358052342349 0 -0.00034375035362409673 0.0015884800878393569 0 -0.00042165206553758058 0.0011208644841195765 0 -0.00034375035362409673 0.0015884800878393569 0 -0.00080088308485861087 0.001584117340349487 0 -0.00042165206553758058 0.0011208644841195765 0 -0.00013466665737236263 0.0011212433359995262 0 -0.00034375035362409673 0.0015884800878393569 0 -0.0010042144735853387 0.0019377728489140713 0 -0.00080088308485861087 0.001584117340349487 0 -0.00072402859614331639 0.0020256392426407084 0 -0.00034375035362409673 0.0015884800878393569 0 -0.00080088308485861087 0.001584117340349487 0 -0.00072402859614331639 0.0020256392426407084 0 -0.00034375035362409673 0.0015884800878393569 0 -0.00072402859614331639 0.0020256392426407084 0 -0.00017839301900748401 0.0021510138571117191 0 -0.00072402859614331639 0.0020256392426407084 0 -0.00068422268307358268 0.0024323703892754267 0 -0.00017839301900748401 0.0021510138571117191 0 -0.001181064011352752 0.0021976249927005923 0 -0.00072402859614331639 0.0020256392426407084 0 -0.00068422268307358268 0.0024323703892754267 0 0.00019655335273188138 0.0033172345919785114 0 9.6329456222382279e-05 0.0031835852382430308 0 0.00019130200143730735 0.0033653512697811735 0 0.0002130291321238114 0.0033814210733801066 0 0.00019655335273188138 0.0033172345919785114 0 0.00019130200143730735 0.0033653512697811735 0 -0.00068422268307358268 0.0024323703892754267 0 1.8646312910640945e-05 0.0028663338029666753 0 -0.00017839301900748401 0.0021510138571117191 0 0.00019655335273188138 0.0033172345919785114 0 1.8646312910640945e-05 0.0028663338029666753 0 9.6329456222382279e-05 0.0031835852382430308 0 -0.00025930849127284877 0.0027126017516456847 0 5.126053082098515e-05 0.0029351864114459275 0 0.00049941261329890479 0.0023538615031125885 0 1.8646312910640945e-05 0.0028663338029666753 0 -0.00017839301900748401 0.0021510138571117191 0 0.00049941261329890479 0.0023538615031125885 0 0.00015686302873093943 0.0017164358052342349 0 -0.00017839301900748401 0.0021510138571117191 0 0.00042952832840163855 0.0028589982846572068 0 0.00049941261329890479 0.0023538615031125885 0 1.8646312910640945e-05 0.0028663338029666753 0 0.00042952832840163855 0.0028589982846572068 0 0.000483730868437178 0.0031418663677806168 0 0.00022284385410950295 0.003119679215627899 0 0.00042952832840163855 0.0028589982846572068 0 1.8646312910640945e-05 0.0028663338029666753 0 0.00022284385410950295 0.003119679215627899 0 1.8646312910640945e-05 0.0028663338029666753 0 0.00010189883311597288 0.0031490291367313066 0 0.00022284385410950295 0.003119679215627899 0 1.8646312910640945e-05 0.0028663338029666753 0 0.00010189883311597288 0.0031490291367313066 0 9.6329456222382279e-05 0.0031835852382430308 0 0.00010189883311597288 0.0031490291367313066 0 0.00015438488652011362 0.003218986846635111 0 0.0001081288629305898 0.0031899394274605372 0 0.00010189883311597288 0.0031490291367313066 0 0.00022284385410950295 0.003119679215627899 0 0.00015438488652011362 0.003218986846635111 0 0.000483730868437178 0.0031418663677806168 0 0.00022284385410950295 0.003119679215627899 0 0.00025590294067645108 0.0032371439586758909 0 0.00022284385410950295 0.003119679215627899 0 0.00025590294067645108 0.0032371439586758909 0 0.00015438488652011362 0.003218986846635111 0 0.00025590294067645108 0.0032371439586758909 0 0.00015438488652011362 0.003218986846635111 0 0.00019908253951657516 0.0033693920385598707 0 0.00015438488652011362 0.003218986846635111 0 0.00019908253951657516 0.0033693920385598707 0 0.00010669445877070981 0.0032628234823646831 0 0.00011331189128525719 0.0038578061071849312 0 0.0014490591135326264 0.0048973607811041145 0 0.00040512494909635802 0.004307678014031765 0 0.0006187441611194309 0.0042397410800363942 0 0.0013705420092673046 0.004967574724330545 0 0.00060029671243931506 0.0051257854178062721 0 0.0014490591135326264 0.0048973607811041145 0 0.00011331189128525719 0.0038578061071849312 0 0.00060029671243931506 0.0051257854178062721 0 1.0053717061360117e-05 0.0031049074686152625 0 0.00011331189128525719 0.0038578061071849312 0 0.00034031301021955341 0.0033461391166235664 0 0.00025590294067645108 0.0032371439586758909 0 0.00019908253951657516 0.0033693920385598707 0 -0.00053674072351328863 0.002884065798249528 0 -0.00012753613384662167 0.0027660308848130575 0 -0.00045545210556757564 0.002536366754760217 0 0.0014495478127228691 0.0059479627914594433 0 0.00086457726739249514 0.0062702863799484121 0 0.0017905916602241594 0.0066111164640345272 0 0.0014495478127228691 0.0059479627914594433 0 0.00093872168568095884 0.0057040517624023799 0 0.00086457726739249514 0.0062702863799484121 0 0.0026004864101951083 0.0063197282166234875 0 0.0020675007212217302 0.0057767351834582519 0 0.0017905916602241594 0.0066111164640345272 0 0.0014495478127228691 0.0059479627914594433 0 0.0020675007212217302 0.0057767351834582519 0 0.0017905916602241594 0.0066111164640345272 0 0.00015438488652011362 0.003218986846635111 0 0.00010669445877070981 0.0032628234823646831 0 0.0001081288629305898 0.0031899394274605372 0 0.0014495478127228691 0.0059479627914594433 0 0.0020675007212217302 0.0057767351834582519 0 0.0015498534501647626 0.0053715285448236172 0 0.0014490591135326264 0.0048973607811041145 0 0.00071720413203253859 0.0039407070748707952 0 0.0014490591135326264 0.0048973607811041145 0 0.0017853215488835878 0.0054446095686985886 0 0.0023794122889043766 0.0057699704196872304 0 0.0017342746135351683 0.0053228829693356015 0 0.0014412571369135116 0.0048485444500945317 0 0.00010669445877070981 0.0032628234823646831 0 0.00014292153301675677 0.0031916555504885526 0 0.0001081288629305898 0.0031899394274605372 0 0.0015498534501647626 0.0053715285448236172 0 0.00093872168568095884 0.0057040517624023799 0 0.00087290461294651177 0.0052645991664076091 0 0.0014495478127228691 0.0059479627914594433 0 0.0015498534501647626 0.0053715285448236172 0 0.00093872168568095884 0.0057040517624023799 0 0.0017853215488835878 0.0054446095686985886 0 0.0010150060831842769 0.0048943709159512431 0 0.0015498534501647626 0.0053715285448236172 0 0.0010062431248787456 0.0048777939885894716 0 0.00087290461294651177 0.0052645991664076091 0 0.0017342746135351683 0.0053228829693356015 0 0.0014412571369135116 0.0048485444500945317 0 0.0010062431248787456 0.0048777939885894716 0 0.0014412571369135116 0.0048485444500945317 0 0.0010062431248787456 0.0048777939885894716 0 0.00073471196675012991 0.0045807171726826735 0 0.00014292153301675677 0.0031916555504885526 0 0.0001081288629305898 0.0031899394274605372 0 9.6329456222382279e-05 0.0031835852382430308 0 0.00010189883311597288 0.0031490291367313066 0 0.0001081288629305898 0.0031899394274605372 0 9.6329456222382279e-05 0.0031835852382430308 0 0.00014292153301675677 0.0031916555504885526 0 9.6329456222382279e-05 0.0031835852382430308 0 0.00019130200143730735 0.0033653512697811735 0 0.00014292153301675677 0.0031916555504885526 0 0.00019130200143730735 0.0033653512697811735 0 0.00024558321464968801 0.0036287692380512215 0 0.0002130291321238114 0.0033814210733801066 0 0.00019130200143730735 0.0033653512697811735 0 0.00024558321464968801 0.0036287692380512215 0 0.00071720413203253859 0.0039407070748707952 0 0.00029780751237924356 0.0036595855501553136 0 0.00024558321464968801 0.0036287692380512215 0 0.00073471196675012991 0.0045807171726826735 0 0.00032979299601099328 0.0046055722845165592 0 0.00024558321464968801 0.0036287692380512215 0 -7.2234853869847847e-05 0.0042887403820878111 0 0.00032979299601099328 0.0046055722845165592 0 0.00024558321464968801 0.0036287692380512215 0 -0.00028973886075929099 0.0036454974194833119 0 -7.2234853869847847e-05 0.0042887403820878111 0 -0.00028973886075929099 0.0036454974194833119 0 -7.2234853869847847e-05 0.0042887403820878111 0 -0.00036767680277620439 0.0046590367266024883 0 -7.2234853869847847e-05 0.0042887403820878111 0 -2.3392042750251282e-05 0.0049673227593887382 0 0.00032979299601099328 0.0046055722845165592 0 -7.2234853869847847e-05 0.0042887403820878111 0 -2.3392042750251282e-05 0.0049673227593887382 0 -0.00036767680277620439 0.0046590367266024883 0 -2.3392042750251282e-05 0.0049673227593887382 0 -0.00036767680277620439 0.0046590367266024883 0 -0.00046269726749079983 0.0053245710390846688 0 -2.3392042750251282e-05 0.0049673227593887382 0 0.00032979299601099328 0.0046055722845165592 0 0.00049720553663130495 0.0052570972851132486 0 0.0014412571369135116 0.0048485444500945317 0 0.00024558321464968801 0.0036287692380512215 0 0.00073471196675012991 0.0045807171726826735 0 0.00069047280986370032 0.0049136641946021225 0 0.00032979299601099328 0.0046055722845165592 0 0.00049720553663130495 0.0052570972851132486 0 0.0010062431248787456 0.0048777939885894716 0 0.00069047280986370032 0.0049136641946021225 0 0.00087290461294651177 0.0052645991664076091 0 0.00069047280986370032 0.0049136641946021225 0 0.00087290461294651177 0.0052645991664076091 0 0.00049720553663130495 0.0052570972851132486 0 0.0010062431248787456 0.0048777939885894716 0 0.00069047280986370032 0.0049136641946021225 0 0.00073471196675012991 0.0045807171726826735 0 0.00069047280986370032 0.0049136641946021225 0 0.00073471196675012991 0.0045807171726826735 0 0.00032979299601099328 0.0046055722845165592 0 -0.001497406433249358 0.0073709678532050482 0 -0.0012603128676967777 0.0075570829117845451 0 -0.001620708133706844 0.007626857168057841 0 -0.0014731354178919042 0.0070547869207720397 0 -0.001497406433249358 0.0073709678532050482 0 -0.0012437136873983871 0.0072428165846791827 0 -0.001497406433249358 0.0073709678532050482 0 -0.0012437136873983871 0.0072428165846791827 0 -0.0012603128676967777 0.0075570829117845451 0 -0.00053690619522529597 0.0056893797348961861 0 -0.0011277300596145511 0.0062966008975680401 0 -0.00082166235619659329 0.0072619999129665946 0 -0.0012437136873983871 0.0072428165846791827 0 -0.0012603128676967777 0.0075570829117845451 0 -0.00082166235619659329 0.0072619999129665946 0 -0.0012603128676967777 0.0075570829117845451 0 -0.0013324325049633573 0.0076470837086252677 0 -0.00028973886075929099 0.0036454974194833119 0 -0.00036767680277620439 0.0046590367266024883 0 -0.0010361549570581847 0.0051098905473376194 0 -0.00036767680277620439 0.0046590367266024883 0 -0.0010361549570581847 0.0051098905473376194 0 -0.00046269726749079983 0.0053245710390846688 0 -0.0013324325049633573 0.0076470837086252677 0 -0.00098063337103793287 0.0073690948635816173 0 -0.0010193843716831512 0.0077809185817980112 0 -0.0012603128676967777 0.0075570829117845451 0 -0.0013324325049633573 0.0076470837086252677 0 -0.0010193843716831512 0.0077809185817980112 0 -0.0011982767357350823 0.0075924994777764954 0 -0.0014320288563830219 0.007727059400025011 0 -0.0010361549570581847 0.0051098905473376194 0 -0.00082292628632971577 0.0058511751007217713 0 -0.0010642488529602708 0.0066274385857596095 0 -0.0013324325049633573 0.0076470837086252677 0 -0.0010642488529602708 0.0066274385857596095 0 -0.00098063337103793287 0.0073690948635816173 0 -0.0011277300596145511 0.0062966008975680401 0 -0.0010777497859397612 0.0065843877170523434 0 -0.00082292628632971577 0.0058511751007217713 0 -0.00050394087868954748 0.0058295113866940265 0 -0.00081731139492232079 0.0063029668140038098 0 -0.0010361549570581847 0.0051098905473376194 0 -0.00082292628632971577 0.0058511751007217713 0 -0.00046269726749079983 0.0053245710390846688 0 -0.00082292628632971577 0.0058511751007217713 0 -0.00046269726749079983 0.0053245710390846688 0 -0.00050394087868954748 0.0058295113866940265 0 -0.00046269726749079983 0.0053245710390846688 0 -0.00050394087868954748 0.0058295113866940265 0 -8.6859413493880266e-05 0.0056179038448621434 0 -0.00034708811414931512 0.0062105392322703706 0 -0.0006337461227936042 0.0065364127798295223 0 -7.1881104044455152e-05 0.0065570185467495688 0 -0.00050394087868954748 0.0058295113866940265 0 -0.00034708811414931512 0.0062105392322703706 0 -0.00081731139492232079 0.0063029668140038098 0 -0.00034708811414931512 0.0062105392322703706 0 -0.0006337461227936042 0.0065364127798295223 0 -0.00081731139492232079 0.0063029668140038098 0 -0.0006337461227936042 0.0065364127798295223 0 -0.00081731139492232079 0.0063029668140038098 0 -0.0010430776311936244 0.0066146352115833158 0 -0.00082292628632971577 0.0058511751007217713 0 -0.00081731139492232079 0.0063029668140038098 0 -0.0010642488529602708 0.0066274385857596095 0 -0.00081731139492232079 0.0063029668140038098 0 -0.0010430776311936244 0.0066146352115833158 0 -0.0010642488529602708 0.0066274385857596095 0 0.00093872168568095884 0.0057040517624023799 0 0.00049720553663130495 0.0052570972851132486 0 0.00032127042054465137 0.005973970475658283 0 0.00093872168568095884 0.0057040517624023799 0 0.00087290461294651177 0.0052645991664076091 0 0.00049720553663130495 0.0052570972851132486 0 0.00049720553663130495 0.0052570972851132486 0 -8.6859413493880266e-05 0.0056179038448621434 0 0.00032127042054465137 0.005973970475658283 0 -2.3392042750251282e-05 0.0049673227593887382 0 0.00049720553663130495 0.0052570972851132486 0 -8.6859413493880266e-05 0.0056179038448621434 0 -2.3392042750251282e-05 0.0049673227593887382 0 -0.00046269726749079983 0.0053245710390846688 0 -8.6859413493880266e-05 0.0056179038448621434 0 -0.00050394087868954748 0.0058295113866940265 0 -0.00034708811414931512 0.0062105392322703706 0 -8.6859413493880266e-05 0.0056179038448621434 0 -0.00034708811414931512 0.0062105392322703706 0 -8.6859413493880266e-05 0.0056179038448621434 0 0.00032127042054465137 0.005973970475658283 0 -0.00034708811414931512 0.0062105392322703706 0 0.00032127042054465137 0.005973970475658283 0 -7.1881104044455152e-05 0.0065570185467495688 0 0.00027098726465627865 0.0060506236882106219 0 1.4924889590307978e-05 0.0065071308219364302 0 0.00032127042054465137 0.005973970475658283 0 0.00086457726739249514 0.0062702863799484121 0 9.7615701060204656e-06 0.0065095295847222281 0 0.00093872168568095884 0.0057040517624023799 0 0.00032127042054465137 0.005973970475658283 0 0.00086457726739249514 0.0062702863799484121 0 0.00086457726739249514 0.0062702863799484121 0 0.00092244419403869583 0.0069156917378865312 0 9.7615701060204656e-06 0.0065095295847222281 0 0.00066233216780783736 0.0062954549022545374 0 0.00027037316999754303 0.0069674657760082186 0 9.7615701060204656e-06 0.0065095295847222281 0 6.3062576223583673e-05 0.0071978302456674956 0 -0.00031033712020344046 0.0070572481942970918 0 0.00092244419403869583 0.0069156917378865312 0 9.7615701060204656e-06 0.0065095295847222281 0 6.3062576223583673e-05 0.0071978302456674956 0 1.4924889590307978e-05 0.0065071308219364302 0 0.00070770396833513339 0.0078237693264369863 0 4.8716250497066645e-05 0.0076813701187559511 0 0.00028864698368484141 0.0076101139234236812 0 6.0553782952993564e-05 0.0073214021224053422 0 0.00027037316999754303 0.0069674657760082186 0 0.00070770396833513339 0.0078237693264369863 0 0.00027037316999754303 0.0069674657760082186 0 0.0011791444209250381 0.0081903530635431855 0 0.00033751962648596406 0.0057954797258163541 0 0.00069628122981758248 0.0056940352642242918 0 0.00028705556995550004 0.0055145291430798654 0 4.8716250497066645e-05 0.0076813701187559511 0 6.0553782952993564e-05 0.0073214021224053422 0 -0.00035609385569490819 0.0075225857280547719 0 0.00027037316999754303 0.0069674657760082186 0 -3.9617765956850799e-05 0.0064788169561370472 0 0.0024654864530383814 0.0089953856496783821 0 0.0025332692591485901 0.0091734145157345657 0 0.0023375376878134453 0.0091190958135705571 0 0.0024654864530383814 0.0089953856496783821 0 0.0027424806711391987 0.0091177545491492821 0 0.0025332692591485901 0.0091734145157345657 0 -0.0006337461227936042 0.0065364127798295223 0 -0.0010430776311936244 0.0066146352115833158 0 -0.00038540203644886787 0.0069892190703537051 0 0.0008409620319532571 0.0078480968078581577 0 0.00070770396833513339 0.0078237693264369863 0 -0.0006337461227936042 0.0065364127798295223 0 -7.1881104044455152e-05 0.0065570185467495688 0 -0.00038540203644886787 0.0069892190703537051 0 0.0027424806711391987 0.0091177545491492821 0 0.0026839488381045682 0.0092251410276226464 0 0.0025332692591485901 0.0091734145157345657 0 0.00070770396833513339 0.0078237693264369863 0 0.0011791444209250381 0.0081903530635431855 0 0.00053119780473926358 0.0076552057015118694 0 0.0007372182522025943 0.007735381149855467 0 0.00084575457715004563 0.0075601770904885953 0 0.0011791444209250381 0.0081903530635431855 0 0.00098729061541834437 0.007923320944938814 0 0.0011791444209250381 0.0081903530635431855 0 0.0021247608391902922 0.009013709378616893 0 0.0013614620180417978 0.0087017614143076027 0 0.0015684480976577201 0.0086441596053728406 0 0.001447684880373587 0.0085631510985464468 0 0.0026839488381045682 0.0092251410276226464 0 0.0025332692591485901 0.0091734145157345657 0 0.0024455337656260662 0.0093505558840635532 0 0.0025332692591485901 0.0091734145157345657 0 0.0024455337656260662 0.0093505558840635532 0 0.0023375376878134453 0.0091190958135705571 0 0.0015684480976577201 0.0086441596053728406 0 0.0015818741530454908 0.0085522644375426362 0 0.001447684880373587 0.0085631510985464468 0 0.00098729061541834437 0.007923320944938814 0 0.0010241282912821885 0.0085123629591103318 0 0.0015818741530454908 0.0085522644375426362 0 0.001447684880373587 0.0085631510985464468 0 0.0015331356928734675 0.0084185419648505223 0 0.00028864698368484141 0.0076101139234236812 0 0.00042286247480076075 0.0073927752622247531 0 6.0553782952993564e-05 0.0073214021224053422 0 0.00042286247480076075 0.0073927752622247531 0 0.0003100116853425851 0.007206325552578041 0 6.0553782952993564e-05 0.0073214021224053422 0 0.00042286247480076075 0.0073927752622247531 0 0.0003100116853425851 0.007206325552578041 0 0.00056037780557976439 0.0071761970388391026 0 0.0003100116853425851 0.007206325552578041 0 6.0553782952993564e-05 0.0073214021224053422 0 0.00019648049933503403 0.0069335262381090236 0 0.0003100116853425851 0.007206325552578041 0 0.00056037780557976439 0.0071761970388391026 0 0.00019648049933503403 0.0069335262381090236 0 0.0010241282912821885 0.0085123629591103318 0 3.4575777136635846e-05 0.0078262661748228577 0 0.00089861048681034279 0.009409291331156408 0 -9.1022607582661331e-05 0.0087375015411539064 0 0.00069336354397497857 0.0085238225741164613 0 0.0010241282912821885 0.0085123629591103318 0 0.0012692042546014689 0.0089839027772348149 0 6.0553782952993564e-05 0.0073214021224053422 0 -0.00018466059122046645 0.0070509719766167532 0 -0.00035609385569490819 0.0075225857280547719 0 6.0553782952993564e-05 0.0073214021224053422 0 -0.00018466059122046645 0.0070509719766167532 0 0.00019648049933503403 0.0069335262381090236 0 -0.00018466059122046645 0.0070509719766167532 0 -0.00052522490239910902 0.0071677583656041327 0 -0.00049819815933483975 0.0068686066024671016 0 -0.00038169128079750111 0.0063719235495353849 0 -3.9617765956850799e-05 0.0064788169561370472 0 -0.00052522490239910902 0.0071677583656041327 0 -0.00075729314813743876 0.0073615831375036201 0 -0.00035609385569490819 0.0075225857280547719 0 -0.00018466059122046645 0.0070509719766167532 0 -0.00052522490239910902 0.0071677583656041327 0 -0.00035609385569490819 0.0075225857280547719 0 -0.00052522490239910902 0.0071677583656041327 0 -0.00082659432448543228 0.0070369839257918634 0 -0.00049819815933483975 0.0068686066024671016 0 -0.00052522490239910902 0.0071677583656041327 0 -0.00075729314813743876 0.0073615831375036201 0 -0.00082659432448543228 0.0070369839257918634 0 -0.0013616162815660276 0.0069408303923479955 0 -0.00099181492860771279 0.0066327688636536371 0 -0.0017015410050469264 0.0066048747968467441 0 -0.0017910265957717367 0.0065769434211125112 0 -0.0018020089745137584 0.0066433197693709714 0 -0.0013616162815660276 0.0069408303923479955 0 -0.0012222792170911284 0.0060715232367973956 0 -0.0016353171049454487 0.0053144651448915987 0 -0.0026257258466978748 0.0060309114453012654 0 -0.0021772398943051929 0.0048717858148424114 0 -0.0021913073298026704 0.0048714355605117311 0 -0.0021937449925996202 0.0049003223039811479 0 -0.0017910265957717367 0.0065769434211125112 0 -0.0018257115378619941 0.0066332543748919733 0 -0.0018461214624205765 0.0065211203953942426 0 -0.0017910265957717367 0.0065769434211125112 0 -0.0018257115378619941 0.0066332543748919733 0 -0.0018020089745137584 0.0066433197693709714 0 -0.00068909611202127663 0.0051862719052348013 0 -0.00052850755677802549 0.0053328673400639178 0 -0.00065845538546265698 0.0054620306695626819 0 -0.00069655748704470512 0.0051216268107714836 0 -0.00081874004937079086 0.005303899958367656 0 -0.00065845538546265698 0.0054620306695626819 0 -0.0010427261963835907 0.0051474077878314838 0 -0.0006803038029370177 0.0054383978678915089 0 -0.0018356057706195176 0.0037903096331235258 0 -0.0016970125938424669 0.0037647614759132838 0 -0.001690056869820121 0.0038283779314734023 0 -0.0016353171049454487 0.0053144651448915987 0 -0.0010427261963835907 0.0051474077878314838 0 -0.00068909611202127663 0.0051862719052348013 0 -0.00060867152259909939 0.0051422202395803238 0 -0.00052850755677802549 0.0053328673400639178 0 -0.0016353171049454487 0.0053144651448915987 0 -0.0012222792170911284 0.0060715232367973956 0 -0.0013334642489472679 0.0056974115179457916 0 -0.0013271191808236962 0.0057485676289415148 0 -0.0012736092889376776 0.0057210755496497189 0 -0.0010427261963835907 0.0051474077878314838 0 -0.0012222792170911284 0.0060715232367973956 0 -0.00038169128079750111 0.0063719235495353849 0 -0.0012222792170911284 0.0060715232367973956 0 -0.00015208011651506782 0.0053239216586571363 0 -0.00060867152259909939 0.0051422202395803238 0 -0.00052850755677802549 0.0053328673400639178 0 -0.00075729314813743876 0.0073615831375036201 0 -0.00082659432448543228 0.0070369839257918634 0 -0.0011533062983222998 0.0072002247505070808 0 -0.00015208011651506782 0.0053239216586571363 0 -0.00052850755677802549 0.0053328673400639178 0 -0.00035106397734129105 0.0056420737891013061 0 -0.00052850755677802549 0.0053328673400639178 0 -0.00035106397734129105 0.0056420737891013061 0 -0.00065845538546265698 0.0054620306695626819 0 -0.0010684213228423446 0.0054456342204130554 0 -0.00065845538546265698 0.0054620306695626819 0 -0.00073663290085117629 0.0057555064572695673 0 -0.00035106397734129105 0.0056420737891013061 0 -0.00065845538546265698 0.0054620306695626819 0 -0.00073663290085117629 0.0057555064572695673 0 7.5958408335775979e-05 0.0046911051994609773 0 0.00029709040083817192 0.0046213869786906302 0 -0.00053649326230397094 0.003811281916120911 0 0.00060029671243931506 0.0051257854178062721 0 -0.00062731812960269281 0.004879324222344059 0 7.5958408335775979e-05 0.0046911051994609773 0 -0.00053649326230397094 0.003811281916120911 0 -0.00071638127635473953 0.0041456465135161448 0 0.00011331189128525719 0.0038578061071849312 0 -0.00052329384957527057 0.0033896566380374627 0 -0.00043373690348977366 0.0060368894904383082 0 -0.00035106397734129105 0.0056420737891013061 0 -3.8055062375244436e-05 0.0059123703739161482 0 -0.00043373690348977366 0.0060368894904383082 0 -0.00035106397734129105 0.0056420737891013061 0 -0.00073663290085117629 0.0057555064572695673 0 0.00060029671243931506 0.0051257854178062721 0 0.00092056395300483054 0.0063519830781558588 0 -0.00035106397734129105 0.0056420737891013061 0 -3.8055062375244436e-05 0.0059123703739161482 0 2.0010599420648202e-05 0.0056389858201007764 0 0.00086457726739249514 0.0062702863799484121 0 0.00092244419403869583 0.0069156917378865312 0 0.0017905916602241594 0.0066111164640345272 0 0.00066233216780783736 0.0062954549022545374 0 0.00092056395300483054 0.0063519830781558588 0 0.00033751962648596406 0.0057954797258163541 0 -3.8055062375244436e-05 0.0059123703739161482 0 2.0010599420648202e-05 0.0056389858201007764 0 -0.00015208011651506782 0.0053239216586571363 0 0.00028705556995550004 0.0055145291430798654 0 2.0010599420648202e-05 0.0056389858201007764 0 0.00033751962648596406 0.0057954797258163541 0 0.00028705556995550004 0.0055145291430798654 0 2.0010599420648202e-05 0.0056389858201007764 0 -0.00015208011651506782 0.0053239216586571363 0 -0.00035106397734129105 0.0056420737891013061 0 2.0010599420648202e-05 0.0056389858201007764 0 0.00093863429237231563 0.0096443613079414594 0 0.00084994912087109624 0.0090833248096604362 0 0.00039176568153592272 0.0094821849287068088 0 0.00093863429237231563 0.0096443613079414594 0 0.00039176568153592272 0.0094821849287068088 0 0.00062619682602099898 0.0099222791282617424 0 0.00093863429237231563 0.0096443613079414594 0 0.001198217364393136 0.0091942376179094659 0 0.00084994912087109624 0.0090833248096604362 0 0.00093863429237231563 0.0096443613079414594 0 0.001198217364393136 0.0091942376179094659 0 0.0014057828487819787 0.0095205648138279014 0 0.001198217364393136 0.0091942376179094659 0 0.00084994912087109624 0.0090833248096604362 0 0.0011575049635083828 0.0086409285009664862 0 0.00084994912087109624 0.0090833248096604362 0 0.00042189484712455613 0.0089656122704377984 0 0.00039176568153592272 0.0094821849287068088 0 0.00042189484712455613 0.0089656122704377984 0 -0.00015207752784017381 0.0091738786443554543 0 0.00039176568153592272 0.0094821849287068088 0 -0.00015207752784017381 0.0091738786443554543 0 -0.00012186923911316984 0.0095417950597830575 0 0.00039176568153592272 0.0094821849287068088 0 -0.00012186923911316984 0.0095417950597830575 0 0.00039176568153592272 0.0094821849287068088 0 0.0001415558804276919 0.010001013436367499 0 0.00039176568153592272 0.0094821849287068088 0 0.00062619682602099898 0.0099222791282617424 0 0.0001415558804276919 0.010001013436367499 0 0.00062619682602099898 0.0099222791282617424 0 0.0001415558804276919 0.010001013436367499 0 0.00049754288000855985 0.010622741600900328 0 -0.00012186923911316984 0.0095417950597830575 0 0.0001415558804276919 0.010001013436367499 0 -0.00026970073317884234 0.0099880997798177558 0 0.00049754288000855985 0.010622741600900328 0 -3.7872320093457571e-05 0.010610834025562184 0 0.00023567325043045132 0.011194493750637899 0 0.0001415558804276919 0.010001013436367499 0 0.00049754288000855985 0.010622741600900328 0 -3.7872320093457571e-05 0.010610834025562184 0 0.00062619682602099898 0.0099222791282617424 0 0.00049754288000855985 0.010622741600900328 0 0.00098606570768685459 0.010238847566228386 0 0.00049754288000855985 0.010622741600900328 0 0.00098606570768685459 0.010238847566228386 0 0.0010062940362487156 0.011138234756299622 0 0.00098606570768685459 0.010238847566228386 0 0.0011522696705224067 0.010184373009842342 0 0.00094788352439063189 0.0103677744704707 0 0.00093863429237231563 0.0096443613079414594 0 0.00062619682602099898 0.0099222791282617424 0 0.00098606570768685459 0.010238847566228386 0 0.00093863429237231563 0.0096443613079414594 0 0.0012138077159657638 0.0098655455033581276 0 0.0014057828487819787 0.0095205648138279014 0 0.00093863429237231563 0.0096443613079414594 0 0.00098606570768685459 0.010238847566228386 0 0.0012138077159657638 0.0098655455033581276 0 0.0012138077159657638 0.0098655455033581276 0 0.0011522696705224067 0.010184373009842342 0 0.001370529549101744 0.0099653229154759784 0 0.00098606570768685459 0.010238847566228386 0 0.0012138077159657638 0.0098655455033581276 0 0.0011522696705224067 0.010184373009842342 0 0.0011522696705224067 0.010184373009842342 0 0.0013845957368765138 0.010128500537623826 0 0.001370529549101744 0.0099653229154759784 0 0.0013845957368765138 0.010128500537623826 0 0.001370529549101744 0.0099653229154759784 0 0.0015421874088375653 0.0099340861408963744 0 0.001370529549101744 0.0099653229154759784 0 0.0015421874088375653 0.0099340861408963744 0 0.0014912708241679152 0.009750268340412897 0 0.0013845957368765138 0.010128500537623826 0 0.0015421874088375653 0.0099340861408963744 0 0.0016488215722366738 0.010138310355064841 0 0.0015421874088375653 0.0099340861408963744 0 0.0017662727817589049 0.0097013357769340468 0 0.0016488215722366738 0.010138310355064841 0 0.0019763472037648212 0.0094578663812478099 0 0.002210138023725306 0.0094171125206922914 0 0.0017662727817589049 0.0097013357769340468 0 0.0019730472644934674 0.0094433443166329952 0 0.0016488215722366738 0.010138310355064841 0 0.0015421874088375653 0.0099340861408963744 0 0.0017662727817589049 0.0097013357769340468 0 0.0014912708241679152 0.009750268340412897 0 0.0017662727817589049 0.0097013357769340468 0 0.0016419477912309589 0.0095643511914249024 0 0.0014912708241679152 0.009750268340412897 0 0.0017662727817589049 0.0097013357769340468 0 0.0018353879157100704 0.0095418042867180322 0 0.0018950650963777476 0.0095877215946151943 0 0.0017662727817589049 0.0097013357769340468 0 0.0018353879157100704 0.0095418042867180322 0 0.0016419477912309589 0.0095643511914249024 0 0.0016419477912309589 0.0095643511914249024 0 0.0014912708241679152 0.009750268340412897 0 0.0014057828487819787 0.0095205648138279014 0 0.0012138077159657638 0.0098655455033581276 0 0.0014912708241679152 0.009750268340412897 0 0.0014057828487819787 0.0095205648138279014 0 0.0012138077159657638 0.0098655455033581276 0 0.001370529549101744 0.0099653229154759784 0 0.0014912708241679152 0.009750268340412897 0 0.0015524989481674944 0.0093030235543716585 0 0.0019730472644934674 0.0094433443166329952 0 0.0013924613437591609 0.0086435876776059101 0 0.0010863804657860454 0.0094065237607804733 0 0.0015524989481674944 0.0093030235543716585 0 0.0013924613437591609 0.0086435876776059101 0 0.0017662727817589049 0.0097013357769340468 0 0.0019730472644934674 0.0094433443166329952 0 0.0018950650963777476 0.0095877215946151943 0 0.0019730472644934674 0.0094433443166329952 0 0.0019593650235480682 0.0096286653595059109 0 0.0018778023559611313 0.0097022377663299134 0 0.0018353879157100704 0.0095418042867180322 0 0.0018950650963777476 0.0095877215946151943 0 0.0019370011990749723 0.0095865388771692196 0 0.0018353879157100704 0.0095418042867180322 0 0.0019370011990749723 0.0095865388771692196 0 0.0019167812725642973 0.0095120831198148379 0 0.0018353879157100704 0.0095418042867180322 0 0.0019167812725642973 0.0095120831198148379 0 0.0018945615373663527 0.0093994908478287949 0 0.0019167812725642973 0.0095120831198148379 0 0.0019549897772678515 0.0095419114802728112 0 0.0019571277511114334 0.0094502916506561153 0 0.0019370011990749723 0.0095865388771692196 0 0.0019167812725642973 0.0095120831198148379 0 0.0019549897772678515 0.0095419114802728112 0 0.0019370011990749723 0.0095865388771692196 0 0.0019549897772678515 0.0095419114802728112 0 0.0019593650235480682 0.0096286653595059109 0 0.0019549897772678515 0.0095419114802728112 0 0.0020242330711248363 0.0094556531738165927 0 0.0019571277511114334 0.0094502916506561153 0 0.0019549897772678515 0.0095419114802728112 0 0.0020058374047541342 0.0095385906278197662 0 0.0019593650235480682 0.0096286653595059109 0 0.0019549897772678515 0.0095419114802728112 0 0.0020058374047541342 0.0095385906278197662 0 0.0020242330711248363 0.0094556531738165927 0 0.0020058374047541342 0.0095385906278197662 0 0.0021178432322759341 0.0095451188765944116 0 0.0020242330711248363 0.0094556531738165927 0 0.0020058374047541342 0.0095385906278197662 0 0.0019593650235480682 0.0096286653595059109 0 0.0021178432322759341 0.0095451188765944116 0 0.0019057531109215617 0.0092754691101053915 0 0.0019508127134557044 0.0091807476077029014 0 0.0019730472644934674 0.0094433443166329952 0 0.0019370011990749723 0.0095865388771692196 0 0.0019593650235480682 0.0096286653595059109 0 0.0019730472644934674 0.0094433443166329952 0 0.0018950650963777476 0.0095877215946151943 0 0.0019370011990749723 0.0095865388771692196 0 0.0010863804657860454 0.0094065237607804733 0 0.0015524989481674944 0.0093030235543716585 0 0.0018778023559611313 0.0097022377663299134 0 0.0015818741530454908 0.0085522644375426362 0 0.0015331356928734675 0.0084185419648505223 0 0.0017804058769508263 0.0085830400450359282 0 0.0015684480976577201 0.0086441596053728406 0 0.0015818741530454908 0.0085522644375426362 0 0.0017804058769508263 0.0085830400450359282 0 0.0010241282912821885 0.0085123629591103318 0 0.0019508127134557044 0.0091807476077029014 0 0.0021247608391902922 0.009013709378616893 0 0.0019508127134557044 0.0091807476077029014 0 0.0015524989481674944 0.0093030235543716585 0 0.0019730472644934674 0.0094433443166329952 0 0.0018778023559611313 0.0097022377663299134 0 0.0024455337656260662 0.0093505558840635532 0 0.0021178432322759341 0.0095451188765944116 0 0.0022458353636985043 0.0092854559296034825 0 0.0024455337656260662 0.0093505558840635532 0 0.0022458353636985043 0.0092854559296034825 0 0.0023375376878134453 0.0091190958135705571 0 0.0022458353636985043 0.0092854559296034825 0 0.0020878214569427819 0.0092296575353452235 0 0.0020947745880029651 0.0093927466158381708 0 0.0021178432322759341 0.0095451188765944116 0 0.0022458353636985043 0.0092854559296034825 0 0.0020947745880029651 0.0093927466158381708 0 0.0022458353636985043 0.0092854559296034825 0 0.0020878214569427819 0.0092296575353452235 0 0.0021555536503257435 0.0090627936731070523 0 0.0022458353636985043 0.0092854559296034825 0 0.0021555536503257435 0.0090627936731070523 0 0.0023375376878134453 0.0091190958135705571 0 0.0020878214569427819 0.0092296575353452235 0 0.0020054453883720834 0.00934120249644977 0 0.0019621110002403749 0.0091674728558199005 0 0.0020878214569427819 0.0092296575353452235 0 0.0020947745880029651 0.0093927466158381708 0 0.0020054453883720834 0.00934120249644977 0 0.0020947745880029651 0.0093927466158381708 0 0.0020242330711248363 0.0094556531738165927 0 0.0020054453883720834 0.00934120249644977 0 0.0021178432322759341 0.0095451188765944116 0 0.0020947745880029651 0.0093927466158381708 0 0.0020242330711248363 0.0094556531738165927 0 0.0020242330711248363 0.0094556531738165927 0 0.0019571277511114334 0.0094502916506561153 0 0.0020054453883720834 0.00934120249644977 0 0.0019571277511114334 0.0094502916506561153 0 0.0020054453883720834 0.00934120249644977 0 0.0018945615373663527 0.0093994908478287949 0 0.0019167812725642973 0.0095120831198148379 0 0.0019571277511114334 0.0094502916506561153 0 0.0018945615373663527 0.0093994908478287949 0 0.0018945615373663527 0.0093994908478287949 0 0.0019621110002403749 0.0091674728558199005 0 0.0017473668148361571 0.0093070787469080284 0 0.0020054453883720834 0.00934120249644977 0 0.0018945615373663527 0.0093994908478287949 0 0.0019621110002403749 0.0091674728558199005 0 0.0019621110002403749 0.0091674728558199005 0 0.0019144260511062847 0.0088992874511390485 0 0.0017473668148361571 0.0093070787469080284 0 0.0019144260511062847 0.0088992874511390485 0 0.0021555536503257435 0.0090627936731070523 0 0.0021520479436177905 0.0088080935945189717 0 0.0019621110002403749 0.0091674728558199005 0 0.0019144260511062847 0.0088992874511390485 0 0.0021555536503257435 0.0090627936731070523 0 0.0020878214569427819 0.0092296575353452235 0 0.0019621110002403749 0.0091674728558199005 0 0.0021555536503257435 0.0090627936731070523 0 0.0021555536503257435 0.0090627936731070523 0 0.0023375376878134453 0.0091190958135705571 0 0.0021520479436177905 0.0088080935945189717 0 0.0008409620319532571 0.0078480968078581577 0 0.00075997576712294023 0.0076781784810790428 0 0.0024654864530383814 0.0089953856496783821 0 0.0023375376878134453 0.0091190958135705571 0 0.0021520479436177905 0.0088080935945189717 0 0.001198217364393136 0.0091942376179094659 0 0.0014057828487819787 0.0095205648138279014 0 0.0015540863437009268 0.0090278015049694103 0 0.0014057828487819787 0.0095205648138279014 0 0.0017473668148361571 0.0093070787469080284 0 0.0015540863437009268 0.0090278015049694103 0 0.0016419477912309589 0.0095643511914249024 0 0.0014057828487819787 0.0095205648138279014 0 0.0017473668148361571 0.0093070787469080284 0 0.0018353879157100704 0.0095418042867180322 0 0.0016419477912309589 0.0095643511914249024 0 0.0017473668148361571 0.0093070787469080284 0 0.0018353879157100704 0.0095418042867180322 0 0.0018945615373663527 0.0093994908478287949 0 0.0017473668148361571 0.0093070787469080284 0 0.0019144260511062847 0.0088992874511390485 0 0.0015540863437009268 0.0090278015049694103 0 0.0017955981980527871 0.008498745135429947 0 0.0019144260511062847 0.0088992874511390485 0 0.0017473668148361571 0.0093070787469080284 0 0.0015540863437009268 0.0090278015049694103 0 0.001198217364393136 0.0091942376179094659 0 0.0015540863437009268 0.0090278015049694103 0 0.0011575049635083828 0.0086409285009664862 0 0.0015540863437009268 0.0090278015049694103 0 0.0017955981980527871 0.008498745135429947 0 0.0011575049635083828 0.0086409285009664862 0 0.0017955981980527871 0.008498745135429947 0 0.001092664388873228 0.0079840857956661859 0 0.0011575049635083828 0.0086409285009664862 0 0.00040614671988179244 0.0071113158651138746 0 5.9084360720034265e-05 0.0075201385403702711 0 0.00060018619752401803 0.0079533797632722111 0 0.00040614671988179244 0.0071113158651138746 0 0.001092664388873228 0.0079840857956661859 0 0.00060018619752401803 0.0079533797632722111 0 0.0010175768306503708 0.0079234028775924843 0 0.00096698116154398002 0.0079836955710236336 0 0.001092664388873228 0.0079840857956661859 0 0.00060018619752401803 0.0079533797632722111 0 0.0010418748063931735 0.0080069156836692565 0 0.0010584962213908546 0.0078085381707493629 0 0.001062597891989378 0.0079315203099046966 0 -0.00058977401162398557 0.0065304242308417276 0 -0.0010642488529602708 0.0066274385857596095 0 -0.00049457534837452088 0.0072279673090275111 0 -0.0010430776311936244 0.0066146352115833158 0 -0.00058977401162398557 0.0065304242308417276 0 -0.0010642488529602708 0.0066274385857596095 0 0.00040614671988179244 0.0071113158651138746 0 -0.00058977401162398557 0.0065304242308417276 0 -0.00049457534837452088 0.0072279673090275111 0 0.0010584962213908546 0.0078085381707493629 0 0.00075997576712294023 0.0076781784810790428 0 0.0019144260511062847 0.0088992874511390485 0 0.0017955981980527871 0.008498745135429947 0 0.0021520479436177905 0.0088080935945189717 0 0.00040614671988179244 0.0071113158651138746 0 5.9084360720034265e-05 0.0075201385403702711 0 -0.00049457534837452088 0.0072279673090275111 0 5.9084360720034265e-05 0.0075201385403702711 0 -0.00049457534837452088 0.0072279673090275111 0 -0.00047361561802856895 0.0078757772558178413 0 -0.00049457534837452088 0.0072279673090275111 0 -0.00072755676780458225 0.0075326530542803331 0 -0.00047361561802856895 0.0078757772558178413 0 -0.0010642488529602708 0.0066274385857596095 0 -0.00049457534837452088 0.0072279673090275111 0 -0.00098063337103793287 0.0073690948635816173 0 -0.00049457534837452088 0.0072279673090275111 0 -0.00098063337103793287 0.0073690948635816173 0 -0.00072755676780458225 0.0075326530542803331 0 -0.00098063337103793287 0.0073690948635816173 0 -0.0010193843716831512 0.0077809185817980112 0 -0.00072755676780458225 0.0075326530542803331 0 -0.0010193843716831512 0.0077809185817980112 0 -0.00072755676780458225 0.0075326530542803331 0 -0.00047361561802856895 0.0078757772558178413 0 -0.0014320288563830219 0.007727059400025011 0 -0.00030177758447178741 0.0075027525756443305 0 5.9084360720034265e-05 0.0075201385403702711 0 -0.00047361561802856895 0.0078757772558178413 0 0.00060018619752401803 0.0079533797632722111 0 -0.00030177758447178741 0.0075027525756443305 0 0.0010175768306503708 0.0079234028775924843 0 0.0012514994420791863 0.0077879502240638639 0 0.0011274958195888519 0.0078432812922119427 0 0.0011647941381124018 0.0077369334369504234 0 0.0012514994420791863 0.0077879502240638639 0 0.0012099619234441016 0.0076547601456197108 0 0.0012694708277713816 0.007670536733313929 0 0.0012514994420791863 0.0077879502240638639 0 0.0012099619234441016 0.0076547601456197108 0 0.0011647941381124018 0.0077369334369504234 0 0.0012099619234441016 0.0076547601456197108 0 0.0011647941381124018 0.0077369334369504234 0 0.0011458339407015381 0.0076591835251386131 0 -0.001620708133706844 0.007626857168057841 0 -0.0019639678095593623 0.0077087298949790614 0 -0.0019039217925765075 0.0072743981519866694 0 -0.00030177758447178741 0.0075027525756443305 0 -0.00034415699243052841 0.0077124085638606349 0 -0.0014731354178919042 0.0070547869207720397 0 -0.001497406433249358 0.0073709678532050482 0 -0.0019039217925765075 0.0072743981519866694 0 -0.001497406433249358 0.0073709678532050482 0 -0.001620708133706844 0.007626857168057841 0 -0.0019039217925765075 0.0072743981519866694 0 0.0010454701607282818 0.0078182018495502829 0 0.0011274958195888519 0.0078432812922119427 0 0.0010418748063931735 0.0080069156836692565 0 0.0010454701607282818 0.0078182018495502829 0 0.0011274958195888519 0.0078432812922119427 0 0.0010912291840036871 0.0077324000116753928 0 0.0011274958195888519 0.0078432812922119427 0 0.0010912291840036871 0.0077324000116753928 0 0.0011647941381124018 0.0077369334369504234 0 0.0010912291840036871 0.0077324000116753928 0 0.0011458339407015381 0.0076591835251386131 0 0.0010586289667880338 0.0075860975689630867 0 0.0010912291840036871 0.0077324000116753928 0 0.0011647941381124018 0.0077369334369504234 0 0.0011458339407015381 0.0076591835251386131 0 0.0010912291840036871 0.0077324000116753928 0 0.0010086227036860389 0.0076740566575953543 0 0.0010586289667880338 0.0075860975689630867 0 0.0010454701607282818 0.0078182018495502829 0 0.0010912291840036871 0.0077324000116753928 0 0.0010086227036860389 0.0076740566575953543 0 -0.00042763155950624996 0.0087295615310917073 0 -0.0004597321152689004 0.0087890562841448899 0 -0.00040535148156000832 0.0089163258216259887 0 -0.00042763155950624996 0.0087295615310917073 0 -0.0004597321152689004 0.0087890562841448899 0 -0.00049004219609032832 0.0086673683588802692 0 0.00028489640085691844 0.0082087173100744513 0 0.00021604261058419814 0.0083742861248520366 0 0.0010454701607282818 0.0078182018495502829 0 0.0010086227036860389 0.0076740566575953543 0 0.0008548349259324883 0.0078180457247142062 0 -0.00044735035928798923 0.0088557731612774488 0 -0.000439499718331176 0.0089309050877190814 0 -0.00049710787484209004 0.0087530149145369357 0 -0.0004597321152689004 0.0087890562841448899 0 -0.00044735035928798923 0.0088557731612774488 0 -0.00040535148156000832 0.0089163258216259887 0 -0.0004597321152689004 0.0087890562841448899 0 -0.00044735035928798923 0.0088557731612774488 0 -0.00049710787484209004 0.0087530149145369357 0 -0.00040535148156000832 0.0089163258216259887 0 -0.0003581162447528075 0.0090824008327052685 0 -0.000439499718331176 0.0089309050877190814 0 -0.00044735035928798923 0.0088557731612774488 0 -0.00040535148156000832 0.0089163258216259887 0 -0.000439499718331176 0.0089309050877190814 0 0.0010454701607282818 0.0078182018495502829 0 0.0008548349259324883 0.0078180457247142062 0 0.0010418748063931735 0.0080069156836692565 0 0.0008548349259324883 0.0078180457247142062 0 0.0010418748063931735 0.0080069156836692565 0 0.00098133366276347 0.008194523052726296 0 0.0008548349259324883 0.0078180457247142062 0 0.00098133366276347 0.008194523052726296 0 0.00077945223792019692 0.0084638910924277801 0 0.001092664388873228 0.0079840857956661859 0 0.0010418748063931735 0.0080069156836692565 0 0.00098133366276347 0.008194523052726296 0 0.0008548349259324883 0.0078180457247142062 0 0.00077945223792019692 0.0084638910924277801 0 0.0003755344636424517 0.0083271249008409626 0 0.00021604261058419814 0.0083742861248520366 0 1.3233874712534572e-05 0.0087222182454102046 0 0.00084994912087109624 0.0090833248096604362 0 0.00042189484712455613 0.0089656122704377984 0 0.00077945223792019692 0.0084638910924277801 0 0.00042189484712455613 0.0089656122704377984 0 0.00077945223792019692 0.0084638910924277801 0 0.0003755344636424517 0.0083271249008409626 0 0.00098133366276347 0.008194523052726296 0 0.00077945223792019692 0.0084638910924277801 0 0.0011575049635083828 0.0086409285009664862 0 0.001092664388873228 0.0079840857956661859 0 0.00098133366276347 0.008194523052726296 0 0.0011575049635083828 0.0086409285009664862 0 0.00084994912087109624 0.0090833248096604362 0 0.00077945223792019692 0.0084638910924277801 0 0.0011575049635083828 0.0086409285009664862 0 -0.00015207752784017381 0.0091738786443554543 0 -0.00037811944556353708 0.0091157385060574581 0 -0.00043878658889868766 0.0092073677840187381 0 -0.00015207752784017381 0.0091738786443554543 0 -0.0003581162447528075 0.0090824008327052685 0 -0.00037811944556353708 0.0091157385060574581 0 0.00042189484712455613 0.0089656122704377984 0 -0.00015207752784017381 0.0091738786443554543 0 0.0003755344636424517 0.0083271249008409626 0 -0.00016283722030835089 0.0091332263732686221 0 1.3233874712534572e-05 0.0087222182454102046 0 -0.0003581162447528075 0.0090824008327052685 0 -0.00037811944556353708 0.0091157385060574581 0 -0.00041272878484265995 0.0090364716341559178 0 -0.00037811944556353708 0.0091157385060574581 0 -0.00047140942805777618 0.0090115720521702861 0 -0.00041272878484265995 0.0090364716341559178 0 -0.0003581162447528075 0.0090824008327052685 0 -0.00041272878484265995 0.0090364716341559178 0 -0.000439499718331176 0.0089309050877190814 0 -0.00047140942805777618 0.0090115720521702861 0 -0.00041272878484265995 0.0090364716341559178 0 -0.000439499718331176 0.0089309050877190814 0 -0.000439499718331176 0.0089309050877190814 0 -0.00048035745457748952 0.0088523631804959309 0 -0.00049710787484209004 0.0087530149145369357 0 -0.00047140942805777618 0.0090115720521702861 0 -0.000439499718331176 0.0089309050877190814 0 -0.00048035745457748952 0.0088523631804959309 0 -0.00047140942805777618 0.0090115720521702861 0 -0.00048035745457748952 0.0088523631804959309 0 -0.0004964659677598283 0.0088845697460602224 0 -0.00047140942805777618 0.0090115720521702861 0 -0.0004964659677598283 0.0088845697460602224 0 -0.00052061628827063859 0.0089298845906892986 0 -0.0004964659677598283 0.0088845697460602224 0 -0.0005069769139066883 0.0088862044179540117 0 -0.00050317303087123514 0.0087894533706524332 0 -0.00048035745457748952 0.0088523631804959309 0 -0.0004964659677598283 0.0088845697460602224 0 -0.00050317303087123514 0.0087894533706524332 0 -0.0004964659677598283 0.0088845697460602224 0 -0.0005069769139066883 0.0088862044179540117 0 -0.00052061628827063859 0.0089298845906892986 0 -0.0005069769139066883 0.0088862044179540117 0 -0.000495932600965292 0.0088706470455846755 0 -0.00050317303087123514 0.0087894533706524332 0 -0.000495932600965292 0.0088706470455846755 0 -0.00050317303087123514 0.0087894533706524332 0 -0.0004867317131582961 0.0088251044344534978 0 -0.00050317303087123514 0.0087894533706524332 0 -0.00053506774564112444 0.0086251584507209319 0 -0.00049844606277480807 0.0087423742122395634 0 -0.00050317303087123514 0.0087894533706524332 0 -0.0004867317131582961 0.0088251044344534978 0 -0.00049844606277480807 0.0087423742122395634 0 -0.00050317303087123514 0.0087894533706524332 0 -0.00049710787484209004 0.0087530149145369357 0 -0.00053506774564112444 0.0086251584507209319 0 -0.00048035745457748952 0.0088523631804959309 0 -0.00050317303087123514 0.0087894533706524332 0 -0.00049710787484209004 0.0087530149145369357 0 -0.0004597321152689004 0.0087890562841448899 0 -0.00049710787484209004 0.0087530149145369357 0 -0.00049004219609032832 0.0086673683588802692 0 -0.00049710787484209004 0.0087530149145369357 0 -0.00049004219609032832 0.0086673683588802692 0 -0.00055789062045434514 0.0084992539819317529 0 -0.00049004219609032832 0.0086673683588802692 0 -0.00055789062045434514 0.0084992539819317529 0 -0.00046698282528838511 0.0085261299499808669 0 -0.00055789062045434514 0.0084992539819317529 0 -0.00053506774564112444 0.0086251584507209319 0 -0.00057850779383944299 0.0084759957631044529 0 -0.00055789062045434514 0.0084992539819317529 0 -0.00057850779383944299 0.0084759957631044529 0 -0.00062560379729839296 0.0080373431645355056 0 -0.00049710787484209004 0.0087530149145369357 0 -0.00055789062045434514 0.0084992539819317529 0 -0.00053506774564112444 0.0086251584507209319 0 -0.00052022857896661789 0.0086623224719757641 0 -0.00057850779383944299 0.0084759957631044529 0 -0.00058398056477430252 0.0086664881217246529 0 -0.00053506774564112444 0.0086251584507209319 0 -0.00052022857896661789 0.0086623224719757641 0 -0.00057850779383944299 0.0084759957631044529 0 -0.00057850779383944299 0.0084759957631044529 0 -0.00058398056477430252 0.0086664881217246529 0 -0.00062560379729839296 0.0080373431645355056 0 -0.00070694790552403052 0.007974403517375845 0 -0.00059489919403042896 0.00805702136971693 0 -0.00093367824104822756 0.0072441349795190823 0 -0.0007795185486459918 0.0072910409180726721 0 -0.00085233469298629969 0.0072053783392051146 0 -0.00093367824104822756 0.0072441349795190823 0 -0.00062560379729839296 0.0080373431645355056 0 -0.0007795185486459918 0.0072910409180726721 0 -0.00070694790552403052 0.007974403517375845 0 -0.00043047813387151975 0.0081994818643620661 0 -0.00058398056477430252 0.0086664881217246529 0 -0.00050362567758462833 0.0087596005530196554 0 -0.00047149615725826746 0.0088822044510853473 0 -0.00052022857896661789 0.0086623224719757641 0 -0.00058398056477430252 0.0086664881217246529 0 -0.00050362567758462833 0.0087596005530196554 0 -0.00052022857896661789 0.0086623224719757641 0 -0.00050362567758462833 0.0087596005530196554 0 -0.00048547515087122233 0.0087723090475407012 0 -0.00050362567758462833 0.0087596005530196554 0 -0.00048547515087122233 0.0087723090475407012 0 -0.0004712710952894424 0.0088214220810967497 0 -0.00048547515087122233 0.0087723090475407012 0 -0.00046016981369911093 0.0088394319819808213 0 -0.00047426865741614493 0.0088205934356118433 0 -0.00048547515087122233 0.0087723090475407012 0 -0.0004712710952894424 0.0088214220810967497 0 -0.00046016981369911093 0.0088394319819808213 0 -0.0004712710952894424 0.0088214220810967497 0 -0.00045367047730199636 0.0088575794896055288 0 -0.00047149615725826746 0.0088822044510853473 0 -0.00050362567758462833 0.0087596005530196554 0 -0.0004712710952894424 0.0088214220810967497 0 -0.00047149615725826746 0.0088822044510853473 0 -0.0004712710952894424 0.0088214220810967497 0 -0.00045367047730199636 0.0088575794896055288 0 -0.00046016981369911093 0.0088394319819808213 0 -0.00045367047730199636 0.0088575794896055288 0 -0.00044673947783515922 0.0088707070537123109 0 -0.00044042113920824625 0.008870630773513832 0 -0.00044673947783515922 0.0088707070537123109 0 -0.00045786297458170843 0.0088692296572275373 0 -0.00046016981369911093 0.0088394319819808213 0 -0.00045367047730199636 0.0088575794896055288 0 -0.00044673947783515922 0.0088707070537123109 0 -0.00046016981369911093 0.0088394319819808213 0 -0.00044781858228822041 0.0088950526511981966 0 -0.00043748538395627052 0.0088840911699706662 0 -0.00043918246290192039 0.0089045734198129525 0 -0.00044673947783515922 0.0088707070537123109 0 -0.00044781858228822041 0.0088950526511981966 0 -0.00043748538395627052 0.0088840911699706662 0 -0.00044673947783515922 0.0088707070537123109 0 -0.00044781858228822041 0.0088950526511981966 0 -0.00045786297458170843 0.0088692296572275373 0 -0.00045786297458170843 0.0088692296572275373 0 -0.00047226901181092473 0.0088720164561273459 0 -0.0004625235372086524 0.0089095210105742499 0 -0.00044781858228822041 0.0088950526511981966 0 -0.00045786297458170843 0.0088692296572275373 0 -0.0004625235372086524 0.0089095210105742499 0 -0.00045786297458170843 0.0088692296572275373 0 -0.00047426865741614493 0.0088205934356118433 0 -0.00047226901181092473 0.0088720164561273459 0 -0.00045786297458170843 0.0088692296572275373 0 -0.00046016981369911093 0.0088394319819808213 0 -0.00047426865741614493 0.0088205934356118433 0 -0.00047426865741614493 0.0088205934356118433 0 -0.00047226901181092473 0.0088720164561273459 0 -0.0004867317131582961 0.0088251044344534978 0 -0.00047226901181092473 0.0088720164561273459 0 -0.0004867317131582961 0.0088251044344534978 0 -0.00048530870640206043 0.0088896644031800226 0 -0.000495932600965292 0.0088706470455846755 0 -0.0004867317131582961 0.0088251044344534978 0 -0.00048530870640206043 0.0088896644031800226 0 -0.00047426865741614493 0.0088205934356118433 0 -0.0004867317131582961 0.0088251044344534978 0 -0.00049844606277480807 0.0087423742122395634 0 -0.00053506774564112444 0.0086251584507209319 0 -0.00052022857896661789 0.0086623224719757641 0 -0.00049844606277480807 0.0087423742122395634 0 -0.00052022857896661789 0.0086623224719757641 0 -0.00048547515087122233 0.0087723090475407012 0 -0.00049844606277480807 0.0087423742122395634 0 -0.00048547515087122233 0.0087723090475407012 0 -0.00047426865741614493 0.0088205934356118433 0 -0.00049844606277480807 0.0087423742122395634 0 0.001358339545290094 0.0074432997332796041 0 0.0012303299674201918 0.0073410496607882979 0 0.0014194896029106686 0.0071432274656218599 0 -0.0019763184706693012 0.0021118586115368718 0 -0.0022945174374763211 0.0025291150864632105 0 -0.0022173859839827613 0.0020194308398404446 0 -0.00066871628979116792 0.0059909810345156744 0 -0.00039802916377078068 0.0041690751455766596 0 -0.0014731354178919042 0.0070547869207720397 0 -0.0019039217925765075 0.0072743981519866694 0 -0.0018376710645642729 0.0068187700999964547 0 -0.00034415699243052841 0.0077124085638606349 0 -0.00066871628979116792 0.0059909810345156744 0 0.0012099619234441016 0.0076547601456197108 0 0.0012773783471191089 0.0075533734000286729 0 0.0011886334273704291 0.0075839052833574965 0 -0.00066871628979116792 0.0059909810345156744 0 0.0014809188650293772 0.0075343692206608489 0 0.0012099619234441016 0.0076547601456197108 0 0.0012694708277713816 0.007670536733313929 0 0.0012773783471191089 0.0075533734000286729 0 0.0012099619234441016 0.0076547601456197108 0 0.0011458339407015381 0.0076591835251386131 0 0.0011886334273704291 0.0075839052833574965 0 0.0012303299674201918 0.0073410496607882979 0 0.0010641953361063535 0.0074517951571160465 0 0.0012095385886870948 0.0071338626430378239 0 0.0011612336104302688 0.0075063819773967611 0 0.0012303299674201918 0.0073410496607882979 0 0.0010641953361063535 0.0074517951571160465 0 0.001358339545290094 0.0074432997332796041 0 0.0011612336104302688 0.0075063819773967611 0 0.0012303299674201918 0.0073410496607882979 0 0.00039591644117767345 0.007883795515378442 0 0.00068667091604638286 0.0076788780905502211 0 -0.00028262976521745186 0.0084139368490879548 0 -0.00033853355674280205 0.0079338421412138618 0 8.5680369777868488e-05 0.0077246443082984832 0 -0.00028262976521745186 0.0084139368490879548 0 -0.00047516069178769736 0.0082954988015629706 0 -0.00033853355674280205 0.0079338421412138618 0 0.0011612336104302688 0.0075063819773967611 0 0.0010641953361063535 0.0074517951571160465 0 0.0010586289667880338 0.0075860975689630867 0 0.0011458339407015381 0.0076591835251386131 0 0.0011886334273704291 0.0075839052833574965 0 0.0010586289667880338 0.0075860975689630867 0 0.0014809188650293772 0.0075343692206608489 0 0.00095584677577332231 0.0076033184695622454 0 -0.00042763155950624996 0.0087295615310917073 0 -0.00028262976521745186 0.0084139368490879548 0 -0.00046698282528838511 0.0085261299499808669 0 0.0010086227036860389 0.0076740566575953543 0 0.0010641953361063535 0.0074517951571160465 0 0.0010586289667880338 0.0075860975689630867 0 -0.00042763155950624996 0.0087295615310917073 0 -0.00049004219609032832 0.0086673683588802692 0 -0.00046698282528838511 0.0085261299499808669 0 0.00028489640085691844 0.0082087173100744513 0 0.00039591644117767345 0.007883795515378442 0 -0.00055789062045434514 0.0084992539819317529 0 -0.00047516069178769736 0.0082954988015629706 0 -0.00062560379729839296 0.0080373431645355056 0 -0.00055789062045434514 0.0084992539819317529 0 -0.00046698282528838511 0.0085261299499808669 0 -0.00047516069178769736 0.0082954988015629706 0 -0.00028262976521745186 0.0084139368490879548 0 -0.00046698282528838511 0.0085261299499808669 0 -0.00047516069178769736 0.0082954988015629706 0 -0.00047516069178769736 0.0082954988015629706 0 -0.00062560379729839296 0.0080373431645355056 0 -0.00033853355674280205 0.0079338421412138618 0 -0.00062560379729839296 0.0080373431645355056 0 -0.00048911539156030136 0.0075721144437637831 0 -0.00033853355674280205 0.0079338421412138618 0 -0.0007795185486459918 0.0072910409180726721 0 -0.00048911539156030136 0.0075721144437637831 0 -0.00050540808766569116 0.0071753844799888646 0 -0.0007795185486459918 0.0072910409180726721 0 -0.00050540808766569116 0.0071753844799888646 0 -0.00068707683362233653 0.0071017265364292214 0 -0.00062560379729839296 0.0080373431645355056 0 -0.0007795185486459918 0.0072910409180726721 0 -0.00048911539156030136 0.0075721144437637831 0 -0.00050540808766569116 0.0071753844799888646 0 -0.00022339980615868822 0.0074253262785420656 0 -0.00028408990277228668 0.0068555895965903349 0 -0.00048911539156030136 0.0075721144437637831 0 -0.00050540808766569116 0.0071753844799888646 0 -0.00022339980615868822 0.0074253262785420656 0 -0.00022339980615868822 0.0074253262785420656 0 -0.00033853355674280205 0.0079338421412138618 0 8.5680369777868488e-05 0.0077246443082984832 0 -0.00048911539156030136 0.0075721144437637831 0 -0.00022339980615868822 0.0074253262785420656 0 -0.00033853355674280205 0.0079338421412138618 0 0.0012303299674201918 0.0073410496607882979 0 0.0012095385886870948 0.0071338626430378239 0 0.0014194896029106686 0.0071432274656218599 0 -0.00022339980615868822 0.0074253262785420656 0 8.5680369777868488e-05 0.0077246443082984832 0 4.9106780379308985e-05 0.0069997425268350502 0 -0.00022339980615868822 0.0074253262785420656 0 4.9106780379308985e-05 0.0069997425268350502 0 -0.00028408990277228668 0.0068555895965903349 0 -0.0020091774551606965 0.001704292752771483 0 -0.0021263058121850963 0.0015443749296285426 0 -0.0022173859839827613 0.0020194308398404446 0 8.5680369777868488e-05 0.0077246443082984832 0 4.9106780379308985e-05 0.0069997425268350502 0 0.00051569804158706006 0.0067979170284923601 0 4.9106780379308985e-05 0.0069997425268350502 0 0.00051569804158706006 0.0067979170284923601 0 0.00035337858151497469 0.0067377050656675028 0 0.00068667091604638286 0.0076788780905502211 0 0.00033047141306090372 0.0052905558191010836 0 0.00033047141306090372 0.0052905558191010836 0 -0.00039802916377078068 0.0041690751455766596 0 0.00033047141306090372 0.0052905558191010836 0 0.00031606475647577922 0.0054598456180433774 0 0.00051569804158706006 0.0067979170284923601 0 0.00054491515670898735 0.006723267471664871 0 0.00044767654900043196 0.0067079247332825385 0 0.00051569804158706006 0.0067979170284923601 0 0.00044767654900043196 0.0067079247332825385 0 0.00035337858151497469 0.0067377050656675028 0 0.0012095385886870948 0.0071338626430378239 0 0.0014645432710038155 0.006772078417289276 0 0.0014194896029106686 0.0071432274656218599 0 0.00016186462322091575 0.0053713749244683204 0 0.00040385415256195074 0.0059509696154462508 0 0.00023560336098085385 0.0060775121387405956 0 0.00016186462322091575 0.0053713749244683204 0 0.00023560336098085385 0.0060775121387405956 0 -1.9003175496825406e-05 0.0064826399850018293 0 0.00040385415256195074 0.0059509696154462508 0 0.00023560336098085385 0.0060775121387405956 0 0.00038525766721402764 0.0064748985320937568 0 0.00044767654900043196 0.0067079247332825385 0 0.00035337858151497469 0.0067377050656675028 0 0.00038525766721402764 0.0064748985320937568 0 0.00054491515670898735 0.006723267471664871 0 0.00044767654900043196 0.0067079247332825385 0 0.00038525766721402764 0.0064748985320937568 0 0.00023560336098085385 0.0060775121387405956 0 0.00038525766721402764 0.0064748985320937568 0 -1.9003175496825406e-05 0.0064826399850018293 0 0.00035337858151497469 0.0067377050656675028 0 0.00038525766721402764 0.0064748985320937568 0 -1.9003175496825406e-05 0.0064826399850018293 0 4.9106780379308985e-05 0.0069997425268350502 0 0.00035337858151497469 0.0067377050656675028 0 -1.9003175496825406e-05 0.0064826399850018293 0 -1.9003175496825406e-05 0.0064826399850018293 0 -0.0003982291440743996 0.0063664101013581826 0 -0.00028408990277228668 0.0068555895965903349 0 4.9106780379308985e-05 0.0069997425268350502 0 -1.9003175496825406e-05 0.0064826399850018293 0 -0.00028408990277228668 0.0068555895965903349 0 0.00020276299738799166 0.0054368548261415272 0 -0.00026456974258967208 0.0056608265472104062 0 0.00016186462322091575 0.0053713749244683204 0 -0.00019560670016540972 0.0051484517248270179 0 -0.00010293622265926779 0.0048194337137596639 0 0.00016186462322091575 0.0053713749244683204 0 -1.9003175496825406e-05 0.0064826399850018293 0 -0.0003982291440743996 0.0063664101013581826 0 -0.0003982291440743996 0.0063664101013581826 0 -0.00028408990277228668 0.0068555895965903349 0 -0.00063228148452692807 0.0069208941617533411 0 -0.00050540808766569116 0.0071753844799888646 0 -0.00028408990277228668 0.0068555895965903349 0 -0.00063228148452692807 0.0069208941617533411 0 -0.0003982291440743996 0.0063664101013581826 0 -0.00063228148452692807 0.0069208941617533411 0 -0.00084487928826359224 0.0069888897143067751 0 -0.00050540808766569116 0.0071753844799888646 0 -0.00063228148452692807 0.0069208941617533411 0 -0.00068707683362233653 0.0071017265364292214 0 -0.00063228148452692807 0.0069208941617533411 0 -0.00068707683362233653 0.0071017265364292214 0 -0.00074450145018856205 0.0070476906251785536 0 -0.0007795185486459918 0.0072910409180726721 0 -0.00068707683362233653 0.0071017265364292214 0 -0.00079038468661470974 0.0071390174795875243 0 -0.00068707683362233653 0.0071017265364292214 0 -0.00074450145018856205 0.0070476906251785536 0 -0.00079038468661470974 0.0071390174795875243 0 -0.00063228148452692807 0.0069208941617533411 0 -0.0008275536497023675 0.0070349561327249406 0 -0.00084487928826359224 0.0069888897143067751 0 -0.00063228148452692807 0.0069208941617533411 0 -0.00074450145018856205 0.0070476906251785536 0 -0.0008275536497023675 0.0070349561327249406 0 -0.00074450145018856205 0.0070476906251785536 0 -0.00079038468661470974 0.0071390174795875243 0 -0.0008275536497023675 0.0070349561327249406 0 -0.00035928740338243912 0.006666429503969837 0 -0.00033982058131971004 0.0066017656320635984 0 -0.00019560670016540972 0.0051484517248270179 0 -7.6241591205594955e-05 0.0051061187749996345 0 -0.00014589279623676319 0.0051382276744230794 0 -7.6241591205594955e-05 0.0051061187749996345 0 -0.00014589279623676319 0.0051382276744230794 0 3.3732819494146935e-05 0.0053191809382803741 0 -0.00026456974258967208 0.0056608265472104062 0 -0.00033982058131971004 0.0066017656320635984 0 -0.00014589279623676319 0.0051382276744230794 0 -4.7031716736552218e-07 0.0054633756900026162 0 3.3732819494146935e-05 0.0053191809382803741 0 -0.00014589279623676319 0.0051382276744230794 0 -4.7031716736552218e-07 0.0054633756900026162 0 -1.0184053430042943e-07 0.0047340205497970571 0 -0.00014589279623676319 0.0051382276744230794 0 -1.0184053430042943e-07 0.0047340205497970571 0 -0.00010293622265926779 0.0048194337137596639 0 -0.00019560670016540972 0.0051484517248270179 0 -0.00014589279623676319 0.0051382276744230794 0 -0.00010293622265926779 0.0048194337137596639 0 -1.0184053430042943e-07 0.0047340205497970571 0 -0.00010293622265926779 0.0048194337137596639 0 -7.3254197784351193e-07 0.0040043076042613531 0 0.00030091063636310299 0.0045751153677232115 0 -0.00010293622265926779 0.0048194337137596639 0 -7.3254197784351193e-07 0.0040043076042613531 0 0.00030091063636310299 0.0045751153677232115 0 0.00016186462322091575 0.0053713749244683204 0 -0.00010293622265926779 0.0048194337137596639 0 -0.00024282850253566063 0.0073949184817629866 0 -0.00019858679623693158 0.0074576018808884771 0 -0.0002583854122450619 0.0075180905764818829 0 -0.00024282850253566063 0.0073949184817629866 0 -0.00027111460546850707 0.0074630249452024037 0 -0.0002583854122450619 0.0075180905764818829 0 -0.00024282850253566063 0.0073949184817629866 0 -0.00019858679623693158 0.0074576018808884771 0 -9.2638991850927836e-05 0.0073093101357321862 0 -0.00024282850253566063 0.0073949184817629866 0 -9.2638991850927836e-05 0.0073093101357321862 0 -0.00021296209561633616 0.0072759463235590903 0 -0.00024282850253566063 0.0073949184817629866 0 -0.00024712562980030653 0.0073438639265526575 0 -0.00026375801567732657 0.0073841258200955931 0 -0.00024282850253566063 0.0073949184817629866 0 -0.00024712562980030653 0.0073438639265526575 0 -0.00021296209561633616 0.0072759463235590903 0 -0.00024712562980030653 0.0073438639265526575 0 -0.00018004736870599994 0.00741555093199865 0 -0.00027407909466351703 0.0073366217357770953 0 -0.00024712562980030653 0.0073438639265526575 0 -0.00026375801567732657 0.0073841258200955931 0 -0.00027407909466351703 0.0073366217357770953 0 -0.00026375801567732657 0.0073841258200955931 0 -0.00027111460546850707 0.0074630249452024037 0 -0.00027407909466351703 0.0073366217357770953 0 -0.00024282850253566063 0.0073949184817629866 0 -0.00026375801567732657 0.0073841258200955931 0 -0.00027111460546850707 0.0074630249452024037 0 -0.00042786952194431583 0.008862987004259127 0 -0.00047149615725826746 0.0088822044510853473 0 -0.0003967452899751962 0.0088211486889344989 0 -0.00030311898787627282 0.0076959205507738816 0 -0.00042437325416256689 0.0088825595634825592 0 -0.0003967452899751962 0.0088211486889344989 0 -0.00027111460546850707 0.0074630249452024037 0 -0.00030311898787627282 0.0076959205507738816 0 -0.00027407909466351703 0.0073366217357770953 0 -0.00027576264709334639 0.0074369487035363105 0 -0.00030311898787627282 0.0076959205507738816 0 -0.0003967452899751962 0.0088211486889344989 0 -0.00043047813387151975 0.0081994818643620661 0 -0.00041751542462620559 0.0086834759761426523 0 -0.00028472304586877971 0.0078187356820364172 0 -0.00028712229283391337 0.008103830202974855 0 -0.00042786952194431583 0.008862987004259127 0 -0.00044042113920824625 0.008870630773513832 0 -0.00047149615725826746 0.0088822044510853473 0 -0.00042786952194431583 0.008862987004259127 0 -0.00042796212647974133 0.0088877030226372951 0 -0.00041831578736641604 0.0088697389846818173 0 -0.00043306436846733546 0.0088758108439149289 0 -0.00043748538395627052 0.0088840911699706662 0 -0.00042796212647974133 0.0088877030226372951 0 -0.00042786952194431583 0.008862987004259127 0 -0.00043306436846733546 0.0088758108439149289 0 -0.00042796212647974133 0.0088877030226372951 0 -0.00042786952194431583 0.008862987004259127 0 -0.00043306436846733546 0.0088758108439149289 0 -0.00044042113920824625 0.008870630773513832 0 -0.00044673947783515922 0.0088707070537123109 0 -0.00043748538395627052 0.0088840911699706662 0 -0.00044042113920824625 0.008870630773513832 0 -0.00043306436846733546 0.0088758108439149289 0 -0.00043748538395627052 0.0088840911699706662 0 -0.00044042113920824625 0.008870630773513832 0 -0.00045367047730199636 0.0088575794896055288 0 -0.00044042113920824625 0.008870630773513832 0 -0.00047149615725826746 0.0088822044510853473 0 -0.00093367824104822756 0.0072441349795190823 0 -0.00027576264709334639 0.0074369487035363105 0 -0.00031108623668625444 0.0075568515694959442 0 -0.00027576264709334639 0.0074369487035363105 0 -0.00030311898787627282 0.0076959205507738816 0 -0.00031108623668625444 0.0075568515694959442 0 -0.00030311898787627282 0.0076959205507738816 0 -0.0002583854122450619 0.0075180905764818829 0 -0.00031108623668625444 0.0075568515694959442 0 -0.00027111460546850707 0.0074630249452024037 0 -0.00030311898787627282 0.0076959205507738816 0 -0.0002583854122450619 0.0075180905764818829 0 -0.00019858679623693158 0.0074576018808884771 0 -0.0002583854122450619 0.0075180905764818829 0 -0.00031108623668625444 0.0075568515694959442 0 -0.00093367824104822756 0.0072441349795190823 0 -0.00031108623668625444 0.0075568515694959442 0 -0.00077862408192334116 0.0074091080125304994 0 -0.00030468648189272898 0.0075365518148371386 0 -0.00026109346563361511 0.0074942989436543282 0 -0.00019858679623693158 0.0074576018808884771 0 -0.00031108623668625444 0.0075568515694959442 0 0.00015132771502950128 0.0075756701952201235 0 -0.00083356590906149609 0.007051166721594059 0 -0.00077862408192334116 0.0074091080125304994 0 -0.00085233469298629969 0.0072053783392051146 0 -0.00033982058131971004 0.0066017656320635984 0 -0.00026109346563361511 0.0074942989436543282 0 -0.00093367824104822756 0.0072441349795190823 0 -0.00077862408192334116 0.0074091080125304994 0 -0.00085233469298629969 0.0072053783392051146 0 -0.0007795185486459918 0.0072910409180726721 0 -0.00079038468661470974 0.0071390174795875243 0 -0.00085233469298629969 0.0072053783392051146 0 -0.00079038468661470974 0.0071390174795875243 0 -0.0008275536497023675 0.0070349561327249406 0 -0.00085233469298629969 0.0072053783392051146 0 -0.0008275536497023675 0.0070349561327249406 0 -0.00083356590906149609 0.007051166721594059 0 -0.00085233469298629969 0.0072053783392051146 0 -0.00033982058131971004 0.0066017656320635984 0 0.00025558940167532708 0.0061465747107004006 0 0.00053981228264384298 0.0075222121765547894 0 0.00015132771502950128 0.0075756701952201235 0 0.00020748520072549795 0.0073160355907505676 0 0.00053981228264384298 0.0075222121765547894 0 0.00020748520072549795 0.0073160355907505676 0 0.00040851855090481452 0.0070473904772366666 0 -0.00019858679623693158 0.0074576018808884771 0 -9.2638991850927836e-05 0.0073093101357321862 0 0.00015132771502950128 0.0075756701952201235 0 -9.2638991850927836e-05 0.0073093101357321862 0 0.00015132771502950128 0.0075756701952201235 0 0.00020748520072549795 0.0073160355907505676 0 -9.2638991850927836e-05 0.0073093101357321862 0 0.00020748520072549795 0.0073160355907505676 0 3.2338748732098329e-05 0.0070572541420812467 0 0.00020748520072549795 0.0073160355907505676 0 3.2338748732098329e-05 0.0070572541420812467 0 0.00040851855090481452 0.0070473904772366666 0 0.00025558940167532708 0.0061465747107004006 0 4.6838799921327113e-08 0.0061925766686086771 0 -4.7031716736552218e-07 0.0054633756900026162 0 3.3732819494146935e-05 0.0053191809382803741 0 7.0664327900999945e-07 0.0061912212340443154 0 7.2348286129785121e-07 0.0061939873588783253 0 -5.7765200255363277e-05 0.0067688953426555953 0 -4.4594566029194216e-07 0.0069153069261577663 0 3.2338748732098329e-05 0.0070572541420812467 0 0.00040851855090481452 0.0070473904772366666 0 7.2348286129785121e-07 0.0061939873588783253 0 3.2338748732098329e-05 0.0070572541420812467 0 7.2348286129785121e-07 0.0061939873588783253 0 -5.7765200255363277e-05 0.0067688953426555953 0 -5.7765200255363277e-05 0.0067688953426555953 0 -4.4594566029194216e-07 0.0069153069261577663 0 -0.00013609967109793974 0.0070994276297945864 0 -4.4594566029194216e-07 0.0069153069261577663 0 -0.00013609967109793974 0.0070994276297945864 0 -0.00019247101159579992 0.0073368702420572082 0 3.2338748732098329e-05 0.0070572541420812467 0 -5.7765200255363277e-05 0.0067688953426555953 0 -0.00013609967109793974 0.0070994276297945864 0 -9.2638991850927836e-05 0.0073093101357321862 0 3.2338748732098329e-05 0.0070572541420812467 0 -0.00013609967109793974 0.0070994276297945864 0 -9.2638991850927836e-05 0.0073093101357321862 0 -0.00013609967109793974 0.0070994276297945864 0 -0.00021296209561633616 0.0072759463235590903 0 -0.00013609967109793974 0.0070994276297945864 0 -0.00021296209561633616 0.0072759463235590903 0 -0.00019247101159579992 0.0073368702420572082 0 -0.00024712562980030653 0.0073438639265526575 0 -0.00019247101159579992 0.0073368702420572082 0 -0.00018004736870599994 0.00741555093199865 0 -0.00024712562980030653 0.0073438639265526575 0 -0.00021296209561633616 0.0072759463235590903 0 -0.00019247101159579992 0.0073368702420572082 0 -4.4594566029194216e-07 0.0069153069261577663 0 -0.00019247101159579992 0.0073368702420572082 0 -4.7533536044790575e-07 0.007638402168245388 0 -0.00019247101159579992 0.0073368702420572082 0 -4.7533536044790575e-07 0.007638402168245388 0 -7.5435262609516108e-05 0.0077340991260633372 0 7.3349850352489268e-07 0.0083599418004156704 0 -7.5435262609516108e-05 0.0077340991260633372 0 0.00030669517449089374 0.0079205172798277046 0 -4.7533536044790575e-07 0.007638402168245388 0 7.3349850352489268e-07 0.0083599418004156704 0 -7.5435262609516108e-05 0.0077340991260633372 0 -0.00042076777625252597 0.0089695371763625509 0 -0.00043678126590261586 0.0089889218050163006 0 -0.00043756274776045898 0.0089554369293958994 0 -7.5435262609516108e-05 0.0077340991260633372 0 -1.4949370993936915e-05 0.007455119302979831 0 0.00030669517449089374 0.0079205172798277046 0 -0.00025543493501695315 0.0081687241534100698 0 -3.1382213648511492e-05 0.0087872835162935824 0 -1.4949370993936915e-05 0.007455119302979831 0 -0.00018004736870599994 0.00741555093199865 0 -0.00027407909466351703 0.0073366217357770953 0 -0.00019247101159579992 0.0073368702420572082 0 -7.5435262609516108e-05 0.0077340991260633372 0 -0.00018004736870599994 0.00741555093199865 0 -7.5435262609516108e-05 0.0077340991260633372 0 -1.4949370993936915e-05 0.007455119302979831 0 -0.00018004736870599994 0.00741555093199865 0 -0.00042076777625252597 0.0089695371763625509 0 -0.00042437325416256689 0.0088825595634825592 0 -0.00041735919140757069 0.0089476394744865545 0 -0.00042437325416256689 0.0088825595634825592 0 -0.0003967452899751962 0.0088211486889344989 0 -0.00041735919140757069 0.0089476394744865545 0 -0.00025543493501695315 0.0081687241534100698 0 -0.00028712229283391337 0.008103830202974855 0 -0.0003967452899751962 0.0088211486889344989 0 -0.00041735919140757069 0.0089476394744865545 0 -0.00043056024942727226 0.0089087347366169842 0 -0.00042076777625252597 0.0089695371763625509 0 -0.00041735919140757069 0.0089476394744865545 0 -0.00043678126590261586 0.0089889218050163006 0 -0.00041735919140757069 0.0089476394744865545 0 -0.00044087342855122456 0.0090468312975150681 0 -0.00043678126590261586 0.0089889218050163006 0 -0.00041735919140757069 0.0089476394744865545 0 -0.00043882517481907512 0.0089825142231164841 0 -0.00043056024942727226 0.0089087347366169842 0 -0.00041735919140757069 0.0089476394744865545 0 -0.00043882517481907512 0.0089825142231164841 0 -0.00044087342855122456 0.0090468312975150681 0 -0.00043882517481907512 0.0089825142231164841 0 -0.00045724948559614718 0.0090483496030469117 0 -0.00044087342855122456 0.0090468312975150681 0 -0.00043882517481907512 0.0089825142231164841 0 -0.00045315252926645468 0.0089962128282361671 0 -0.00044414434769457506 0.0089523120220894471 0 -0.00043882517481907512 0.0089825142231164841 0 -0.00045724948559614718 0.0090483496030469117 0 -0.00045315252926645468 0.0089962128282361671 0 -0.00045315252926645468 0.0089962128282361671 0 -0.00044414434769457506 0.0089523120220894471 0 -0.00045538401699010873 0.0089703096208188435 0 -0.00044414434769457506 0.0089523120220894471 0 -0.00045538401699010873 0.0089703096208188435 0 -0.000447199434362517 0.0089317919897528523 0 -0.00044414434769457506 0.0089523120220894471 0 -0.00043840398755314286 0.0089217149100349873 0 -0.00043056024942727226 0.0089087347366169842 0 -0.00044414434769457506 0.0089523120220894471 0 -0.00043840398755314286 0.0089217149100349873 0 -0.000447199434362517 0.0089317919897528523 0 -0.00043918246290192039 0.0089045734198129525 0 -0.00043840398755314286 0.0089217149100349873 0 -0.000447199434362517 0.0089317919897528523 0 -0.00043748538395627052 0.0088840911699706662 0 -0.00043918246290192039 0.0089045734198129525 0 -0.00042796212647974133 0.0088877030226372951 0 -0.00043918246290192039 0.0089045734198129525 0 -0.00042796212647974133 0.0088877030226372951 0 -0.00043840398755314286 0.0089217149100349873 0 -0.00042796212647974133 0.0088877030226372951 0 -0.00043840398755314286 0.0089217149100349873 0 -0.00043056024942727226 0.0089087347366169842 0 -0.00042786952194431583 0.008862987004259127 0 -0.0003967452899751962 0.0088211486889344989 0 -0.00041831578736641604 0.0088697389846818173 0 -0.00042796212647974133 0.0088877030226372951 0 -0.00041831578736641604 0.0088697389846818173 0 -0.00043056024942727226 0.0089087347366169842 0 -0.0003967452899751962 0.0088211486889344989 0 -0.00041831578736641604 0.0088697389846818173 0 -0.00043056024942727226 0.0089087347366169842 0 -0.00043882517481907512 0.0089825142231164841 0 -0.00044414434769457506 0.0089523120220894471 0 -0.00043056024942727226 0.0089087347366169842 0 -0.00046813945129209729 0.0091624409867433632 0 -0.00052768722367737663 0.0092012987710100979 0 -0.00048128924510450286 0.0093471845646103061 0 -0.00046813945129209729 0.0091624409867433632 0 -0.00048281393420886257 0.009219339524846654 0 -0.00048128924510450286 0.0093471845646103061 0 -0.00046813945129209729 0.0091624409867433632 0 -0.00046590689748585439 0.0091279723824617565 0 -0.00048281393420886257 0.009219339524846654 0 -0.00045724948559614718 0.0090483496030469117 0 -0.00046590689748585439 0.0091279723824617565 0 -0.00044087342855122456 0.0090468312975150681 0 -0.00046813945129209729 0.0091624409867433632 0 -0.00046590689748585439 0.0091279723824617565 0 -0.00044087342855122456 0.0090468312975150681 0 -0.00044087342855122456 0.0090468312975150681 0 -0.00047833112998599438 0.009018159940581659 0 -0.00043678126590261586 0.0089889218050163006 0 -0.00046813945129209729 0.0091624409867433632 0 -0.00044087342855122456 0.0090468312975150681 0 -0.00047833112998599438 0.009018159940581659 0 -0.00046813945129209729 0.0091624409867433632 0 -0.00047833112998599438 0.009018159940581659 0 -0.00052768722367737663 0.0092012987710100979 0 -0.00021753358790655569 0.0096178399157482736 0 -0.00036840722861940012 0.0096804225276171021 0 5.1913845404928316e-05 0.010094596299693283 0 0.00011795476397618279 0.0096539577210393926 0 -7.9145756905413172e-05 0.0097962867420721862 0 -0.00021753358790655569 0.0096178399157482736 0 -3.1382213648511492e-05 0.0087872835162935824 0 5.1913845404928316e-05 0.010094596299693283 0 0.00060087957585855552 0.009530078435287451 0 0.00011795476397618279 0.0096539577210393926 0 -0.00047833112998599438 0.009018159940581659 0 -0.00043678126590261586 0.0089889218050163006 0 -0.00043756274776045898 0.0089554369293958994 0 3.4485124248516711e-10 0.0083620707072810715 0 -2.6972019509151098e-07 0.0086048925647567547 0 -1.3216960106574131e-09 0.0089851762925810888 0 0.00060087957585855552 0.009530078435287451 0 0.00011795476397618279 0.0096539577210393926 0 8.4915412476272213e-07 0.0089874762915131325 0 -3.1382213648511492e-05 0.0087872835162935824 0 3.2256902942131703e-07 0.0089863022946850626 0 2.5709219338650224e-07 0.0083609330599368481 0 -3.1382213648511492e-05 0.0087872835162935824 0 0.00011795476397618279 0.0096539577210393926 0 8.4915412476272213e-07 0.0089874762915131325 0 -7.9145756905413172e-05 0.0097962867420721862 0 8.4915412476272213e-07 0.0089874762915131325 0 -7.9145756905413172e-05 0.0097962867420721862 0 -6.437109513633677e-07 0.0098696204884187125 0 -7.9145756905413172e-05 0.0097962867420721862 0 -6.437109513633677e-07 0.0098696204884187125 0 -0.00022064542875459728 0.010232115325519393 0 -6.437109513633677e-07 0.0098696204884187125 0 -0.00022064542875459728 0.010232115325519393 0 -0.00015328468557544302 0.010490023410593283 0 5.1913845404928316e-05 0.010094596299693283 0 -7.9145756905413172e-05 0.0097962867420721862 0 -0.00022064542875459728 0.010232115325519393 0 -6.0924248223436012e-08 0.010752914926647575 0 -9.3697749181330045e-05 0.010888852160010416 0 -4.6742309385902403e-05 0.011229857641463807 0 -6.437109513633677e-07 0.0098696204884187125 0 -6.0924248223436012e-08 0.010752914926647575 0 -0.00015328468557544302 0.010490023410593283 0 -0.00015328468557544302 0.010490023410593283 0 -9.3697749181330045e-05 0.010888852160010416 0 -0.00014900897631098164 0.010575009637202818 0 -6.0924248223436012e-08 0.010752914926647575 0 -0.00015328468557544302 0.010490023410593283 0 -9.3697749181330045e-05 0.010888852160010416 0 -9.000689397014813e-05 0.01065982068088202 0 -5.2842044384195876e-05 0.010854179598914483 0 -3.227406676760781e-05 0.010655403795308056 0 -9.000689397014813e-05 0.01065982068088202 0 -8.3109198017811749e-05 0.010493969735950813 0 -3.227406676760781e-05 0.010655403795308056 0 -9.3697749181330045e-05 0.010888852160010416 0 -9.000689397014813e-05 0.01065982068088202 0 -5.2842044384195876e-05 0.010854179598914483 0 -9.3697749181330045e-05 0.010888852160010416 0 -9.000689397014813e-05 0.01065982068088202 0 -0.00014900897631098164 0.010575009637202818 0 -9.000689397014813e-05 0.01065982068088202 0 -0.00012753021899936806 0.010507783733564837 0 -8.3109198017811749e-05 0.010493969735950813 0 -9.000689397014813e-05 0.01065982068088202 0 -0.00012753021899936806 0.010507783733564837 0 -0.00014900897631098164 0.010575009637202818 0 -0.00015328468557544302 0.010490023410593283 0 -0.00014900897631098164 0.010575009637202818 0 -0.00019185703193351484 0.010357140724021665 0 -0.00012753021899936806 0.010507783733564837 0 -0.00014900897631098164 0.010575009637202818 0 -0.00019185703193351484 0.010357140724021665 0 -0.00019185703193351484 0.010357140724021665 0 -0.00018625267508504785 0.010093995225092221 0 -0.00012220935237211193 0.010343706084373452 0 -0.00018625267508504785 0.010093995225092221 0 -0.0001162967446666011 0.010171394905528819 0 -0.00012220935237211193 0.010343706084373452 0 -0.00012753021899936806 0.010507783733564837 0 -0.00019185703193351484 0.010357140724021665 0 -0.00012220935237211193 0.010343706084373452 0 -0.00012220935237211193 0.010343706084373452 0 -8.3109198017811749e-05 0.010493969735950813 0 -8.4338040070128101e-05 0.010358982637224809 0 -0.00012753021899936806 0.010507783733564837 0 -0.00012220935237211193 0.010343706084373452 0 -8.3109198017811749e-05 0.010493969735950813 0 -0.0001162967446666011 0.010171394905528819 0 -0.00012220935237211193 0.010343706084373452 0 -8.4338040070128101e-05 0.010358982637224809 0 -0.0001162967446666011 0.010171394905528819 0 -8.4338040070128101e-05 0.010358982637224809 0 -5.721212002467212e-05 0.010318912316977074 0 -8.3109198017811749e-05 0.010493969735950813 0 -8.4338040070128101e-05 0.010358982637224809 0 -3.8165373976092178e-05 0.010424184086429211 0 -8.4338040070128101e-05 0.010358982637224809 0 -5.721212002467212e-05 0.010318912316977074 0 -3.8165373976092178e-05 0.010424184086429211 0 -8.3109198017811749e-05 0.010493969735950813 0 -3.8165373976092178e-05 0.010424184086429211 0 -3.227406676760781e-05 0.010655403795308056 0 -0.00022064542875459728 0.010232115325519393 0 -0.00027439322679883709 0.010165437578446282 0 -0.00026810405501806152 0.010238806832210644 0 5.1913845404928316e-05 0.010094596299693283 0 -0.00022064542875459728 0.010232115325519393 0 -0.00026810405501806152 0.010238806832210644 0 -0.00022064542875459728 0.010232115325519393 0 -0.00019185703193351484 0.010357140724021665 0 -0.00027439322679883709 0.010165437578446282 0 -0.00022064542875459728 0.010232115325519393 0 -0.00015328468557544302 0.010490023410593283 0 -0.00019185703193351484 0.010357140724021665 0 -0.00019185703193351484 0.010357140724021665 0 -0.00018625267508504785 0.010093995225092221 0 -0.00027439322679883709 0.010165437578446282 0 -0.00018625267508504785 0.010093995225092221 0 -0.00027439322679883709 0.010165437578446282 0 -0.00041059699536643662 0.0097054803420026717 0 -0.00052768722367737663 0.0092012987710100979 0 -0.00041059699536643662 0.0097054803420026717 0 -0.00048128924510450286 0.0093471845646103061 0 -0.00027439322679883709 0.010165437578446282 0 -0.00026810405501806152 0.010238806832210644 0 -0.00041059699536643662 0.0097054803420026717 0 -0.00036840722861940012 0.0096804225276171021 0 -0.00038249409161896761 0.0096750212251140895 0 -0.00047536200102378648 0.0093682993649471524 0 -0.00041059699536643662 0.0097054803420026717 0 -0.00048128924510450286 0.0093471845646103061 0 -0.00047536200102378648 0.0093682993649471524 0 -0.00041059699536643662 0.0097054803420026717 0 -0.00038958243673606861 0.0094809619994175431 0 -0.00041059699536643662 0.0097054803420026717 0 -0.00038958243673606861 0.0094809619994175431 0 -0.00014679001944960138 0.0097110322435212983 0 -0.00018625267508504785 0.010093995225092221 0 -0.00041059699536643662 0.0097054803420026717 0 -0.00014679001944960138 0.0097110322435212983 0 -0.00052636761807364491 0.0094344463311900016 0 -0.00030534579767591263 0.0098416924585825252 0 -0.00040608423190822306 0.0092526481078003577 0 -0.00038958243673606861 0.0094809619994175431 0 -0.00014679001944960138 0.0097110322435212983 0 -0.0004798425531491978 0.0097261800684601378 0 -0.00065764627444045475 0.0096048463394373031 0 -0.00044226746477132325 0.0099586756391691102 0 -0.0004798425531491978 0.0097261800684601378 0 -0.00065764627444045475 0.0096048463394373031 0 -0.00059229013471684367 0.0095829100468422801 0 -0.00040608423190822306 0.0092526481078003577 0 -0.00045929995272994353 0.0093026410714073717 0 -0.00047981438412058344 0.0091949839623682653 0 -0.00047536200102378648 0.0093682993649471524 0 -0.00045929995272994353 0.0093026410714073717 0 -0.00048658775082147343 0.0092544767410827448 0 -0.00040608423190822306 0.0092526481078003577 0 -0.00045929995272994353 0.0093026410714073717 0 -0.00038958243673606861 0.0094809619994175431 0 -0.00047536200102378648 0.0093682993649471524 0 -0.00045929995272994353 0.0093026410714073717 0 -0.00038958243673606861 0.0094809619994175431 0 -5.721212002467212e-05 0.010318912316977074 0 -0.00016048270770542054 0.010082202101764635 0 -0.00044226746477132325 0.0099586756391691102 0 -5.721212002467212e-05 0.010318912316977074 0 -3.8165373976092178e-05 0.010424184086429211 0 0.00018003117261511167 0.010167561477912939 0 -5.721212002467212e-05 0.010318912316977074 0 1.0584657720010744e-05 0.010089728260400058 0 -0.00016048270770542054 0.010082202101764635 0 1.0584657720010744e-05 0.010089728260400058 0 -0.00016048270770542054 0.010082202101764635 0 -0.00015439222484479499 0.0099597011844094942 0 -6.7814166387177214e-05 0.010250232013382725 0 -0.00030534579767591263 0.0098416924585825252 0 -0.00016048270770542054 0.010082202101764635 0 -0.00044226746477132325 0.0099586756391691102 0 -0.00015439222484479499 0.0099597011844094942 0 -0.0001162967446666011 0.010171394905528819 0 -5.721212002467212e-05 0.010318912316977074 0 -0.00014679001944960138 0.0097110322435212983 0 -0.00018625267508504785 0.010093995225092221 0 -0.0001162967446666011 0.010171394905528819 0 -0.00014679001944960138 0.0097110322435212983 0 -0.00044226746477132325 0.0099586756391691102 0 -0.00025698619397050937 0.0097745824481843477 0 -0.00015439222484479499 0.0099597011844094942 0 -0.0004798425531491978 0.0097261800684601378 0 -0.00044226746477132325 0.0099586756391691102 0 -0.00025698619397050937 0.0097745824481843477 0 -0.0004798425531491978 0.0097261800684601378 0 -0.00025698619397050937 0.0097745824481843477 0 -0.00035121429561411552 0.0096364071540525065 0 1.0584657720010744e-05 0.010089728260400058 0 -0.00015439222484479499 0.0099597011844094942 0 -3.161913649087198e-05 0.0097833290506560908 0 -0.00025698619397050937 0.0097745824481843477 0 -0.00015439222484479499 0.0099597011844094942 0 -3.161913649087198e-05 0.0097833290506560908 0 -0.00018021278889974977 0.0095502230879790442 0 0.00015094132582181322 0.0096554874316185681 0 6.9006984690380975e-05 0.0093399031017955669 0 -3.161913649087198e-05 0.0097833290506560908 0 -0.00018021278889974977 0.0095502230879790442 0 0.00015094132582181322 0.0096554874316185681 0 -0.00025698619397050937 0.0097745824481843477 0 -3.161913649087198e-05 0.0097833290506560908 0 -0.00018021278889974977 0.0095502230879790442 0 -0.00018021278889974977 0.0095502230879790442 0 -0.00035121429561411552 0.0096364071540525065 0 -0.00048525941938500186 0.0094589408394228497 0 -0.00025698619397050937 0.0097745824481843477 0 -0.00018021278889974977 0.0095502230879790442 0 -0.00035121429561411552 0.0096364071540525065 0 -0.00035121429561411552 0.0096364071540525065 0 -0.00048035229678531971 0.0095989633830839572 0 -0.00048525941938500186 0.0094589408394228497 0 -0.0004798425531491978 0.0097261800684601378 0 -0.00035121429561411552 0.0096364071540525065 0 -0.00048035229678531971 0.0095989633830839572 0 -0.00018021278889974977 0.0095502230879790442 0 -0.00034901722360691225 0.0092579282872627244 0 -0.00048525941938500186 0.0094589408394228497 0 -0.00018021278889974977 0.0095502230879790442 0 -0.00034901722360691225 0.0092579282872627244 0 6.9006984690380975e-05 0.0093399031017955669 0 -0.00061744471116199396 0.0092874678469002554 0 -0.00043479529204432614 0.0093986124881416597 0 -0.00059210791151408939 0.0095481585995561731 0 -0.00068860193770085485 0.0093529080571836034 0 -0.00065764627444045475 0.0096048463394373031 0 -0.00065768461612290005 0.0093543501026907994 0 -0.00066113615072951621 0.0093078237862402758 0 -0.00052636761807364491 0.0094344463311900016 0 -0.00057042693416315901 0.0091942276908625036 0 -0.00065764627444045475 0.0096048463394373031 0 -0.00059229013471684367 0.0095829100468422801 0 -0.00065768461612290005 0.0093543501026907994 0 -0.00059229013471684367 0.0095829100468422801 0 -0.00065219238234920244 0.0093815191547206717 0 -0.00073060417246139731 0.009352712213768731 0 -0.00059229013471684367 0.0095829100468422801 0 -0.00048525941938500186 0.0094589408394228497 0 -0.00065219238234920244 0.0093815191547206717 0 -0.00059229013471684367 0.0095829100468422801 0 -0.00048035229678531971 0.0095989633830839572 0 -0.00048525941938500186 0.0094589408394228497 0 -0.0004798425531491978 0.0097261800684601378 0 -0.00059229013471684367 0.0095829100468422801 0 -0.00048035229678531971 0.0095989633830839572 0 -0.00034901722360691225 0.0092579282872627244 0 -0.00048525941938500186 0.0094589408394228497 0 -0.00071177349116053983 0.0092604868076384475 0 -0.00048525941938500186 0.0094589408394228497 0 -0.00065219238234920244 0.0093815191547206717 0 -0.00071177349116053983 0.0092604868076384475 0 -0.00065219238234920244 0.0093815191547206717 0 -0.00070145296263516795 0.0093029464220774332 0 -0.00071177349116053983 0.0092604868076384475 0 -0.00065219238234920244 0.0093815191547206717 0 -0.00070145296263516795 0.0093029464220774332 0 -0.00073060417246139731 0.009352712213768731 0 -0.00070301339758808967 0.0092872057211009686 0 -0.00068407490612232952 0.0092522756656375875 0 -0.00069348477910205313 0.0092580382916247848 0 -0.00068860193770085485 0.0093529080571836034 0 -0.00063074760193885637 0.0091591389998415037 0 -0.00070145296263516795 0.0093029464220774332 0 -0.00070301339758808967 0.0092872057211009686 0 -0.00069348477910205313 0.0092580382916247848 0 -0.00065768461612290005 0.0093543501026907994 0 -0.00066113615072951621 0.0093078237862402758 0 -0.0005916485624658796 0.0090996041189035301 0 -0.00068407490612232952 0.0092522756656375875 0 -0.00073060417246139731 0.009352712213768731 0 -0.00065422487089093371 0.0092085525537513677 0 -0.00070145296263516795 0.0093029464220774332 0 -0.00070301339758808967 0.0092872057211009686 0 -0.00073060417246139731 0.009352712213768731 0 -0.00070301339758808967 0.0092872057211009686 0 -0.00068407490612232952 0.0092522756656375875 0 -0.00073060417246139731 0.009352712213768731 0 -0.00040608423190822306 0.0092526481078003577 0 -0.00049923799018949824 0.0090679482833746859 0 -0.00047981438412058344 0.0091949839623682653 0 -0.00049923799018949824 0.0090679482833746859 0 -0.00050316639997252004 0.0091335122885412064 0 -0.000515994538898201 0.0090962879348447951 0 -0.00050316639997252004 0.0091335122885412064 0 -0.000515994538898201 0.0090962879348447951 0 -0.0005125960694423279 0.009124311076674033 0 -0.00049923799018949824 0.0090679482833746859 0 -0.00050316639997252004 0.0091335122885412064 0 -0.00047981438412058344 0.0091949839623682653 0 -0.00049923799018949824 0.0090679482833746859 0 -0.00052550918574662019 0.0090648287615910737 0 -0.00053786451590342814 0.009040329929683056 0 -0.00052229735702383076 0.0090753628515670218 0 -0.00053028516921524264 0.009039128335680182 0 -0.00051944435585492635 0.0090414930707252185 0 -0.00052229735702383076 0.0090753628515670218 0 -0.00052550918574662019 0.0090648287615910737 0 -0.00053028516921524264 0.009039128335680182 0 -0.00052229735702383076 0.0090753628515670218 0 -0.000515994538898201 0.0090962879348447951 0 -0.0005125960694423279 0.009124311076674033 0 -0.00052229735702383076 0.0090753628515670218 0 -0.000515994538898201 0.0090962879348447951 0 -0.00052550918574662019 0.0090648287615910737 0 -0.00049923799018949824 0.0090679482833746859 0 -0.000515994538898201 0.0090962879348447951 0 -0.00052550918574662019 0.0090648287615910737 0 -0.00053028516921524264 0.009039128335680182 0 -0.00053786451590342814 0.009040329929683056 0 -0.0005364631434471174 0.0090112750040040809 0 -0.00052550918574662019 0.0090648287615910737 0 -0.00053028516921524264 0.009039128335680182 0 -0.00053786451590342814 0.009040329929683056 0 -0.00057042693416315901 0.0091942276908625036 0 -0.00056247758630118938 0.009061561544775559 0 -0.00066113615072951621 0.0093078237862402758 0 -0.0005916485624658796 0.0090996041189035301 0 -0.00056419820100050782 0.0090306398029082382 0 -0.00053786451590342814 0.009040329929683056 0 -0.00056419820100050782 0.0090306398029082382 0 -0.00054549860580548775 0.0090165456880450662 0 -0.00049923799018949824 0.0090679482833746859 0 -0.00053786451590342814 0.009040329929683056 0 -0.00056419820100050782 0.0090306398029082382 0 -0.00068407490612232952 0.0092522756656375875 0 -0.00065422487089093371 0.0092085525537513677 0 -0.00065802763566696052 0.0092278857109671028 0 -0.00063074760193885637 0.0091591389998415037 0 -0.000537818225409563 0.0090580183176825809 0 -0.0005916485624658796 0.0090996041189035301 0 -0.00056419820100050782 0.0090306398029082382 0 -0.00053806195304626598 0.008967427328373594 0 -0.00056419820100050782 0.0090306398029082382 0 -0.00053585527100200785 0.0089860698377310731 0 -0.00053806195304626598 0.008967427328373594 0 -0.00053585527100200785 0.0089860698377310731 0 -0.00051710847071209784 0.0089412826061137478 0 -0.00052779482643002483 0.0089841867278834756 0 -0.00056419820100050782 0.0090306398029082382 0 -0.00053585527100200785 0.0089860698377310731 0 -0.00054549860580548775 0.0090165456880450662 0 -0.00053585527100200785 0.0089860698377310731 0 -0.00054549860580548775 0.0090165456880450662 0 -0.0005364631434471174 0.0090112750040040809 0 -0.00053786451590342814 0.009040329929683056 0 -0.00054549860580548775 0.0090165456880450662 0 -0.0005364631434471174 0.0090112750040040809 0 -0.00053585527100200785 0.0089860698377310731 0 -0.0005364631434471174 0.0090112750040040809 0 -0.00052779482643002483 0.0089841867278834756 0 -0.00053585527100200785 0.0089860698377310731 0 -0.00052061628827063859 0.0089298845906892986 0 -0.00053806195304626598 0.008967427328373594 0 -0.00053585527100200785 0.0089860698377310731 0 -0.00052061628827063859 0.0089298845906892986 0 -0.00051710847071209784 0.0089412826061137478 0 -0.0005069769139066883 0.0088862044179540117 0 -0.00052061628827063859 0.0089298845906892986 0 -0.00051710847071209784 0.0089412826061137478 0 -0.0005069769139066883 0.0088862044179540117 0 -0.00051710847071209784 0.0089412826061137478 0 -0.00050161625449058689 0.0089245512485860521 0 -0.00051710847071209784 0.0089412826061137478 0 -0.00050161625449058689 0.0089245512485860521 0 -0.00051679462567930763 0.0089662747155840796 0 -0.00050161625449058689 0.0089245512485860521 0 -0.00051679462567930763 0.0089662747155840796 0 -0.00050885458110939909 0.0089757554998496653 0 -0.00050161625449058689 0.0089245512485860521 0 -0.00050885458110939909 0.0089757554998496653 0 -0.0004985189864476345 0.0089589947745461664 0 -0.0005069769139066883 0.0088862044179540117 0 -0.000495932600965292 0.0088706470455846755 0 -0.00050161625449058689 0.0089245512485860521 0 -0.000495932600965292 0.0088706470455846755 0 -0.00050161625449058689 0.0089245512485860521 0 -0.00048530870640206043 0.0088896644031800226 0 -0.00053028516921524264 0.009039128335680182 0 -0.0005364631434471174 0.0090112750040040809 0 -0.00052351734946379561 0.0090007354255859009 0 -0.0005364631434471174 0.0090112750040040809 0 -0.00052779482643002483 0.0089841867278834756 0 -0.00052351734946379561 0.0090007354255859009 0 -0.00051710847071209784 0.0089412826061137478 0 -0.00052779482643002483 0.0089841867278834756 0 -0.00051679462567930763 0.0089662747155840796 0 -0.00052779482643002483 0.0089841867278834756 0 -0.00051679462567930763 0.0089662747155840796 0 -0.00052351734946379561 0.0090007354255859009 0 -0.00051679462567930763 0.0089662747155840796 0 -0.00050885458110939909 0.0089757554998496653 0 -0.00052351734946379561 0.0090007354255859009 0 -0.00050885458110939909 0.0089757554998496653 0 -0.00052351734946379561 0.0090007354255859009 0 -0.00051147652130210345 0.0090112466458739226 0 -0.00053028516921524264 0.009039128335680182 0 -0.00052351734946379561 0.0090007354255859009 0 -0.00051944435585492635 0.0090414930707252185 0 -0.00052351734946379561 0.0090007354255859009 0 -0.00051944435585492635 0.0090414930707252185 0 -0.00051147652130210345 0.0090112466458739226 0 -0.00051944435585492635 0.0090414930707252185 0 -0.0005057350506782834 0.0090433050319600507 0 -0.00051147652130210345 0.0090112466458739226 0 -0.0005057350506782834 0.0090433050319600507 0 -0.00051147652130210345 0.0090112466458739226 0 -0.0004965160468855933 0.0089952604374569766 0 -0.00050885458110939909 0.0089757554998496653 0 -0.0004965160468855933 0.0089952604374569766 0 -0.0004985189864476345 0.0089589947745461664 0 -0.00050885458110939909 0.0089757554998496653 0 -0.00051147652130210345 0.0090112466458739226 0 -0.0004965160468855933 0.0089952604374569766 0 -0.0004965160468855933 0.0089952604374569766 0 -0.00048783324902170665 0.0090333671299625481 0 -0.00048027095474167166 0.0089773274481082087 0 -0.0005057350506782834 0.0090433050319600507 0 -0.0004965160468855933 0.0089952604374569766 0 -0.00048783324902170665 0.0090333671299625481 0 -0.0005057350506782834 0.0090433050319600507 0 -0.00048783324902170665 0.0090333671299625481 0 -0.00049789011066075656 0.0090940684500632127 0 -0.00050161625449058689 0.0089245512485860521 0 -0.00048530870640206043 0.0088896644031800226 0 -0.00048590639094744464 0.008940652077583558 0 -0.00050161625449058689 0.0089245512485860521 0 -0.0004985189864476345 0.0089589947745461664 0 -0.00048590639094744464 0.008940652077583558 0 -0.0004965160468855933 0.0089952604374569766 0 -0.0004985189864476345 0.0089589947745461664 0 -0.00048590639094744464 0.008940652077583558 0 -0.0004965160468855933 0.0089952604374569766 0 -0.00048027095474167166 0.0089773274481082087 0 -0.00048590639094744464 0.008940652077583558 0 -0.00048027095474167166 0.0089773274481082087 0 -0.00047337468491544449 0.0089393407629072361 0 -0.00048590639094744464 0.008940652077583558 0 -0.00048530870640206043 0.0088896644031800226 0 -0.00048590639094744464 0.008940652077583558 0 -0.00047557688304807901 0.0089101388073902013 0 -0.00047337468491544449 0.0089393407629072361 0 -0.00048590639094744464 0.008940652077583558 0 -0.00047557688304807901 0.0089101388073902013 0 -0.00047337468491544449 0.0089393407629072361 0 -0.00047557688304807901 0.0089101388073902013 0 -0.0004625235372086524 0.0089095210105742499 0 -0.00047226901181092473 0.0088720164561273459 0 -0.00047557688304807901 0.0089101388073902013 0 -0.0004625235372086524 0.0089095210105742499 0 -0.00047226901181092473 0.0088720164561273459 0 -0.00048530870640206043 0.0088896644031800226 0 -0.00047557688304807901 0.0089101388073902013 0 -0.00047337468491544449 0.0089393407629072361 0 -0.0004625235372086524 0.0089095210105742499 0 -0.00046387882373950036 0.0089562140583607855 0 -0.0004625235372086524 0.0089095210105742499 0 -0.00046387882373950036 0.0089562140583607855 0 -0.0004535645022851392 0.0089208838809400181 0 -0.00048027095474167166 0.0089773274481082087 0 -0.00047337468491544449 0.0089393407629072361 0 -0.00046387882373950036 0.0089562140583607855 0 -0.00046387882373950036 0.0089562140583607855 0 -0.00045538401699010873 0.0089703096208188435 0 -0.000447199434362517 0.0089317919897528523 0 -0.00046387882373950036 0.0089562140583607855 0 -0.00045538401699010873 0.0089703096208188435 0 -0.00046811665819576653 0.0090085499929993783 0 -0.00046387882373950036 0.0089562140583607855 0 -0.0004535645022851392 0.0089208838809400181 0 -0.000447199434362517 0.0089317919897528523 0 -0.00043918246290192039 0.0089045734198129525 0 -0.0004535645022851392 0.0089208838809400181 0 -0.000447199434362517 0.0089317919897528523 0 -0.00044781858228822041 0.0088950526511981966 0 -0.00043918246290192039 0.0089045734198129525 0 -0.0004535645022851392 0.0089208838809400181 0 -0.00044781858228822041 0.0088950526511981966 0 -0.0004625235372086524 0.0089095210105742499 0 -0.0004535645022851392 0.0089208838809400181 0 -0.00048783324902170665 0.0090333671299625481 0 -0.00047687297129213313 0.0090797936369732719 0 -0.00049789011066075656 0.0090940684500632127 0 -0.00048783324902170665 0.0090333671299625481 0 -0.00046811665819576653 0.0090085499929993783 0 -0.00047687297129213313 0.0090797936369732719 0 -0.00048783324902170665 0.0090333671299625481 0 -0.00048027095474167166 0.0089773274481082087 0 -0.00046811665819576653 0.0090085499929993783 0 -0.00048027095474167166 0.0089773274481082087 0 -0.00046387882373950036 0.0089562140583607855 0 -0.00046811665819576653 0.0090085499929993783 0 -0.00045724948559614718 0.0090483496030469117 0 -0.00045315252926645468 0.0089962128282361671 0 -0.00046811665819576653 0.0090085499929993783 0 -0.00045315252926645468 0.0089962128282361671 0 -0.00045538401699010873 0.0089703096208188435 0 -0.00046811665819576653 0.0090085499929993783 0 -0.00045724948559614718 0.0090483496030469117 0 -0.00046811665819576653 0.0090085499929993783 0 -0.00047687297129213313 0.0090797936369732719 0 -0.00046590689748585439 0.0091279723824617565 0 -0.00047687297129213313 0.0090797936369732719 0 -0.00048950125081093901 0.0091557706707919122 0 -0.00045724948559614718 0.0090483496030469117 0 -0.00046590689748585439 0.0091279723824617565 0 -0.00047687297129213313 0.0090797936369732719 0 -0.00047687297129213313 0.0090797936369732719 0 -0.00048950125081093901 0.0091557706707919122 0 -0.00049789011066075656 0.0090940684500632127 0 -0.00048950125081093901 0.0091557706707919122 0 -0.00049397703739555263 0.0092393423317055547 0 -0.00050404912240655149 0.0091511572907452404 0 -0.00046590689748585439 0.0091279723824617565 0 -0.00048950125081093901 0.0091557706707919122 0 -0.00048281393420886257 0.009219339524846654 0 -0.00048281393420886257 0.009219339524846654 0 -0.00048128924510450286 0.0093471845646103061 0 -0.00049397703739555263 0.0092393423317055547 0 -0.00047536200102378648 0.0093682993649471524 0 -0.00048128924510450286 0.0093471845646103061 0 -0.00049397703739555263 0.0092393423317055547 0 -0.00048950125081093901 0.0091557706707919122 0 -0.00048281393420886257 0.009219339524846654 0 -0.00049397703739555263 0.0092393423317055547 0 -0.00049397703739555263 0.0092393423317055547 0 -0.00050074126389059283 0.0091861734548889917 0 -0.00050404912240655149 0.0091511572907452404 0 -0.00047536200102378648 0.0093682993649471524 0 -0.00049397703739555263 0.0092393423317055547 0 -0.00048658775082147343 0.0092544767410827448 0 -0.00049397703739555263 0.0092393423317055547 0 -0.00048658775082147343 0.0092544767410827448 0 -0.00050074126389059283 0.0091861734548889917 0 -0.00045929995272994353 0.0093026410714073717 0 -0.00048658775082147343 0.0092544767410827448 0 -0.00047981438412058344 0.0091949839623682653 0 -0.00048658775082147343 0.0092544767410827448 0 -0.00047981438412058344 0.0091949839623682653 0 -0.00050074126389059283 0.0091861734548889917 0 -0.00050316639997252004 0.0091335122885412064 0 -0.00050074126389059283 0.0091861734548889917 0 -0.0005125960694423279 0.009124311076674033 0 -0.00050074126389059283 0.0091861734548889917 0 -0.0005125960694423279 0.009124311076674033 0 -0.00050404912240655149 0.0091511572907452404 0 -0.00050316639997252004 0.0091335122885412064 0 -0.00047981438412058344 0.0091949839623682653 0 -0.00050074126389059283 0.0091861734548889917 0 -0.0005125960694423279 0.009124311076674033 0 -0.00051250529874394572 0.0090889825402495281 0 -0.00050404912240655149 0.0091511572907452404 0 -0.00052229735702383076 0.0090753628515670218 0 -0.0005125960694423279 0.009124311076674033 0 -0.00051250529874394572 0.0090889825402495281 0 -0.00052229735702383076 0.0090753628515670218 0 -0.00051944435585492635 0.0090414930707252185 0 -0.00051250529874394572 0.0090889825402495281 0 -0.00051944435585492635 0.0090414930707252185 0 -0.0005057350506782834 0.0090433050319600507 0 -0.00051250529874394572 0.0090889825402495281 0 -0.0005057350506782834 0.0090433050319600507 0 -0.00051250529874394572 0.0090889825402495281 0 -0.00049789011066075656 0.0090940684500632127 0 -0.00051250529874394572 0.0090889825402495281 0 -0.00049789011066075656 0.0090940684500632127 0 -0.00050404912240655149 0.0091511572907452404 0 -0.00048950125081093901 0.0091557706707919122 0 -0.00049789011066075656 0.0090940684500632127 0 -0.00050404912240655149 0.0091511572907452404 0 3.5799465957693248e-09 0.01499987549634596 0 2.0082928408386219e-05 0.014828928878153597 0 1.4721847832999607e-08 0.014999835902003428 0 -6.9217326912436075e-08 0.014999854345643335 0 -6.1795023756205689e-05 0.014695908468183493 0 2.0082928408386219e-05 0.014828928878153597 0 4.4143427220045345e-05 0.014922887750662793 0 1.4721847832999607e-08 0.014999835902003428 0 2.0082928408386219e-05 0.014828928878153597 0 0.00010428963581708998 0.014847062352918508 0 4.4143427220045345e-05 0.014922887750662793 0 -0.00011566650965203982 0.014550989933476642 0 -0.00012285637726557034 0.014370464618391711 0 -4.7142073010345217e-05 0.01399226117897857 0 -2.3549998798510468e-07 0.014998598307022456 0 -0.00011566650965203982 0.014550989933476642 0 -0.00012285637726557034 0.014370464618391711 0 -5.9198066544199875e-08 0.014999221957371878 0 -0.00012285637726557034 0.014370464618391711 0 -1.7732519618521609e-07 0.013556695685136646 0 -2.3549998798510468e-07 0.014998598307022456 0 -5.9198066544199875e-08 0.014999221957371878 0 -0.00012285637726557034 0.014370464618391711 0 -0.00012285637726557034 0.014370464618391711 0 2.5960516642086102e-05 0.013199056300544151 0 -4.7142073010345217e-05 0.01399226117897857 0 -0.00012460197070819683 0.014183515082263799 0 5.2078841647413511e-05 0.013591570146775481 0 -0.00012285637726557034 0.014370464618391711 0 1.0540347029570799e-05 0.013927627760791678 0 -1.7732519618521609e-07 0.013556695685136646 0 2.5960516642086102e-05 0.013199056300544151 0 0.00022814587307947674 0.013516916026285318 0 -4.7142073010345217e-05 0.01399226117897857 0 5.2078841647413511e-05 0.013591570146775481 0 0.00030244982134347185 0.012928846114919533 0 1.0540347029570799e-05 0.013927627760791678 0 -1.7732519618521609e-07 0.013556695685136646 0 3.5191303965984445e-05 0.013331739962094772 0 2.5960516642086102e-05 0.013199056300544151 0 0.0004603385579107512 0.012974944007158784 0 0.00068438377626501375 0.012498901714334135 0 2.5960516642086102e-05 0.013199056300544151 0 0.0004603385579107512 0.012974944007158784 0 0.00022814587307947674 0.013516916026285318 0 0.0004603385579107512 0.012974944007158784 0 0.00022814587307947674 0.013516916026285318 0 0.00046816166148046251 0.013392893755681987 0 0.00026873506885892332 0.01395959577934637 0 -6.4592456723348283e-06 0.014257530251857897 0 0.00067321571575008747 0.014304435304786161 0 0.00046816166148046251 0.013392893755681987 0 0.00026873506885892332 0.01395959577934637 0 0.00061932411428527328 0.013696583554779651 0 0.00026873506885892332 0.01395959577934637 0 0.00067321571575008747 0.014304435304786161 0 0.00061932411428527328 0.013696583554779651 0 0.00022814587307947674 0.013516916026285318 0 0.00046816166148046251 0.013392893755681987 0 0.00026873506885892332 0.01395959577934637 0 0.00022814587307947674 0.013516916026285318 0 0.00026873506885892332 0.01395959577934637 0 -4.7142073010345217e-05 0.01399226117897857 0 -0.00011566650965203982 0.014550989933476642 0 -4.7142073010345217e-05 0.01399226117897857 0 -6.4592456723348283e-06 0.014257530251857897 0 0.00026873506885892332 0.01395959577934637 0 -4.7142073010345217e-05 0.01399226117897857 0 -6.4592456723348283e-06 0.014257530251857897 0 2.0082928408386219e-05 0.014828928878153597 0 0.00017821034608474882 0.014591691695200365 0 0.00010428963581708998 0.014847062352918508 0 -6.1795023756205689e-05 0.014695908468183493 0 0.00012427885188456231 0.014441905091396166 0 0.00017821034608474882 0.014591691695200365 0 0.00045690526722075335 0.014735702466241505 0 0.00010428963581708998 0.014847062352918508 0 0.00012427885188456231 0.014441905091396166 0 0.00064229003372633315 0.014326511169051228 0 0.00017821034608474882 0.014591691695200365 0 0.00045690526722075335 0.014735702466241505 0 0.00067321571575008747 0.014304435304786161 0 0.00093258320856894853 0.01268236458053469 0 0.00071283735030739921 0.012515713574075212 0 0.00057258668091296375 0.010815488600528148 0 0.0009058768988568633 0.011068145134843334 0 0.00081160420113723431 0.010483693385354896 0 0.00045690526722075335 0.014735702466241505 0 0.00067321571575008747 0.014304435304786161 0 0.00083190486284260158 0.014971259812802975 0 0.00067321571575008747 0.014304435304786161 0 0.0010007992246068797 0.014221282465220399 0 0.00083190486284260158 0.014971259812802975 0 0.00057258668091296375 0.010815488600528148 0 0.00050892107133551601 0.011157972483973939 0 0.0009058768988568633 0.011068145134843334 0 0.00057258668091296375 0.010815488600528148 0 0.00031797355930641508 0.010937747711558442 0 0.00015444094238791791 0.010647258685733499 0 0.00057258668091296375 0.010815488600528148 0 0.00031797355930641508 0.010937747711558442 0 0.00050892107133551601 0.011157972483973939 0 0.00031797355930641508 0.010937747711558442 0 0.00050892107133551601 0.011157972483973939 0 0.00015836202828273946 0.011306942805049491 0 0.00050892107133551601 0.011157972483973939 0 0.00046648165955329423 0.011628130563794081 0 0.00015836202828273946 0.011306942805049491 0 0.00093258320856894853 0.01268236458053469 0 0.00084788175513226605 0.012414353221680451 0 0.00046648165955329423 0.011628130563794081 0 0.0009058768988568633 0.011068145134843334 0 0.00081539380696064379 0.012408955687820362 0 0.0010007992246068797 0.014221282465220399 0 0.00061932411428527328 0.013696583554779651 0 0.00081539380696064379 0.012408955687820362 0 0.00050892107133551601 0.011157972483973939 0 0.00046648165955329423 0.011628130563794081 0 0.0009058768988568633 0.011068145134843334 0 0.00067321571575008747 0.014304435304786161 0 0.0010007992246068797 0.014221282465220399 0 0.00061932411428527328 0.013696583554779651 0 -1.7732519618521609e-07 0.013556695685136646 0 3.5191303965984445e-05 0.013331739962094772 0 3.5386864711953667e-07 0.012520185576158071 0 0.0004603385579107512 0.012974944007158784 0 0.00046816166148046251 0.013392893755681987 0 0.00081539380696064379 0.012408955687820362 0 0.00046816166148046251 0.013392893755681987 0 0.00061932411428527328 0.013696583554779651 0 0.00081539380696064379 0.012408955687820362 0 0.0004603385579107512 0.012974944007158784 0 0.00081539380696064379 0.012408955687820362 0 0.00068438377626501375 0.012498901714334135 0 0.00081539380696064379 0.012408955687820362 0 0.00068438377626501375 0.012498901714334135 0 1.650351162567316e-06 0.012518842681558298 0 0.00030244982134347185 0.012928846114919533 0 1.0237688273981288e-07 0.012519998605072387 0 1.650351162567316e-06 0.012518842681558298 0 0.00026484542251214294 0.011930648923047325 0 4.5134231068946311e-05 0.011679525742077449 0 0.00081539380696064379 0.012408955687820362 0 1.650351162567316e-06 0.012518842681558298 0 0.00026484542251214294 0.011930648923047325 0 0.00046648165955329423 0.011628130563794081 0 0.00081539380696064379 0.012408955687820362 0 0.00026484542251214294 0.011930648923047325 0 0.00046648165955329423 0.011628130563794081 0 0.00026484542251214294 0.011930648923047325 0 0.00015836202828273946 0.011306942805049491 0 0.00026484542251214294 0.011930648923047325 0 4.5134231068946311e-05 0.011679525742077449 0 0.00015836202828273946 0.011306942805049491 0 4.5134231068946311e-05 0.011679525742077449 0 -1.6946045204165528e-05 0.011184395040297218 0 0.00015836202828273946 0.011306942805049491 0 1.650351162567316e-06 0.012518842681558298 0 4.5134231068946311e-05 0.011679525742077449 0 -4.5011123504599212e-07 0.011636361356601147 0 4.5134231068946311e-05 0.011679525742077449 0 -4.6742309385902403e-05 0.011229857641463807 0 -4.5011123504599212e-07 0.011636361356601147 0 -6.0924248223436012e-08 0.010752914926647575 0 -4.6742309385902403e-05 0.011229857641463807 0 -4.5011123504599212e-07 0.011636361356601147 0 -9.3697749181330045e-05 0.010888852160010416 0 -1.6946045204165528e-05 0.011184395040297218 0 -5.2842044384195876e-05 0.010854179598914483 0 4.5134231068946311e-05 0.011679525742077449 0 -4.6742309385902403e-05 0.011229857641463807 0 -1.6946045204165528e-05 0.011184395040297218 0 -9.3697749181330045e-05 0.010888852160010416 0 -4.6742309385902403e-05 0.011229857641463807 0 -1.6946045204165528e-05 0.011184395040297218 0 -5.2842044384195876e-05 0.010854179598914483 0 8.5228683138568677e-06 0.010870012002297985 0 -3.227406676760781e-05 0.010655403795308056 0 -1.6946045204165528e-05 0.011184395040297218 0 -5.2842044384195876e-05 0.010854179598914483 0 8.5228683138568677e-06 0.010870012002297985 0 -1.6946045204165528e-05 0.011184395040297218 0 8.5228683138568677e-06 0.010870012002297985 0 0.00015836202828273946 0.011306942805049491 0 8.5228683138568677e-06 0.010870012002297985 0 0.00015836202828273946 0.011306942805049491 0 0.00013163395040394966 0.010889863578213813 0 0.00031797355930641508 0.010937747711558442 0 0.00015836202828273946 0.011306942805049491 0 0.00013163395040394966 0.010889863578213813 0 0.00031797355930641508 0.010937747711558442 0 0.00013163395040394966 0.010889863578213813 0 0.00015444094238791791 0.010647258685733499 0 0.00013163395040394966 0.010889863578213813 0 5.0019549474990312e-05 0.010689120579161658 0 0.00015444094238791791 0.010647258685733499 0 -3.8165373976092178e-05 0.010424184086429211 0 -3.227406676760781e-05 0.010655403795308056 0 5.0019549474990312e-05 0.010689120579161658 0 -3.8165373976092178e-05 0.010424184086429211 0 5.0019549474990312e-05 0.010689120579161658 0 0.00015444094238791791 0.010647258685733499 0 -8.2009867572604828e-05 0.010539399759893636 0 0.00038399698701012847 0.010117426384163032 0 8.5228683138568677e-06 0.010870012002297985 0 -3.227406676760781e-05 0.010655403795308056 0 5.0019549474990312e-05 0.010689120579161658 0 8.5228683138568677e-06 0.010870012002297985 0 0.00013163395040394966 0.010889863578213813 0 5.0019549474990312e-05 0.010689120579161658 0 -3.8165373976092178e-05 0.010424184086429211 0 0.00018003117261511167 0.010167561477912939 0 0.00046813727009694712 0.010267692158037182 0 1.0584657720010744e-05 0.010089728260400058 0 0.00018003117261511167 0.010167561477912939 0 0.00014580720067432408 0.0099056087896496215 0 -5.721212002467212e-05 0.010318912316977074 0 1.0584657720010744e-05 0.010089728260400058 0 0.00018003117261511167 0.010167561477912939 0 0.00046813727009694712 0.010267692158037182 0 0.00040759885987605524 0.0098891618062543884 0 0.00068603751827477544 0.010008931270601063 0 0.00018003117261511167 0.010167561477912939 0 0.00046813727009694712 0.010267692158037182 0 0.00040759885987605524 0.0098891618062543884 0 0.00018003117261511167 0.010167561477912939 0 0.00040759885987605524 0.0098891618062543884 0 0.00014580720067432408 0.0099056087896496215 0 0.00040759885987605524 0.0098891618062543884 0 0.00014580720067432408 0.0099056087896496215 0 0.00015094132582181322 0.0096554874316185681 0 1.0584657720010744e-05 0.010089728260400058 0 -3.161913649087198e-05 0.0097833290506560908 0 0.00014580720067432408 0.0099056087896496215 0 -3.161913649087198e-05 0.0097833290506560908 0 0.00014580720067432408 0.0099056087896496215 0 0.00015094132582181322 0.0096554874316185681 0 0.00015094132582181322 0.0096554874316185681 0 6.9006984690380975e-05 0.0093399031017955669 0 0.0005042369864618364 0.0094690664217885641 0 -0.00043479529204432614 0.0093986124881416597 0 -0.00031956484611823498 0.0091287793864680278 0 -0.0010483558191715235 0.009416420483732018 0 -0.0010643623169421445 0.0094533816180328613 0 -0.0010268368268673324 0.0094393106878356385 0 -0.00098016449199326444 0.0093741390144020751 0 -0.0010483558191715235 0.009416420483732018 0 -0.0010268368268673324 0.0094393106878356385 0 0.00040759885987605524 0.0098891618062543884 0 0.0005042369864618364 0.0094690664217885641 0 0.00069096080700358582 0.0097824266220522017 0 0.00040759885987605524 0.0098891618062543884 0 0.00015094132582181322 0.0096554874316185681 0 0.0005042369864618364 0.0094690664217885641 0 0.0005042369864618364 0.0094690664217885641 0 0.00092604271055545255 0.0096087561702851657 0 0.00069096080700358582 0.0097824266220522017 0 -0.00031956484611823498 0.0091287793864680278 0 -0.00013861343410041251 0.012088341487064216 0 -0.0010483558191715235 0.009416420483732018 0 -0.0010768418265603675 0.00944865959448026 0 -0.0010643623169421445 0.0094533816180328613 0 -0.0010483558191715235 0.009416420483732018 0 -0.0010768418265603675 0.00944865959448026 0 -0.0010834124909298857 0.0094505911410726375 0 -0.00013861343410041251 0.012088341487064216 0 -0.00071660239725728078 0.011941698535901884 0 -1.5363173827843553e-05 0.014581406157801092 0 -1.2192062666503613e-05 0.014771477448655351 0 -0.0002329439168495024 0.014387904956316261 0 -1.2192062666503613e-05 0.014771477448655351 0 -0.00010545829706322938 0.01493241565370595 0 -0.0002329439168495024 0.014387904956316261 0 -0.0010768418265603675 0.00944865959448026 0 -0.0010834124909298857 0.0094505911410726375 0 -0.0011053325721003535 0.0094774134458332718 0 8.6271346488760888e-05 0.014898241706263721 0 0.00010413075276232502 0.014898063789646993 0 7.9141816405645568e-05 0.014908762215581534 0 -0.00013861343410041251 0.012088341487064216 0 0.00052004889410205146 0.012437165336459341 0 -0.00013861343410041251 0.012088341487064216 0 0.00036598447022081197 0.013734662738087582 0 -1.2192062666503613e-05 0.014771477448655351 0 -0.00010545829706322938 0.01493241565370595 0 7.9141816405645568e-05 0.014908762215581534 0 0.00092604271055545255 0.0096087561702851657 0 0.00092992941799372938 0.0099039879306860191 0 0.00069096080700358582 0.0097824266220522017 0 0.00052004889410205146 0.012437165336459341 0 0.00071283735030739921 0.012515713574075212 0 0.00010413075276232502 0.014898063789646993 0 0.00011381548925262952 0.014930987988670499 0 0.0001284367516586006 0.014909313225826755 0 0.00010413075276232502 0.014898063789646993 0 0.0001284367516586006 0.014909313225826755 0 7.9141816405645568e-05 0.014908762215581534 0 0.00092992941799372938 0.0099039879306860191 0 0.00068603751827477544 0.010008931270601063 0 0.00092976198827402195 0.010196224463349677 0 0.00040759885987605524 0.0098891618062543884 0 0.00069096080700358582 0.0097824266220522017 0 0.00068603751827477544 0.010008931270601063 0 0.00092992941799372938 0.0099039879306860191 0 0.00069096080700358582 0.0097824266220522017 0 0.00068603751827477544 0.010008931270601063 0 0.00046813727009694712 0.010267692158037182 0 0.00068603751827477544 0.010008931270601063 0 0.00092976198827402195 0.010196224463349677 0 0.00057258668091296375 0.010815488600528148 0 0.00015444094238791791 0.010647258685733499 0 0.00081160420113723431 0.010483693385354896 0 0.00038399698701012847 0.010117426384163032 0 0.00071283735030739921 0.012515713574075212 0 0.00071283735030739921 0.012515713574075212 0 3.5763931372350449e-05 0.015373784771907515 0 0.00045690526722075335 0.014735702466241505 0 0.00083190486284260158 0.014971259812802975 0 0.0002037962870727787 0.014945074234097019 0 0.00011381548925262952 0.014930987988670499 0 0.0002037962870727787 0.014945074234097019 0 0.0001284367516586006 0.014909313225826755 0 0.00045690526722075335 0.014735702466241505 0 0.0002037962870727787 0.014945074234097019 0 0.00010428963581708998 0.014847062352918508 0 0.0002037962870727787 0.014945074234097019 0 0.00010428963581708998 0.014847062352918508 0 9.430155734712298e-05 0.014933514541432475 0 0.0002037962870727787 0.014945074234097019 0 0.00012847356320776356 0.014917634201951309 0 9.430155734712298e-05 0.014933514541432475 0 0.0002037962870727787 0.014945074234097019 0 0.00012847356320776356 0.014917634201951309 0 0.0001284367516586006 0.014909313225826755 0 0.0001284367516586006 0.014909313225826755 0 0.00012336616492995175 0.014893505332194849 0 7.9141816405645568e-05 0.014908762215581534 0 0.00012847356320776356 0.014917634201951309 0 0.0001284367516586006 0.014909313225826755 0 0.00012336616492995175 0.014893505332194849 0 0.00012336616492995175 0.014893505332194849 0 7.9141816405645568e-05 0.014908762215581534 0 0.00012851696245225666 0.014825487737957272 0 -1.2192062666503613e-05 0.014771477448655351 0 7.9141816405645568e-05 0.014908762215581534 0 0.00012851696245225666 0.014825487737957272 0 -1.5363173827843553e-05 0.014581406157801092 0 -1.2192062666503613e-05 0.014771477448655351 0 0.00012851696245225666 0.014825487737957272 0 0.00012851696245225666 0.014825487737957272 0 0.00010129798184803315 0.0149002148021501 0 6.5820059755472478e-05 0.014935622890625425 0 5.9589291689329322e-05 0.014940730267166902 0 6.8784865800156758e-05 0.014940838482726407 0 0.00012336616492995175 0.014893505332194849 0 0.00012851696245225666 0.014825487737957272 0 0.00010129798184803315 0.0149002148021501 0 0.00012847356320776356 0.014917634201951309 0 0.00012336616492995175 0.014893505332194849 0 0.00010129798184803315 0.0149002148021501 0 0.00012847356320776356 0.014917634201951309 0 0.00010129798184803315 0.0149002148021501 0 9.430155734712298e-05 0.014933514541432475 0 1.9320226368306239e-05 0.014973171255485749 0 6.8356985137607318e-06 0.014989996431591733 0 2.3713673538817485e-06 0.014997079469605936 0 5.9589291689329322e-05 0.014940730267166902 0 3.2271600664441597e-05 0.014963083314917108 0 1.9320226368306239e-05 0.014973171255485749 0 1.0640937008191248e-08 0.014999969819849362 0 1.7232665003441728e-05 0.014978571234065674 0 1.9320226368306239e-05 0.014973171255485749 0 1.0640937008191248e-08 0.014999969819849362 0 6.8356985137607318e-06 0.014989996431591733 0 1.0640937008191248e-08 0.014999969819849362 0 6.8356985137607318e-06 0.014989996431591733 0 8.5364907431489307e-09 0.014999985642330887 0 6.8356985137607318e-06 0.014989996431591733 0 8.5364907431489307e-09 0.014999985642330887 0 2.3713673538817485e-06 0.014997079469605936 0 8.5364907431489307e-09 0.014999985642330887 0 2.3713673538817485e-06 0.014997079469605936 0 -3.5365356869251098e-09 0.015000003690637469 0 6.7927227559403804e-05 0.014935823788969727 0 9.430155734712298e-05 0.014933514541432475 0 4.4143427220045345e-05 0.014922887750662793 0 0.00010129798184803315 0.0149002148021501 0 6.7927227559403804e-05 0.014935823788969727 0 9.430155734712298e-05 0.014933514541432475 0 0.00010428963581708998 0.014847062352918508 0 9.430155734712298e-05 0.014933514541432475 0 4.4143427220045345e-05 0.014922887750662793 0 3.2271600664441597e-05 0.014963083314917108 0 6.414470215242643e-09 0.014999975468397101 0 6.7927227559403804e-05 0.014935823788969727 0 4.4143427220045345e-05 0.014922887750662793 0 1.4721847832999607e-08 0.014999835902003428 0 -2.5791900518821838e-09 0.014988749452368631 0 7.5760391906063206e-06 0.014988008607649855 0 1.4083952224126235e-08 0.014999972371614392 0 7.5760391906063206e-06 0.014988008607649855 0 3.076666231131952e-05 0.014974083754839877 0 1.4083952224126235e-08 0.014999972371614392 0 -2.5791900518821838e-09 0.014988749452368631 0 7.5760391906063206e-06 0.014988008607649855 0 3.076666231131952e-05 0.014974083754839877 0 3.8673249759275145e-05 0.014970232089138219 0 5.886768751899731e-05 0.014964876006144646 0 8.5207720632943292e-05 0.014955843925373366 0 8.2262019423729301e-05 0.014955936455727311 0 8.1509398008137375e-05 0.0149534551340797 0 8.2262019423729301e-05 0.014955936455727311 0 8.1509398008137375e-05 0.0149534551340797 0 8.0141036975216146e-05 0.014956133708552678 0 8.2262019423729301e-05 0.014955936455727311 0 8.2435829862493915e-05 0.014958388461410553 0 8.0141036975216146e-05 0.014956133708552678 0 8.5207720632943292e-05 0.014955843925373366 0 8.2262019423729301e-05 0.014955936455727311 0 8.2435829862493915e-05 0.014958388461410553 0 3.8673249759275145e-05 0.014970232089138219 0 5.3786763578995189e-05 0.014979308121750998 0 6.4411802437169567e-10 0.014988798198454624 0 2.0735742393691726e-05 0.015002401391616495 0 5.4347274283957675e-06 0.014996888902865642 0 6.4411802437169567e-10 0.014988798198454624 0 5.4347274283957675e-06 0.014996888902865642 0 1.1169607733226671e-08 0.014999970915344911 0 5.4347274283957675e-06 0.014996888902865642 0 1.1169607733226671e-08 0.014999970915344911 0 1.7232665003441728e-05 0.014978571234065674 0 1.0640937008191248e-08 0.014999969819849362 0 1.1169607733226671e-08 0.014999970915344911 0 1.7232665003441728e-05 0.014978571234065674 0 1.9320226368306239e-05 0.014973171255485749 0 1.7232665003441728e-05 0.014978571234065674 0 6.5820059755472478e-05 0.014935622890625425 0 2.0735742393691726e-05 0.015002401391616495 0 5.4347274283957675e-06 0.014996888902865642 0 1.7232665003441728e-05 0.014978571234065674 0 2.0735742393691726e-05 0.015002401391616495 0 1.7232665003441728e-05 0.014978571234065674 0 4.6471978814125234e-05 0.014971361614777155 0 5.3786763578995189e-05 0.014979308121750998 0 8.4844308446226598e-05 0.014966526290919147 0 8.2435829862493915e-05 0.014958388461410553 0 8.8112922587067072e-05 0.014965709883611159 0 8.3207882237173905e-05 0.014960146936340646 0 2.0735742393691726e-05 0.015002401391616495 0 4.6471978814125234e-05 0.014971361614777155 0 8.8112922587067072e-05 0.014965709883611159 0 1.7232665003441728e-05 0.014978571234065674 0 4.6471978814125234e-05 0.014971361614777155 0 6.5820059755472478e-05 0.014935622890625425 0 4.6471978814125234e-05 0.014971361614777155 0 6.5820059755472478e-05 0.014935622890625425 0 8.8112922587067072e-05 0.014965709883611159 0 0.00012851696245225666 0.014825487737957272 0 6.5820059755472478e-05 0.014935622890625425 0 0.00010920956130442186 0.014955350909909296 0 0.00013676335977951464 0.0148006443035318 0 0.00015210789091514153 0.014552021912845254 0 -1.5363173827843553e-05 0.014581406157801092 0 0.00012851696245225666 0.014825487737957272 0 0.00020817344488982783 0.01415630074941957 0 6.5820059755472478e-05 0.014935622890625425 0 0.00010920956130442186 0.014955350909909296 0 8.8112922587067072e-05 0.014965709883611159 0 0.00020817344488982783 0.01415630074941957 0 0.00018827655648257437 0.013404767470224874 0 -0.00027443382234029821 0.013548784118969193 0 0.00015210789091514153 0.014552021912845254 0 0.00013276892946476087 0.014184657550906105 0 0.00010920956130442186 0.014955350909909296 0 8.8112922587067072e-05 0.014965709883611159 0 7.9937312425739458e-05 0.014960002601287511 0 8.8112922587067072e-05 0.014965709883611159 0 7.9937312425739458e-05 0.014960002601287511 0 8.3207882237173905e-05 0.014960146936340646 0 8.2435829862493915e-05 0.014958388461410553 0 8.3207882237173905e-05 0.014960146936340646 0 8.0141036975216146e-05 0.014956133708552678 0 7.9937312425739458e-05 0.014960002601287511 0 8.3207882237173905e-05 0.014960146936340646 0 8.0141036975216146e-05 0.014956133708552678 0 8.1509398008137375e-05 0.0149534551340797 0 8.0141036975216146e-05 0.014956133708552678 0 7.5365280091191337e-05 0.014953080453260967 0 0.00013276892946476087 0.014184657550906105 0 0.00014517740489860211 0.013817008615191024 0 7.5365280091191337e-05 0.014953080453260967 0 7.519084629818289e-05 0.014947422201203282 0 6.9817913283823458e-05 0.014957011980961433 0 7.9937312425739458e-05 0.014960002601287511 0 8.0141036975216146e-05 0.014956133708552678 0 7.519084629818289e-05 0.014947422201203282 0 0.00018827655648257437 0.013404767470224874 0 0.00015501899504826984 0.012697467806591508 0 -2.3533180928696788e-05 0.013066615847293093 0 8.0141036975216146e-05 0.014956133708552678 0 7.5365280091191337e-05 0.014953080453260967 0 7.519084629818289e-05 0.014947422201203282 0 0.00015501899504826984 0.012697467806591508 0 -0.0002756625388980665 0.01274837910890547 0 -2.3533180928696788e-05 0.013066615847293093 0 0.00015501899504826984 0.012697467806591508 0 -0.0002756625388980665 0.01274837910890547 0 -6.6206502967115503e-05 0.012371077568025687 0 -0.0010952078174909336 0.0096305617498411798 0 -0.0010406751771726414 0.0096599449626505428 0 -0.0011045167155398314 0.0096819032371599553 0 -0.0011582672761746302 0.0096472746764765648 0 -0.0010952078174909336 0.0096305617498411798 0 -0.0011121091918967598 0.0095870375886290774 0 -0.0011582672761746302 0.0096472746764765648 0 -0.0010952078174909336 0.0096305617498411798 0 -0.0011045167155398314 0.0096819032371599553 0 -0.0010952078174909336 0.0096305617498411798 0 -0.0011121091918967598 0.0095870375886290774 0 -0.0010680873698712442 0.0095782394578062795 0 -0.0011121091918967598 0.0095870375886290774 0 -0.0010887919753195276 0.0095398716005843341 0 -0.0011356513683696532 0.0095470109586066696 0 -0.0011121091918967598 0.0095870375886290774 0 -0.0010887919753195276 0.0095398716005843341 0 -0.0010680873698712442 0.0095782394578062795 0 -0.0002756625388980665 0.01274837910890547 0 -0.00027443382234029821 0.013548784118969193 0 -2.3533180928696788e-05 0.013066615847293093 0 -0.0011582672761746302 0.0096472746764765648 0 -0.0011121091918967598 0.0095870375886290774 0 -0.0011356513683696532 0.0095470109586066696 0 -0.00071801950979679069 0.011079191847100519 0 -0.00069742876672427396 0.011572347540150097 0 0.00018827655648257437 0.013404767470224874 0 -0.00027443382234029821 0.013548784118969193 0 -2.3533180928696788e-05 0.013066615847293093 0 -0.0011356513683696532 0.0095470109586066696 0 -0.0011053325721003535 0.0094774134458332718 0 -0.0010771108831602466 0.0094923060216153057 0 -0.00069742876672427396 0.011572347540150097 0 -0.00071660239725728078 0.011941698535901884 0 0.00020817344488982783 0.01415630074941957 0 -0.00027443382234029821 0.013548784118969193 0 -0.0002329439168495024 0.014387904956316261 0 -1.5363173827843553e-05 0.014581406157801092 0 0.00020817344488982783 0.01415630074941957 0 -0.0002329439168495024 0.014387904956316261 0 -0.0010768418265603675 0.00944865959448026 0 -0.0011053325721003535 0.0094774134458332718 0 -0.0010643623169421445 0.0094533816180328613 0 -0.0011053325721003535 0.0094774134458332718 0 -0.0010643623169421445 0.0094533816180328613 0 -0.0010771108831602466 0.0094923060216153057 0 -0.0010887919753195276 0.0095398716005843341 0 -0.0010771108831602466 0.0094923060216153057 0 -0.0010287683227062068 0.0095045745897539384 0 -0.0010887919753195276 0.0095398716005843341 0 -0.0011356513683696532 0.0095470109586066696 0 -0.0010771108831602466 0.0094923060216153057 0 -0.0010771108831602466 0.0094923060216153057 0 -0.0010287683227062068 0.0095045745897539384 0 -0.0010268368268673324 0.0094393106878356385 0 -0.0010643623169421445 0.0094533816180328613 0 -0.0010771108831602466 0.0094923060216153057 0 -0.0010268368268673324 0.0094393106878356385 0 -0.00098016449199326444 0.0093741390144020751 0 -0.0010268368268673324 0.0094393106878356385 0 -0.0009589305310590151 0.0094356806521334428 0 -0.0010287683227062068 0.0095045745897539384 0 -0.0009742874436419499 0.0095155217543795179 0 -0.0009589305310590151 0.0094356806521334428 0 -0.0010287683227062068 0.0095045745897539384 0 -0.0010268368268673324 0.0094393106878356385 0 -0.0009589305310590151 0.0094356806521334428 0 -0.0010287683227062068 0.0095045745897539384 0 -0.0009742874436419499 0.0095155217543795179 0 -0.0010084018789969366 0.0095775193935516544 0 -0.0010887919753195276 0.0095398716005843341 0 -0.0010287683227062068 0.0095045745897539384 0 -0.0010680873698712442 0.0095782394578062795 0 -0.0010287683227062068 0.0095045745897539384 0 -0.0010680873698712442 0.0095782394578062795 0 -0.0010084018789969366 0.0095775193935516544 0 -0.0010680873698712442 0.0095782394578062795 0 -0.0010084018789969366 0.0095775193935516544 0 -0.0010406751771726414 0.0096599449626505428 0 -0.0010952078174909336 0.0096305617498411798 0 -0.0010680873698712442 0.0095782394578062795 0 -0.0010406751771726414 0.0096599449626505428 0 -0.0010084018789969366 0.0095775193935516544 0 -0.00098390837757210674 0.0096582390532596075 0 -0.0010406751771726414 0.0096599449626505428 0 -0.0009742874436419499 0.0095155217543795179 0 -0.0010084018789969366 0.0095775193935516544 0 -0.00094054901252161737 0.0095877279679125373 0 -0.0010084018789969366 0.0095775193935516544 0 -0.00098390837757210674 0.0096582390532596075 0 -0.00094054901252161737 0.0095877279679125373 0 -0.00098390837757210674 0.0096582390532596075 0 -0.00098179041490485067 0.0097463656515580713 0 -0.00087604918036103205 0.0097319380696473563 0 -0.00098390837757210674 0.0096582390532596075 0 -0.0010406751771726414 0.0096599449626505428 0 -0.00098179041490485067 0.0097463656515580713 0 -0.0010518557722501479 0.0093730541894549782 0 -0.0008476400734624181 0.010728536956687159 0 -0.0010406751771726414 0.0096599449626505428 0 -0.0010746290210598732 0.0097796654776777688 0 -0.00098179041490485067 0.0097463656515580713 0 -0.0010406751771726414 0.0096599449626505428 0 -0.0010746290210598732 0.0097796654776777688 0 -0.0011494469339982383 0.0097815364906193442 0 -0.00058104404431545155 0.011637880211176893 0 -0.00056491365743505388 0.011304691766255202 0 -0.0002167483215129381 0.012875743444152496 0 -0.00017817497945899768 0.012932736878492185 0 -0.00012371618320953002 0.01289205821312062 0 -0.0002167483215129381 0.012875743444152496 0 -0.00023687708093493397 0.01286648017852879 0 -0.00012371618320953002 0.01289205821312062 0 -0.00043363104292768872 0.011783814575678973 0 -0.00058104404431545155 0.011637880211176893 0 -0.00023363865549608134 0.012911431528271745 0 -0.00023455621373963658 0.012958027585985635 0 -0.00030499815309254213 0.012918849758781161 0 -0.00024392454934412517 0.012865306799551829 0 -0.00023363865549608134 0.012911431528271745 0 -0.00030499815309254213 0.012918849758781161 0 -0.0002167483215129381 0.012875743444152496 0 -0.00024392454934412517 0.012865306799551829 0 -0.00023363865549608134 0.012911431528271745 0 -0.00023363865549608134 0.012911431528271745 0 -0.00017817497945899768 0.012932736878492185 0 -0.00023455621373963658 0.012958027585985635 0 -0.0002167483215129381 0.012875743444152496 0 -0.00023363865549608134 0.012911431528271745 0 -0.00017817497945899768 0.012932736878492185 0 -0.00017817497945899768 0.012932736878492185 0 -0.00012371618320953002 0.01289205821312062 0 -0.00012148040178373224 0.01298123775097507 0 -0.00012371618320953002 0.01289205821312062 0 -0.00012148040178373224 0.01298123775097507 0 -6.273001289636417e-05 0.01296771757780575 0 -0.00017817497945899768 0.012932736878492185 0 -0.00012148040178373224 0.01298123775097507 0 -0.00018575306044823085 0.013003078898740221 0 -0.00012148040178373224 0.01298123775097507 0 -0.00013786641715628 0.013062255443238142 0 -0.00018575306044823085 0.013003078898740221 0 -0.00012148040178373224 0.01298123775097507 0 -0.00013786641715628 0.013062255443238142 0 -6.6759056130943442e-05 0.013041808370439178 0 -0.00013786641715628 0.013062255443238142 0 -6.6759056130943442e-05 0.013041808370439178 0 -8.2570613390213097e-05 0.013144627159860717 0 -0.00013786641715628 0.013062255443238142 0 -0.00018413516218689641 0.013150023754968718 0 -8.2570613390213097e-05 0.013144627159860717 0 -0.00018413516218689641 0.013150023754968718 0 -0.0003244359587261553 0.013103011355929787 0 -0.00025808293615135812 0.013266782753023757 0 -0.00018413516218689641 0.013150023754968718 0 -0.00022175652522035208 0.013062189144096549 0 -0.0003244359587261553 0.013103011355929787 0 -0.00013786641715628 0.013062255443238142 0 -0.00018413516218689641 0.013150023754968718 0 -0.00022175652522035208 0.013062189144096549 0 -0.00013786641715628 0.013062255443238142 0 -0.00022175652522035208 0.013062189144096549 0 -0.00018575306044823085 0.013003078898740221 0 -0.00022175652522035208 0.013062189144096549 0 -0.0002677611745233163 0.013005284997329229 0 -0.0003244359587261553 0.013103011355929787 0 -0.0002677611745233163 0.013005284997329229 0 -0.00018575306044823085 0.013003078898740221 0 -0.00023455621373963658 0.012958027585985635 0 -0.00022175652522035208 0.013062189144096549 0 -0.0002677611745233163 0.013005284997329229 0 -0.00018575306044823085 0.013003078898740221 0 -0.00017817497945899768 0.012932736878492185 0 -0.00018575306044823085 0.013003078898740221 0 -0.00023455621373963658 0.012958027585985635 0 -0.0002677611745233163 0.013005284997329229 0 -0.00023455621373963658 0.012958027585985635 0 -0.00030499815309254213 0.012918849758781161 0 -0.0002677611745233163 0.013005284997329229 0 -0.00035297624206264159 0.012993542384969305 0 -0.00030499815309254213 0.012918849758781161 0 -0.00039473587120524066 0.012943559805805272 0 -0.00035297624206264159 0.012993542384969305 0 -0.00030499815309254213 0.012918849758781161 0 -0.0004148511792492605 0.01303541321839433 0 -0.00035297624206264159 0.012993542384969305 0 -0.0003244359587261553 0.013103011355929787 0 -0.00039473587120524066 0.012943559805805272 0 -0.0004148511792492605 0.01303541321839433 0 -0.00035297624206264159 0.012993542384969305 0 -0.0002677611745233163 0.013005284997329229 0 -0.00035297624206264159 0.012993542384969305 0 -0.0003244359587261553 0.013103011355929787 0 -0.0003244359587261553 0.013103011355929787 0 -0.00049887255677595567 0.013117027995315379 0 -0.00039339988084834035 0.013249003160009494 0 -0.0004148511792492605 0.01303541321839433 0 -0.0003244359587261553 0.013103011355929787 0 -0.00049887255677595567 0.013117027995315379 0 -0.00047146168561116924 0.013533937734385769 0 -0.00053502035688530905 0.013485973617503713 0 -0.00054395278950251924 0.013613776563213513 0 -0.00047146168561116924 0.013533937734385769 0 -0.00053502035688530905 0.013485973617503713 0 -0.00051445797081793858 0.01342019811158481 0 -0.00048160706010392222 0.013352045638846888 0 -0.00054667310422252429 0.013035972705354207 0 -0.00051445797081793858 0.01342019811158481 0 -0.00054188789322971872 0.013404073143289731 0 -0.00047682255505383347 0.013338139666102236 0 -0.00047146168561116924 0.013533937734385769 0 -0.00051445797081793858 0.01342019811158481 0 -0.00047682255505383347 0.013338139666102236 0 -0.0004148511792492605 0.01303541321839433 0 -0.00049887255677595567 0.013117027995315379 0 -0.00047020465318148947 0.012942683385791812 0 -0.00053502035688530905 0.013485973617503713 0 -0.00051445797081793858 0.01342019811158481 0 -0.00054294875453857422 0.013404215329053707 0 -0.00053676989288601457 0.013655271464932568 0 -0.00049349975571253216 0.01371340808715063 0 -0.00039473587120524066 0.012943559805805272 0 -0.0004148511792492605 0.01303541321839433 0 -0.00047020465318148947 0.012942683385791812 0 -0.00056085675197339933 0.013384385364126374 0 -0.00038860627233104432 0.013213265967243114 0 -0.00055239114673339958 0.013206913287976751 0 -0.00049349975571253216 0.01371340808715063 0 -0.00054667310422252429 0.013035972705354207 0 -0.00038860627233104432 0.013213265967243114 0 -0.00055239114673339958 0.013206913287976751 0 -0.00038966375211374688 0.013040060546811073 0 -0.00063776365608482488 0.012527654366074498 0 -0.00063862995423825529 0.012994930857740148 0 -0.00055239114673339958 0.013206913287976751 0 -0.00038966375211374688 0.013040060546811073 0 -0.00070398498037837684 0.013107717202371624 0 -0.00055396550530321627 0.012967070077251034 0 -0.00039392192401933537 0.013033443658373556 0 -0.00070398498037837684 0.013107717202371624 0 -0.00055396550530321627 0.012967070077251034 0 -0.00039452895943970482 0.012869086068308864 0 -0.00039392192401933537 0.013033443658373556 0 -0.00055396550530321627 0.012967070077251034 0 -0.00039452895943970482 0.012869086068308864 0 -0.00072429214230033013 0.01285829264489609 0 -0.00071208937804226086 0.011440676251778947 0 -0.00024684705339810795 0.013537934648301962 0 -0.00027660887313614381 0.012007783990172608 0 -6.6206502967115503e-05 0.012371077568025687 0 0.00013196414347537591 0.012034812954969004 0 -0.00071208937804226086 0.011440676251778947 0 -0.0008476400734624181 0.010728536956687159 0 -0.0011632417561589846 0.0097687312627989988 0 -0.0011005402310923114 0.0097636027433965471 0 -0.0011321848964976219 0.0097147897704301951 0 -0.00069928528494076555 0.012655333096017751 0 -0.00070021392941224431 0.012475314862957118 0 -0.0004667432421217269 0.012424642454621994 0 -0.00063776365608482488 0.012527654366074498 0 -0.00065624637860311737 0.012049036976354958 0 -0.00071222269021053726 0.011576033896343981 0 -0.00071202388740747877 0.011592658983978099 0 -0.00069274409451037676 0.011585218572658653 0 -0.00054667310422252429 0.013035972705354207 0 -0.00065624637860311737 0.012049036976354958 0 -0.00039473587120524066 0.012943559805805272 0 -0.00047020465318148947 0.012942683385791812 0 -0.00038880484391344024 0.012872752386491892 0 -0.00071208937804226086 0.011440676251778947 0 -0.00063776365608482488 0.012527654366074498 0 -0.00054667310422252429 0.013035972705354207 0 -0.00063776365608482488 0.012527654366074498 0 -0.00024392454934412517 0.012865306799551829 0 -0.00038880484391344024 0.012872752386491892 0 -0.00030499815309254213 0.012918849758781161 0 -0.00039473587120524066 0.012943559805805272 0 -0.00038880484391344024 0.012872752386491892 0 -0.00030499815309254213 0.012918849758781161 0 -0.00058104404431545155 0.011637880211176893 0 -0.00065624637860311737 0.012049036976354958 0 -0.0005944798087566339 0.011611780965798823 0 -0.00068818749998460606 0.011634054747395969 0 -0.00066474010230811785 0.011609702541996234 0 -0.00058104404431545155 0.011637880211176893 0 -0.0008476400734624181 0.010728536956687159 0 -0.00071222269021053726 0.011576033896343981 0 -0.00069274409451037676 0.011585218572658653 0 -0.00068383725556729505 0.011573591288366771 0 -0.00065624637860311737 0.012049036976354958 0 -0.0008476400734624181 0.010728536956687159 0 -0.0011005402310923114 0.0097636027433965471 0 -0.0011045167155398314 0.0096819032371599553 0 -0.0011321848964976219 0.0097147897704301951 0 -0.0010406751771726414 0.0096599449626505428 0 -0.0011005402310923114 0.0097636027433965471 0 -0.0011045167155398314 0.0096819032371599553 0 -0.00071801950979679069 0.011079191847100519 0 -0.00071208937804226086 0.011440676251778947 0 -0.0011582672761746302 0.0096472746764765648 0 -0.0011632417561589846 0.0097687312627989988 0 -0.0011321848964976219 0.0097147897704301951 0 -0.0002756625388980665 0.01274837910890547 0 -0.00027660887313614381 0.012007783990172608 0 -6.6206502967115503e-05 0.012371077568025687 0 -0.0011582672761746302 0.0096472746764765648 0 -0.0011045167155398314 0.0096819032371599553 0 -0.0011321848964976219 0.0097147897704301951 0 7.519084629818289e-05 0.014947422201203282 0 6.9817913283823458e-05 0.014957011980961433 0 7.5114234371840877e-05 0.01496126759876088 0 0.00015501899504826984 0.012697467806591508 0 -6.6206502967115503e-05 0.012371077568025687 0 0.00013196414347537591 0.012034812954969004 0 6.9817913283823458e-05 0.014957011980961433 0 5.6559081186829583e-05 0.014976253695989723 0 7.5114234371840877e-05 0.01496126759876088 0 0.00014517740489860211 0.013817008615191024 0 -0.00024684705339810795 0.013537934648301962 0 8.1509398008137375e-05 0.0149534551340797 0 7.5365280091191337e-05 0.014953080453260967 0 6.9817913283823458e-05 0.014957011980961433 0 5.886768751899731e-05 0.014964876006144646 0 6.981011532967174e-05 0.014959316767879108 0 3.076666231131952e-05 0.014974083754839877 0 6.9817913283823458e-05 0.014957011980961433 0 5.6559081186829583e-05 0.014976253695989723 0 -4.3932671347835456e-05 0.014420583841501064 0 -4.5779510939227244e-05 0.014281303904845256 0 0.00020633298879096264 0.014438407217306869 0 4.7946158033712742e-05 0.014680813045494723 0 3.9665828278612425e-05 0.01485091588547406 0 5.0993109783501357e-06 0.014678909128311308 0 3.9665828278612425e-05 0.01485091588547406 0 -4.3932671347835456e-05 0.014420583841501064 0 -4.5779510939227244e-05 0.014281303904845256 0 -0.00029540563017573483 0.014403248582214628 0 -0.00072429214230033013 0.01285829264489609 0 -0.00070398498037837684 0.013107717202371624 0 -0.00071919454863288276 0.013289737019140555 0 -0.00024684705339810795 0.013537934648301962 0 -0.00033105502892901556 0.01411255441021457 0 -4.5779510939227244e-05 0.014281303904845256 0 -0.00029540563017573483 0.014403248582214628 0 -0.00029927536447369238 0.014127226943478694 0 4.7946158033712742e-05 0.014680813045494723 0 -0.00024684705339810795 0.013537934648301962 0 -0.00055396550530321627 0.012967070077251034 0 -0.00072429214230033013 0.01285829264489609 0 -0.00070398498037837684 0.013107717202371624 0 -0.00055239114673339958 0.013206913287976751 0 -0.00070398498037837684 0.013107717202371624 0 -0.00071919454863288276 0.013289737019140555 0 5.0993109783501357e-06 0.014678909128311308 0 -0.00033105502892901556 0.01411255441021457 0 -0.00056085675197339933 0.013384385364126374 0 -0.00055239114673339958 0.013206913287976751 0 -0.00071919454863288276 0.013289737019140555 0 -5.9625239379778734e-05 0.014993058827081979 0 -5.9062755240413148e-05 0.014986673828802342 0 -4.5963616578985893e-05 0.014992571692438181 0 -0.00033105502892901556 0.01411255441021457 0 -0.00042874886902123671 0.014497149911578017 0 -0.00032629840499167625 0.014067289347178909 0 -0.00044453084219763699 0.013996927908160178 0 -0.00044268493943288017 0.014182040585326005 0 -0.00053502035688530905 0.013485973617503713 0 -0.00054294875453857422 0.013404215329053707 0 -0.00060546426895101576 0.013465585615183795 0 -0.00049349975571253216 0.01371340808715063 0 -0.00033105502892901556 0.01411255441021457 0 -0.00049349975571253216 0.01371340808715063 0 -0.00042874886902123671 0.014497149911578017 0 -0.00042874886902123671 0.014497149911578017 0 -0.00059574619260856622 0.014351748984094232 0 -0.00053502035688530905 0.013485973617503713 0 -0.00060546426895101576 0.013465585615183795 0 -0.00054395278950251924 0.013613776563213513 0 -0.00042874886902123671 0.014497149911578017 0 -0.0001701739646591802 0.015164565642192063 0 -5.9062755240413148e-05 0.014986673828802342 0 -4.5963616578985893e-05 0.014992571692438181 0 -4.9323991584107781e-05 0.014980179438431801 0 -4.5963616578985893e-05 0.014992571692438181 0 -2.7443917861795156e-05 0.014992891796087432 0 -4.9323991584107781e-05 0.014980179438431801 0 -4.3032232992813632e-05 0.015004724166561609 0 -4.5963616578985893e-05 0.014992571692438181 0 -2.569596953950691e-05 0.014998809398259679 0 -4.3032232992813632e-05 0.015004724166561609 0 -5.9625239379778734e-05 0.014993058827081979 0 -4.5963616578985893e-05 0.014992571692438181 0 -4.5963616578985893e-05 0.014992571692438181 0 -2.569596953950691e-05 0.014998809398259679 0 -2.7443917861795156e-05 0.014992891796087432 0 -2.7443917861795156e-05 0.014992891796087432 0 -1.0850095844858041e-08 0.014999990139208002 0 -2.2715322639116877e-08 0.015000008539791205 0 -2.569596953950691e-05 0.014998809398259679 0 -2.7443917861795156e-05 0.014992891796087432 0 -1.0850095844858041e-08 0.014999990139208002 0 -2.569596953950691e-05 0.014998809398259679 0 -1.0850095844858041e-08 0.014999990139208002 0 -1.0930895810607468e-05 0.015002810306247298 0 -6.9222016972109447e-08 0.015000059259420426 0 3.9665828278612425e-05 0.01485091588547406 0 -1.0930895810607468e-05 0.015002810306247298 0 -8.8995647842529301e-09 0.015000032420839972 0 -2.3162479151588845e-05 0.015012425840048237 0 -1.0850095844858041e-08 0.014999990139208002 0 -1.0930895810607468e-05 0.015002810306247298 0 -8.8995647842529301e-09 0.015000032420839972 0 -2.569596953950691e-05 0.014998809398259679 0 -1.0930895810607468e-05 0.015002810306247298 0 -2.3162479151588845e-05 0.015012425840048237 0 -4.3032232992813632e-05 0.015004724166561609 0 -2.569596953950691e-05 0.014998809398259679 0 -2.3162479151588845e-05 0.015012425840048237 0 3.076666231131952e-05 0.014974083754839877 0 3.3251017466310913e-05 0.014988889320138263 0 1.4083952224126235e-08 0.014999972371614392 0 3.076666231131952e-05 0.014974083754839877 0 5.6559081186829583e-05 0.014976253695989723 0 3.3251017466310913e-05 0.014988889320138263 0 7.7880447368599363e-10 0.01499999859721628 0 9.4040021893115642e-07 0.014997878069156907 0 -3.799744931121169e-10 0.014999999624688422 0 3.9665828278612425e-05 0.01485091588547406 0 3.7167228537167494e-08 0.015000105508416845 0 -0.00056775404570018665 0.009306228113112304 0 -0.00069547228841908997 0.0093726634960513335 0 -0.00062044625303746108 0.0092560047871901498 0 -0.00069547228841908997 0.0093726634960513335 0 -0.00082314518862476474 0.0095193633906918273 0 -0.00064509289310748293 0.0095085394453485201 0 -0.00056775404570018665 0.009306228113112304 0 -0.00069547228841908997 0.0093726634960513335 0 -0.00064509289310748293 0.0095085394453485201 0 -0.00056775404570018665 0.009306228113112304 0 -0.00064509289310748293 0.0095085394453485201 0 -0.00051670415113714673 0.009361554184947999 0 -0.00056775404570018665 0.009306228113112304 0 -0.00043878658889868766 0.0092073677840187381 0 -0.00051670415113714673 0.009361554184947999 0 -0.00015207752784017381 0.0091738786443554543 0 -0.00043878658889868766 0.0092073677840187381 0 -0.00051670415113714673 0.009361554184947999 0 -0.00037811944556353708 0.0091157385060574581 0 -0.00043878658889868766 0.0092073677840187381 0 -0.00049920873851786081 0.0091723569429348079 0 -0.00056775404570018665 0.009306228113112304 0 -0.00043878658889868766 0.0092073677840187381 0 -0.00049920873851786081 0.0091723569429348079 0 -0.00056775404570018665 0.009306228113112304 0 -0.00049920873851786081 0.0091723569429348079 0 -0.00062044625303746108 0.0092560047871901498 0 -0.00049920873851786081 0.0091723569429348079 0 -0.00053952118901525251 0.0091565514841921731 0 -0.00062044625303746108 0.0092560047871901498 0 -0.00047140942805777618 0.0090115720521702861 0 -0.00049920873851786081 0.0091723569429348079 0 -0.00053952118901525251 0.0091565514841921731 0 -0.00037811944556353708 0.0091157385060574581 0 -0.00047140942805777618 0.0090115720521702861 0 -0.00049920873851786081 0.0091723569429348079 0 -0.00047140942805777618 0.0090115720521702861 0 -0.00052061628827063859 0.0089298845906892986 0 -0.00053806195304626598 0.008967427328373594 0 -0.00047140942805777618 0.0090115720521702861 0 -0.00053952118901525251 0.0091565514841921731 0 -0.00054196119902453653 0.0091372081329290835 0 -0.00047144149517389561 0.0090260472004581264 0 -0.000537818225409563 0.0090580183176825809 0 -0.00053952118901525251 0.0091565514841921731 0 -0.00054196119902453653 0.0091372081329290835 0 -0.00060718012689088975 0.0092010003271836231 0 -0.00054196119902453653 0.0091372081329290835 0 -0.00061645245350281015 0.0091938069776379069 0 -0.00060718012689088975 0.0092010003271836231 0 -0.00065422487089093371 0.0092085525537513677 0 -0.00054196119902453653 0.0091372081329290835 0 -0.00061645245350281015 0.0091938069776379069 0 -0.00061645245350281015 0.0091938069776379069 0 -0.00065802763566696052 0.0092278857109671028 0 -0.00060718012689088975 0.0092010003271836231 0 -0.00065422487089093371 0.0092085525537513677 0 -0.00061645245350281015 0.0091938069776379069 0 -0.00065802763566696052 0.0092278857109671028 0 -0.00065802763566696052 0.0092278857109671028 0 -0.00060718012689088975 0.0092010003271836231 0 -0.00065448615818132602 0.0092419010558394757 0 -0.00053952118901525251 0.0091565514841921731 0 -0.00060718012689088975 0.0092010003271836231 0 -0.00062044625303746108 0.0092560047871901498 0 -0.00060718012689088975 0.0092010003271836231 0 -0.00062044625303746108 0.0092560047871901498 0 -0.00065448615818132602 0.0092419010558394757 0 -0.00069547228841908997 0.0093726634960513335 0 -0.00068934295590722199 0.0092776174561677895 0 -0.00075047120753412764 0.0093629515816931498 0 -0.00069547228841908997 0.0093726634960513335 0 -0.00062044625303746108 0.0092560047871901498 0 -0.00068934295590722199 0.0092776174561677895 0 -0.00062044625303746108 0.0092560047871901498 0 -0.00068934295590722199 0.0092776174561677895 0 -0.00065448615818132602 0.0092419010558394757 0 -0.00068934295590722199 0.0092776174561677895 0 -0.00065448615818132602 0.0092419010558394757 0 -0.00069348477910205313 0.0092580382916247848 0 -0.00068407490612232952 0.0092522756656375875 0 -0.00065802763566696052 0.0092278857109671028 0 -0.00069348477910205313 0.0092580382916247848 0 -0.00065802763566696052 0.0092278857109671028 0 -0.00065448615818132602 0.0092419010558394757 0 -0.00069348477910205313 0.0092580382916247848 0 -0.00068934295590722199 0.0092776174561677895 0 -0.00069348477910205313 0.0092580382916247848 0 -0.00071177349116053983 0.0092604868076384475 0 -0.00068934295590722199 0.0092776174561677895 0 -0.00071177349116053983 0.0092604868076384475 0 -0.00078613089392345545 0.0093595570373461792 0 -0.00070145296263516795 0.0093029464220774332 0 -0.00069348477910205313 0.0092580382916247848 0 -0.00071177349116053983 0.0092604868076384475 0 -0.00071177349116053983 0.0092604868076384475 0 -0.00078613089392345545 0.0093595570373461792 0 -0.00088024086304935704 0.0093914968156022481 0 -0.00089021120807613295 0.00932106179304488 0 -0.00071177349116053983 0.0092604868076384475 0 -0.00088024086304935704 0.0093914968156022481 0 -0.00061744471116199396 0.0092874678469002554 0 -0.00069551850516541352 0.0092662119962194679 0 -0.00078613089392345545 0.0093595570373461792 0 -0.00088024086304935704 0.0093914968156022481 0 -0.00087501313306202592 0.0094504280170449491 0 -0.00068934295590722199 0.0092776174561677895 0 -0.00078613089392345545 0.0093595570373461792 0 -0.00075047120753412764 0.0093629515816931498 0 -0.00089021120807613295 0.00932106179304488 0 -0.00098016449199326444 0.0093741390144020751 0 -0.0009589305310590151 0.0094356806521334428 0 -0.00089021120807613295 0.00932106179304488 0 -0.00088024086304935704 0.0093914968156022481 0 -0.0009589305310590151 0.0094356806521334428 0 -0.00088024086304935704 0.0093914968156022481 0 -0.0009281845021473855 0.0095005953887083994 0 -0.00087501313306202592 0.0094504280170449491 0 -0.00088024086304935704 0.0093914968156022481 0 -0.0009589305310590151 0.0094356806521334428 0 -0.0009281845021473855 0.0095005953887083994 0 -0.0009742874436419499 0.0095155217543795179 0 -0.0009589305310590151 0.0094356806521334428 0 -0.0009281845021473855 0.0095005953887083994 0 -0.0009742874436419499 0.0095155217543795179 0 -0.0009281845021473855 0.0095005953887083994 0 -0.00094054901252161737 0.0095877279679125373 0 -0.0009281845021473855 0.0095005953887083994 0 -0.00087501313306202592 0.0094504280170449491 0 -0.00090077810617096078 0.0095147007220588269 0 -0.0009281845021473855 0.0095005953887083994 0 -0.00090077810617096078 0.0095147007220588269 0 -0.0009284461472097292 0.0095562782986310536 0 -0.0009284461472097292 0.0095562782986310536 0 -0.00094054901252161737 0.0095877279679125373 0 -0.00094041082657351702 0.0095893064842021373 0 -0.00090077810617096078 0.0095147007220588269 0 -0.0009284461472097292 0.0095562782986310536 0 -0.00092112062154499114 0.0095632729449110342 0 -0.0009284461472097292 0.0095562782986310536 0 -0.00092112062154499114 0.0095632729449110342 0 -0.00094041082657351702 0.0095893064842021373 0 -0.0009281845021473855 0.0095005953887083994 0 -0.0009284461472097292 0.0095562782986310536 0 -0.00094054901252161737 0.0095877279679125373 0 -0.00078613089392345545 0.0093595570373461792 0 -0.00075047120753412764 0.0093629515816931498 0 -0.00083518600330578319 0.0094568394049520058 0 -0.00069547228841908997 0.0093726634960513335 0 -0.00075047120753412764 0.0093629515816931498 0 -0.00083518600330578319 0.0094568394049520058 0 -0.00069547228841908997 0.0093726634960513335 0 -0.00083518600330578319 0.0094568394049520058 0 -0.00082314518862476474 0.0095193633906918273 0 -0.00078613089392345545 0.0093595570373461792 0 -0.00087501313306202592 0.0094504280170449491 0 -0.00083518600330578319 0.0094568394049520058 0 -0.00087501313306202592 0.0094504280170449491 0 -0.00090077810617096078 0.0095147007220588269 0 -0.00083518600330578319 0.0094568394049520058 0 -0.00090077810617096078 0.0095147007220588269 0 -0.00083518600330578319 0.0094568394049520058 0 -0.00087721749386507428 0.0095225424568615106 0 -0.00083518600330578319 0.0094568394049520058 0 -0.00087721749386507428 0.0095225424568615106 0 -0.00082314518862476474 0.0095193633906918273 0 -0.00090077810617096078 0.0095147007220588269 0 -0.00087721749386507428 0.0095225424568615106 0 -0.00092112062154499114 0.0095632729449110342 0 -0.00087721749386507428 0.0095225424568615106 0 -0.00092112062154499114 0.0095632729449110342 0 -0.00091282271107358281 0.0095911643292765428 0 -0.00092112062154499114 0.0095632729449110342 0 -0.00093530589451261707 0.0095892439077639984 0 -0.00094041082657351702 0.0095893064842021373 0 -0.00092112062154499114 0.0095632729449110342 0 -0.00091282271107358281 0.0095911643292765428 0 -0.00093530589451261707 0.0095892439077639984 0 -0.00087721749386507428 0.0095225424568615106 0 -0.00091282271107358281 0.0095911643292765428 0 -0.00082314518862476474 0.0095193633906918273 0 -0.00091282271107358281 0.0095911643292765428 0 -0.00082314518862476474 0.0095193633906918273 0 -0.00087402024134348294 0.0096809594153114339 0 -0.00082314518862476474 0.0095193633906918273 0 -0.00087402024134348294 0.0096809594153114339 0 -0.00064509289310748293 0.0095085394453485201 0 -0.00087402024134348294 0.0096809594153114339 0 -0.00088565904332518687 0.0099264678988434593 0 -0.00059957527120196928 0.0099641472089187343 0 -0.00087402024134348294 0.0096809594153114339 0 -0.00095828214170183123 0.0096364048076937152 0 -0.00088565904332518687 0.0099264678988434593 0 -0.00091282271107358281 0.0095911643292765428 0 -0.00087402024134348294 0.0096809594153114339 0 -0.00096455037560725439 0.0096180275578553638 0 -0.00093764837448847562 0.010338001571554326 0 -0.0010273379392712282 0.010091062449809472 0 -0.00087402024134348294 0.0096809594153114339 0 -0.00096455037560725439 0.0096180275578553638 0 -0.00095828214170183123 0.0096364048076937152 0 -0.00091282271107358281 0.0095911643292765428 0 -0.00093530589451261707 0.0095892439077639984 0 -0.00096455037560725439 0.0096180275578553638 0 -0.00093530589451261707 0.0095892439077639984 0 -0.00096455037560725439 0.0096180275578553638 0 -0.00094041082657351702 0.0095893064842021373 0 -0.00088187849949363764 0.010090524864872667 0 -0.00093764837448847562 0.010338001571554326 0 -0.00050375183906861134 0.010334337958592113 0 -0.000559834519322262 0.010221979329014655 0 -0.00065521237374542866 0.010259413099133013 0 -0.00088187849949363764 0.010090524864872667 0 -0.00057691558578195539 0.010694432355905243 0 -0.00057691558578195539 0.010694432355905243 0 -0.00093764837448847562 0.010338001571554326 0 -0.0015873569920496903 0.010114725862246203 0 -0.0010517334950033274 0.010372296740146338 0 -0.0013421589137151257 0.010762343553488426 0 -0.00057691558578195539 0.010694432355905243 0 -0.00071014252745341946 0.012059664605808181 0 -0.0016296108160657086 0.010132201197413808 0 -0.0015873569920496903 0.010114725862246203 0 -0.0013421589137151257 0.010762343553488426 0 -2.6245734306313532e-05 0.012915376508357763 0 -3.9119574513666678e-05 0.012979425550144908 0 -4.5563919956002433e-05 0.013023451088991226 0 -0.00098390837757210674 0.0096582390532596075 0 -0.00094054901252161737 0.0095877279679125373 0 -0.00087604918036103205 0.0097319380696473563 0 -0.00056491365743505388 0.011304691766255202 0 -0.0004510543045081085 0.011350806839389571 0 -0.00074027167145969419 0.0096929938811691572 0 -0.00073215663452016729 0.0097101769998830956 0 -0.00087604918036103205 0.0097319380696473563 0 -0.00094054901252161737 0.0095877279679125373 0 -0.00094036544541937974 0.0095901430752887793 0 -0.00094041082657351702 0.0095893064842021373 0 -2.6245734306313532e-05 0.012915376508357763 0 -6.5191267699248029e-05 0.012915599455791517 0 -4.9796980668350889e-05 0.012945771343844335 0 -0.00094054901252161737 0.0095877279679125373 0 -0.00074027167145969419 0.0096929938811691572 0 -0.00087604918036103205 0.0097319380696473563 0 -0.00094761452818251492 0.0094505873996687546 0 -0.00088187849949363764 0.010090524864872667 0 -0.00057691558578195539 0.010694432355905243 0 -0.0004510543045081085 0.011350806839389571 0 -0.00088187849949363764 0.010090524864872667 0 -0.00096693342110011832 0.0098491544136751832 0 -4.9796980668350889e-05 0.012945771343844335 0 -3.9119574513666678e-05 0.012979425550144908 0 -6.273001289636417e-05 0.01296771757780575 0 -2.6245734306313532e-05 0.012915376508357763 0 -4.9796980668350889e-05 0.012945771343844335 0 -3.9119574513666678e-05 0.012979425550144908 0 -0.00012371618320953002 0.01289205821312062 0 -6.5191267699248029e-05 0.012915599455791517 0 -6.273001289636417e-05 0.01296771757780575 0 -6.5191267699248029e-05 0.012915599455791517 0 -4.9796980668350889e-05 0.012945771343844335 0 -6.273001289636417e-05 0.01296771757780575 0 -0.00012148040178373224 0.01298123775097507 0 -6.273001289636417e-05 0.01296771757780575 0 -6.6759056130943442e-05 0.013041808370439178 0 -6.273001289636417e-05 0.01296771757780575 0 -2.9826965815765887e-05 0.013029044418516387 0 -6.6759056130943442e-05 0.013041808370439178 0 -3.9119574513666678e-05 0.012979425550144908 0 -3.1065852102398157e-05 0.013017151421224381 0 -2.9826965815765887e-05 0.013029044418516387 0 -3.9119574513666678e-05 0.012979425550144908 0 -6.273001289636417e-05 0.01296771757780575 0 -2.9826965815765887e-05 0.013029044418516387 0 -2.9826965815765887e-05 0.013029044418516387 0 -2.4462895831075208e-05 0.013018909069649351 0 -1.4310868374564733e-05 0.013076674902161561 0 -3.1065852102398157e-05 0.013017151421224381 0 -2.9826965815765887e-05 0.013029044418516387 0 -2.4462895831075208e-05 0.013018909069649351 0 -2.9826965815765887e-05 0.013029044418516387 0 -6.6759056130943442e-05 0.013041808370439178 0 -1.4310868374564733e-05 0.013076674902161561 0 -6.6759056130943442e-05 0.013041808370439178 0 -1.4310868374564733e-05 0.013076674902161561 0 -8.2570613390213097e-05 0.013144627159860717 0 -0.0013421589137151257 0.010762343553488426 0 -0.00098542994882462012 0.011509011573696992 0 -0.00087497353971620112 0.010833983145007312 0 -0.0010517334950033274 0.010372296740146338 0 -0.0013421589137151257 0.010762343553488426 0 -0.00087497353971620112 0.010833983145007312 0 -3.1065852102398157e-05 0.013017151421224381 0 -4.5563919956002433e-05 0.013023451088991226 0 -2.4462895831075208e-05 0.013018909069649351 0 -3.9119574513666678e-05 0.012979425550144908 0 -3.1065852102398157e-05 0.013017151421224381 0 -4.5563919956002433e-05 0.013023451088991226 0 -4.5563919956002433e-05 0.013023451088991226 0 -2.4462895831075208e-05 0.013018909069649351 0 -0.00020024037592123042 0.012999473758984579 0 -0.00071014252745341946 0.012059664605808181 0 -0.00058936147177485101 0.012206886761701261 0 -0.00098542994882462012 0.011509011573696992 0 -0.000386607603757214 0.011302244426834869 0 -0.00057669112001419427 0.010981509551259627 0 -0.00098542994882462012 0.011509011573696992 0 -0.00087497353971620112 0.010833983145007312 0 -0.00057669112001419427 0.010981509551259627 0 -0.000386607603757214 0.011302244426834869 0 2.1100338332410341e-05 0.011245781388177568 0 -0.00019253063470962327 0.011777273130434997 0 -0.000386607603757214 0.011302244426834869 0 -0.00031246798812877946 0.010904345881471846 0 2.1100338332410341e-05 0.011245781388177568 0 -0.00031246798812877946 0.010904345881471846 0 -0.00020615700763709251 0.010298971932469215 0 2.1100338332410341e-05 0.011245781388177568 0 -0.00031246798812877946 0.010904345881471846 0 -0.00037309295892856313 0.010594003652883599 0 -0.00020615700763709251 0.010298971932469215 0 -0.000386607603757214 0.011302244426834869 0 -0.00031246798812877946 0.010904345881471846 0 -0.00057669112001419427 0.010981509551259627 0 -0.00031246798812877946 0.010904345881471846 0 -0.00037309295892856313 0.010594003652883599 0 -0.00057669112001419427 0.010981509551259627 0 -0.00037309295892856313 0.010594003652883599 0 -0.00087497353971620112 0.010833983145007312 0 -0.00057669112001419427 0.010981509551259627 0 -0.0010273379392712282 0.010091062449809472 0 -0.00033851898928916751 0.010597303072089203 0 -0.0010517334950033274 0.010372296740146338 0 -0.00037309295892856313 0.010594003652883599 0 -0.00087497353971620112 0.010833983145007312 0 -0.00088565904332518687 0.0099264678988434593 0 -0.00037309295892856313 0.010594003652883599 0 -0.00059957527120196928 0.0099641472089187343 0 -0.00037309295892856313 0.010594003652883599 0 -0.00059957527120196928 0.0099641472089187343 0 -0.00020615700763709251 0.010298971932469215 0 -0.0004829201071713694 0.010001579921394591 0 -0.00063641996008599686 0.0095395019258746952 0 -0.00059957527120196928 0.0099641472089187343 0 -0.00020615700763709251 0.010298971932469215 0 -0.00064509289310748293 0.0095085394453485201 0 -0.00073606423285491746 0.0096778392869722001 0 -0.00064509289310748293 0.0095085394453485201 0 -0.0005800575621244101 0.009553061299850887 0 -0.00064509289310748293 0.0095085394453485201 0 -0.00051670415113714673 0.009361554184947999 0 -0.0005800575621244101 0.009553061299850887 0 -0.00087402024134348294 0.0096809594153114339 0 -0.00059957527120196928 0.0099641472089187343 0 -0.00064509289310748293 0.0095085394453485201 0 -0.00015207752784017381 0.0091738786443554543 0 -0.00012186923911316984 0.0095417950597830575 0 -0.00051670415113714673 0.009361554184947999 0 -0.00012186923911316984 0.0095417950597830575 0 -0.00051670415113714673 0.009361554184947999 0 -0.00040047000701439665 0.0096574152748594589 0 -0.00051670415113714673 0.009361554184947999 0 -0.0005800575621244101 0.009553061299850887 0 -0.00040047000701439665 0.0096574152748594589 0 -0.0005800575621244101 0.009553061299850887 0 -0.00055471027041582898 0.0098283217098057759 0 -0.00040047000701439665 0.0096574152748594589 0 -0.00073606423285491746 0.0096778392869722001 0 -0.0005800575621244101 0.009553061299850887 0 -0.00055471027041582898 0.0098283217098057759 0 -0.00012186923911316984 0.0095417950597830575 0 -0.00040047000701439665 0.0096574152748594589 0 -0.00026970073317884234 0.0099880997798177558 0 -0.00055471027041582898 0.0098283217098057759 0 -0.00040047000701439665 0.0096574152748594589 0 -0.00026970073317884234 0.0099880997798177558 0 0.0001415558804276919 0.010001013436367499 0 -0.00026970073317884234 0.0099880997798177558 0 -3.7872320093457571e-05 0.010610834025562184 0 -0.0004829201071713694 0.010001579921394591 0 -0.00033395236532643262 0.010801163260002529 0 -0.00055471027041582898 0.0098283217098057759 0 -0.00026970073317884234 0.0099880997798177558 0 -0.00071391618805635606 0.010361822021252723 0 -0.00073606423285491746 0.0096778392869722001 0 -0.00055471027041582898 0.0098283217098057759 0 -0.00071391618805635606 0.010361822021252723 0 -0.00033395236532643262 0.010801163260002529 0 -0.00010669954785636068 0.011477011491501465 0 -0.00071391618805635606 0.010361822021252723 0 -3.7872320093457571e-05 0.010610834025562184 0 -9.6734469614521924e-05 0.011529045705950168 0 -0.00026970073317884234 0.0099880997798177558 0 -0.00071391618805635606 0.010361822021252723 0 -3.7872320093457571e-05 0.010610834025562184 0 -9.6734469614521924e-05 0.011529045705950168 0 0.00023567325043045132 0.011194493750637899 0 0.00015281857124821422 0.011717589040600478 0 -3.7872320093457571e-05 0.010610834025562184 0 -9.6734469614521924e-05 0.011529045705950168 0 0.00023567325043045132 0.011194493750637899 0 2.1100338332410341e-05 0.011245781388177568 0 -9.6734469614521924e-05 0.011529045705950168 0 -0.00019253063470962327 0.011777273130434997 0 -9.6734469614521924e-05 0.011529045705950168 0 -0.00016461099715861771 0.012120935573109655 0 -0.00019253063470962327 0.011777273130434997 0 -9.6734469614521924e-05 0.011529045705950168 0 -0.00016461099715861771 0.012120935573109655 0 0.00015281857124821422 0.011717589040600478 0 0.00015850992443692578 0.012091276130946862 0 -0.00016461099715861771 0.012120935573109655 0 0.00015281857124821422 0.011717589040600478 0 0.00015850992443692578 0.012091276130946862 0 -0.00016461099715861771 0.012120935573109655 0 2.4054750139747631e-05 0.012408661997089203 0 -0.00016461099715861771 0.012120935573109655 0 -0.0001840072033720046 0.012414531302905372 0 2.4054750139747631e-05 0.012408661997089203 0 -0.0001840072033720046 0.012414531302905372 0 2.4054750139747631e-05 0.012408661997089203 0 -0.00023812650492825756 0.012577954224891389 0 0.00015850992443692578 0.012091276130946862 0 2.4054750139747631e-05 0.012408661997089203 0 0.00024805929519829145 0.012287310499503618 0 2.4054750139747631e-05 0.012408661997089203 0 0.00030077407854993713 0.01245031316420055 0 0.00025052658270149328 0.012575682573261544 0 2.4054750139747631e-05 0.012408661997089203 0 0.00030077407854993713 0.01245031316420055 0 0.00024805929519829145 0.012287310499503618 0 -0.00031832191130787887 0.012481337766811347 0 -0.00015528864900748397 0.012673677741476309 0 -0.00025989443208028891 0.012528423872302033 0 -0.0001840072033720046 0.012414531302905372 0 -0.00031832191130787887 0.012481337766811347 0 -0.00023812650492825756 0.012577954224891389 0 -0.00016461099715861771 0.012120935573109655 0 -0.00031832191130787887 0.012481337766811347 0 -0.00044874559836991835 0.01240933631844208 0 -0.00016461099715861771 0.012120935573109655 0 -0.0001840072033720046 0.012414531302905372 0 -0.00031832191130787887 0.012481337766811347 0 -0.00031832191130787887 0.012481337766811347 0 -0.00044874559836991835 0.01240933631844208 0 -0.00015528864900748397 0.012673677741476309 0 -0.00098542994882462012 0.011509011573696992 0 -0.000386607603757214 0.011302244426834869 0 -0.00019253063470962327 0.011777273130434997 0 -0.00098542994882462012 0.011509011573696992 0 -0.00044874559836991835 0.01240933631844208 0 -0.00019253063470962327 0.011777273130434997 0 -0.00016461099715861771 0.012120935573109655 0 -0.00044874559836991835 0.01240933631844208 0 -0.00019253063470962327 0.011777273130434997 0 -0.00058936147177485101 0.012206886761701261 0 -0.00045952747939615932 0.012422635980258008 0 -0.00044874559836991835 0.01240933631844208 0 -3.2107301679736364e-05 0.012910240435537221 0 -6.2486058620569429e-05 0.012816797814303183 0 -0.00020024037592123042 0.012999473758984579 0 -0.00044874559836991835 0.01240933631844208 0 -3.2107301679736364e-05 0.012910240435537221 0 -2.4462895831075208e-05 0.013018909069649351 0 -0.00020024037592123042 0.012999473758984579 0 -3.2107301679736364e-05 0.012910240435537221 0 -2.4462895831075208e-05 0.013018909069649351 0 -3.2107301679736364e-05 0.012910240435537221 0 1.9526969650188717e-05 0.013045152823665767 0 -3.2107301679736364e-05 0.012910240435537221 0 6.5470123293090481e-05 0.013057561240664105 0 -6.2486058620569429e-05 0.012816797814303183 0 -1.4310868374564733e-05 0.013076674902161561 0 1.9526969650188717e-05 0.013045152823665767 0 -1.3502158630931594e-05 0.013197907730815136 0 -1.4310868374564733e-05 0.013076674902161561 0 -1.3502158630931594e-05 0.013197907730815136 0 -8.2570613390213097e-05 0.013144627159860717 0 -2.4462895831075208e-05 0.013018909069649351 0 -1.4310868374564733e-05 0.013076674902161561 0 1.9526969650188717e-05 0.013045152823665767 0 -3.2107301679736364e-05 0.012910240435537221 0 1.9526969650188717e-05 0.013045152823665767 0 6.5470123293090481e-05 0.013057561240664105 0 1.9526969650188717e-05 0.013045152823665767 0 -1.3502158630931594e-05 0.013197907730815136 0 6.5470123293090481e-05 0.013057561240664105 0 -1.3502158630931594e-05 0.013197907730815136 0 6.5470123293090481e-05 0.013057561240664105 0 2.9439440610534058e-06 0.013340192216691815 0 6.5470123293090481e-05 0.013057561240664105 0 0.00013798193230111643 0.013007639907487271 0 -6.2486058620569429e-05 0.012816797814303183 0 6.5470123293090481e-05 0.013057561240664105 0 0.00013798193230111643 0.013007639907487271 0 2.9439440610534058e-06 0.013340192216691815 0 0.00013798193230111643 0.013007639907487271 0 2.9439440610534058e-06 0.013340192216691815 0 7.8185749967173417e-05 0.013785586915884742 0 -0.00044874559836991835 0.01240933631844208 0 -6.2486058620569429e-05 0.012816797814303183 0 -0.00015528864900748397 0.012673677741476309 0 0.00013798193230111643 0.013007639907487271 0 -6.2486058620569429e-05 0.012816797814303183 0 -0.00015528864900748397 0.012673677741476309 0 0.00013798193230111643 0.013007639907487271 0 -0.00015528864900748397 0.012673677741476309 0 9.9679405749305417e-05 0.012639663460471007 0 9.9679405749305417e-05 0.012639663460471007 0 0.00048009384088411897 0.012759820277994435 0 0.00082748942533599661 0.012219818320773321 0 0.00012875334651440458 0.012587580153734318 0 0.00030743270134599425 0.012392254721239303 0 -0.00015528864900748397 0.012673677741476309 0 9.9679405749305417e-05 0.012639663460471007 0 -0.00025989443208028891 0.012528423872302033 0 9.9679405749305417e-05 0.012639663460471007 0 0.000229657497747309 0.012901745210554297 0 0.00011728106672396894 0.012793213940897779 0 0.000229657497747309 0.012901745210554297 0 0.00048009384088411897 0.012759820277994435 0 0.00042935846311117302 0.013100787209287579 0 9.9679405749305417e-05 0.012639663460471007 0 0.000229657497747309 0.012901745210554297 0 0.00048009384088411897 0.012759820277994435 0 0.00048009384088411897 0.012759820277994435 0 0.00069040235959102873 0.01306777564102337 0 0.00084400759621912087 0.012760373087135313 0 0.00048009384088411897 0.012759820277994435 0 0.00082748942533599661 0.012219818320773321 0 0.00084400759621912087 0.012760373087135313 0 0.00013798193230111643 0.013007639907487271 0 9.9679405749305417e-05 0.012639663460471007 0 0.00011728106672396894 0.012793213940897779 0 0.00012493027888805977 0.013062422012599773 0 3.6311297653122898e-05 0.013311709737155597 0 0.00013798193230111643 0.013007639907487271 0 3.223905283097656e-05 0.012819152399657453 0 0.00011728106672396894 0.012793213940897779 0 0.000229657497747309 0.012901745210554297 0 0.00011728106672396894 0.012793213940897779 0 8.6139255028986085e-05 0.013161497960422756 0 3.223905283097656e-05 0.012819152399657453 0 0.00011728106672396894 0.012793213940897779 0 8.6139255028986085e-05 0.013161497960422756 0 3.223905283097656e-05 0.012819152399657453 0 8.6139255028986085e-05 0.013161497960422756 0 -0.00022046525586363777 0.01317801048651079 0 3.6311297653122898e-05 0.013311709737155597 0 -0.00016959498420423215 0.013667630177395139 0 8.6139255028986085e-05 0.013161497960422756 0 7.6947760861538128e-05 0.013467091891336033 0 -8.7589868708217385e-05 0.013533629353776333 0 8.6139255028986085e-05 0.013161497960422756 0 -8.7589868708217385e-05 0.013533629353776333 0 -0.00022046525586363777 0.01317801048651079 0 0.000229657497747309 0.012901745210554297 0 8.6139255028986085e-05 0.013161497960422756 0 0.00024878026586317554 0.013179397223757293 0 8.6139255028986085e-05 0.013161497960422756 0 0.0002389527623584773 0.013441243753437422 0 0.00024878026586317554 0.013179397223757293 0 8.6139255028986085e-05 0.013161497960422756 0 0.0002389527623584773 0.013441243753437422 0 7.6947760861538128e-05 0.013467091891336033 0 0.0002389527623584773 0.013441243753437422 0 0.0003109696963578077 0.013654235362403936 0 7.4687421016977722e-05 0.01371872587538769 0 0.0002389527623584773 0.013441243753437422 0 7.6947760861538128e-05 0.013467091891336033 0 7.4687421016977722e-05 0.01371872587538769 0 7.6947760861538128e-05 0.013467091891336033 0 -8.7589868708217385e-05 0.013533629353776333 0 7.4687421016977722e-05 0.01371872587538769 0 0.00048009384088411897 0.012759820277994435 0 0.00069040235959102873 0.01306777564102337 0 0.00042935846311117302 0.013100787209287579 0 0.00069040235959102873 0.01306777564102337 0 0.00042935846311117302 0.013100787209287579 0 0.00059337138936131357 0.01334819204507586 0 0.000229657497747309 0.012901745210554297 0 0.00042935846311117302 0.013100787209287579 0 0.00024878026586317554 0.013179397223757293 0 0.00042935846311117302 0.013100787209287579 0 0.00024878026586317554 0.013179397223757293 0 0.00039077257953606996 0.01338999595771987 0 0.00042935846311117302 0.013100787209287579 0 0.00039077257953606996 0.01338999595771987 0 0.00059337138936131357 0.01334819204507586 0 0.0002389527623584773 0.013441243753437422 0 0.00024878026586317554 0.013179397223757293 0 0.00039077257953606996 0.01338999595771987 0 0.0002389527623584773 0.013441243753437422 0 0.00039077257953606996 0.01338999595771987 0 0.0003109696963578077 0.013654235362403936 0 0.00039077257953606996 0.01338999595771987 0 0.00051339070912340666 0.013549482585611309 0 0.00059337138936131357 0.01334819204507586 0 0.00039077257953606996 0.01338999595771987 0 0.00051339070912340666 0.013549482585611309 0 0.0003109696963578077 0.013654235362403936 0 0.00051339070912340666 0.013549482585611309 0 0.00059337138936131357 0.01334819204507586 0 0.00071123355784277981 0.013600132307430918 0 0.00069040235959102873 0.01306777564102337 0 0.00059337138936131357 0.01334819204507586 0 0.00084461757134549217 0.013323348838923233 0 0.00059337138936131357 0.01334819204507586 0 0.00084461757134549217 0.013323348838923233 0 0.00071123355784277981 0.013600132307430918 0 0.00098134027434397227 0.013516936145652346 0 0.00084461757134549217 0.013323348838923233 0 0.00071123355784277981 0.013600132307430918 0 0.00098134027434397227 0.013516936145652346 0 0.0010873773117492638 0.013315816320039243 0 0.0012660578751714246 0.013572860298271427 0 0.00098134027434397227 0.013516936145652346 0 0.0010873773117492638 0.013315816320039243 0 0.00084461757134549217 0.013323348838923233 0 0.0010873773117492638 0.013315816320039243 0 0.00084461757134549217 0.013323348838923233 0 0.0010038143968836258 0.013065236062589091 0 0.0010038143968836258 0.013065236062589091 0 0.0013588606768883409 0.013070139414322687 0 0.0012095093751428453 0.012594056438550747 0 0.00069040235959102873 0.01306777564102337 0 0.00084461757134549217 0.013323348838923233 0 0.0010038143968836258 0.013065236062589091 0 0.0010873773117492638 0.013315816320039243 0 0.0010038143968836258 0.013065236062589091 0 0.0013588606768883409 0.013070139414322687 0 0.0010038143968836258 0.013065236062589091 0 0.00084400759621912087 0.012760373087135313 0 0.0012095093751428453 0.012594056438550747 0 0.00069040235959102873 0.01306777564102337 0 0.0010038143968836258 0.013065236062589091 0 0.00084400759621912087 0.012760373087135313 0 0.0013588606768883409 0.013070139414322687 0 0.0012095093751428453 0.012594056438550747 0 0.0016427943858802817 0.012553061542349604 0 0.0013588606768883409 0.013070139414322687 0 0.0018323841121691744 0.012735617001408548 0 0.0016427943858802817 0.012553061542349604 0 0.0013588606768883409 0.013070139414322687 0 0.001703930952882594 0.013028900537808016 0 0.0014702741096532905 0.01335006884282236 0 0.0013588606768883409 0.013070139414322687 0 0.001703930952882594 0.013028900537808016 0 0.0018323841121691744 0.012735617001408548 0 0.001703930952882594 0.013028900537808016 0 0.0015269718949540323 0.013568394328458907 0 0.0020404093422127694 0.012896349872683779 0 0.001703930952882594 0.013028900537808016 0 0.0014702741096532905 0.01335006884282236 0 0.0015269718949540323 0.013568394328458907 0 0.0013352132705455612 0.013216114477062599 0 0.0014371909506074409 0.01338970411519283 0 0.0018867176839152653 0.013120753998257252 0 0.0018679582112376271 0.013107713458751214 0 0.0013588606768883409 0.013070139414322687 0 0.0014702741096532905 0.01335006884282236 0 0.0013041116749545323 0.013717319397071201 0 0.0010873773117492638 0.013315816320039243 0 0.0013588606768883409 0.013070139414322687 0 0.0012660578751714246 0.013572860298271427 0 0.0014702741096532905 0.01335006884282236 0 0.0013041116749545323 0.013717319397071201 0 0.0015269718949540323 0.013568394328458907 0 0.0016174779814566442 0.01321526617352012 0 0.0017765826211071135 0.01310436233642891 0 0.001610026766975367 0.013294879799992321 0 0.0014371909506074409 0.01338970411519283 0 0.0018867176839152653 0.013120753998257252 0 0.0027551306906351495 0.01252466453166097 0 0.0027553037056063639 0.012502143804098703 0 0.0027794744866950299 0.012501335194775486 0 0.0018867176839152653 0.013120753998257252 0 0.001650929921154424 0.013003789911371754 0 0.0027551306906351495 0.01252466453166097 0 0.0027341320380122242 0.012513523685820619 0 0.0027553037056063639 0.012502143804098703 0 0.0027551306906351495 0.01252466453166097 0 0.0027341320380122242 0.012513523685820619 0 0.0027085644040175604 0.012525174382671565 0 0.0027341320380122242 0.012513523685820619 0 0.0027177377192050367 0.012514567717548776 0 0.002735213358026027 0.012494965903740276 0 0.001542321274058943 0.013488732428911455 0 0.0020404093422127694 0.012896349872683779 0 0.0021637277807945157 0.013053890928134953 0 0.0027551306906351495 0.01252466453166097 0 0.0027085644040175604 0.012525174382671565 0 0.0026877896914552992 0.012532100251769332 0 0.0018867176839152653 0.013120753998257252 0 0.0024745071311276798 0.012733180124152725 0 0.0027341320380122242 0.012513523685820619 0 0.0027177377192050367 0.012514567717548776 0 0.0027085644040175604 0.012525174382671565 0 0.0027177377192050367 0.012514567717548776 0 0.0027085644040175604 0.012525174382671565 0 0.0027185267688693057 0.012526143472475042 0 0.0027177377192050367 0.012514567717548776 0 0.0027185267688693057 0.012526143472475042 0 0.0027079067762591493 0.012504071492440661 0 0.0027108992460523995 0.012529787435749406 0 0.0027085644040175604 0.012525174382671565 0 0.0027185267688693057 0.012526143472475042 0 0.0027108992460523995 0.012529787435749406 0 0.0027085644040175604 0.012525174382671565 0 0.0026877896914552992 0.012532100251769332 0 0.0027185267688693057 0.012526143472475042 0 0.0027373712802825786 0.012527254156950178 0 0.0027079067762591493 0.012504071492440661 0 0.0027185267688693057 0.012526143472475042 0 0.0027373712802825786 0.012527254156950178 0 0.0027513176365524441 0.012520412521195517 0 0.0027108992460523995 0.012529787435749406 0 0.0027185267688693057 0.012526143472475042 0 0.0027513176365524441 0.012520412521195517 0 0.0027457987335791799 0.012407216610802269 0 0.0024745071311276798 0.012733180124152725 0 0.0028594151740292712 0.011368970173587232 0 0.0029604067930825355 0.010880552348035782 0 0.0024120183610647958 0.012605565031094085 0 0.002786299248206222 0.012319676121184866 0 0.0021637277807945157 0.013053890928134953 0 0.0027513176365524441 0.012520412521195517 0 0.002786299248206222 0.012319676121184866 0 0.0026877896914552992 0.012532100251769332 0 0.0030148964120060339 0.010559459537991691 0 0.0030407551848934521 0.011113722444535254 0 0.0029163499210999783 0.011183596317166969 0 0.0027513176365524441 0.012520412521195517 0 0.00285256686697961 0.012500580558713507 0 0.002786299248206222 0.012319676121184866 0 0.0028594151740292712 0.011368970173587232 0 0.0029145901029810025 0.011797914701767824 0 0.0027373712802825786 0.012527254156950178 0 0.0027513176365524441 0.012520412521195517 0 0.00285256686697961 0.012500580558713507 0 0.0024120183610647958 0.012605565031094085 0 0.002786299248206222 0.012319676121184866 0 0.0025030157507749682 0.012232249347333609 0 0.0024120183610647958 0.012605565031094085 0 0.0023051142213474235 0.012435148464240254 0 0.0025030157507749682 0.012232249347333609 0 0.00285256686697961 0.012500580558713507 0 0.002786299248206222 0.012319676121184866 0 0.0028340019033582641 0.011803850955064369 0 0.0030407551848934521 0.011113722444535254 0 0.0028340019033582641 0.011803850955064369 0 0.0029163499210999783 0.011183596317166969 0 0.001703930952882594 0.013028900537808016 0 0.0020404093422127694 0.012896349872683779 0 0.0018323841121691744 0.012735617001408548 0 0.0027108992460523995 0.012529787435749406 0 0.0027513176365524441 0.012520412521195517 0 0.0026877896914552992 0.012532100251769332 0 0.0024120183610647958 0.012605565031094085 0 0.0021637277807945157 0.013053890928134953 0 0.0021942574470196351 0.012787150139403845 0 0.0020404093422127694 0.012896349872683779 0 0.0021637277807945157 0.013053890928134953 0 0.0021942574470196351 0.012787150139403845 0 0.0023051142213474235 0.012435148464240254 0 0.0021621238591837369 0.012600273917535853 0 0.002155448010737482 0.012315385370324223 0 0.0020404093422127694 0.012896349872683779 0 0.0021942574470196351 0.012787150139403845 0 0.0021621238591837369 0.012600273917535853 0 0.0024120183610647958 0.012605565031094085 0 0.0021942574470196351 0.012787150139403845 0 0.0021621238591837369 0.012600273917535853 0 0.0024120183610647958 0.012605565031094085 0 0.0023051142213474235 0.012435148464240254 0 0.0021621238591837369 0.012600273917535853 0 0.0021621238591837369 0.012600273917535853 0 0.0018323841121691744 0.012735617001408548 0 0.002155448010737482 0.012315385370324223 0 0.0020404093422127694 0.012896349872683779 0 0.0021621238591837369 0.012600273917535853 0 0.0018323841121691744 0.012735617001408548 0 0.002155448010737482 0.012315385370324223 0 0.0024036349670028653 0.012016495028676442 0 0.0016785239791969365 0.011894358692989994 0 0.002155448010737482 0.012315385370324223 0 0.0016785239791969365 0.011894358692989994 0 0.0016427943858802817 0.012553061542349604 0 0.0018323841121691744 0.012735617001408548 0 0.002155448010737482 0.012315385370324223 0 0.0016427943858802817 0.012553061542349604 0 0.0023051142213474235 0.012435148464240254 0 0.002155448010737482 0.012315385370324223 0 0.0025030157507749682 0.012232249347333609 0 0.002155448010737482 0.012315385370324223 0 0.0024036349670028653 0.012016495028676442 0 0.0025030157507749682 0.012232249347333609 0 0.002786299248206222 0.012319676121184866 0 0.0025030157507749682 0.012232249347333609 0 0.0028340019033582641 0.011803850955064369 0 0.0029145901029810025 0.011797914701767824 0 0.00287397303432465 0.011777946709090473 0 0.0028340019033582641 0.011803850955064369 0 0.0027962596182079329 0.011445932319271117 0 0.0029163499210999783 0.011183596317166969 0 0.0024036349670028653 0.012016495028676442 0 0.0025030157507749682 0.012232249347333609 0 0.0028340019033582641 0.011803850955064369 0 0.0024036349670028653 0.012016495028676442 0 0.0028340019033582641 0.011803850955064369 0 0.0027166944474284957 0.01172981824465515 0 2.4054750139747631e-05 0.012408661997089203 0 9.3017090536996053e-05 0.01265685015779195 0 0.00025052658270149328 0.012575682573261544 0 0.0024036349670028653 0.012016495028676442 0 0.0027166944474284957 0.01172981824465515 0 0.0016785239791969365 0.011894358692989994 0 2.4054750139747631e-05 0.012408661997089203 0 9.3017090536996053e-05 0.01265685015779195 0 -0.00023812650492825756 0.012577954224891389 0 0.0014122192831121038 0.012260895209523314 0 0.00074424332413220763 0.012235372932971441 0 0.0016785239791969365 0.011894358692989994 0 0.00082748942533599661 0.012219818320773321 0 0.0012095093751428453 0.012594056438550747 0 -0.00031832191130787887 0.012481337766811347 0 -0.00023812650492825756 0.012577954224891389 0 -0.00025989443208028891 0.012528423872302033 0 0.00074424332413220763 0.012235372932971441 0 0.00030743270134599425 0.012392254721239303 0 0.00082748942533599661 0.012219818320773321 0 0.00084400759621912087 0.012760373087135313 0 0.0012095093751428453 0.012594056438550747 0 0.0016785239791969365 0.011894358692989994 0 0.0012095093751428453 0.012594056438550747 0 0.0016427943858802817 0.012553061542349604 0 -1.0954670684165875e-07 0.014999924155044085 0 -0.00011087672829750316 0.014809156854923185 0 -0.00010729204672714849 0.014807779279862808 0 -0.00011087672829750316 0.014809156854923185 0 -0.00010729204672714849 0.014807779279862808 0 -0.00024121010615224024 0.014625714138851317 0 -0.00010729204672714849 0.014807779279862808 0 -5.3026909421506488e-05 0.01495172321694537 0 -0.00026666861832284742 0.01475954618791198 0 -0.00010729204672714849 0.014807779279862808 0 1.1964230270829789e-08 0.014999823845397562 0 -5.3026909421506488e-05 0.01495172321694537 0 -1.0954670684165875e-07 0.014999924155044085 0 -0.00010729204672714849 0.014807779279862808 0 1.1964230270829789e-08 0.014999823845397562 0 1.1964230270829789e-08 0.014999823845397562 0 -2.2715322639116877e-08 0.015000008539791205 0 -5.3026909421506488e-05 0.01495172321694537 0 -2.7443917861795156e-05 0.014992891796087432 0 -2.2715322639116877e-08 0.015000008539791205 0 -5.3026909421506488e-05 0.01495172321694537 0 -4.1853940316474317e-05 0.014919166648544526 0 -0.0001701739646591802 0.015164565642192063 0 -2.7443917861795156e-05 0.014992891796087432 0 -5.3026909421506488e-05 0.01495172321694537 0 -4.9323991584107781e-05 0.014980179438431801 0 -5.3026909421506488e-05 0.01495172321694537 0 -0.00026666861832284742 0.01475954618791198 0 -0.00026648266970400207 0.014958619517244235 0 -0.00026666861832284742 0.01475954618791198 0 -0.00026648266970400207 0.014958619517244235 0 -0.000541451509057626 0.014999158672162317 0 -5.3026909421506488e-05 0.01495172321694537 0 -0.00026648266970400207 0.014958619517244235 0 -0.00026623777954275745 0.01513325717628922 0 -0.00026648266970400207 0.014958619517244235 0 -0.00026623777954275745 0.01513325717628922 0 -0.000541451509057626 0.014999158672162317 0 -0.00060546426895101576 0.013465585615183795 0 -0.00062705970768761783 0.01374946176929763 0 -0.00054395278950251924 0.013613776563213513 0 -0.00051784286910205824 0.015362625015755325 0 -0.00026623777954275745 0.01513325717628922 0 -0.000541451509057626 0.014999158672162317 0 -0.00026666861832284742 0.01475954618791198 0 -0.000541451509057626 0.014999158672162317 0 -0.00052140917765759168 0.014312790582074641 0 -0.00059574619260856622 0.014351748984094232 0 -0.00052755590627062969 0.014321089761713746 0 -0.00062705970768761783 0.01374946176929763 0 -0.00052140917765759168 0.014312790582074641 0 -0.0005022503275149482 0.013942615061808463 0 -0.00010729204672714849 0.014807779279862808 0 -0.00026666861832284742 0.01475954618791198 0 -0.00030323162084723896 0.014569547468121977 0 -0.00026666861832284742 0.01475954618791198 0 -0.00052140917765759168 0.014312790582074641 0 -0.00030323162084723896 0.014569547468121977 0 -0.00030323162084723896 0.014569547468121977 0 -0.0004194593127220547 0.014398471805046442 0 -0.00024121010615224024 0.014625714138851317 0 -0.00010729204672714849 0.014807779279862808 0 -0.00030323162084723896 0.014569547468121977 0 -0.00024121010615224024 0.014625714138851317 0 -0.00052140917765759168 0.014312790582074641 0 -0.00030323162084723896 0.014569547468121977 0 -0.0004194593127220547 0.014398471805046442 0 -0.00052140917765759168 0.014312790582074641 0 -0.0004194593127220547 0.014398471805046442 0 -0.00045356381514878846 0.014138740924088797 0 -0.0004194593127220547 0.014398471805046442 0 -0.00045356381514878846 0.014138740924088797 0 -0.00042563870401823866 0.014288330580782042 0 -0.00045356381514878846 0.014138740924088797 0 -0.00036508184974510995 0.014091896678670401 0 -0.00042563870401823866 0.014288330580782042 0 -0.00033020973607065986 0.013844195647243731 0 -0.00025910048288928483 0.013820309675445657 0 -0.00036508184974510995 0.014091896678670401 0 -0.00045356381514878846 0.014138740924088797 0 -0.00033020973607065986 0.013844195647243731 0 -0.00036508184974510995 0.014091896678670401 0 -0.00033020973607065986 0.013844195647243731 0 -0.00047605742735574693 0.013964687518638819 0 -0.00036563219404742067 0.013667177318537739 0 -0.00033020973607065986 0.013844195647243731 0 -0.00036563219404742067 0.013667177318537739 0 -0.00025178027121982791 0.013537041274935952 0 -0.00045356381514878846 0.014138740924088797 0 -0.00033020973607065986 0.013844195647243731 0 -0.00047605742735574693 0.013964687518638819 0 -0.00052140917765759168 0.014312790582074641 0 -0.00047605742735574693 0.013964687518638819 0 -0.0005022503275149482 0.013942615061808463 0 -0.00052140917765759168 0.014312790582074641 0 -0.00045356381514878846 0.014138740924088797 0 -0.00047605742735574693 0.013964687518638819 0 -0.00047605742735574693 0.013964687518638819 0 -0.0005022503275149482 0.013942615061808463 0 -0.00044894956408481415 0.013786504491431616 0 -0.00048354692745508756 0.013924902971422176 0 -0.00049804831608206337 0.013590453116261114 0 -0.00047605742735574693 0.013964687518638819 0 -0.00055911360773416375 0.013382270980561458 0 -0.00036563219404742067 0.013667177318537739 0 -0.00062705970768761783 0.01374946176929763 0 -0.0005022503275149482 0.013942615061808463 0 -0.00044894956408481415 0.013786504491431616 0 -0.00048160706010392222 0.013352045638846888 0 -0.00049804831608206337 0.013590453116261114 0 -0.00062705970768761783 0.01374946176929763 0 -0.00044894956408481415 0.013786504491431616 0 -0.00054395278950251924 0.013613776563213513 0 -0.00049887255677595567 0.013117027995315379 0 -0.00055911360773416375 0.013382270980561458 0 -0.00039339988084834035 0.013249003160009494 0 -0.00047146168561116924 0.013533937734385769 0 -0.00044894956408481415 0.013786504491431616 0 -0.00054395278950251924 0.013613776563213513 0 -0.0003244359587261553 0.013103011355929787 0 -0.00039339988084834035 0.013249003160009494 0 -0.00025808293615135812 0.013266782753023757 0 -0.00055911360773416375 0.013382270980561458 0 -0.00039339988084834035 0.013249003160009494 0 -0.00034703422265698895 0.013436029198787924 0 -0.00039339988084834035 0.013249003160009494 0 -0.00034703422265698895 0.013436029198787924 0 -0.00025808293615135812 0.013266782753023757 0 -0.00034703422265698895 0.013436029198787924 0 -0.00025178027121982791 0.013537041274935952 0 -0.00025808293615135812 0.013266782753023757 0 -0.00055911360773416375 0.013382270980561458 0 -0.00034703422265698895 0.013436029198787924 0 -0.00036563219404742067 0.013667177318537739 0 -0.00034703422265698895 0.013436029198787924 0 -0.00036563219404742067 0.013667177318537739 0 -0.00025178027121982791 0.013537041274935952 0 -0.00025178027121982791 0.013537041274935952 0 -0.00013986482929987865 0.013301087282968936 0 -0.00025808293615135812 0.013266782753023757 0 -0.00025178027121982791 0.013537041274935952 0 -0.00013986482929987865 0.013301087282968936 0 -0.00014133923199332647 0.013528517671053888 0 -0.00018413516218689641 0.013150023754968718 0 -0.00013986482929987865 0.013301087282968936 0 -0.00025808293615135812 0.013266782753023757 0 -0.00018413516218689641 0.013150023754968718 0 -0.00013986482929987865 0.013301087282968936 0 -8.2570613390213097e-05 0.013144627159860717 0 -1.3502158630931594e-05 0.013197907730815136 0 -0.00013986482929987865 0.013301087282968936 0 -8.2570613390213097e-05 0.013144627159860717 0 -1.3502158630931594e-05 0.013197907730815136 0 -0.00013986482929987865 0.013301087282968936 0 -0.00014133923199332647 0.013528517671053888 0 -1.3502158630931594e-05 0.013197907730815136 0 2.9439440610534058e-06 0.013340192216691815 0 -0.00014133923199332647 0.013528517671053888 0 -0.00033020973607065986 0.013844195647243731 0 -0.00025178027121982791 0.013537041274935952 0 -0.00014133923199332647 0.013528517671053888 0 -0.00014133923199332647 0.013528517671053888 0 -0.00025910048288928483 0.013820309675445657 0 -0.00018891654476655605 0.013834261970854543 0 -0.00033020973607065986 0.013844195647243731 0 -0.00014133923199332647 0.013528517671053888 0 -0.00025910048288928483 0.013820309675445657 0 2.9439440610534058e-06 0.013340192216691815 0 -0.00014133923199332647 0.013528517671053888 0 -0.00018891654476655605 0.013834261970854543 0 2.9439440610534058e-06 0.013340192216691815 0 7.8185749967173417e-05 0.013785586915884742 0 -0.00018891654476655605 0.013834261970854543 0 7.8185749967173417e-05 0.013785586915884742 0 -0.00018891654476655605 0.013834261970854543 0 -0.00013136082550982769 0.014171390083454281 0 -0.00025910048288928483 0.013820309675445657 0 -0.00018891654476655605 0.013834261970854543 0 -0.00036508184974510995 0.014091896678670401 0 -0.00018891654476655605 0.013834261970854543 0 -0.00029333692144226358 0.014155086859145263 0 -0.00036508184974510995 0.014091896678670401 0 -0.00018891654476655605 0.013834261970854543 0 -0.00029333692144226358 0.014155086859145263 0 -0.00013136082550982769 0.014171390083454281 0 -8.7589868708217385e-05 0.013533629353776333 0 -0.00022046525586363777 0.01317801048651079 0 -0.00036066120981387311 0.013641954715327158 0 -8.7589868708217385e-05 0.013533629353776333 0 -0.00036066120981387311 0.013641954715327158 0 -0.00017577185877898526 0.013960953191072923 0 -0.00029333692144226358 0.014155086859145263 0 -0.00032600045387344833 0.014298565902045932 0 -0.00036533270866147781 0.014262035121276887 0 -0.00029333692144226358 0.014155086859145263 0 -0.00013136082550982769 0.014171390083454281 0 -0.00032600045387344833 0.014298565902045932 0 -0.00016959498420423215 0.013667630177395139 0 -0.00032646368292890698 0.013958405175663291 0 -0.00032600045387344833 0.014298565902045932 0 -0.00036533270866147781 0.014262035121276887 0 -0.00034859052253895131 0.014287461671152708 0 -0.00032646368292890698 0.013958405175663291 0 -0.00036924021042661294 0.014124120682070432 0 -0.00032600045387344833 0.014298565902045932 0 -0.00034859052253895131 0.014287461671152708 0 -0.00037372366053706603 0.014159732464730629 0 -0.00034859052253895131 0.014287461671152708 0 -0.000372632263936919 0.014322827066891728 0 -0.0003401002086340126 0.014323581344393108 0 -0.00034859052253895131 0.014287461671152708 0 -0.0003401002086340126 0.014323581344393108 0 -0.00032518373214507243 0.014298311280993431 0 -0.00036533270866147781 0.014262035121276887 0 -0.00034859052253895131 0.014287461671152708 0 -0.000372632263936919 0.014322827066891728 0 -0.00036533270866147781 0.014262035121276887 0 -0.000372632263936919 0.014322827066891728 0 -0.00039727232177287457 0.014262350807364365 0 -0.000372632263936919 0.014322827066891728 0 -0.00039727232177287457 0.014262350807364365 0 -0.00038206932672930704 0.014372798698705429 0 -0.00029333692144226358 0.014155086859145263 0 -0.00036533270866147781 0.014262035121276887 0 -0.00036508184974510995 0.014091896678670401 0 -0.00036533270866147781 0.014262035121276887 0 -0.00039727232177287457 0.014262350807364365 0 -0.00036508184974510995 0.014091896678670401 0 -0.00039727232177287457 0.014262350807364365 0 -0.00042563870401823866 0.014288330580782042 0 -0.00038206932672930704 0.014372798698705429 0 -0.00039727232177287457 0.014262350807364365 0 -0.00036508184974510995 0.014091896678670401 0 -0.00042563870401823866 0.014288330580782042 0 -0.00042563870401823866 0.014288330580782042 0 -0.00036193059349439545 0.014448759140519385 0 -0.00038206932672930704 0.014372798698705429 0 -0.0004194593127220547 0.014398471805046442 0 -0.00042563870401823866 0.014288330580782042 0 -0.00036193059349439545 0.014448759140519385 0 -0.0004194593127220547 0.014398471805046442 0 -0.00036193059349439545 0.014448759140519385 0 -0.00024121010615224024 0.014625714138851317 0 -0.00036193059349439545 0.014448759140519385 0 -0.00024121010615224024 0.014625714138851317 0 -0.00029725686182863138 0.014527996292067358 0 -0.00029725686182863138 0.014527996292067358 0 -0.00038206932672930704 0.014372798698705429 0 -0.00034062825182886353 0.014385419021266509 0 -0.00036193059349439545 0.014448759140519385 0 -0.00029725686182863138 0.014527996292067358 0 -0.00038206932672930704 0.014372798698705429 0 -0.000372632263936919 0.014322827066891728 0 -0.00038206932672930704 0.014372798698705429 0 -0.00034062825182886353 0.014385419021266509 0 -0.000372632263936919 0.014322827066891728 0 -0.0003401002086340126 0.014323581344393108 0 -0.00034062825182886353 0.014385419021266509 0 -0.0003401002086340126 0.014323581344393108 0 -0.00031378947564368674 0.014347264499520821 0 -0.00034062825182886353 0.014385419021266509 0 -0.00029725686182863138 0.014527996292067358 0 -0.00034062825182886353 0.014385419021266509 0 -0.0001665645944266065 0.014485679287832053 0 -0.00020440600593136233 0.014897330367202127 0 -4.4097400738186593e-05 0.015019770241313764 0 -4.3744737201500989e-05 0.014927754210496988 0 -0.00031378947564368674 0.014347264499520821 0 -0.00034062825182886353 0.014385419021266509 0 -0.0001665645944266065 0.014485679287832053 0 -0.0002459929081766849 0.014618542389035195 0 -0.00012037589389614794 0.014753472066862 0 -4.4097400738186593e-05 0.015019770241313764 0 -8.8912078650507196e-08 0.015000178895841057 0 -4.3744737201500989e-05 0.014927754210496988 0 -4.4097400738186593e-05 0.015019770241313764 0 -8.8912078650507196e-08 0.015000178895841057 0 2.7541785561235746e-08 0.014999956958751635 0 -0.0001665645944266065 0.014485679287832053 0 2.003550588125316e-08 0.01499887940878559 0 -0.00012820632236478565 0.014790079433115512 0 -0.00012037589389614794 0.014753472066862 0 -3.7017960115415348e-08 0.014999898461043036 0 -0.00029725686182863138 0.014527996292067358 0 -0.0001665645944266065 0.014485679287832053 0 -0.00012820632236478565 0.014790079433115512 0 -0.00024121010615224024 0.014625714138851317 0 -0.00029725686182863138 0.014527996292067358 0 -0.00012820632236478565 0.014790079433115512 0 -0.00011087672829750316 0.014809156854923185 0 -0.00024121010615224024 0.014625714138851317 0 -0.00012820632236478565 0.014790079433115512 0 -1.0954670684165875e-07 0.014999924155044085 0 2.003550588125316e-08 0.01499887940878559 0 -0.00012820632236478565 0.014790079433115512 0 -1.0954670684165875e-07 0.014999924155044085 0 -0.00011087672829750316 0.014809156854923185 0 -0.00012820632236478565 0.014790079433115512 0 -4.6316672630420528e-09 0.015000004254251754 0 -4.4115217949221844e-06 0.015000963242378942 0 -4.9607587477108957e-06 0.014997863804430968 0 -4.6316672630420528e-09 0.015000004254251754 0 -4.4115217949221844e-06 0.015000963242378942 0 -1.2092495245699482e-06 0.015000376495389182 0 -1.9535770128433791e-05 0.014968226662731158 0 -1.6205755110375779e-05 0.014946440584768923 0 -3.8008949448714771e-05 0.014957034938395458 0 -1.9535770128433791e-05 0.014968226662731158 0 -1.6205755110375779e-05 0.014946440584768923 0 -9.7094410495158717e-06 0.014973539472125912 0 -0.0001790005839507855 0.014347822031231489 0 -0.00017171885222941452 0.014513959401361888 0 5.4342699644092606e-06 0.014522862926460581 0 -1.6205755110375779e-05 0.014946440584768923 0 -3.8008949448714771e-05 0.014957034938395458 0 -5.8111386682232031e-05 0.014908126489436735 0 -0.0001790005839507855 0.014347822031231489 0 -0.00017171885222941452 0.014513959401361888 0 -0.00022339218307669453 0.014406861598336887 0 -9.9485489734778325e-05 0.014643021090941542 0 -3.7623951755688586e-05 0.014846208885039302 0 -4.6316672630420528e-09 0.015000004254251754 0 -1.2092495245699482e-06 0.015000376495389182 0 -1.0841476679188849e-10 0.01499999953948416 0 -1.2092495245699482e-06 0.015000376495389182 0 -8.4232119219123756e-07 0.015000169388782613 0 -1.0841476679188849e-10 0.01499999953948416 0 -4.4115217949221844e-06 0.015000963242378942 0 -1.2092495245699482e-06 0.015000376495389182 0 -8.4232119219123756e-07 0.015000169388782613 0 -1.4579317774666829e-05 0.014998606535001346 0 -3.7623951755688586e-05 0.014846208885039302 0 -3.7623951755688586e-05 0.014846208885039302 0 6.1815957021410272e-08 0.014999994267685543 0 -5.9731700215146975e-07 0.014999177807186992 0 -1.9785459342531532e-09 0.014999994984714018 0 1.3376121250424523e-09 0.015000003174644658 0 5.4342699644092606e-06 0.014522862926460581 0 -8.3869033590129667e-05 0.014746025544988576 0 2.3483520942556718e-07 0.014999129973641518 0 -3.7623951755688586e-05 0.014846208885039302 0 -9.934812626091471e-09 0.014999809619955666 0 -8.3869033590129667e-05 0.014746025544988576 0 2.3483520942556718e-07 0.014999129973641518 0 -4.3744737201500989e-05 0.014927754210496988 0 -8.8912078650507196e-08 0.015000178895841057 0 2.3483520942556718e-07 0.014999129973641518 0 -4.3744737201500989e-05 0.014927754210496988 0 -8.3869033590129667e-05 0.014746025544988576 0 -4.3744737201500989e-05 0.014927754210496988 0 -0.00019458806324525996 0.014638935908317521 0 -0.00020440600593136233 0.014897330367202127 0 -4.3744737201500989e-05 0.014927754210496988 0 -0.00019458806324525996 0.014638935908317521 0 -0.00017171885222941452 0.014513959401361888 0 5.4342699644092606e-06 0.014522862926460581 0 -8.3869033590129667e-05 0.014746025544988576 0 -0.00017171885222941452 0.014513959401361888 0 -8.3869033590129667e-05 0.014746025544988576 0 -0.00019458806324525996 0.014638935908317521 0 -0.00017171885222941452 0.014513959401361888 0 -0.00019458806324525996 0.014638935908317521 0 -0.00027149127224395915 0.014415960145882501 0 -0.00019458806324525996 0.014638935908317521 0 -0.00032587607093231705 0.014440222311177446 0 -0.00027149127224395915 0.014415960145882501 0 -0.00020440600593136233 0.014897330367202127 0 -0.00019458806324525996 0.014638935908317521 0 -0.00032587607093231705 0.014440222311177446 0 -0.0002459929081766849 0.014618542389035195 0 -0.00032025085940599792 0.014470642215912561 0 -0.0003401002086340126 0.014323581344393108 0 -0.00031378947564368674 0.014347264499520821 0 -0.00032587607093231705 0.014440222311177446 0 -0.0003401002086340126 0.014323581344393108 0 -0.00032587607093231705 0.014440222311177446 0 -0.00032518373214507243 0.014298311280993431 0 -0.00032587607093231705 0.014440222311177446 0 -0.00030747921347652421 0.01435865237323361 0 -0.00027149127224395915 0.014415960145882501 0 -0.00032587607093231705 0.014440222311177446 0 -0.00030747921347652421 0.01435865237323361 0 -0.00032518373214507243 0.014298311280993431 0 -0.00030747921347652421 0.01435865237323361 0 -0.00027171290400608989 0.01435057204291358 0 -0.00027149127224395915 0.014415960145882501 0 -0.00030747921347652421 0.01435865237323361 0 -0.00027171290400608989 0.01435057204291358 0 -0.00027612782907099283 0.014329190191734139 0 -0.00017171885222941452 0.014513959401361888 0 -0.00027149127224395915 0.014415960145882501 0 -0.00022339218307669453 0.014406861598336887 0 -0.0001790005839507855 0.014347822031231489 0 -0.00022339218307669453 0.014406861598336887 0 -0.00024401352157576187 0.014357735240453503 0 -0.00027149127224395915 0.014415960145882501 0 -0.00022339218307669453 0.014406861598336887 0 -0.00024401352157576187 0.014357735240453503 0 -0.00027171290400608989 0.01435057204291358 0 -0.00027149127224395915 0.014415960145882501 0 -0.00024401352157576187 0.014357735240453503 0 -0.0001790005839507855 0.014347822031231489 0 -0.00024401352157576187 0.014357735240453503 0 -0.00025588045457769406 0.014308133103812874 0 -1.6205755110375779e-05 0.014946440584768923 0 6.9865091359333987e-06 0.014976861908172509 0 -9.7094410495158717e-06 0.014973539472125912 0 -0.00027171290400608989 0.01435057204291358 0 -0.00024401352157576187 0.014357735240453503 0 -0.00025770346159550295 0.014329321591856662 0 -9.9485489734778325e-05 0.014643021090941542 0 -0.00012136105847117218 0.014569280913564646 0 -0.00024401352157576187 0.014357735240453503 0 -0.00025770346159550295 0.014329321591856662 0 -0.00025588045457769406 0.014308133103812874 0 -0.00014264319558101126 0.014401190798075709 0 -0.00012136105847117218 0.014569280913564646 0 -0.00025770346159550295 0.014329321591856662 0 -0.00025181946693046952 0.014332757920192635 0 -0.00021498254282372606 0.014339713003669844 0 -0.00025770346159550295 0.014329321591856662 0 -0.00021498254282372606 0.014339713003669844 0 -0.00025941396634845113 0.014345941998811352 0 -0.00025181946693046952 0.014332757920192635 0 -0.00023888549171710287 0.014329299162484552 0 -0.00021498254282372606 0.014339713003669844 0 -0.00027171290400608989 0.01435057204291358 0 -0.00025181946693046952 0.014332757920192635 0 -0.00027612782907099283 0.014329190191734139 0 -0.00025181946693046952 0.014332757920192635 0 -0.00023888549171710287 0.014329299162484552 0 -0.00027612782907099283 0.014329190191734139 0 -0.00027171290400608989 0.01435057204291358 0 -0.00025770346159550295 0.014329321591856662 0 -0.00025181946693046952 0.014332757920192635 0 -0.00023888549171710287 0.014329299162484552 0 -0.00025392318675156129 0.014298241272984926 0 -0.00027612782907099283 0.014329190191734139 0 -0.00023888549171710287 0.014329299162484552 0 -0.00025392318675156129 0.014298241272984926 0 -0.0001992988023949953 0.014341109581814206 0 -0.00023888549171710287 0.014329299162484552 0 -0.0001992988023949953 0.014341109581814206 0 -0.00021498254282372606 0.014339713003669844 0 -0.00025392318675156129 0.014298241272984926 0 -0.00019885998543217384 0.014300566271509682 0 -0.0001992988023949953 0.014341109581814206 0 -0.00025392318675156129 0.014298241272984926 0 -0.00026047810460084656 0.014203031111055732 0 -0.00019885998543217384 0.014300566271509682 0 -0.00025392318675156129 0.014298241272984926 0 -0.00031069257708547457 0.014275137775478402 0 -0.00026047810460084656 0.014203031111055732 0 -0.00025392318675156129 0.014298241272984926 0 -0.00027612782907099283 0.014329190191734139 0 -0.00031069257708547457 0.014275137775478402 0 -0.00030747921347652421 0.01435865237323361 0 -0.00027612782907099283 0.014329190191734139 0 -0.00031069257708547457 0.014275137775478402 0 -0.00030747921347652421 0.01435865237323361 0 -0.00031069257708547457 0.014275137775478402 0 -0.00032518373214507243 0.014298311280993431 0 -0.00031069257708547457 0.014275137775478402 0 -0.00032518373214507243 0.014298311280993431 0 -0.00037372366053706603 0.014159732464730629 0 -0.00034859052253895131 0.014287461671152708 0 -0.00032518373214507243 0.014298311280993431 0 -0.00037372366053706603 0.014159732464730629 0 -0.00031069257708547457 0.014275137775478402 0 -0.00037372366053706603 0.014159732464730629 0 -0.00026047810460084656 0.014203031111055732 0 -0.00037372366053706603 0.014159732464730629 0 -0.00026047810460084656 0.014203031111055732 0 -0.00017577185877898526 0.013960953191072923 0 -0.00036066120981387311 0.013641954715327158 0 -0.00037372366053706603 0.014159732464730629 0 -0.00017577185877898526 0.013960953191072923 0 -0.00017577185877898526 0.013960953191072923 0 -0.00010191376989487611 0.014193699268596472 0 2.8323020908033419e-05 0.014014288978908902 0 -0.00026047810460084656 0.014203031111055732 0 -0.00017577185877898526 0.013960953191072923 0 -0.00010191376989487611 0.014193699268596472 0 -0.00026047810460084656 0.014203031111055732 0 -0.00010191376989487611 0.014193699268596472 0 -0.00019885998543217384 0.014300566271509682 0 -0.00010191376989487611 0.014193699268596472 0 -0.00019885998543217384 0.014300566271509682 0 -0.00010599983622668787 0.014337764768400992 0 -0.00019885998543217384 0.014300566271509682 0 -0.00010599983622668787 0.014337764768400992 0 -0.00016563692988959833 0.014350256797471704 0 -0.00010599983622668787 0.014337764768400992 0 -0.00012957573747917798 0.014357521637421983 0 -0.00016563692988959833 0.014350256797471704 0 -0.00012957573747917798 0.014357521637421983 0 -0.00013810879548208793 0.014352852859195521 0 -0.00016563692988959833 0.014350256797471704 0 -0.00012957573747917798 0.014357521637421983 0 -0.00013810879548208793 0.014352852859195521 0 -9.000939544895258e-05 0.014390398384445956 0 -0.00010599983622668787 0.014337764768400992 0 -0.00012957573747917798 0.014357521637421983 0 -9.000939544895258e-05 0.014390398384445956 0 -6.8502645082836678e-06 0.013823936307721493 0 0.0001801736377346214 0.013691182858087469 0 -0.00016883151676746401 0.014321406724335087 0 -0.00013810879548208793 0.014352852859195521 0 -9.000939544895258e-05 0.014390398384445956 0 0.00011947512896683858 0.013319751427452869 0 0.00045304218758748257 0.012994096344929882 0 0.00038487507786495739 0.013318984778516986 0 0.00045248869133072386 0.013530908199737813 0 0.00024569790056864783 0.013580734842516059 0 0.00038487507786495739 0.013318984778516986 0 0.00024569790056864783 0.013580734842516059 0 0.00011947512896683858 0.013319751427452869 0 0.00038487507786495739 0.013318984778516986 0 -0.00010344298485107152 0.014041839586151557 0 -0.00016883151676746401 0.014321406724335087 0 -0.00010322182557970479 0.014234047026205482 0 -0.00016883151676746401 0.014321406724335087 0 -0.00010322182557970479 0.014234047026205482 0 -0.00010472501085553609 0.014302082711434148 0 -9.4376433751932232e-05 0.01400341624224982 0 -6.8502645082836678e-06 0.013823936307721493 0 -0.00016883151676746401 0.014321406724335087 0 -0.00013810879548208793 0.014352852859195521 0 -0.00010472501085553609 0.014302082711434148 0 -0.00013810879548208793 0.014352852859195521 0 -0.00010472501085553609 0.014302082711434148 0 -6.0947506527913462e-05 0.014309616341114854 0 -0.00013810879548208793 0.014352852859195521 0 -6.0947506527913462e-05 0.014309616341114854 0 -0.00013397742884098933 0.014346917956562856 0 -0.00010472501085553609 0.014302082711434148 0 -2.8070074211543324e-05 0.014259361026935851 0 -6.0947506527913462e-05 0.014309616341114854 0 -0.00010322182557970479 0.014234047026205482 0 -0.00010472501085553609 0.014302082711434148 0 -2.8070074211543324e-05 0.014259361026935851 0 -1.4840423885823306e-06 0.014289714808750659 0 -6.0947506527913462e-05 0.014309616341114854 0 -2.4836317682885512e-05 0.014317287972546174 0 -2.8070074211543324e-05 0.014259361026935851 0 -1.4840423885823306e-06 0.014289714808750659 0 -6.0947506527913462e-05 0.014309616341114854 0 -6.0947506527913462e-05 0.014309616341114854 0 -0.00013397742884098933 0.014346917956562856 0 -7.7685389475963876e-05 0.014320071688003063 0 -6.0947506527913462e-05 0.014309616341114854 0 -7.7685389475963876e-05 0.014320071688003063 0 -2.4836317682885512e-05 0.014317287972546174 0 -0.00013397742884098933 0.014346917956562856 0 -0.00015659185897359777 0.014357257793987225 0 -7.7685389475963876e-05 0.014320071688003063 0 -0.00013810879548208793 0.014352852859195521 0 -0.00013397742884098933 0.014346917956562856 0 -0.00016563692988959833 0.014350256797471704 0 -0.00019885998543217384 0.014300566271509682 0 -0.00016563692988959833 0.014350256797471704 0 -0.0001992988023949953 0.014341109581814206 0 -0.00013397742884098933 0.014346917956562856 0 -0.00016563692988959833 0.014350256797471704 0 -0.0001992988023949953 0.014341109581814206 0 -0.0001992988023949953 0.014341109581814206 0 -0.00015659185897359777 0.014357257793987225 0 -0.00021498254282372606 0.014339713003669844 0 -0.00013397742884098933 0.014346917956562856 0 -0.0001992988023949953 0.014341109581814206 0 -0.00015659185897359777 0.014357257793987225 0 -0.00015659185897359777 0.014357257793987225 0 -9.4378416066861801e-05 0.014414099317541312 0 -6.6997448079157324e-05 0.014330938182160186 0 -0.00020586471901261547 0.014314751797696559 0 -0.00012136105847117218 0.014569280913564646 0 -0.00015659185897359777 0.014357257793987225 0 -0.00021498254282372606 0.014339713003669844 0 -0.00025941396634845113 0.014345941998811352 0 -0.00012136105847117218 0.014569280913564646 0 -3.3742871109416517e-05 0.014687330548545662 0 6.9865091359333987e-06 0.014976861908172509 0 -5.9478255471668304e-06 0.014986844993887603 0 -1.0251841079839634e-05 0.014997082307135673 0 6.9865091359333987e-06 0.014976861908172509 0 -9.7094410495158717e-06 0.014973539472125912 0 -5.9478255471668304e-06 0.014986844993887603 0 -5.9478255471668304e-06 0.014986844993887603 0 -1.0251841079839634e-05 0.014997082307135673 0 -1.2583094457296703e-05 0.014993514351833591 0 -0.00015659185897359777 0.014357257793987225 0 -6.6997448079157324e-05 0.014330938182160186 0 -7.7685389475963876e-05 0.014320071688003063 0 -7.7685389475963876e-05 0.014320071688003063 0 -2.4836317682885512e-05 0.014317287972546174 0 -6.0266048555223029e-05 0.014317935810150024 0 -2.0496740864150991e-05 0.014374763030062377 0 -2.4836317682885512e-05 0.014317287972546174 0 -6.0266048555223029e-05 0.014317935810150024 0 -6.6997448079157324e-05 0.014330938182160186 0 -7.7685389475963876e-05 0.014320071688003063 0 -6.0266048555223029e-05 0.014317935810150024 0 -3.3742871109416517e-05 0.014687330548545662 0 -4.4022316077794397e-05 0.014652197092958468 0 -1.0251841079839634e-05 0.014997082307135673 0 -2.5445581742328644e-05 0.014994317810532912 0 -1.0690356627183494e-05 0.014998791068208993 0 -2.5445581742328644e-05 0.014994317810532912 0 -3.283172001140315e-08 0.015000045883124841 0 -1.0690356627183494e-05 0.014998791068208993 0 -4.3905551066382549e-05 0.014977979450345813 0 -2.5445581742328644e-05 0.014994317810532912 0 -3.283172001140315e-08 0.015000045883124841 0 -6.037096346479283e-05 0.014708051450208901 0 -4.4022316077794397e-05 0.014652197092958468 0 -3.283172001140315e-08 0.015000045883124841 0 -2.2626355527541708e-09 0.014999983622876339 0 -1.0690356627183494e-05 0.014998791068208993 0 -2.2626355527541708e-09 0.014999983622876339 0 -1.0690356627183494e-05 0.014998791068208993 0 -4.9607587477108957e-06 0.014997863804430968 0 -1.0690356627183494e-05 0.014998791068208993 0 -1.2583094457296703e-05 0.014993514351833591 0 -4.9607587477108957e-06 0.014997863804430968 0 -1.0251841079839634e-05 0.014997082307135673 0 -1.0690356627183494e-05 0.014998791068208993 0 -1.2583094457296703e-05 0.014993514351833591 0 -1.4579317774666829e-05 0.014998606535001346 0 -1.6973517280754474e-05 0.014984146081932725 0 -1.9535770128433791e-05 0.014968226662731158 0 -3.8008949448714771e-05 0.014957034938395458 0 -1.2583094457296703e-05 0.014993514351833591 0 -4.4115217949221844e-06 0.015000963242378942 0 -1.2583094457296703e-05 0.014993514351833591 0 -4.9607587477108957e-06 0.014997863804430968 0 -1.9535770128433791e-05 0.014968226662731158 0 -9.7094410495158717e-06 0.014973539472125912 0 -1.2583094457296703e-05 0.014993514351833591 0 -9.7094410495158717e-06 0.014973539472125912 0 -5.9478255471668304e-06 0.014986844993887603 0 -1.2583094457296703e-05 0.014993514351833591 0 -4.6316672630420528e-09 0.015000004254251754 0 -2.2626355527541708e-09 0.014999983622876339 0 -4.9607587477108957e-06 0.014997863804430968 0 0.0028004438630892365 0.012356333493022927 0 0.0027271004158953378 0.012317074427704269 0 0.0027428010074148777 0.012420516895327296 0 0.0014004037690745169 0.012727447737592403 0 0.0021011129894986636 0.012510699644055217 0 0.0009144593942898685 0.01238635827440757 0 0.0010812905642780457 0.012677488532188122 0 0.0011997131825324237 0.01246781139378891 0 0.00089042835530541147 0.012729923019318735 0 0.00086332738600720829 0.012779226664934 0 0.00083859712387225106 0.01276702161768214 0 0.001369920955211931 0.013263064108559468 0 0.0012827914997569512 0.013135172954334655 0 0.0011068836080969471 0.013187780283940985 0 0.00089042835530541147 0.012729923019318735 0 0.00081438360593221967 0.01270490475894368 0 0.00083859712387225106 0.01276702161768214 0 0.0014004037690745169 0.012727447737592403 0 0.00077900189056763621 0.013470927788166684 0 0.00089042835530541147 0.012729923019318735 0 0.00086332738600720829 0.012779226664934 0 0.00088421526461591256 0.012806227026225591 0 0.0014004037690745169 0.012727447737592403 0 0.00076511738650627214 0.0127294619754387 0 0.00086332738600720829 0.012779226664934 0 0.00083859712387225106 0.01276702161768214 0 0.00083360791311002649 0.012822152412786534 0 0.00086332738600720829 0.012779226664934 0 0.00083360791311002649 0.012822152412786534 0 0.00088421526461591256 0.012806227026225591 0 0.0010812905642780457 0.012677488532188122 0 0.0010087303833463666 0.01280471675081581 0 0.00088421526461591256 0.012806227026225591 0 0.0009144593942898685 0.01238635827440757 0 0.0010812905642780457 0.012677488532188122 0 0.00088421526461591256 0.012806227026225591 0 0.0012744326819518058 0.012690245876927717 0 0.0014833475712211857 0.01253819545466103 0 0.0011997131825324237 0.01246781139378891 0 0.0010812905642780457 0.012677488532188122 0 0.0012744326819518058 0.012690245876927717 0 0.0011997131825324237 0.01246781139378891 0 0.0012744326819518058 0.012690245876927717 0 0.0014833475712211857 0.01253819545466103 0 0.0014353273590870929 0.012873147339503401 0 0.0019430315469743549 0.008509263787189426 0 0.0019396418671007603 0.0085011627478057562 0 0.0019387599835816996 0.0084928166044396756 0 0.0021092644267704744 0.010272529680327328 0 0.0010433421005159389 0.011761036396185597 0 0.0021092644267704744 0.010272529680327328 0 0.001706613743654477 0.0087800070582838806 0 0.0020067619606522367 0.008512443247918642 0 0.0020051932250416652 0.0086333976929632416 0 0.0019567978812108713 0.0085636196577168529 0 0.0026215433180619293 0.012256744861515801 0 0.0026649630918892373 0.012338394812158267 0 0.002606168351514386 0.012389777489768616 0 0.0020067619606522367 0.008512443247918642 0 0.0019387599835816996 0.0084928166044396756 0 0.0019567978812108713 0.0085636196577168529 0 0.0021092644267704744 0.010272529680327328 0 0.0026632618527319667 0.011028948678619657 0 0.0021092644267704744 0.010272529680327328 0 0.0021011129894986636 0.012510699644055217 0 0.0027271004158953378 0.012317074427704269 0 0.0026960526623760399 0.012395595063469126 0 0.0027428010074148777 0.012420516895327296 0 0.0026215433180619293 0.012256744861515801 0 0.0027271004158953378 0.012317074427704269 0 0.0026649630918892373 0.012338394812158267 0 0.0027271004158953378 0.012317074427704269 0 0.0026649630918892373 0.012338394812158267 0 0.0026960526623760399 0.012395595063469126 0 0.0027308879708890592 0.012466888688675728 0 0.0027025292060925974 0.012453519876174893 0 0.0027428010074148777 0.012420516895327296 0 0.0026960526623760399 0.012395595063469126 0 0.0027025292060925974 0.012453519876174893 0 0.0027428010074148777 0.012420516895327296 0 0.002833852276714244 0.010690019374883435 0 0.0027773055333027148 0.011156012675576246 0 0.0026618142045972413 0.010694411361564951 0 0.0026635119121968887 0.012402044378655009 0 0.0026775021011382341 0.012476522272526153 0 0.0027025292060925974 0.012453519876174893 0 0.0026632618527319667 0.011028948678619657 0 0.0027066840273752548 0.012023144685638075 0 0.0028314865081212272 0.010824559767144292 0 0.0023926908884553269 0.009795940175888411 0 0.0020051932250416652 0.0086333976929632416 0 0.0019567978812108713 0.0085636196577168529 0 0.0019597787260856327 0.0086364214646019507 0 0.0026632618527319667 0.011028948678619657 0 0.0023926908884553269 0.009795940175888411 0 0.0026605583458006294 0.012158660304758755 0 0.0026632618527319667 0.011028948678619657 0 0.0026649630918892373 0.012338394812158267 0 0.0026960526623760399 0.012395595063469126 0 0.002606168351514386 0.012389777489768616 0 0.0026960526623760399 0.012395595063469126 0 0.0026635119121968887 0.012402044378655009 0 0.0027025292060925974 0.012453519876174893 0 0.0027280636590046093 0.011599029812248392 0 0.0026932634976640757 0.011158149133165568 0 0.0027773055333027148 0.011156012675576246 0 0.0026932634976640757 0.011158149133165568 0 0.0027773055333027148 0.011156012675576246 0 0.0026618142045972413 0.010694411361564951 0 0.0028594151740292712 0.011368970173587232 0 0.0028314865081212272 0.010824559767144292 0 0.0027373712802825786 0.012527254156950178 0 0.0026775021011382341 0.012476522272526153 0 0.0027079067762591493 0.012504071492440661 0 0.0028594151740292712 0.011368970173587232 0 0.0027066840273752548 0.012023144685638075 0 0.0026775021011382341 0.012476522272526153 0 0.0027079067762591493 0.012504071492440661 0 0.0027025292060925974 0.012453519876174893 0 0.0027308879708890592 0.012466888688675728 0 0.0027025292060925974 0.012453519876174893 0 0.0027182402934936688 0.012488717929551243 0 0.0027177377192050367 0.012514567717548776 0 0.0027079067762591493 0.012504071492440661 0 0.0027182402934936688 0.012488717929551243 0 0.0027079067762591493 0.012504071492440661 0 0.0027025292060925974 0.012453519876174893 0 0.0027182402934936688 0.012488717929551243 0 0.0027308879708890592 0.012466888688675728 0 0.0027182402934936688 0.012488717929551243 0 0.002735213358026027 0.012494965903740276 0 0.0027177377192050367 0.012514567717548776 0 0.0027182402934936688 0.012488717929551243 0 0.002735213358026027 0.012494965903740276 0 0.001650929921154424 0.013003789911371754 0 0.0021020521722610688 0.012684310167579848 0 0.002735213358026027 0.012494965903740276 0 0.0027553037056063639 0.012502143804098703 0 0.0027601464987781089 0.012468671872616846 0 0.0027341320380122242 0.012513523685820619 0 0.002735213358026027 0.012494965903740276 0 0.0027553037056063639 0.012502143804098703 0 0.0027794744866950299 0.012501335194775486 0 0.0027601464987781089 0.012468671872616846 0 0.0027930722501508295 0.012434246327298743 0 0.0027553037056063639 0.012502143804098703 0 0.0027794744866950299 0.012501335194775486 0 0.0027601464987781089 0.012468671872616846 0 0.0014371909506074409 0.01338970411519283 0 0.001650929921154424 0.013003789911371754 0 0.0027308879708890592 0.012466888688675728 0 0.002735213358026027 0.012494965903740276 0 0.0027601464987781089 0.012468671872616846 0 0.0027308879708890592 0.012466888688675728 0 0.0027601464987781089 0.012468671872616846 0 0.0027428010074148777 0.012420516895327296 0 0.0027601464987781089 0.012468671872616846 0 0.0027428010074148777 0.012420516895327296 0 0.0027930722501508295 0.012434246327298743 0 0.0028004438630892365 0.012356333493022927 0 0.0027428010074148777 0.012420516895327296 0 0.0027930722501508295 0.012434246327298743 0 0.0014004037690745169 0.012727447737592403 0 0.0021020521722610688 0.012684310167579848 0 0.001369920955211931 0.013263064108559468 0 0.0013896177655422061 0.013051760698426599 0 0.0012827914997569512 0.013135172954334655 0 0.0012827914997569512 0.013135172954334655 0 0.0012585368777967543 0.013013294080556521 0 0.0011068836080969471 0.013187780283940985 0 0.0013896177655422061 0.013051760698426599 0 0.0012827914997569512 0.013135172954334655 0 0.0012585368777967543 0.013013294080556521 0 0.00088068897450217603 0.013856116936718357 0 0.00088004850291095043 0.013680626145991368 0 0.0006421397157526142 0.013873995756809789 0 0.0014110523286436584 0.012841626101974677 0 0.0013896177655422061 0.013051760698426599 0 0.0012585368777967543 0.013013294080556521 0 0.001650929921154424 0.013003789911371754 0 0.0010191892358065459 0.013492655775173048 0 0.0011563780101136467 0.013549243571359336 0 0.00088068897450217603 0.013856116936718357 0 0.00088004850291095043 0.013680626145991368 0 0.00098134027434397227 0.013516936145652346 0 0.0012660578751714246 0.013572860298271427 0 0.00092778458140849336 0.013747106638934291 0 0.0014371909506074409 0.01338970411519283 0 0.00087507056888002591 0.013737159575765642 0 0.0011628188986785794 0.013480342093310739 0 0.0011563780101136467 0.013549243571359336 0 0.00088004850291095043 0.013680626145991368 0 0.00098134027434397227 0.013516936145652346 0 0.00092778458140849336 0.013747106638934291 0 0.00071123355784277981 0.013600132307430918 0 0.00071123355784277981 0.013600132307430918 0 0.00049325326307094754 0.013743843917746584 0 0.0006421397157526142 0.013873995756809789 0 0.00092778458140849336 0.013747106638934291 0 0.00071123355784277981 0.013600132307430918 0 0.0006421397157526142 0.013873995756809789 0 0.00087507056888002591 0.013737159575765642 0 0.00069667960806717611 0.013845532221444355 0 0.00049325326307094754 0.013743843917746584 0 0.00047072996592386365 0.01391679790830317 0 0.0006421397157526142 0.013873995756809789 0 0.00051339070912340666 0.013549482585611309 0 0.00071123355784277981 0.013600132307430918 0 0.00049325326307094754 0.013743843917746584 0 0.00051339070912340666 0.013549482585611309 0 0.0003109696963578077 0.013654235362403936 0 0.00049325326307094754 0.013743843917746584 0 0.0003109696963578077 0.013654235362403936 0 0.00049325326307094754 0.013743843917746584 0 0.00032931891370446392 0.013871301188854582 0 0.00049325326307094754 0.013743843917746584 0 0.00047072996592386365 0.01391679790830317 0 0.00032931891370446392 0.013871301188854582 0 0.00047072996592386365 0.01391679790830317 0 0.00032931891370446392 0.013871301188854582 0 0.00036123226485515079 0.014025980908569524 0 0.00032931891370446392 0.013871301188854582 0 0.00036123226485515079 0.014025980908569524 0 0.00020242160947706245 0.014066807860016831 0 0.00047072996592386365 0.01391679790830317 0 0.00036123226485515079 0.014025980908569524 0 0.00051045094352709117 0.014044402598544942 0 0.00051045094352709117 0.014044402598544942 0 0.00063854153040448917 0.014090842943456531 0 0.0006421397157526142 0.013873995756809789 0 0.00067124669537302784 0.013678216120057434 0 0.00077900189056763621 0.013470927788166684 0 0.0010191892358065459 0.013492655775173048 0 0.00077900189056763621 0.013470927788166684 0 0.00088068897450217603 0.013856116936718357 0 0.00063854153040448917 0.014090842943456531 0 0.0006421397157526142 0.013873995756809789 0 0.00047072996592386365 0.01391679790830317 0 0.00051045094352709117 0.014044402598544942 0 0.0006421397157526142 0.013873995756809789 0 -8.7589868708217385e-05 0.013533629353776333 0 -0.00017577185877898526 0.013960953191072923 0 7.4687421016977722e-05 0.01371872587538769 0 -0.00017577185877898526 0.013960953191072923 0 7.4687421016977722e-05 0.01371872587538769 0 2.8323020908033419e-05 0.014014288978908902 0 7.4687421016977722e-05 0.01371872587538769 0 0.00017441779505609819 0.013873798884888374 0 2.8323020908033419e-05 0.014014288978908902 0 0.0003109696963578077 0.013654235362403936 0 7.4687421016977722e-05 0.01371872587538769 0 0.00017441779505609819 0.013873798884888374 0 0.0003109696963578077 0.013654235362403936 0 0.00032931891370446392 0.013871301188854582 0 0.00017441779505609819 0.013873798884888374 0 0.00017441779505609819 0.013873798884888374 0 0.00020242160947706245 0.014066807860016831 0 2.8323020908033419e-05 0.014014288978908902 0 0.00032931891370446392 0.013871301188854582 0 0.00017441779505609819 0.013873798884888374 0 0.00020242160947706245 0.014066807860016831 0 -0.00010191376989487611 0.014193699268596472 0 2.8323020908033419e-05 0.014014288978908902 0 5.4116766154297884e-05 0.014238746642219368 0 0.00020242160947706245 0.014066807860016831 0 5.4116766154297884e-05 0.014238746642219368 0 0.00030692588344615233 0.014273642380068539 0 0.00020242160947706245 0.014066807860016831 0 2.8323020908033419e-05 0.014014288978908902 0 5.4116766154297884e-05 0.014238746642219368 0 5.4116766154297884e-05 0.014238746642219368 0 0.00030692588344615233 0.014273642380068539 0 6.8052801768386564e-05 0.0143755588501026 0 0.00051490505238689394 0.013507716563184089 0 0.00035333560092579109 0.013614190859073779 0 -0.00010191376989487611 0.014193699268596472 0 -0.00010599983622668787 0.014337764768400992 0 5.4116766154297884e-05 0.014238746642219368 0 0.00077900189056763621 0.013470927788166684 0 0.00051490505238689394 0.013507716563184089 0 0.00051045094352709117 0.014044402598544942 0 0.00059236853921946196 0.014067969645339547 0 0.00030692588344615233 0.014273642380068539 0 0.00081438360593221967 0.01270490475894368 0 0.00073576616974771177 0.012775768594109399 0 0.00079883672050630602 0.012779677986886921 0 0.00081438360593221967 0.01270490475894368 0 0.00079883672050630602 0.012779677986886921 0 0.00083859712387225106 0.01276702161768214 0 0.00036123226485515079 0.014025980908569524 0 0.00051045094352709117 0.014044402598544942 0 0.00030692588344615233 0.014273642380068539 0 0.00036123226485515079 0.014025980908569524 0 0.00020242160947706245 0.014066807860016831 0 0.00030692588344615233 0.014273642380068539 0 0.00073576616974771177 0.012775768594109399 0 0.00079883672050630602 0.012779677986886921 0 0.00077045507649227418 0.012839889511996739 0 0.00079883672050630602 0.012779677986886921 0 0.00083360791311002649 0.012822152412786534 0 0.00077045507649227418 0.012839889511996739 0 0.00079883672050630602 0.012779677986886921 0 0.00083859712387225106 0.01276702161768214 0 0.00083360791311002649 0.012822152412786534 0 0.00083360791311002649 0.012822152412786534 0 0.0008198124961653246 0.012887846938307863 0 0.00086190029272293863 0.012863982964292316 0 0.0008198124961653246 0.012887846938307863 0 0.00077045507649227418 0.012839889511996739 0 0.00077069357616089073 0.012925189072797499 0 0.00083360791311002649 0.012822152412786534 0 0.0008198124961653246 0.012887846938307863 0 0.00077045507649227418 0.012839889511996739 0 0.00073576616974771177 0.012775768594109399 0 0.00077045507649227418 0.012839889511996739 0 0.00063171298130759647 0.012856105652615905 0 0.00077045507649227418 0.012839889511996739 0 0.00077069357616089073 0.012925189072797499 0 0.00063171298130759647 0.012856105652615905 0 0.00077069357616089073 0.012925189072797499 0 0.00072850426589467687 0.012996072718099648 0 0.00063171298130759647 0.012856105652615905 0 0.00077069357616089073 0.012925189072797499 0 0.00072850426589467687 0.012996072718099648 0 0.00079108514436193079 0.013003400105211629 0 0.00077069357616089073 0.012925189072797499 0 0.00083364575989667308 0.012950858290346801 0 0.00079108514436193079 0.013003400105211629 0 0.0008198124961653246 0.012887846938307863 0 0.00083364575989667308 0.012950858290346801 0 0.00087485431954812027 0.012913101401421326 0 0.0008198124961653246 0.012887846938307863 0 0.00077069357616089073 0.012925189072797499 0 0.00083364575989667308 0.012950858290346801 0 -0.00010599983622668787 0.014337764768400992 0 6.8052801768386564e-05 0.0143755588501026 0 -9.000939544895258e-05 0.014390398384445956 0 -0.00010599983622668787 0.014337764768400992 0 5.4116766154297884e-05 0.014238746642219368 0 6.8052801768386564e-05 0.0143755588501026 0 0.00072850426589467687 0.012996072718099648 0 0.00063171298130759647 0.012856105652615905 0 0.00066066633794596295 0.013076783273570937 0 0.00035333560092579109 0.013614190859073779 0 0.0001801736377346214 0.013691182858087469 0 0.00063171298130759647 0.012856105652615905 0 0.00045304218758748257 0.012994096344929882 0 0.00066066633794596295 0.013076783273570937 0 0.00045304218758748257 0.012994096344929882 0 0.00066066633794596295 0.013076783273570937 0 0.00058910256341201549 0.013238165068744685 0 0.00045304218758748257 0.012994096344929882 0 0.00058910256341201549 0.013238165068744685 0 0.00038487507786495739 0.013318984778516986 0 0.00075174704431446885 0.013299807455443164 0 0.00066066633794596295 0.013076783273570937 0 0.00077138494138412632 0.013102655932781647 0 0.00075174704431446885 0.013299807455443164 0 0.00066066633794596295 0.013076783273570937 0 0.00058910256341201549 0.013238165068744685 0 0.00075174704431446885 0.013299807455443164 0 0.00045248869133072386 0.013530908199737813 0 0.00058910256341201549 0.013238165068744685 0 0.00045248869133072386 0.013530908199737813 0 0.00058910256341201549 0.013238165068744685 0 0.00038487507786495739 0.013318984778516986 0 0.00083364575989667308 0.012950858290346801 0 0.00079108514436193079 0.013003400105211629 0 0.00083764803010216422 0.013014446674916389 0 0.00079108514436193079 0.013003400105211629 0 0.00077138494138412632 0.013102655932781647 0 0.00083764803010216422 0.013014446674916389 0 0.00072850426589467687 0.012996072718099648 0 0.00066066633794596295 0.013076783273570937 0 0.00077138494138412632 0.013102655932781647 0 0.00072850426589467687 0.012996072718099648 0 0.00079108514436193079 0.013003400105211629 0 0.00077138494138412632 0.013102655932781647 0 0.00074702142021144914 0.013178737925646788 0 0.00075174704431446885 0.013299807455443164 0 0.00077138494138412632 0.013102655932781647 0 0.00074702142021144914 0.013178737925646788 0 0.00077138494138412632 0.013102655932781647 0 0.0007953161368752143 0.013089188641314477 0 0.00077138494138412632 0.013102655932781647 0 0.0007953161368752143 0.013089188641314477 0 0.00083764803010216422 0.013014446674916389 0 0.00081216965295693067 0.013069506511215558 0 0.0007953161368752143 0.013089188641314477 0 0.00083764803010216422 0.013014446674916389 0 0.00081216965295693067 0.013069506511215558 0 0.00083764803010216422 0.013014446674916389 0 0.00086434472380172544 0.012996025208115009 0 0.00083764803010216422 0.013014446674916389 0 0.00086434472380172544 0.012996025208115009 0 0.00088348347948730502 0.012947463291554048 0 0.00086434472380172544 0.012996025208115009 0 0.00088476827770039357 0.012949983372473918 0 0.00088348347948730502 0.012947463291554048 0 0.00088476827770039357 0.012949983372473918 0 0.00088348347948730502 0.012947463291554048 0 0.00089396155499463291 0.012904877289864114 0 0.00088348347948730502 0.012947463291554048 0 0.00087215572254918466 0.012943253405884085 0 0.0009017320561116555 0.012907575820672064 0 0.00088348347948730502 0.012947463291554048 0 0.0009017320561116555 0.012907575820672064 0 0.00089396155499463291 0.012904877289864114 0 0.00083764803010216422 0.013014446674916389 0 0.00088348347948730502 0.012947463291554048 0 0.00087215572254918466 0.012943253405884085 0 0.00083364575989667308 0.012950858290346801 0 0.00083764803010216422 0.013014446674916389 0 0.00087215572254918466 0.012943253405884085 0 0.00087215572254918466 0.012943253405884085 0 0.00087485431954812027 0.012913101401421326 0 0.0009017320561116555 0.012907575820672064 0 0.00083364575989667308 0.012950858290346801 0 0.00087215572254918466 0.012943253405884085 0 0.00087485431954812027 0.012913101401421326 0 0.00087485431954812027 0.012913101401421326 0 0.0009017320561116555 0.012907575820672064 0 0.00090990335728411288 0.012891740108710852 0 0.00092246365045702461 0.012895196043948622 0 0.0010483582299973615 0.012892892296413263 0 0.00090990335728411288 0.012891740108710852 0 0.0010087303833463666 0.01280471675081581 0 0.0011754770966533891 0.012895399232767163 0 0.0009017320561116555 0.012907575820672064 0 0.00090990335728411288 0.012891740108710852 0 0.00090417006302272564 0.0128998444792385 0 0.0010812905642780457 0.012677488532188122 0 0.0010087303833463666 0.01280471675081581 0 0.0011754770966533891 0.012895399232767163 0 0.00090990335728411288 0.012891740108710852 0 0.0010087303833463666 0.01280471675081581 0 0.00088421526461591256 0.012806227026225591 0 0.00090990335728411288 0.012891740108710852 0 0.00088421526461591256 0.012806227026225591 0 0.00086190029272293863 0.012863982964292316 0 0.00083360791311002649 0.012822152412786534 0 0.00088421526461591256 0.012806227026225591 0 0.00086190029272293863 0.012863982964292316 0 0.0008198124961653246 0.012887846938307863 0 0.00087485431954812027 0.012913101401421326 0 0.00086190029272293863 0.012863982964292316 0 0.00087485431954812027 0.012913101401421326 0 0.00090990335728411288 0.012891740108710852 0 0.00086190029272293863 0.012863982964292316 0 0.0010433421005159389 0.011761036396185597 0 0.0014896952217867436 0.010568875502409932 0 0.00088195604904043072 0.012833332896182437 0 0.00088650437569672621 0.012844502433126214 0 0.0008828415704002085 0.012839636253313826 0 0.0010433421005159389 0.011761036396185597 0 0.0010483582299973615 0.012892892296413263 0 0.0012744326819518058 0.012690245876927717 0 0.0014353273590870929 0.012873147339503401 0 0.0011754770966533891 0.012895399232767163 0 0.0010812905642780457 0.012677488532188122 0 0.0012744326819518058 0.012690245876927717 0 0.0011754770966533891 0.012895399232767163 0 0.00089103745161821712 0.012894324868244891 0 0.00090417006302272564 0.0128998444792385 0 0.00089190027114052989 0.012877375782522247 0 0.0009017320561116555 0.012907575820672064 0 0.00090417006302272564 0.0128998444792385 0 0.00089190027114052989 0.012877375782522247 0 0.00089190027114052989 0.012877375782522247 0 0.00087853206393983716 0.012832859058337554 0 0.00088650437569672621 0.012844502433126214 0 0.00088195604904043072 0.012833332896182437 0 0.00089190027114052989 0.012877375782522247 0 0.00088650437569672621 0.012844502433126214 0 0.0010433421005159389 0.011761036396185597 0 0.0008280860333278276 0.013335610333698875 0 0.00089190027114052989 0.012877375782522247 0 0.00088846171871448311 0.012843489933555361 0 0.00087853206393983716 0.012832859058337554 0 0.00089190027114052989 0.012877375782522247 0 0.00089396155499463291 0.012904877289864114 0 0.00089288607202827816 0.012875275331110938 0 0.0009017320561116555 0.012907575820672064 0 0.00089190027114052989 0.012877375782522247 0 0.00089396155499463291 0.012904877289864114 0 0.00088661960018671581 0.012907325229277729 0 0.00089396155499463291 0.012904877289864114 0 0.00089288607202827816 0.012875275331110938 0 0.00088661960018671581 0.012907325229277729 0 0.00088476827770039357 0.012949983372473918 0 0.00089396155499463291 0.012904877289864114 0 0.00089408078293227945 0.012836043180980979 0 0.00088846171871448311 0.012843489933555361 0 0.00089288607202827816 0.012875275331110938 0 0.00089190027114052989 0.012877375782522247 0 0.00088846171871448311 0.012843489933555361 0 0.00089288607202827816 0.012875275331110938 0 0.00089408078293227945 0.012836043180980979 0 0.00088078989942046864 0.012801446071852714 0 0.00088846171871448311 0.012843489933555361 0 0.00088078989942046864 0.012801446071852714 0 0.00088846171871448311 0.012843489933555361 0 0.00087260391207278276 0.012812967001645531 0 0.00088078989942046864 0.012801446071852714 0 0.00085562728815802487 0.012764288994003978 0 0.00087260391207278276 0.012812967001645531 0 0.00085562728815802487 0.012764288994003978 0 0.00087260391207278276 0.012812967001645531 0 0.00084562225841209237 0.012796082214145917 0 0.00085562728815802487 0.012764288994003978 0 0.00084562225841209237 0.012796082214145917 0 0.00082766460724567061 0.012760712627777254 0 0.00087260391207278276 0.012812967001645531 0 0.00084562225841209237 0.012796082214145917 0 0.00087853206393983716 0.012832859058337554 0 0.00084562225841209237 0.012796082214145917 0 0.00087853206393983716 0.012832859058337554 0 0.00084067951843157696 0.012817068864769143 0 0.00088846171871448311 0.012843489933555361 0 0.00087260391207278276 0.012812967001645531 0 0.00087853206393983716 0.012832859058337554 0 0.00080208076590609673 0.012710695031983152 0 0.00078470740529610337 0.012762953392673568 0 0.00072975245333711629 0.012712689931329327 0 0.00078470740529610337 0.012762953392673568 0 0.00073061995441377247 0.012758673608214803 0 0.00072975245333711629 0.012712689931329327 0 0.00080208076590609673 0.012710695031983152 0 0.00078470740529610337 0.012762953392673568 0 0.00082766460724567061 0.012760712627777254 0 0.00078470740529610337 0.012762953392673568 0 0.00082766460724567061 0.012760712627777254 0 0.00081827153082814855 0.012790849767953831 0 0.00084562225841209237 0.012796082214145917 0 0.00082766460724567061 0.012760712627777254 0 0.00081827153082814855 0.012790849767953831 0 0.00085562728815802487 0.012764288994003978 0 0.00080208076590609673 0.012710695031983152 0 0.00082766460724567061 0.012760712627777254 0 0.00084562225841209237 0.012796082214145917 0 0.00081827153082814855 0.012790849767953831 0 0.00084067951843157696 0.012817068864769143 0 0.00078470740529610337 0.012762953392673568 0 0.00081827153082814855 0.012790849767953831 0 0.00079908234591746677 0.012801750938575393 0 0.00081827153082814855 0.012790849767953831 0 0.00079908234591746677 0.012801750938575393 0 0.00084067951843157696 0.012817068864769143 0 0.00078470740529610337 0.012762953392673568 0 0.00076206052934531189 0.012785408445588004 0 0.00073061995441377247 0.012758673608214803 0 0.00078470740529610337 0.012762953392673568 0 0.00076206052934531189 0.012785408445588004 0 0.00079908234591746677 0.012801750938575393 0 0.0015645210695240436 0.0095685087352119953 0 0.0010677949794163368 0.010635582006644544 0 0.00076206052934531189 0.012785408445588004 0 0.00077558734535320827 0.01280908782268679 0 0.00071690206277828089 0.012792258961533659 0 0.00077558734535320827 0.01280908782268679 0 0.00081092772981868793 0.012822494595009384 0 0.00079056314051552802 0.012836526158955341 0 0.00077558734535320827 0.01280908782268679 0 0.00079056314051552802 0.012836526158955341 0 0.00071690206277828089 0.012792258961533659 0 0.00076206052934531189 0.012785408445588004 0 0.00077558734535320827 0.01280908782268679 0 0.00079908234591746677 0.012801750938575393 0 0.00077558734535320827 0.01280908782268679 0 0.00081092772981868793 0.012822494595009384 0 0.00079908234591746677 0.012801750938575393 0 0.00081092772981868793 0.012822494595009384 0 0.00084067951843157696 0.012817068864769143 0 0.000843605867134081 0.012841104390431969 0 0.00081092772981868793 0.012822494595009384 0 0.00079908234591746677 0.012801750938575393 0 0.00084067951843157696 0.012817068864769143 0 0.0017679724327165601 0.0083375143009506748 0 0.0018522906689172724 0.0084016967010179383 0 0.0018323101448521279 0.0084182773980580276 0 0.0015645210695240436 0.0095685087352119953 0 0.0012623094124172729 0.010694500540160941 0 0.0017679724327165601 0.0083375143009506748 0 0.0017616679561856315 0.0083279629436104376 0 0.0018522906689172724 0.0084016967010179383 0 0.00081092772981868793 0.012822494595009384 0 0.00079056314051552802 0.012836526158955341 0 0.000843605867134081 0.012841104390431969 0 0.0015645210695240436 0.0095685087352119953 0 0.001603419764694201 0.0082287726948651919 0 0.001759309405903954 0.008318764072949951 0 0.001717422307402257 0.0083423201535359343 0 0.0016462829487860968 0.0082410060659787333 0 0.0017679724327165601 0.0083375143009506748 0 0.001759309405903954 0.008318764072949951 0 0.001717422307402257 0.0083423201535359343 0 0.0015055112131692546 0.0094269177550679404 0 0.0015645210695240436 0.0095685087352119953 0 0.00088650437569672621 0.012844502433126214 0 0.00086820610886245665 0.012833344385189561 0 0.0008828415704002085 0.012839636253313826 0 0.00087853206393983716 0.012832859058337554 0 0.00088650437569672621 0.012844502433126214 0 0.00086820610886245665 0.012833344385189561 0 0.00086820610886245665 0.012833344385189561 0 0.00084067951843157696 0.012817068864769143 0 0.000843605867134081 0.012841104390431969 0 0.00087853206393983716 0.012832859058337554 0 0.00086820610886245665 0.012833344385189561 0 0.00084067951843157696 0.012817068864769143 0 0.0018522906689172724 0.0084016967010179383 0 0.001919349890060871 0.0084596337269155185 0 0.0018930601600381405 0.0084680449906943817 0 0.0012623094124172729 0.010694500540160941 0 0.0014896952217867436 0.010568875502409932 0 0.00086820610886245665 0.012833344385189561 0 0.000843605867134081 0.012841104390431969 0 0.0008828415704002085 0.012839636253313826 0 0.0019396418671007603 0.0085011627478057562 0 0.001919349890060871 0.0084596337269155185 0 0.0019387599835816996 0.0084928166044396756 0 0.0019387599835816996 0.0084928166044396756 0 0.0019228189958983137 0.0085115042626834336 0 0.0018930601600381405 0.0084680449906943817 0 0.001919349890060871 0.0084596337269155185 0 0.0019387599835816996 0.0084928166044396756 0 0.0018930601600381405 0.0084680449906943817 0 0.0019228189958983137 0.0085115042626834336 0 0.0019072094609070157 0.0085261345122824191 0 0.0018930601600381405 0.0084680449906943817 0 0.0019387599835816996 0.0084928166044396756 0 0.0019228189958983137 0.0085115042626834336 0 0.0019567978812108713 0.0085636196577168529 0 0.0019072094609070157 0.0085261345122824191 0 0.0019622877697695663 0.0085932492963486859 0 0.0018693925233240879 0.0085710038283928168 0 0.0019228189958983137 0.0085115042626834336 0 0.0019567978812108713 0.0085636196577168529 0 0.0019072094609070157 0.0085261345122824191 0 0.0019567978812108713 0.0085636196577168529 0 0.0019072094609070157 0.0085261345122824191 0 0.0019622877697695663 0.0085932492963486859 0 0.0021048300491339203 0.0084770579974220925 0 0.0023926908884553269 0.009795940175888411 0 0.0019072094609070157 0.0085261345122824191 0 0.0018437425529730682 0.0084741025886454387 0 0.0018693925233240879 0.0085710038283928168 0 0.0019072094609070157 0.0085261345122824191 0 0.0018930601600381405 0.0084680449906943817 0 0.0018437425529730682 0.0084741025886454387 0 0.0018930601600381405 0.0084680449906943817 0 0.0018323101448521279 0.0084182773980580276 0 0.0018437425529730682 0.0084741025886454387 0 0.0018522906689172724 0.0084016967010179383 0 0.0018930601600381405 0.0084680449906943817 0 0.0018323101448521279 0.0084182773980580276 0 0.0017679724327165601 0.0083375143009506748 0 0.0018323101448521279 0.0084182773980580276 0 0.0017756418625124424 0.0084097539549070274 0 0.0018323101448521279 0.0084182773980580276 0 0.0018437425529730682 0.0084741025886454387 0 0.0017756418625124424 0.0084097539549070274 0 0.0017679724327165601 0.0083375143009506748 0 0.001717422307402257 0.0083423201535359343 0 0.0017756418625124424 0.0084097539549070274 0 0.001717422307402257 0.0083423201535359343 0 0.0017756418625124424 0.0084097539549070274 0 0.0017044652589685151 0.0084214459308382689 0 0.0017044652589685151 0.0084214459308382689 0 0.0017741059542402792 0.0084886414199855913 0 0.001654925736060869 0.0084760570469404883 0 0.0017741059542402792 0.0084886414199855913 0 0.0017403272661592405 0.008567360682369983 0 0.001654925736060869 0.0084760570469404883 0 0.0017756418625124424 0.0084097539549070274 0 0.0017044652589685151 0.0084214459308382689 0 0.0017741059542402792 0.0084886414199855913 0 0.0018437425529730682 0.0084741025886454387 0 0.0017741059542402792 0.0084886414199855913 0 0.0018693925233240879 0.0085710038283928168 0 0.0018437425529730682 0.0084741025886454387 0 0.0017756418625124424 0.0084097539549070274 0 0.0017741059542402792 0.0084886414199855913 0 0.0017741059542402792 0.0084886414199855913 0 0.0017403272661592405 0.008567360682369983 0 0.0018693925233240879 0.0085710038283928168 0 0.0020948674508340639 0.010095224283419777 0 0.002263785153154623 0.01028140069251989 0 0.0024430029873921942 0.010065717844314936 0 0.0019093833907348906 0.0093284007146261644 0 0.0021722210180848797 0.0092576406268381831 0 0.0020948674508340639 0.010095224283419777 0 0.002093334581852865 0.010339975642564819 0 0.0019473431291935053 0.010219221507506725 0 0.0020948674508340639 0.010095224283419777 0 0.002093334581852865 0.010339975642564819 0 0.002263785153154623 0.01028140069251989 0 0.002093334581852865 0.010339975642564819 0 0.002263785153154623 0.01028140069251989 0 0.0022938015731041035 0.01054388302453047 0 0.002263785153154623 0.01028140069251989 0 0.0024761222458143262 0.010400322876480522 0 0.0022938015731041035 0.01054388302453047 0 0.002263785153154623 0.01028140069251989 0 0.0024761222458143262 0.010400322876480522 0 0.0024430029873921942 0.010065717844314936 0 0.0024761222458143262 0.010400322876480522 0 0.0026914751200382155 0.010281168067563908 0 0.0024430029873921942 0.010065717844314936 0 0.0024761222458143262 0.010400322876480522 0 0.0026914751200382155 0.010281168067563908 0 0.0027034279241615164 0.01057703341247225 0 0.0029473521837357409 0.010355929576438683 0 0.0026914751200382155 0.010281168067563908 0 0.0027034279241615164 0.01057703341247225 0 0.0023926908884553269 0.009795940175888411 0 0.0021722210180848797 0.0092576406268381831 0 0.0026914751200382155 0.010281168067563908 0 0.0029128017284364813 0.010033690336565062 0 0.0024430029873921942 0.010065717844314936 0 0.0029473521837357409 0.010355929576438683 0 0.0026914751200382155 0.010281168067563908 0 0.0029128017284364813 0.010033690336565062 0 0.0015156882307365773 0.0094325109473699514 0 0.0020255487337110306 0.0094182049663640768 0 0.0014466526289602473 0.0087843912169534612 0 0.0012553348060113211 0.0091325142075133411 0 0.0015156882307365773 0.0094325109473699514 0 0.0010500828239823495 0.0094135997712968163 0 0.0015156882307365773 0.0094325109473699514 0 0.0010500828239823495 0.0094135997712968163 0 0.0013238713024742446 0.0097795632559965328 0 0.0015156882307365773 0.0094325109473699514 0 0.0013238713024742446 0.0097795632559965328 0 0.0016523742776506838 0.0098281883587277435 0 0.0012553348060113211 0.0091325142075133411 0 0.0010500828239823495 0.0094135997712968163 0 0.00092540685526973322 0.0088061296120029858 0 0.0010500828239823495 0.0094135997712968163 0 0.00092540685526973322 0.0088061296120029858 0 0.00059997876368458902 0.0092784952025220229 0 0.0010500828239823495 0.0094135997712968163 0 0.00076949662249455324 0.0096367575803139576 0 0.00059997876368458902 0.0092784952025220229 0 0.0010500828239823495 0.0094135997712968163 0 0.00076949662249455324 0.0096367575803139576 0 0.00099851165171689605 0.0099105684599151214 0 0.0010500828239823495 0.0094135997712968163 0 0.00099851165171689605 0.0099105684599151214 0 0.0013238713024742446 0.0097795632559965328 0 0.00076949662249455324 0.0096367575803139576 0 0.00099851165171689605 0.0099105684599151214 0 0.00072511682509041541 0.010041946914075747 0 0.00099851165171689605 0.0099105684599151214 0 0.0013238713024742446 0.0097795632559965328 0 0.0012423222288839807 0.010090071110847781 0 0.0013238713024742446 0.0097795632559965328 0 0.0014995653896842395 0.010093580154533884 0 0.0016523742776506838 0.0098281883587277435 0 0.0013238713024742446 0.0097795632559965328 0 0.0014995653896842395 0.010093580154533884 0 0.0012423222288839807 0.010090071110847781 0 0.0016523742776506838 0.0098281883587277435 0 0.0018020927253117049 0.01018443991232601 0 0.0019518578381221654 0.0099255535942647903 0 0.0014995653896842395 0.010093580154533884 0 0.0016523742776506838 0.0098281883587277435 0 0.0018020927253117049 0.01018443991232601 0 0.002093334581852865 0.010339975642564819 0 0.0018020927253117049 0.01018443991232601 0 0.0019518578381221654 0.0099255535942647903 0 0.0020643856281766992 0.010267950189134211 0 0.0019830619819851945 0.010110128277240425 0 0.0020948674508340639 0.010095224283419777 0 0.0019473431291935053 0.010219221507506725 0 0.0018105640247268735 0.010092943002464144 0 0.0019093833907348906 0.0093284007146261644 0 0.0016939076621940315 0.0094182984759158123 0 0.0017403272661592405 0.008567360682369983 0 0.0015326351843226273 0.0085832476353370456 0 0.001654925736060869 0.0084760570469404883 0 0.0019830619819851945 0.010110128277240425 0 0.0016939076621940315 0.0094182984759158123 0 0.0016523742776506838 0.0098281883587277435 0 0.0019518578381221654 0.0099255535942647903 0 0.0017483606038661732 0.0095579247382170437 0 0.0015156882307365773 0.0094325109473699514 0 0.0016523742776506838 0.0098281883587277435 0 0.0017483606038661732 0.0095579247382170437 0 0.0016101674673243706 0.0094476260221204814 0 0.0016939076621940315 0.0094182984759158123 0 0.0016939076621940315 0.0094182984759158123 0 0.0013788644846962541 0.0085323709658198903 0 0.0015326351843226273 0.0085832476353370456 0 0.0015391020395152648 0.0083860953854724175 0 0.0013595286662967483 0.0084337793972324004 0 0.0017044652589685151 0.0084214459308382689 0 0.001654925736060869 0.0084760570469404883 0 0.0016333902740241347 0.0083448621913795248 0 0.0015391020395152648 0.0083860953854724175 0 0.001654925736060869 0.0084760570469404883 0 0.0016333902740241347 0.0083448621913795248 0 0.0015326351843226273 0.0085832476353370456 0 0.0015391020395152648 0.0083860953854724175 0 0.001654925736060869 0.0084760570469404883 0 0.001717422307402257 0.0083423201535359343 0 0.0017044652589685151 0.0084214459308382689 0 0.0016333902740241347 0.0083448621913795248 0 0.001717422307402257 0.0083423201535359343 0 0.0016333902740241347 0.0083448621913795248 0 0.0016462829487860968 0.0082410060659787333 0 0.0015391020395152648 0.0083860953854724175 0 0.0014279167416423437 0.0082355209070092417 0 0.0014838176768549971 0.0081671783535184166 0 0.0015391020395152648 0.0083860953854724175 0 0.0014279167416423437 0.0082355209070092417 0 0.0013595286662967483 0.0084337793972324004 0 0.0015391020395152648 0.0083860953854724175 0 0.0016333902740241347 0.0083448621913795248 0 0.0014838176768549971 0.0081671783535184166 0 0.0014279167416423437 0.0082355209070092417 0 0.0012810775721244488 0.008082239896621761 0 0.0013595286662967483 0.0084337793972324004 0 0.0014279167416423437 0.0082355209070092417 0 0.0012810775721244488 0.008082239896621761 0 0.0014172990622348402 0.0081213149334077896 0 0.0012553348060113211 0.0091325142075133411 0 0.0015156882307365773 0.0094325109473699514 0 0.0014466526289602473 0.0087843912169534612 0 0.0014466526289602473 0.0087843912169534612 0 0.00092540685526973322 0.0088061296120029858 0 0.00095305934439634859 0.0081186062978241096 0 0.0012553348060113211 0.0091325142075133411 0 0.0014466526289602473 0.0087843912169534612 0 0.00092540685526973322 0.0088061296120029858 0 0.0013788644846962541 0.0085323709658198903 0 0.00097781520767039622 0.0081701345310581288 0 0.0012810775721244488 0.008082239896621761 0 0.0013595286662967483 0.0084337793972324004 0 0.00095305934439634859 0.0081186062978241096 0 0.00092540685526973322 0.0088061296120029858 0 0.00095305934439634859 0.0081186062978241096 0 0.0006002006184790546 0.0084272959410413 0 0.00095305934439634859 0.0081186062978241096 0 0.0010651560287701979 0.0076213554388111322 0 0.00068280236730164324 0.0075930892044511885 0 0.0010651560287701979 0.0076213554388111322 0 0.00095966730883449583 0.0072022652331238824 0 0.00068280236730164324 0.0075930892044511885 0 0.0012810775721244488 0.008082239896621761 0 0.00095305934439634859 0.0081186062978241096 0 0.0010651560287701979 0.0076213554388111322 0 0.0012810775721244488 0.008082239896621761 0 0.0014172990622348402 0.0081213149334077896 0 0.0014361786173717169 0.0081000134817778222 0 0.0012669571849832997 0.0081208409852416008 0 0.0014154398712547651 0.0075524749297988976 0 0.0012810775721244488 0.008082239896621761 0 0.0010651560287701979 0.0076213554388111322 0 0.0013532770342698465 0.0071800028207805429 0 0.0010651560287701979 0.0076213554388111322 0 0.0013532770342698465 0.0071800028207805429 0 0.00095966730883449583 0.0072022652331238824 0 0.0013532770342698465 0.0071800028207805429 0 0.00095966730883449583 0.0072022652331238824 0 0.001031103990533769 0.0069318377152122286 0 0.001603419764694201 0.0082287726948651919 0 0.001483508838122483 0.0081844016218777377 0 0.0015744369693915072 0.0081881721572625698 0 0.0015211868462582075 0.0081774451901214414 0 0.001504146647429765 0.0081097592496571225 0 0.0016333902740241347 0.0083448621913795248 0 0.0016462829487860968 0.0082410060659787333 0 0.0014838176768549971 0.0081671783535184166 0 0.0015211868462582075 0.0081774451901214414 0 0.0014838176768549971 0.0081671783535184166 0 0.0014694594981804322 0.0081213006450191142 0 0.0014279167416423437 0.0082355209070092417 0 0.0014172990622348402 0.0081213149334077896 0 0.0014838176768549971 0.0081671783535184166 0 0.0014172990622348402 0.0081213149334077896 0 0.0014838176768549971 0.0081671783535184166 0 0.0014694594981804322 0.0081213006450191142 0 0.0014172990622348402 0.0081213149334077896 0 0.0014361786173717169 0.0081000134817778222 0 0.0014694594981804322 0.0081213006450191142 0 0.0014361786173717169 0.0081000134817778222 0 0.0014651584013888254 0.0080996863672396762 0 0.0014694594981804322 0.0081213006450191142 0 0.0014651584013888254 0.0080996863672396762 0 0.0014694594981804322 0.0081213006450191142 0 0.001504146647429765 0.0081097592496571225 0 0.0015211868462582075 0.0081774451901214414 0 0.0014694594981804322 0.0081213006450191142 0 0.001504146647429765 0.0081097592496571225 0 0.00071690206277828089 0.012792258961533659 0 0.00073061995441377247 0.012758673608214803 0 0.00069303066269482694 0.012745909177439908 0 0.00071690206277828089 0.012792258961533659 0 0.00069303066269482694 0.012745909177439908 0 0.00065600717622586941 0.012742450908795137 0 0.00076206052934531189 0.012785408445588004 0 0.00071690206277828089 0.012792258961533659 0 0.00073061995441377247 0.012758673608214803 0 0.0010677949794163368 0.010635582006644544 0 0.0012735774336853714 0.01030445825098502 0 0.0014361786173717169 0.0081000134817778222 0 0.0014651584013888254 0.0080996863672396762 0 0.0014612666349059658 0.0080778355581125911 0 0.0014651584013888254 0.0080996863672396762 0 0.0014689159068755739 0.0080876061737782407 0 0.0014612666349059658 0.0080778355581125911 0 0.0014651584013888254 0.0080996863672396762 0 0.001504146647429765 0.0081097592496571225 0 0.0014689159068755739 0.0080876061737782407 0 0.0011609278663881426 0.0098560757369539325 0 0.00090269047203990818 0.0095604780769992653 0 0.00097327812776162436 0.0093277107703333174 0 0.0012735774336853714 0.01030445825098502 0 0.00083777203567629468 0.010387880053939457 0 0.0012735774336853714 0.01030445825098502 0 0.001295241769411743 0.0079594019784636205 0 0.001295241769411743 0.0079594019784636205 0 0.00083777203567629468 0.010387880053939457 0 0.001328913049559048 0.006986370061833491 0 0.001351583994714879 0.0069069057394897521 0 0.0012224532214121793 0.0068335426181290772 0 0.00066832178947512247 0.012680699905222782 0 0.00062876721470664474 0.012694378314958059 0 0.00068085972817418666 0.012714979344898262 0 0.00065600717622586941 0.012742450908795137 0 0.00062876721470664474 0.012694378314958059 0 0.00068085972817418666 0.012714979344898262 0 0.00069303066269482694 0.012745909177439908 0 0.00065600717622586941 0.012742450908795137 0 0.00068085972817418666 0.012714979344898262 0 0.00073061995441377247 0.012758673608214803 0 0.00069303066269482694 0.012745909177439908 0 0.00068085972817418666 0.012714979344898262 0 0.00066832178947512247 0.012680699905222782 0 0.00068085972817418666 0.012714979344898262 0 0.00072975245333711629 0.012712689931329327 0 0.00073061995441377247 0.012758673608214803 0 0.00068085972817418666 0.012714979344898262 0 0.00072975245333711629 0.012712689931329327 0 0.00096015752709559406 0.0071693664099440899 0 0.000963158927547314 0.0066186163428489202 0 0.0013532770342698465 0.0071800028207805429 0 0.001031103990533769 0.0069318377152122286 0 0.0011870827859986229 0.0069062368151525553 0 0.0013532770342698465 0.0071800028207805429 0 0.0013346953467986197 0.0069149366646220345 0 0.0011870827859986229 0.0069062368151525553 0 0.0014154398712547651 0.0075524749297988976 0 0.001295241769411743 0.0079594019784636205 0 0.0010201620835428363 0.0067329457508827307 0 0.0011870827859986229 0.0069062368151525553 0 0.0012224532214121793 0.0068335426181290772 0 0.001295241769411743 0.0079594019784636205 0 0.0010488983202141039 0.0067510119968257941 0 0.0013346953467986197 0.0069149366646220345 0 0.0011870827859986229 0.0069062368151525553 0 0.0012224532214121793 0.0068335426181290772 0 0.00091637640530344152 0.0063091823054384757 0 0.000963158927547314 0.0066186163428489202 0 0.0010201620835428363 0.0067329457508827307 0 0.001031103990533769 0.0069318377152122286 0 0.0011870827859986229 0.0069062368151525553 0 0.00055000148528793727 0.005901929425857386 0 0.0008123214908279929 0.00588017800523524 0 0.00090636182158565233 0.0062594019295220535 0 0.00055000148528793727 0.005901929425857386 0 0.00090636182158565233 0.0062594019295220535 0 0.00019979453539023122 0.0062827079820761845 0 0.00090636182158565233 0.0062594019295220535 0 0.00019979453539023122 0.0062827079820761845 0 0.0004339622647009289 0.0069475982933819742 0 0.00019979453539023122 0.0062827079820761845 0 -0.00034150237169715676 0.0068528149204643042 0 0.0004339622647009289 0.0069475982933819742 0 0.00052386668228202233 0.0055864196070258571 0 0.00022719691720476972 0.0062657545927545443 0 -0.00014866635426615988 0.0052948737632452069 0 0.00050527421260317693 0.0052863088329344566 0 0.00019979453539023122 0.0062827079820761845 0 -0.00014866635426615988 0.0052948737632452069 0 -0.00076349742819070232 0.005586179873561456 0 -0.00046990315232812616 0.0062246406759657461 0 -0.00014866635426615988 0.0052948737632452069 0 0.00019979453539023122 0.0062827079820761845 0 -0.00046990315232812616 0.0062246406759657461 0 -0.00076349742819070232 0.005586179873561456 0 -0.00098475079232436449 0.006484677877254901 0 -0.00046990315232812616 0.0062246406759657461 0 -0.00076349742819070232 0.005586179873561456 0 -0.00098475079232436449 0.006484677877254901 0 -0.0013782982329304846 0.0061052569605322109 0 0.00019979453539023122 0.0062827079820761845 0 -0.00046990315232812616 0.0062246406759657461 0 -0.00034150237169715676 0.0068528149204643042 0 -0.00098475079232436449 0.006484677877254901 0 -0.00046990315232812616 0.0062246406759657461 0 -0.00034150237169715676 0.0068528149204643042 0 -0.00098475079232436449 0.006484677877254901 0 -0.00034150237169715676 0.0068528149204643042 0 -0.00092954393168200435 0.0074196671290167396 0 -0.00098475079232436449 0.006484677877254901 0 -0.00092954393168200435 0.0074196671290167396 0 -0.0014531299057509535 0.0069367254453156701 0 -0.00092954393168200435 0.0074196671290167396 0 -0.0014531299057509535 0.0069367254453156701 0 -0.0012812901282939434 0.0074379369356620635 0 -0.00092954393168200435 0.0074196671290167396 0 0.00010717196751985206 0.0075573976760956495 0 -0.00025933122617622745 0.0080948647920836662 0 -0.00034150237169715676 0.0068528149204643042 0 -0.00092954393168200435 0.0074196671290167396 0 0.00010717196751985206 0.0075573976760956495 0 0.00010717196751985206 0.0075573976760956495 0 0.00068280236730164324 0.0075930892044511885 0 0.0004339622647009289 0.0069475982933819742 0 0.00010717196751985206 0.0075573976760956495 0 0.00068280236730164324 0.0075930892044511885 0 0.00056986753610045152 0.0080157707054290088 0 0.00095966730883449583 0.0072022652331238824 0 0.00068280236730164324 0.0075930892044511885 0 0.0004339622647009289 0.0069475982933819742 0 0.00095966730883449583 0.0072022652331238824 0 0.00090636182158565233 0.0062594019295220535 0 0.0004339622647009289 0.0069475982933819742 0 -0.00034150237169715676 0.0068528149204643042 0 0.00010717196751985206 0.0075573976760956495 0 0.0004339622647009289 0.0069475982933819742 0 -0.0024554695695232416 0.0066168534165536785 0 -0.0025161525676975186 0.0060286132951296581 0 -0.0021839177614942987 0.0063780627306402856 0 -0.0019749954068773016 0.0052739453368761654 0 -0.002067690308244267 0.0051515692546190662 0 -0.0020493799243826577 0.0054125558344279255 0 -0.0018678249701331519 0.0050864706026890871 0 -0.0019749954068773016 0.0052739453368761654 0 -0.002067690308244267 0.0051515692546190662 0 -0.0022086784588171838 0.0059818096906726521 0 -0.002667782741015313 0.0053002750821083532 0 -0.0019749954068773016 0.0052739453368761654 0 -0.00202847388204046 0.0054344771677993509 0 -0.0020493799243826577 0.0054125558344279255 0 -0.0031400753508880981 0.0053200080695871453 0 -0.003119560470744021 0.005490770991434777 0 -0.002594583144733667 0.0053590558377901876 0 -0.0028561954312724376 0.0046335444135553539 0 -0.0028714040811074165 0.0046485038009003877 0 -0.002873247499219472 0.0046161907369337285 0 -0.0029833121827111467 0.0048106125684609004 0 -0.002667782741015313 0.0053002750821083532 0 -0.0028797989678574559 0.0049059739021835103 0 -0.0029279558557633654 0.005019748169678661 0 -0.0028747464256876506 0.0049678376992954836 0 -0.0030581014594502839 0.0043274105777411486 0 -0.0029833121827111467 0.0048106125684609004 0 -0.0030581014594502839 0.0043274105777411486 0 -0.002667782741015313 0.0053002750821083532 0 -0.002667782741015313 0.0053002750821083532 0 -0.0023312531981573071 0.0062907040603385209 0 -0.003119560470744021 0.005490770991434777 0 -0.002594583144733667 0.0053590558377901876 0 -0.0025183430391989407 0.006100563977626542 0 -0.002594583144733667 0.0053590558377901876 0 -0.0022474771557999362 0.0056647200128009103 0 -0.0025183430391989407 0.006100563977626542 0 -0.0020416051965051313 0.0051912207061135885 0 -0.002594583144733667 0.0053590558377901876 0 -0.0022474771557999362 0.0056647200128009103 0 -0.0024554695695232416 0.0066168534165536785 0 -0.0021839177614942987 0.0063780627306402856 0 -0.00217562259209743 0.0066433325351687488 0 -0.0021839177614942987 0.0063780627306402856 0 -0.0019266265647919776 0.0066654114561559112 0 -0.00217562259209743 0.0066433325351687488 0 -0.0023312531981573071 0.0062907040603385209 0 -0.0019763709901142361 0.0066132501390922449 0 -0.0018599629336843524 0.0059480873522294838 0 -0.0013782982329304846 0.0061052569605322109 0 -0.0019266265647919776 0.0066654114561559112 0 -0.0025183430391989407 0.006100563977626542 0 -0.0018599629336843524 0.0059480873522294838 0 -0.0019266265647919776 0.0066654114561559112 0 -0.0020416051965051313 0.0051912207061135885 0 -0.0014278332969543286 0.0053840776608626364 0 -0.0018599629336843524 0.0059480873522294838 0 -0.0020416051965051313 0.0051912207061135885 0 -0.0022474771557999362 0.0056647200128009103 0 -0.0018599629336843524 0.0059480873522294838 0 -0.0022474771557999362 0.0056647200128009103 0 -0.0025183430391989407 0.006100563977626542 0 -0.0018599629336843524 0.0059480873522294838 0 -0.0014278332969543286 0.0053840776608626364 0 -0.00076349742819070232 0.005586179873561456 0 -0.0013782982329304846 0.0061052569605322109 0 -0.0014278332969543286 0.0053840776608626364 0 -0.0018599629336843524 0.0059480873522294838 0 -0.0013782982329304846 0.0061052569605322109 0 -0.00098475079232436449 0.006484677877254901 0 -0.0013782982329304846 0.0061052569605322109 0 -0.0014531299057509535 0.0069367254453156701 0 -0.0013782982329304846 0.0061052569605322109 0 -0.0014531299057509535 0.0069367254453156701 0 -0.0019266265647919776 0.0066654114561559112 0 -0.0014531299057509535 0.0069367254453156701 0 -0.0016872324712384422 0.0072795746798645653 0 -0.0012812901282939434 0.0074379369356620635 0 -0.0014531299057509535 0.0069367254453156701 0 -0.0016872324712384422 0.0072795746798645653 0 -0.0019732308126700444 0.0070726869210777366 0 -0.0019732308126700444 0.0070726869210777366 0 -0.0021669454218601241 0.0071434123245012436 0 -0.0019707377376154455 0.007299509301836489 0 -0.0016872324712384422 0.0072795746798645653 0 -0.0019732308126700444 0.0070726869210777366 0 -0.0019707377376154455 0.007299509301836489 0 -0.0014531299057509535 0.0069367254453156701 0 -0.0019732308126700444 0.0070726869210777366 0 -0.0019266265647919776 0.0066654114561559112 0 -0.0019732308126700444 0.0070726869210777366 0 -0.0019266265647919776 0.0066654114561559112 0 -0.0021764250284243172 0.006922010392179624 0 -0.0024554695695232416 0.0066168534165536785 0 -0.0021764250284243172 0.006922010392179624 0 -0.0022446880459343716 0.00726833302812953 0 -0.0019266265647919776 0.0066654114561559112 0 -0.00217562259209743 0.0066433325351687488 0 -0.0021764250284243172 0.006922010392179624 0 -0.0024554695695232416 0.0066168534165536785 0 -0.00217562259209743 0.0066433325351687488 0 -0.0021764250284243172 0.006922010392179624 0 -0.0019732308126700444 0.0070726869210777366 0 -0.0021764250284243172 0.006922010392179624 0 -0.0021669454218601241 0.0071434123245012436 0 -0.0021669454218601241 0.0071434123245012436 0 -0.0022755085929263199 0.0070485663902190212 0 -0.0019707377376154455 0.007299509301836489 0 -0.0021669454218601241 0.0071434123245012436 0 -0.0022446880459343716 0.00726833302812953 0 -0.0022755085929263199 0.0070485663902190212 0 -0.0021764250284243172 0.006922010392179624 0 -0.0021669454218601241 0.0071434123245012436 0 -0.0022446880459343716 0.00726833302812953 0 -0.0021006805618682587 0.0048746073480507822 0 -0.0019509833199752261 0.0048404541031373113 0 -0.0020117120147924964 0.0047131311835895565 0 -0.0021006805618682587 0.0048746073480507822 0 -0.0019509833199752261 0.0048404541031373113 0 -0.001977567647420634 0.0049855037493338706 0 -0.002067690308244267 0.0051515692546190662 0 -0.0021006805618682587 0.0048746073480507822 0 -0.001977567647420634 0.0049855037493338706 0 -0.0018678249701331519 0.0050864706026890871 0 -0.002067690308244267 0.0051515692546190662 0 -0.001977567647420634 0.0049855037493338706 0 -0.0022086784588171838 0.0059818096906726521 0 -0.0021719889095703614 0.0060169224132463183 0 -0.0018950586072366386 0.0043821875688123801 0 -0.0019857052416648435 0.0045732379217440821 0 -0.0020675666812848422 0.0044461926802004878 0 -0.0019857052416648435 0.0045732379217440821 0 -0.0021376069010778779 0.0045798785550500345 0 -0.0020675666812848422 0.0044461926802004878 0 -0.0021719889095703614 0.0060169224132463183 0 -0.0021007245585960678 0.0054284796792965183 0 -0.0021006805618682587 0.0048746073480507822 0 -0.0020117120147924964 0.0047131311835895565 0 -0.0021376069010778779 0.0045798785550500345 0 -0.0018764256995719493 0.0046979701863305041 0 -0.0019857052416648435 0.0045732379217440821 0 -0.0020117120147924964 0.0047131311835895565 0 -0.0018764256995719493 0.0046979701863305041 0 -0.0019509833199752261 0.0048404541031373113 0 -0.0020117120147924964 0.0047131311835895565 0 -0.0019857052416648435 0.0045732379217440821 0 -0.0020117120147924964 0.0047131311835895565 0 -0.0021376069010778779 0.0045798785550500345 0 -0.0022755085929263199 0.0070485663902190212 0 -0.0018848468896022635 0.0079055842777755129 0 -0.0019707377376154455 0.007299509301836489 0 -0.0022755085929263199 0.0070485663902190212 0 -0.0024548506546387652 0.0065576404654988964 0 -0.0020104496357385578 0.0063256379087928277 0 -0.0022446880459343716 0.00726833302812953 0 -0.0022755085929263199 0.0070485663902190212 0 -0.0020104496357385578 0.0063256379087928277 0 -0.0022755085929263199 0.0070485663902190212 0 -0.0024548506546387652 0.0065576404654988964 0 -0.0030313043422695056 0.0061559577390290195 0 -0.0020802796740308823 0.0072251940893723532 0 -0.0029724839550159163 0.0067239158162016562 0 -0.0024548506546387652 0.0065576404654988964 0 -0.00271676089882175 0.0055924186619626583 0 -0.0033449458123632962 0.0058743739428916567 0 -0.0026868298752809419 0.0063903349463319938 0 -0.0029724839550159163 0.0067239158162016562 0 -0.0020104496357385578 0.0063256379087928277 0 -0.00271676089882175 0.0055924186619626583 0 -0.0022469558918659345 0.0044230010028546421 0 -0.0024548506546387652 0.0065576404654988964 0 -0.0020104496357385578 0.0063256379087928277 0 -0.00271676089882175 0.0055924186619626583 0 -0.00271676089882175 0.0055924186619626583 0 -0.0033449458123632962 0.0058743739428916567 0 -0.0033836577188612006 0.0048109039074833715 0 -0.0018848468896022635 0.0079055842777755129 0 -0.0016088105118238186 0.0075817741521698179 0 -0.0015078192083893902 0.0079073010471251773 0 -0.0018848468896022635 0.0079055842777755129 0 -0.0019707377376154455 0.007299509301836489 0 -0.0016088105118238186 0.0075817741521698179 0 -0.0016872324712384422 0.0072795746798645653 0 -0.0019707377376154455 0.007299509301836489 0 -0.0016088105118238186 0.0075817741521698179 0 -0.0016872324712384422 0.0072795746798645653 0 -0.0016088105118238186 0.0075817741521698179 0 -0.0012812901282939434 0.0074379369356620635 0 -0.0016088105118238186 0.0075817741521698179 0 -0.0012812901282939434 0.0074379369356620635 0 -0.0013764993236225261 0.0077260755757648436 0 -0.0029724839550159163 0.0067239158162016562 0 -0.0019273998073866992 0.0078710030264962649 0 -0.0013764993236225261 0.0077260755757648436 0 -0.0015078192083893902 0.0079073010471251773 0 -0.0012161934065275256 0.0080074202855555839 0 -0.0018848468896022635 0.0079055842777755129 0 -0.0015078192083893902 0.0079073010471251773 0 -0.0013957078312015541 0.0082359867020034751 0 -0.0016088105118238186 0.0075817741521698179 0 -0.0013764993236225261 0.0077260755757648436 0 -0.0015078192083893902 0.0079073010471251773 0 -0.0015078192083893902 0.0079073010471251773 0 -0.0013957078312015541 0.0082359867020034751 0 -0.0012161934065275256 0.0080074202855555839 0 -0.0029724839550159163 0.0067239158162016562 0 -0.0027221560518536406 0.0055249053163108821 0 -0.0036555487113562068 0.0066224949220861926 0 -0.0026116799092531636 0.0073342671774021904 0 -0.0026413735233809096 0.0077807217594796259 0 -0.0026116799092531636 0.0073342671774021904 0 -0.0026413735233809096 0.0077807217594796259 0 -0.0024136148803869063 0.007654757951739752 0 -0.0027221560518536406 0.0055249053163108821 0 -0.0029729960130123467 0.0061161066669084404 0 -0.0016799697165575114 0.0029194987646757602 0 -0.0016693687512080539 0.0034221340109000958 0 -0.0022535618600240345 0.0033189662659820198 0 -0.0043408672138052868 0.0046210178667355642 0 -0.0030920963002272145 0.003911446844678485 0 -0.0033836577188612006 0.0048109039074833715 0 -0.0027221560518536406 0.0055249053163108821 0 -0.0026397597873024673 0.003410031557607082 0 -0.0030920963002272145 0.003911446844678485 0 -0.0033836577188612006 0.0048109039074833715 0 -0.0022469558918659345 0.0044230010028546421 0 -0.0033449458123632962 0.0058743739428916567 0 -0.0043408672138052868 0.0046210178667355642 0 -0.0033836577188612006 0.0048109039074833715 0 -0.00271676089882175 0.0055924186619626583 0 -0.0033836577188612006 0.0048109039074833715 0 -0.0022469558918659345 0.0044230010028546421 0 -0.0021007245585960678 0.0054284796792965183 0 -0.0022216279596085644 0.0044856116538641369 0 -0.0030920963002272145 0.003911446844678485 0 -0.0024070839646394464 0.00398105490249759 0 -0.0022062225883322148 0.0036488596561582813 0 -0.0030920963002272145 0.003911446844678485 0 -0.0022469558918659345 0.0044230010028546421 0 -0.0024070839646394464 0.00398105490249759 0 -0.0024070839646394464 0.00398105490249759 0 -0.0021381049188407019 0.0039880618735143739 0 -0.0022062225883322148 0.0036488596561582813 0 -0.0022469558918659345 0.0044230010028546421 0 -0.0024070839646394464 0.00398105490249759 0 -0.0021381049188407019 0.0039880618735143739 0 -0.0022469558918659345 0.0044230010028546421 0 -0.0021381049188407019 0.0039880618735143739 0 -0.0019798725592397072 0.0041514844937995034 0 -0.0018731554791353588 0.0038227133916110541 0 -0.0021381049188407019 0.0039880618735143739 0 -0.0019798725592397072 0.0041514844937995034 0 -0.0021376069010778779 0.0045798785550500345 0 -0.0022469558918659345 0.0044230010028546421 0 -0.0020675666812848422 0.0044461926802004878 0 -0.0022469558918659345 0.0044230010028546421 0 -0.0019798725592397072 0.0041514844937995034 0 -0.0020675666812848422 0.0044461926802004878 0 -0.0018950586072366386 0.0043821875688123801 0 -0.0019798725592397072 0.0041514844937995034 0 -0.0020675666812848422 0.0044461926802004878 0 -0.00010848806228089737 0.0088050781423089277 0 0.00039531426692314902 0.0088377883386834589 0 9.3904236600823204e-05 0.0093766737286553464 0 -0.00010848806228089737 0.0088050781423089277 0 0.00039531426692314902 0.0088377883386834589 0 0.00022694900051398054 0.0083010433673881296 0 0.00092540685526973322 0.0088061296120029858 0 0.00039531426692314902 0.0088377883386834589 0 0.00059997876368458902 0.0092784952025220229 0 0.00092540685526973322 0.0088061296120029858 0 0.00039531426692314902 0.0088377883386834589 0 0.0006002006184790546 0.0084272959410413 0 0.00039531426692314902 0.0088377883386834589 0 0.0006002006184790546 0.0084272959410413 0 0.00022694900051398054 0.0083010433673881296 0 0.0006002006184790546 0.0084272959410413 0 0.00056986753610045152 0.0080157707054290088 0 0.00022694900051398054 0.0083010433673881296 0 0.00010717196751985206 0.0075573976760956495 0 0.00056986753610045152 0.0080157707054290088 0 0.00022694900051398054 0.0083010433673881296 0 0.00095305934439634859 0.0081186062978241096 0 0.0006002006184790546 0.0084272959410413 0 0.00056986753610045152 0.0080157707054290088 0 0.00095305934439634859 0.0081186062978241096 0 0.00068280236730164324 0.0075930892044511885 0 0.00056986753610045152 0.0080157707054290088 0 -0.00010848806228089737 0.0088050781423089277 0 -0.00025933122617622745 0.0080948647920836662 0 0.00022694900051398054 0.0083010433673881296 0 0.00010717196751985206 0.0075573976760956495 0 -0.00025933122617622745 0.0080948647920836662 0 0.00022694900051398054 0.0083010433673881296 0 -0.00092638718562224455 0.0074796972826813744 0 -0.00077442232055113986 0.0081028340530863805 0 -0.00092954393168200435 0.0074196671290167396 0 -0.00025933122617622745 0.0080948647920836662 0 -0.0007390602861030637 0.0084355989689441895 0 -0.0012812901282939434 0.0074379369356620635 0 -0.0013764993236225261 0.0077260755757648436 0 -0.00082268602134096078 0.0077944006980615061 0 -0.00092954393168200435 0.0074196671290167396 0 -0.0012812901282939434 0.0074379369356620635 0 -0.00082268602134096078 0.0077944006980615061 0 -0.0013764993236225261 0.0077260755757648436 0 -0.0012161934065275256 0.0080074202855555839 0 -0.00082268602134096078 0.0077944006980615061 0 -0.0012161934065275256 0.0080074202855555839 0 -0.00082268602134096078 0.0077944006980615061 0 -0.00097599487547010819 0.0081581364184831352 0 -0.00010848806228089737 0.0088050781423089277 0 -0.0007390602861030637 0.0084355989689441895 0 -0.00046882585236803799 0.009267107187774324 0 -0.00077442232055113986 0.0081028340530863805 0 -0.00056506464475361074 0.0087961924750485383 0 -0.00010848806228089737 0.0088050781423089277 0 -0.00025933122617622745 0.0080948647920836662 0 -0.0007390602861030637 0.0084355989689441895 0 -0.00082268602134096078 0.0077944006980615061 0 -0.00065662415108152139 0.0083068970724534241 0 -0.00097599487547010819 0.0081581364184831352 0 -0.00065662415108152139 0.0083068970724534241 0 -0.00097599487547010819 0.0081581364184831352 0 -0.00095063533308290026 0.0085370438251640476 0 -0.0026496070830597466 0.0078021538179660517 0 -0.0024136148803869063 0.007654757951739752 0 -0.0014765338691386117 0.0081100806360381601 0 -0.0011344788074355862 0.0082350777740351714 0 -0.00097599487547010819 0.0081581364184831352 0 -0.00095063533308290026 0.0085370438251640476 0 -0.0019273998073866992 0.0078710030264962649 0 -0.001274746021864667 0.0082499759679022754 0 -0.0013957078312015541 0.0082359867020034751 0 -0.0011344788074355862 0.0082350777740351714 0 -0.00095063533308290026 0.0085370438251640476 0 -0.0026116799092531636 0.0073342671774021904 0 -0.0024136148803869063 0.007654757951739752 0 -0.0014765338691386117 0.0081100806360381601 0 -0.0012161934065275256 0.0080074202855555839 0 -0.0011344788074355862 0.0082350777740351714 0 -0.00097599487547010819 0.0081581364184831352 0 -0.0013957078312015541 0.0082359867020034751 0 -0.0012161934065275256 0.0080074202855555839 0 -0.0011344788074355862 0.0082350777740351714 0 -0.0026496070830597466 0.0078021538179660517 0 -0.0014765338691386117 0.0081100806360381601 0 -0.0015627101414832942 0.0090621816413415397 0 -0.0027221560518536406 0.0055249053163108821 0 -0.0012091169402846677 0.0062674970979864604 0 -0.0016799697165575114 0.0029194987646757602 0 -0.0016693687512080539 0.0034221340109000958 0 -0.0010906709632101965 0.0034493466806443823 0 -0.001274746021864667 0.0082499759679022754 0 -0.00030137920532497805 0.0093570165281162999 0 -0.00056506464475361074 0.0087961924750485383 0 -0.00030137920532497805 0.0093570165281162999 0 -0.00065662415108152139 0.0083068970724534241 0 -0.00095063533308290026 0.0085370438251640476 0 -0.00049018642443511345 0.0088500266765145861 0 -0.0014765338691386117 0.0081100806360381601 0 -0.00032035681981997611 0.0089280203279445448 0 -0.0015627101414832942 0.0090621816413415397 0 -0.00020154499193447375 0.0099889807003652829 0 9.3904236600823204e-05 0.0093766737286553464 0 0.00045500387913933684 0.0097859447415082554 0 -0.00046882585236803799 0.009267107187774324 0 -0.00020154499193447375 0.0099889807003652829 0 9.3904236600823204e-05 0.0093766737286553464 0 -0.00010848806228089737 0.0088050781423089277 0 -0.00046882585236803799 0.009267107187774324 0 9.3904236600823204e-05 0.0093766737286553464 0 0.00076949662249455324 0.0096367575803139576 0 0.00059997876368458902 0.0092784952025220229 0 0.00045500387913933684 0.0097859447415082554 0 0.00039531426692314902 0.0088377883386834589 0 9.3904236600823204e-05 0.0093766737286553464 0 0.00059997876368458902 0.0092784952025220229 0 9.3904236600823204e-05 0.0093766737286553464 0 0.00059997876368458902 0.0092784952025220229 0 0.00045500387913933684 0.0097859447415082554 0 0.00076949662249455324 0.0096367575803139576 0 0.00045500387913933684 0.0097859447415082554 0 0.00072511682509041541 0.010041946914075747 0 0.00045500387913933684 0.0097859447415082554 0 0.00072511682509041541 0.010041946914075747 0 0.00043686375991619758 0.010339776439169937 0 0.00072511682509041541 0.010041946914075747 0 0.00043686375991619758 0.010339776439169937 0 0.0010275086827238871 0.010260714720965434 0 0.0003945508994907227 0.0099918263608335216 0 0.00043000657200681391 0.010469624338565679 0 0.00097708232965352713 0.010540131364866874 0 0.00045353089635178441 0.010224240759369611 0 0.0009031424939722739 0.010485245160730775 0 0.00043000657200681391 0.010469624338565679 0 0.00034988372852411007 0.010998164451971403 0 0.00097708232965352713 0.010540131364866874 0 0.0003945508994907227 0.0099918263608335216 0 0.00043000657200681391 0.010469624338565679 0 -3.2516598363520114e-05 0.010227732104276707 0 0.00043000657200681391 0.010469624338565679 0 -3.2516598363520114e-05 0.010227732104276707 0 0.00034988372852411007 0.010998164451971403 0 -3.2516598363520114e-05 0.010227732104276707 0 -0.00043530237849932497 0.010321784708292963 0 0.00034988372852411007 0.010998164451971403 0 -0.0005200992621773226 0.0072028829542182746 0 0.0012493641158318805 0.0077328097895047708 0 -0.00032035681981997611 0.0089280203279445448 0 -3.2516598363520114e-05 0.010227732104276707 0 -0.00043530237849932497 0.010321784708292963 0 -0.00030137920532497805 0.0093570165281162999 0 -4.8010977491798404e-05 0.010106731124140107 0 -0.00030137920532497805 0.0093570165281162999 0 0.00045353089635178441 0.010224240759369611 0 -0.00022752692440680799 0.009568161713133844 0 0.0003945508994907227 0.0099918263608335216 0 -3.2516598363520114e-05 0.010227732104276707 0 -0.00020154499193447375 0.0099889807003652829 0 0.00045500387913933684 0.0097859447415082554 0 0.00043686375991619758 0.010339776439169937 0 -0.0010906709632101965 0.0034493466806443823 0 -0.0010607201490822147 0.004014454002900447 0 -0.0003160982327415893 0.0041022560039535956 0 -0.0012091169402846677 0.0062674970979864604 0 -0.0005200992621773226 0.0072028829542182746 0 -0.00032035681981997611 0.0089280203279445448 0 -0.0015627101414832942 0.0090621816413415397 0 -0.00043530237849932497 0.010321784708292963 0 -0.0014135564599197165 0.0036689533414108705 0 -0.0010607201490822147 0.004014454002900447 0 -0.0016819556439050434 0.0039570584067202012 0 -0.0016693687512080539 0.0034221340109000958 0 -0.0014135564599197165 0.0036689533414108705 0 -0.0010906709632101965 0.0034493466806443823 0 -0.0014135564599197165 0.0036689533414108705 0 -0.0010906709632101965 0.0034493466806443823 0 -0.0010607201490822147 0.004014454002900447 0 -0.0010607201490822147 0.004014454002900447 0 -0.0011840580843449644 0.0045165504206966245 0 -0.0016819556439050434 0.0039570584067202012 0 -0.0010607201490822147 0.004014454002900447 0 -0.00063512384442506364 0.004468586301383113 0 -0.0011840580843449644 0.0045165504206966245 0 -0.0003160982327415893 0.0041022560039535956 0 -0.00063512384442506364 0.004468586301383113 0 -0.0002195529429821436 0.0047788960036877891 0 -0.0010607201490822147 0.004014454002900447 0 -0.0003160982327415893 0.0041022560039535956 0 -0.00063512384442506364 0.004468586301383113 0 -0.00063512384442506364 0.004468586301383113 0 -0.0011840580843449644 0.0045165504206966245 0 -0.00065840327490258128 0.005196939234359892 0 -0.00063512384442506364 0.004468586301383113 0 -0.00065840327490258128 0.005196939234359892 0 -0.0002195529429821436 0.0047788960036877891 0 -0.00065840327490258128 0.005196939234359892 0 1.0283879011596803e-05 0.0052499344754373557 0 -0.0002195529429821436 0.0047788960036877891 0 -0.0011840580843449644 0.0045165504206966245 0 -0.0013213691694028554 0.0051402574783547825 0 -0.00065840327490258128 0.005196939234359892 0 -0.0011840580843449644 0.0045165504206966245 0 -0.0013213691694028554 0.0051402574783547825 0 -0.0018081529895941297 0.0045623686724410367 0 -0.0013213691694028554 0.0051402574783547825 0 -0.0011503983915069236 0.0057435608213824603 0 -0.00065840327490258128 0.005196939234359892 0 -0.0013213691694028554 0.0051402574783547825 0 -0.0011503983915069236 0.0057435608213824603 0 -0.0018473482410838779 0.0055247508784763465 0 -0.0011503983915069236 0.0057435608213824603 0 -0.00065840327490258128 0.005196939234359892 0 -0.00059408577742579903 0.0060286771670387714 0 -0.00065840327490258128 0.005196939234359892 0 -7.8760009031554176e-05 0.0057516970852652238 0 -0.00059408577742579903 0.0060286771670387714 0 -0.00065840327490258128 0.005196939234359892 0 -7.8760009031554176e-05 0.0057516970852652238 0 1.0283879011596803e-05 0.0052499344754373557 0 -7.8760009031554176e-05 0.0057516970852652238 0 1.0283879011596803e-05 0.0052499344754373557 0 0.00047819553223575427 0.0055810499581164094 0 1.0283879011596803e-05 0.0052499344754373557 0 0.00047819553223575427 0.0055810499581164094 0 0.00058578425006773312 0.0049260714024929649 0 -7.8760009031554176e-05 0.0057516970852652238 0 0.00047819553223575427 0.0055810499581164094 0 0.00059055154364195126 0.0061485300952691833 0 0.00047819553223575427 0.0055810499581164094 0 0.00058578425006773312 0.0049260714024929649 0 0.0013485501276626597 0.0058088782735853609 0 0.0012493641158318805 0.0077328097895047708 0 0.0024216469263991657 0.0078207890615316598 0 0.00047819553223575427 0.0055810499581164094 0 0.00059055154364195126 0.0061485300952691833 0 0.0013485501276626597 0.0058088782735853609 0 0.0012493641158318805 0.0077328097895047708 0 0.0023785359852912112 0.01092538691717845 0 1.0283879011596803e-05 0.0052499344754373557 0 0.00058578425006773312 0.0049260714024929649 0 -0.0002195529429821436 0.0047788960036877891 0 -0.0003160982327415893 0.0041022560039535956 0 0.00049818897253334085 0.0049370537849146674 0 -0.0002195529429821436 0.0047788960036877891 0 0.0012493641158318805 0.0077328097895047708 0 -0.00052919600220648956 0.0047486548290319548 0 -0.0032166931361759564 0.0040035084560694446 0 -0.0027617998738905273 0.0036830737378335636 0 -0.0027500239063224402 0.0039715091870202559 0 -0.0024158729794854302 0.0042825604545968822 0 -0.0025113603065872259 0.0042362446746078966 0 -0.0025781151218543835 0.0042336999215007547 0 -0.0024059668720245665 0.0039847269639127032 0 -0.0027365533651700475 0.0041107161852147432 0 -0.0025113603065872259 0.0042362446746078966 0 -0.0025781151218543835 0.0042336999215007547 0 -0.0025857439341630127 0.0043289366585136336 0 -0.0018288730880502656 0.0035785051451349063 0 -0.0018731554791353588 0.0038227133916110541 0 -0.0022062225883322148 0.0036488596561582813 0 -0.0024059668720245665 0.0039847269639127032 0 -0.0025307898491818311 0.0036804095265959517 0 -0.0018731554791353588 0.0038227133916110541 0 -0.0021381049188407019 0.0039880618735143739 0 -0.0022062225883322148 0.0036488596561582813 0 -0.0027617998738905273 0.0036830737378335636 0 -0.0027500239063224402 0.0039715091870202559 0 -0.0022342816355437967 0.0039557117393076791 0 -0.0022535618600240345 0.0033189662659820198 0 -0.0027617998738905273 0.0036830737378335636 0 -0.0022342816355437967 0.0039557117393076791 0 -0.0026397597873024673 0.003410031557607082 0 -0.0025307898491818311 0.0036804095265959517 0 -0.0027365533651700475 0.0041107161852147432 0 -0.002278017881873822 0.0040192205202091843 0 -0.0025781151218543835 0.0042336999215007547 0 -0.0024199590980586525 0.0040782755798030364 0 -0.0025857439341630127 0.0043289366585136336 0 -0.0022535618600240345 0.0033189662659820198 0 -0.0022342816355437967 0.0039557117393076791 0 -0.001964326624062119 0.0036650163904312538 0 -0.0016693687512080539 0.0034221340109000958 0 -0.0022535618600240345 0.0033189662659820198 0 -0.001964326624062119 0.0036650163904312538 0 -0.0022342816355437967 0.0039557117393076791 0 -0.001964326624062119 0.0036650163904312538 0 -0.0016819556439050434 0.0039570584067202012 0 -0.0016693687512080539 0.0034221340109000958 0 -0.001964326624062119 0.0036650163904312538 0 -0.0016819556439050434 0.0039570584067202012 0 -0.0016693687512080539 0.0034221340109000958 0 -0.0014135564599197165 0.0036689533414108705 0 -0.0016819556439050434 0.0039570584067202012 0 -0.0011840580843449644 0.0045165504206966245 0 -0.0016819556439050434 0.0039570584067202012 0 -0.0018081529895941297 0.0045623686724410367 0 -0.002278017881873822 0.0040192205202091843 0 -0.0017422969355681329 0.0039645537202253577 0 -0.0024199590980586525 0.0040782755798030364 0 -0.0016819556439050434 0.0039570584067202012 0 -0.0018081529895941297 0.0045623686724410367 0 -0.0018081529895941297 0.0045623686724410367 0 -0.0018473482410838779 0.0055247508784763465 0 -0.0025412781485654313 0.0046074525126007029 0 -0.0013213691694028554 0.0051402574783547825 0 -0.0018081529895941297 0.0045623686724410367 0 -0.0018473482410838779 0.0055247508784763465 0 -0.0018473482410838779 0.0055247508784763465 0 -0.0025412781485654313 0.0046074525126007029 0 -0.0025515595892128392 0.0057557412246740632 0 -0.0024199590980586525 0.0040782755798030364 0 -0.0018081529895941297 0.0045623686724410367 0 -0.0025412781485654313 0.0046074525126007029 0 -0.0024199590980586525 0.0040782755798030364 0 -0.0025412781485654313 0.0046074525126007029 0 -0.0025857439341630127 0.0043289366585136336 0 -0.0025412781485654313 0.0046074525126007029 0 -0.0025857439341630127 0.0043289366585136336 0 -0.002529315273214199 0.0041584986384551525 0 -0.0025412781485654313 0.0046074525126007029 0 -0.002529315273214199 0.0041584986384551525 0 -0.0025997246410848782 0.0039388671372444679 0 -0.0025482121519897522 0.0045426188659029596 0 -0.0030436211326164532 0.0050398355876961958 0 -0.0025412781485654313 0.0046074525126007029 0 -0.0034545034845254231 0.0059259320242771897 0 -0.0025515595892128392 0.0057557412246740632 0 -0.0024481287388653456 0.003864215653826102 0 -0.0023852816780772059 0.0039953162156671322 0 -0.002529315273214199 0.0041584986384551525 0 -0.0023852816780772059 0.0039953162156671322 0 -0.002529315273214199 0.0041584986384551525 0 -0.0024806329410453332 0.0041649794566043378 0 -0.0024481287388653456 0.003864215653826102 0 -0.002529315273214199 0.0041584986384551525 0 -0.0025997246410848782 0.0039388671372444679 0 -0.0025113603065872259 0.0042362446746078966 0 -0.0025857439341630127 0.0043289366585136336 0 -0.0024806329410453332 0.0041649794566043378 0 -0.0025857439341630127 0.0043289366585136336 0 -0.002529315273214199 0.0041584986384551525 0 -0.0024806329410453332 0.0041649794566043378 0 -0.0024152594367617781 0.0041915612922077111 0 -0.0025113603065872259 0.0042362446746078966 0 -0.0024806329410453332 0.0041649794566043378 0 -0.0032007150809973029 0.0048613892061292333 0 -0.0030436211326164532 0.0050398355876961958 0 -0.0041500553539051046 0.0069638133102984581 0 -0.0034545034845254231 0.0059259320242771897 0 -0.0035055422845346939 0.0067199934776345878 0 -0.0041500553539051046 0.0069638133102984581 0 -0.0035055422845346939 0.0067199934776345878 0 -0.00414194456209061 0.0070333576223519448 0 -0.0033254764393355254 0.0067531523564092607 0 -0.0033027367424343728 0.0072106306224703097 0 -0.0038446471143785796 0.007024370595349827 0 -0.0028864637013961223 0.0045286657812297869 0 -0.0032007150809973029 0.0048613892061292333 0 -0.0031721775681880808 0.0049331147271396234 0 -0.0034426340351027497 0.0053056572169037199 0 -0.003466736152321492 0.0050798070842508437 0 -0.0032007150809973029 0.0048613892061292333 0 -0.003379010411611383 0.0055241459564647601 0 -0.003588832898849714 0.0068237491316448943 0 -0.003379010411611383 0.0055241459564647601 0 -0.0024481287388653456 0.003864215653826102 0 -0.0024823497007317027 0.0037456125832427693 0 -0.0025997246410848782 0.0039388671372444679 0 -0.0034545034845254231 0.0059259320242771897 0 -0.0035055422845346939 0.0067199934776345878 0 -0.0027857125022652221 0.0064224406670182147 0 -0.0034545034845254231 0.0059259320242771897 0 -0.0027857125022652221 0.0064224406670182147 0 -0.0025515595892128392 0.0057557412246740632 0 -0.003588832898849714 0.0068237491316448943 0 -0.0027885507245497716 0.0064235446634416582 0 -0.0033254764393355254 0.0067531523564092607 0 -0.0027654968249763803 0.0069790837390669358 0 -0.0027857125022652221 0.0064224406670182147 0 -0.0033254764393355254 0.0067531523564092607 0 -0.0027654968249763803 0.0069790837390669358 0 -0.0033027367424343728 0.0072106306224703097 0 -0.0027654968249763803 0.0069790837390669358 0 -0.0022945455802097559 0.006739016554935741 0 -0.0023819283265181755 0.0071026510065924087 0 -0.0022945455802097559 0.006739016554935741 0 -0.002130432523732728 0.0069885283751431534 0 -0.0023819283265181755 0.0071026510065924087 0 -0.0022945455802097559 0.006739016554935741 0 -0.0027857125022652221 0.0064224406670182147 0 -0.0022198161081347706 0.0062346071975184041 0 -0.0027654968249763803 0.0069790837390669358 0 -0.0022945455802097559 0.006739016554935741 0 -0.0027857125022652221 0.0064224406670182147 0 -0.0027857125022652221 0.0064224406670182147 0 -0.0025515595892128392 0.0057557412246740632 0 -0.0022198161081347706 0.0062346071975184041 0 -0.0018473482410838779 0.0055247508784763465 0 -0.0025515595892128392 0.0057557412246740632 0 -0.0022198161081347706 0.0062346071975184041 0 -0.0018473482410838779 0.0055247508784763465 0 -0.0022198161081347706 0.0062346071975184041 0 -0.0017291693525512534 0.0063219597831511874 0 -0.0018473482410838779 0.0055247508784763465 0 -0.0017291693525512534 0.0063219597831511874 0 -0.0013545400791632454 0.0061457337475035578 0 -0.0022198161081347706 0.0062346071975184041 0 -0.0017291693525512534 0.0063219597831511874 0 -0.0019754084014179589 0.0066064951114768004 0 -0.0017291693525512534 0.0063219597831511874 0 -0.0016889281626486113 0.0068143339900460813 0 -0.0013394615445579475 0.0066881083498435169 0 -0.0017291693525512534 0.0063219597831511874 0 -0.0019754084014179589 0.0066064951114768004 0 -0.0016889281626486113 0.0068143339900460813 0 -0.0022945455802097559 0.006739016554935741 0 -0.0022198161081347706 0.0062346071975184041 0 -0.0019754084014179589 0.0066064951114768004 0 -0.0022945455802097559 0.006739016554935741 0 -0.0019754084014179589 0.0066064951114768004 0 -0.0019459008142807929 0.0069138620948134104 0 -0.0019754084014179589 0.0066064951114768004 0 -0.0019459008142807929 0.0069138620948134104 0 -0.0016889281626486113 0.0068143339900460813 0 -0.0022945455802097559 0.006739016554935741 0 -0.0019459008142807929 0.0069138620948134104 0 -0.002130432523732728 0.0069885283751431534 0 -0.0019459008142807929 0.0069138620948134104 0 -0.002130432523732728 0.0069885283751431534 0 -0.0019013891037053235 0.0071946679727496292 0 -0.0019459008142807929 0.0069138620948134104 0 -0.001760195641163303 0.0070672180404426172 0 -0.0019013891037053235 0.0071946679727496292 0 -0.001760195641163303 0.0070672180404426172 0 -0.0016889281626486113 0.0068143339900460813 0 -0.0013881294229481653 0.0072225484479495321 0 -0.0019459008142807929 0.0069138620948134104 0 -0.001760195641163303 0.0070672180404426172 0 -0.0016889281626486113 0.0068143339900460813 0 -0.0015651550928766046 0.0064421490090853829 0 -0.0015866467985286915 0.0065606392447666705 0 -0.001462237735314042 0.0065074894908688169 0 -0.00173804335476229 0.0070450088221480972 0 -0.0015486706406875733 0.0071694806215000153 0 -0.001760195641163303 0.0070672180404426172 0 -0.0018050018528328088 0.0072686203519655565 0 -0.0013881294229481653 0.0072225484479495321 0 -0.001760195641163303 0.0070672180404426172 0 -0.0018050018528328088 0.0072686203519655565 0 -0.0019013891037053235 0.0071946679727496292 0 -0.00173804335476229 0.0070450088221480972 0 -0.0017498588626167608 0.0070568265957153195 0 -0.002130432523732728 0.0069885283751431534 0 -0.0019013891037053235 0.0071946679727496292 0 -0.0023819283265181755 0.0071026510065924087 0 -0.0017015410050469264 0.0066048747968467441 0 -0.0015866467985286915 0.0065606392447666705 0 -0.0017155551571106705 0.006485852828671544 0 -0.0015651550928766046 0.0064421490090853829 0 -0.0015866467985286915 0.0065606392447666705 0 -0.0017155551571106705 0.006485852828671544 0 -0.00173804335476229 0.0070450088221480972 0 -0.0023246827764417119 0.0071208838092955739 0 -0.0018095503824417406 0.0072582164651153009 0 -0.0019013891037053235 0.0071946679727496292 0 -0.0028462703249312773 0.0074996007264579358 0 -0.0019013891037053235 0.0071946679727496292 0 -0.0023819283265181755 0.0071026510065924087 0 -0.0028462703249312773 0.0074996007264579358 0 -0.0027654968249763803 0.0069790837390669358 0 -0.0023819283265181755 0.0071026510065924087 0 -0.0028462703249312773 0.0074996007264579358 0 -0.0033027367424343728 0.0072106306224703097 0 -0.0028462703249312773 0.0074996007264579358 0 -0.0037575290155584936 0.0077571000916677214 0 -0.0027654968249763803 0.0069790837390669358 0 -0.0033027367424343728 0.0072106306224703097 0 -0.0028462703249312773 0.0074996007264579358 0 -0.0017910265957717367 0.0065769434211125112 0 -0.0017155551571106705 0.006485852828671544 0 -0.0018461214624205765 0.0065211203953942426 0 -0.0017015410050469264 0.0066048747968467441 0 -0.0017910265957717367 0.0065769434211125112 0 -0.0017155551571106705 0.006485852828671544 0 -0.0023246827764417119 0.0071208838092955739 0 -0.0026257258466978748 0.0060309114453012654 0 -0.0026257258466978748 0.0060309114453012654 0 -0.003379010411611383 0.0055241459564647601 0 -0.0028035407570798951 0.0051911822181387804 0 -0.0029345653876508499 0.004604921554544626 0 -0.0028680057595698518 0.0052237979918385961 0 -0.0033027367424343728 0.0072106306224703097 0 -0.0037575290155584936 0.0077571000916677214 0 -0.0038446471143785796 0.007024370595349827 0 -0.0028864637013961223 0.0045286657812297869 0 -0.003379010411611383 0.0055241459564647601 0 6.9455282167018515e-05 0.0067892173817969137 0 0.00049853797193379925 0.0072982910864965774 0 0.00057842803586232447 0.00669086666437076 0 6.9455282167018515e-05 0.0067892173817969137 0 -0.00010041092419569434 0.0073376192424293683 0 0.00049853797193379925 0.0072982910864965774 0 6.9455282167018515e-05 0.0067892173817969137 0 -0.00010041092419569434 0.0073376192424293683 0 -0.00026917996041216042 0.0069514887152979992 0 0.0011882956038479539 0.0071696489342626679 0 0.00057842803586232447 0.00669086666437076 0 0.0011841477292664883 0.0065121283471696193 0 0.00049853797193379925 0.0072982910864965774 0 0.0011882956038479539 0.0071696489342626679 0 0.00057842803586232447 0.00669086666437076 0 0.0011841477292664883 0.0065121283471696193 0 0.00059055154364195126 0.0061485300952691833 0 0.0013485501276626597 0.0058088782735853609 0 0.00057842803586232447 0.00669086666437076 0 0.0011841477292664883 0.0065121283471696193 0 0.00059055154364195126 0.0061485300952691833 0 -7.8760009031554176e-05 0.0057516970852652238 0 0.00059055154364195126 0.0061485300952691833 0 7.1004121826620716e-06 0.0063375007827026243 0 0.00057842803586232447 0.00669086666437076 0 0.00059055154364195126 0.0061485300952691833 0 7.1004121826620716e-06 0.0063375007827026243 0 6.9455282167018515e-05 0.0067892173817969137 0 0.00057842803586232447 0.00669086666437076 0 7.1004121826620716e-06 0.0063375007827026243 0 6.9455282167018515e-05 0.0067892173817969137 0 7.1004121826620716e-06 0.0063375007827026243 0 -0.00048394837137212342 0.0066007569213971272 0 -7.8760009031554176e-05 0.0057516970852652238 0 7.1004121826620716e-06 0.0063375007827026243 0 -0.00059408577742579903 0.0060286771670387714 0 -0.00059408577742579903 0.0060286771670387714 0 -0.00097635659716826867 0.0063841237873631385 0 -0.00048394837137212342 0.0066007569213971272 0 7.1004121826620716e-06 0.0063375007827026243 0 -0.00059408577742579903 0.0060286771670387714 0 -0.00048394837137212342 0.0066007569213971272 0 -0.0011503983915069236 0.0057435608213824603 0 -0.0018473482410838779 0.0055247508784763465 0 -0.0013545400791632454 0.0061457337475035578 0 -0.0011503983915069236 0.0057435608213824603 0 -0.00097635659716826867 0.0063841237873631385 0 -0.0013545400791632454 0.0061457337475035578 0 -0.0011503983915069236 0.0057435608213824603 0 -0.00059408577742579903 0.0060286771670387714 0 -0.00097635659716826867 0.0063841237873631385 0 -0.0017291693525512534 0.0063219597831511874 0 -0.0013545400791632454 0.0061457337475035578 0 -0.0013394615445579475 0.0066881083498435169 0 -0.00097635659716826867 0.0063841237873631385 0 -0.0013545400791632454 0.0061457337475035578 0 -0.0013394615445579475 0.0066881083498435169 0 -0.00097635659716826867 0.0063841237873631385 0 -0.0013394615445579475 0.0066881083498435169 0 -0.000937246445598246 0.0069296724187387576 0 -0.000937246445598246 0.0069296724187387576 0 -0.0013881294229481653 0.0072225484479495321 0 -0.00091952256205897628 0.0074180349309197046 0 -0.0016889281626486113 0.0068143339900460813 0 -0.0013394615445579475 0.0066881083498435169 0 -0.0013881294229481653 0.0072225484479495321 0 -0.0013394615445579475 0.0066881083498435169 0 -0.000937246445598246 0.0069296724187387576 0 -0.0013881294229481653 0.0072225484479495321 0 -0.00048394837137212342 0.0066007569213971272 0 -0.00026917996041216042 0.0069514887152979992 0 -0.00054360697845411555 0.0071532169916724616 0 6.9455282167018515e-05 0.0067892173817969137 0 -0.00048394837137212342 0.0066007569213971272 0 -0.00026917996041216042 0.0069514887152979992 0 -0.000937246445598246 0.0069296724187387576 0 -0.00048394837137212342 0.0066007569213971272 0 -0.00054360697845411555 0.0071532169916724616 0 -0.00097635659716826867 0.0063841237873631385 0 -0.000937246445598246 0.0069296724187387576 0 -0.00048394837137212342 0.0066007569213971272 0 -0.000937246445598246 0.0069296724187387576 0 -0.00054360697845411555 0.0071532169916724616 0 -0.00091952256205897628 0.0074180349309197046 0 -0.00010041092419569434 0.0073376192424293683 0 -0.00026917996041216042 0.0069514887152979992 0 -0.00054360697845411555 0.0071532169916724616 0 -0.00010041092419569434 0.0073376192424293683 0 -0.00050159886726238801 0.0074908795953507685 0 -0.0003425484838874707 0.0078361617900737229 0 -0.00010041092419569434 0.0073376192424293683 0 -0.00054360697845411555 0.0071532169916724616 0 -0.00050159886726238801 0.0074908795953507685 0 -0.00050159886726238801 0.0074908795953507685 0 -0.00071896661497845935 0.0076743734912919836 0 -0.0003425484838874707 0.0078361617900737229 0 -0.00054360697845411555 0.0071532169916724616 0 -0.00050159886726238801 0.0074908795953507685 0 -0.00091952256205897628 0.0074180349309197046 0 -0.00050159886726238801 0.0074908795953507685 0 -0.00071896661497845935 0.0076743734912919836 0 -0.00091952256205897628 0.0074180349309197046 0 -0.00071896661497845935 0.0076743734912919836 0 -0.0003425484838874707 0.0078361617900737229 0 -0.00097264451828738495 0.0079279168646021157 0 -0.00173804335476229 0.0070450088221480972 0 -0.00082045813201358142 0.007153528978112055 0 -0.0019291133077450888 0.0074123786230639111 0 -0.0012263819954417257 0.0075826338762210229 0 -0.001096591525020412 0.0079944098421402855 0 -0.0019291133077450888 0.0074123786230639111 0 -0.0013881294229481653 0.0072225484479495321 0 -0.0012263819954417257 0.0075826338762210229 0 -0.0013881294229481653 0.0072225484479495321 0 -0.0012263819954417257 0.0075826338762210229 0 -0.00091952256205897628 0.0074180349309197046 0 -0.0012263819954417257 0.0075826338762210229 0 -0.00091952256205897628 0.0074180349309197046 0 -0.00096206386361244662 0.0076480015999527183 0 -0.00071896661497845935 0.0076743734912919836 0 -0.00091952256205897628 0.0074180349309197046 0 -0.00096206386361244662 0.0076480015999527183 0 -0.0012263819954417257 0.0075826338762210229 0 -0.00097264451828738495 0.0079279168646021157 0 -0.001096591525020412 0.0079944098421402855 0 -0.00071896661497845935 0.0076743734912919836 0 -0.00096206386361244662 0.0076480015999527183 0 -0.00097264451828738495 0.0079279168646021157 0 -0.00094210904375331066 0.0072813822454373114 0 -0.00082045813201358142 0.007153528978112055 0 -0.0012263819954417257 0.0075826338762210229 0 -0.00096206386361244662 0.0076480015999527183 0 -0.00097264451828738495 0.0079279168646021157 0 -0.00018466059122046645 0.0070509719766167532 0 -0.00049819815933483975 0.0068686066024671016 0 -0.00016789805537446907 0.0066957876148767545 0 -0.00099181492860771279 0.0066327688636536371 0 -0.00082045813201358142 0.007153528978112055 0 -0.00097264451828738495 0.0079279168646021157 0 -0.0011003742945394661 0.0079943794601825598 0 -9.1022607582661331e-05 0.0087375015411539064 0 -0.00018466059122046645 0.0070509719766167532 0 -0.00016789805537446907 0.0066957876148767545 0 0.00019648049933503403 0.0069335262381090236 0 -0.00082045813201358142 0.007153528978112055 0 3.4575777136635846e-05 0.0078262661748228577 0 -0.0003425484838874707 0.0078361617900737229 0 -0.00097264451828738495 0.0079279168646021157 0 -9.1022607582661331e-05 0.0087375015411539064 0 -0.0003425484838874707 0.0078361617900737229 0 -9.1022607582661331e-05 0.0087375015411539064 0 0.00028396755970842375 0.0079223858055004273 0 -9.1022607582661331e-05 0.0087375015411539064 0 0.00028396755970842375 0.0079223858055004273 0 0.00069336354397497857 0.0085238225741164613 0 -0.00010041092419569434 0.0073376192424293683 0 0.00049853797193379925 0.0072982910864965774 0 0.00028396755970842375 0.0079223858055004273 0 -0.00010041092419569434 0.0073376192424293683 0 -0.0003425484838874707 0.0078361617900737229 0 0.00028396755970842375 0.0079223858055004273 0 0.00049853797193379925 0.0072982910864965774 0 0.0011882956038479539 0.0071696489342626679 0 0.00096534750757683134 0.0078768842798717965 0 0.00049853797193379925 0.0072982910864965774 0 0.00028396755970842375 0.0079223858055004273 0 0.00096534750757683134 0.0078768842798717965 0 0.00028396755970842375 0.0079223858055004273 0 0.00096534750757683134 0.0078768842798717965 0 0.00069336354397497857 0.0085238225741164613 0 0.00089861048681034279 0.009409291331156408 0 0.00069336354397497857 0.0085238225741164613 0 0.0013924613437591609 0.0086435876776059101 0 0.00096534750757683134 0.0078768842798717965 0 0.00069336354397497857 0.0085238225741164613 0 0.0013924613437591609 0.0086435876776059101 0 0.0013924613437591609 0.0086435876776059101 0 0.0022447235520394898 0.0084547931325457612 0 0.0017735367314786379 0.0077979207158297061 0 0.0019730472644934674 0.0094433443166329952 0 0.0013924613437591609 0.0086435876776059101 0 0.0022447235520394898 0.0084547931325457612 0 0.0019730472644934674 0.0094433443166329952 0 0.0022447235520394898 0.0084547931325457612 0 0.0028869971014910231 0.0086384026303376951 0 0.0022447235520394898 0.0084547931325457612 0 0.0017735367314786379 0.0077979207158297061 0 0.0026654155320162661 0.0077312302240474546 0 0.00096534750757683134 0.0078768842798717965 0 0.0013924613437591609 0.0086435876776059101 0 0.0017735367314786379 0.0077979207158297061 0 0.0011882956038479539 0.0071696489342626679 0 0.00096534750757683134 0.0078768842798717965 0 0.0017735367314786379 0.0077979207158297061 0 0.0011882956038479539 0.0071696489342626679 0 0.0017735367314786379 0.0077979207158297061 0 0.0020565399021695635 0.0067522428246503093 0 0.0011882956038479539 0.0071696489342626679 0 0.0011841477292664883 0.0065121283471696193 0 0.0020565399021695635 0.0067522428246503093 0 0.0017735367314786379 0.0077979207158297061 0 0.0020565399021695635 0.0067522428246503093 0 0.0026654155320162661 0.0077312302240474546 0 0.0026393660617576352 0.0081705843387892864 0 0.0028358156184979349 0.0084526014024734648 0 0.0032729252381607306 0.0096166979985897773 0 0.0029686845448440554 0.0095377118110833072 0 0.0030799805387787104 0.0091896390680304765 0 0.0032729252381607306 0.0096166979985897773 0 0.0032530023759124471 0.0098424644784172333 0 0.0031262954086822719 0.0098622895523874238 0 0.0032729252381607306 0.0096166979985897773 0 0.0029686845448440554 0.0095377118110833072 0 0.0031262954086822719 0.0098622895523874238 0 0.0011841477292664883 0.0065121283471696193 0 0.0020565399021695635 0.0067522428246503093 0 0.0013485501276626597 0.0058088782735853609 0 0.0026393660617576352 0.0081705843387892864 0 0.0024216469263991657 0.0078207890615316598 0 0.0032729252381607306 0.0096166979985897773 0 0.0032530023759124471 0.0098424644784172333 0 0.0033279367845226002 0.0098724948659293429 0 0.0026297930764898692 0.009619136645234656 0 0.0025961932397396041 0.0098972929287351689 0 0.0023040091774036062 0.0097995255062809875 0 0.0026297930764898692 0.009619136645234656 0 0.0025961932397396041 0.0098972929287351689 0 0.0028753255747732309 0.0098143679135202118 0 0.0028753255747732309 0.0098143679135202118 0 0.0029686845448440554 0.0095377118110833072 0 0.0031262954086822719 0.0098622895523874238 0 0.0026297930764898692 0.009619136645234656 0 0.0028753255747732309 0.0098143679135202118 0 0.0029686845448440554 0.0095377118110833072 0 0.0029686845448440554 0.0095377118110833072 0 0.0026148451081560186 0.0091468146297997086 0 0.0030799805387787104 0.0091896390680304765 0 0.0026297930764898692 0.009619136645234656 0 0.0029686845448440554 0.0095377118110833072 0 0.0026148451081560186 0.0091468146297997086 0 0.0026297930764898692 0.009619136645234656 0 0.0026148451081560186 0.0091468146297997086 0 0.0022752402601506458 0.0094073952203874798 0 0.0026148451081560186 0.0091468146297997086 0 0.0030799805387787104 0.0091896390680304765 0 0.0027734492894907416 0.0086673689417002282 0 0.0026148451081560186 0.0091468146297997086 0 0.0027734492894907416 0.0086673689417002282 0 0.0023128148818913914 0.0087331104389639404 0 0.0028358156184979349 0.0084526014024734648 0 0.0027808977656240521 0.0086049738409658561 0 0.0022447235520394898 0.0084547931325457612 0 0.0026654155320162661 0.0077312302240474546 0 0.0026424414121411933 0.0083536815215135007 0 0.0026654155320162661 0.0077312302240474546 0 0.0026424414121411933 0.0083536815215135007 0 0.0027734492894907416 0.0086673689417002282 0 0.0022447235520394898 0.0084547931325457612 0 0.0026424414121411933 0.0083536815215135007 0 0.0028869971014910231 0.0086384026303376951 0 0.0026424414121411933 0.0083536815215135007 0 0.0028869971014910231 0.0086384026303376951 0 0.0027734492894907416 0.0086673689417002282 0 0.002210138023725306 0.0094171125206922914 0 0.0017866036129621135 0.0094695397503719216 0 0.0028869971014910231 0.0086384026303376951 0 0.0027734492894907416 0.0086673689417002282 0 0.0023128148818913914 0.0087331104389639404 0 0.0013845957368765138 0.010128500537623826 0 0.0016488215722366738 0.010138310355064841 0 0.0011894771498064157 0.010438004439511513 0 0.0011522696705224067 0.010184373009842342 0 0.0013845957368765138 0.010128500537623826 0 0.0011894771498064157 0.010438004439511513 0 0.0011522696705224067 0.010184373009842342 0 0.00094788352439063189 0.0103677744704707 0 0.0011894771498064157 0.010438004439511513 0 0.0010148265708663339 0.010255897458038621 0 0.00092544942550644102 0.01087616501919712 0 0.00092544942550644102 0.01087616501919712 0 0.0011384522227669144 0.010607202500443579 0 0.0019896707655383079 0.0091451497454375346 0 0.0023128148818913914 0.0087331104389639404 0 0.0014443669177472008 0.0091431157287323542 0 0.0017866036129621135 0.0094695397503719216 0 0.0011384522227669144 0.010607202500443579 0 0.00094788352439063189 0.0103677744704707 0 0.0011894771498064157 0.010438004439511513 0 0.00089451491965826253 0.010595565314530993 0 0.0019896707655383079 0.0091451497454375346 0 0.0023043049461117515 0.0091101908364785052 0 0.0023128148818913914 0.0087331104389639404 0 0.0026148451081560186 0.0091468146297997086 0 0.0023043049461117515 0.0091101908364785052 0 0.0023128148818913914 0.0087331104389639404 0 0.00049754288000855985 0.010622741600900328 0 0.00023567325043045132 0.011194493750637899 0 0.00060561230989300639 0.011439589283578321 0 0.00049754288000855985 0.010622741600900328 0 0.0010062940362487156 0.011138234756299622 0 0.00060561230989300639 0.011439589283578321 0 0.0010062940362487156 0.011138234756299622 0 0.00086828038254650991 0.011829708137901497 0 0.00060561230989300639 0.011439589283578321 0 0.00086828038254650991 0.011829708137901497 0 0.00060561230989300639 0.011439589283578321 0 0.000779460266056572 0.011877699523697783 0 0.00060561230989300639 0.011439589283578321 0 0.00046750223216333479 0.011797114432931634 0 0.000779460266056572 0.011877699523697783 0 0.00060561230989300639 0.011439589283578321 0 0.00015281857124821422 0.011717589040600478 0 0.00046750223216333479 0.011797114432931634 0 0.00023567325043045132 0.011194493750637899 0 0.00060561230989300639 0.011439589283578321 0 0.00015281857124821422 0.011717589040600478 0 0.00015850992443692578 0.012091276130946862 0 0.00015281857124821422 0.011717589040600478 0 0.00046750223216333479 0.011797114432931634 0 0.00015850992443692578 0.012091276130946862 0 0.00046750223216333479 0.011797114432931634 0 0.00047162545884802835 0.012096200758940412 0 0.00015850992443692578 0.012091276130946862 0 0.00047162545884802835 0.012096200758940412 0 0.00024805929519829145 0.012287310499503618 0 0.00046750223216333479 0.011797114432931634 0 0.00047162545884802835 0.012096200758940412 0 0.00058991232590002024 0.011950501334357285 0 0.0011384522227669144 0.010607202500443579 0 0.00087916170707567811 0.011146255544627956 0 0.0014443669177472008 0.0091431157287323542 0 0.0012378028467160899 0.0099378051337670591 0 0.0015404634717344826 0.009427252117909915 0 0.00084576571777832414 0.011846057847792668 0 0.00067603690427256403 0.012133793642767739 0 0.00065839393968697337 0.012336167857317856 0 0.00047162545884802835 0.012096200758940412 0 0.00067603690427256403 0.012133793642767739 0 0.00056296831177956479 0.012222179535364322 0 0.00047162545884802835 0.012096200758940412 0 0.00067603690427256403 0.012133793642767739 0 0.00058991232590002024 0.011950501334357285 0 0.00046750223216333479 0.011797114432931634 0 0.00058991232590002024 0.011950501334357285 0 0.000779460266056572 0.011877699523697783 0 0.00067603690427256403 0.012133793642767739 0 0.00058991232590002024 0.011950501334357285 0 0.00072230621737127932 0.011967057272463159 0 0.00058991232590002024 0.011950501334357285 0 0.00072230621737127932 0.011967057272463159 0 0.000779460266056572 0.011877699523697783 0 0.00084576571777832414 0.011846057847792668 0 0.00067603690427256403 0.012133793642767739 0 0.00072230621737127932 0.011967057272463159 0 0.00084576571777832414 0.011846057847792668 0 0.00072230621737127932 0.011967057272463159 0 0.000779460266056572 0.011877699523697783 0 0.0011384522227669144 0.010607202500443579 0 0.00092972641459188445 0.01082355903547509 0 0.0012378028467160899 0.0099378051337670591 0 0.0015404634717344826 0.009427252117909915 0 0.0015302082970000766 0.0096383224211301025 0 0.0015171067232451299 0.0098531451458877851 0 0.0012378028467160899 0.0099378051337670591 0 0.0015302082970000766 0.0096383224211301025 0 0.0015171067232451299 0.0098531451458877851 0 0.0014303758120591537 0.0099955864326746625 0 0.0012378028467160899 0.0099378051337670591 0 0.0014303758120591537 0.0099955864326746625 0 0.0012966254948731683 0.010243215197081022 0 0.0012378028467160899 0.0099378051337670591 0 0.0014303758120591537 0.0099955864326746625 0 0.0012966254948731683 0.010243215197081022 0 0.0016629379844420621 0.009949149702294012 0 0.00065839393968697337 0.012336167857317856 0 0.00044894902232701369 0.012316515128050907 0 0.00046924249200236867 0.012487612677317315 0 0.00065839393968697337 0.012336167857317856 0 0.00056296831177956479 0.012222179535364322 0 0.00044894902232701369 0.012316515128050907 0 0.00067603690427256403 0.012133793642767739 0 0.00065839393968697337 0.012336167857317856 0 0.00056296831177956479 0.012222179535364322 0 0.00047162545884802835 0.012096200758940412 0 0.00044894902232701369 0.012316515128050907 0 0.00024805929519829145 0.012287310499503618 0 0.00047162545884802835 0.012096200758940412 0 0.00056296831177956479 0.012222179535364322 0 0.00044894902232701369 0.012316515128050907 0 0.00044894902232701369 0.012316515128050907 0 0.00030077407854993713 0.01245031316420055 0 0.00046924249200236867 0.012487612677317315 0 0.00044894902232701369 0.012316515128050907 0 0.00030077407854993713 0.01245031316420055 0 0.00024805929519829145 0.012287310499503618 0 0.0022752402601506458 0.0094073952203874798 0 0.0019477346809244902 0.0094103304574164447 0 0.0019728922153074884 0.0096671552993154043 0 0.0026148451081560186 0.0091468146297997086 0 0.0023043049461117515 0.0091101908364785052 0 0.0022752402601506458 0.0094073952203874798 0 0.0019896707655383079 0.0091451497454375346 0 0.0023043049461117515 0.0091101908364785052 0 0.0022752402601506458 0.0094073952203874798 0 0.0019896707655383079 0.0091451497454375346 0 0.0022752402601506458 0.0094073952203874798 0 0.0019477346809244902 0.0094103304574164447 0 0.0019896707655383079 0.0091451497454375346 0 0.0014443669177472008 0.0091431157287323542 0 0.0016846616473618534 0.0092572054392279935 0 0.0019896707655383079 0.0091451497454375346 0 0.0016846616473618534 0.0092572054392279935 0 0.001760334416062674 0.0093214816822537183 0 0.0019896707655383079 0.0091451497454375346 0 0.001760334416062674 0.0093214816822537183 0 0.0019477346809244902 0.0094103304574164447 0 0.0014443669177472008 0.0091431157287323542 0 0.0016846616473618534 0.0092572054392279935 0 0.0015404634717344826 0.009427252117909915 0 0.0016846616473618534 0.0092572054392279935 0 0.001760334416062674 0.0093214816822537183 0 0.0015404634717344826 0.009427252117909915 0 0.0015404634717344826 0.009427252117909915 0 0.001720111282811959 0.0095097737094910553 0 0.0015302082970000766 0.0096383224211301025 0 0.001760334416062674 0.0093214816822537183 0 0.0015404634717344826 0.009427252117909915 0 0.001720111282811959 0.0095097737094910553 0 0.001720111282811959 0.0095097737094910553 0 0.0015302082970000766 0.0096383224211301025 0 0.0017144774999995386 0.0097065835288107655 0 0.001720111282811959 0.0095097737094910553 0 0.0019728922153074884 0.0096671552993154043 0 0.0017144774999995386 0.0097065835288107655 0 0.001720111282811959 0.0095097737094910553 0 0.0019477346809244902 0.0094103304574164447 0 0.0019728922153074884 0.0096671552993154043 0 0.001760334416062674 0.0093214816822537183 0 0.001720111282811959 0.0095097737094910553 0 0.0019477346809244902 0.0094103304574164447 0 0.0019728922153074884 0.0096671552993154043 0 0.0016629379844420621 0.009949149702294012 0 0.0020469721420520127 0.0098948090758285753 0 0.0012966254948731683 0.010243215197081022 0 0.0016629379844420621 0.009949149702294012 0 0.0022298300623157354 0.010159933327747278 0 0.0019728922153074884 0.0096671552993154043 0 0.0017144774999995386 0.0097065835288107655 0 0.0016629379844420621 0.009949149702294012 0 0.0016629379844420621 0.009949149702294012 0 0.0020469721420520127 0.0098948090758285753 0 0.0022298300623157354 0.010159933327747278 0 0.0015171067232451299 0.0098531451458877851 0 0.0015302082970000766 0.0096383224211301025 0 0.0017144774999995386 0.0097065835288107655 0 0.0015171067232451299 0.0098531451458877851 0 0.0017144774999995386 0.0097065835288107655 0 0.0016629379844420621 0.009949149702294012 0 0.0015171067232451299 0.0098531451458877851 0 0.0014303758120591537 0.0099955864326746625 0 0.0016629379844420621 0.009949149702294012 0 0.0020469721420520127 0.0098948090758285753 0 0.0023040091774036062 0.0097995255062809875 0 0.0022298300623157354 0.010159933327747278 0 0.0019728922153074884 0.0096671552993154043 0 0.0020469721420520127 0.0098948090758285753 0 0.0023040091774036062 0.0097995255062809875 0 0.0022752402601506458 0.0094073952203874798 0 0.0019728922153074884 0.0096671552993154043 0 0.0023040091774036062 0.0097995255062809875 0 0.0026297930764898692 0.009619136645234656 0 0.0022752402601506458 0.0094073952203874798 0 0.0023040091774036062 0.0097995255062809875 0 0.0025961932397396041 0.0098972929287351689 0 0.0023040091774036062 0.0097995255062809875 0 0.0022298300623157354 0.010159933327747278 0 0.0018225097202003531 0.010688139594263457 0 0.0016051583415824882 0.010766306352992045 0 0.0018256631347195738 0.010816152293073674 0 0.0012966254948731683 0.010243215197081022 0 0.0018225097202003531 0.010688139594263457 0 0.0016051583415824882 0.010766306352992045 0 0.00130360088520904 0.010248288613739711 0 0.0019958239473213076 0.010427467297572894 0 0.0022978245014590045 0.011270341965383639 0 0.0022485658027669542 0.011027160393726377 0 0.0024471902211010222 0.011235028863061597 0 0.0022485658027669542 0.011027160393726377 0 0.0024471902211010222 0.011235028863061597 0 0.0024148743060163421 0.011036176526429005 0 0.0022978245014590045 0.011270341965383639 0 0.0022485658027669542 0.011027160393726377 0 0.0020065392551586844 0.011103560592611883 0 0.0022485658027669542 0.011027160393726377 0 0.0020065392551586844 0.011103560592611883 0 0.0020439403356663174 0.010904205158230536 0 0.0020001606335146678 0.01098481990764706 0 0.0019109001531187996 0.010970645233069426 0 0.0020065392551586844 0.011103560592611883 0 0.0020439403356663174 0.010904205158230536 0 0.0019067546683254242 0.010937699351183975 0 9.3017090536996053e-05 0.01265685015779195 0 0.00025052658270149328 0.012575682573261544 0 0.00053145085560900979 0.012720938681809933 0 0.0014122192831121038 0.012260895209523314 0 0.0015547913934118075 0.011638168881863514 0 0.00025052658270149328 0.012575682573261544 0 0.00038412624947983896 0.012564239389389085 0 0.00053145085560900979 0.012720938681809933 0 0.00030077407854993713 0.01245031316420055 0 0.00025052658270149328 0.012575682573261544 0 0.00038412624947983896 0.012564239389389085 0 0.00030077407854993713 0.01245031316420055 0 0.00038412624947983896 0.012564239389389085 0 0.00046924249200236867 0.012487612677317315 0 0.00038412624947983896 0.012564239389389085 0 0.00046924249200236867 0.012487612677317315 0 0.00053145085560900979 0.012720938681809933 0 0.0012966254948731683 0.010243215197081022 0 0.0012378028467160899 0.0099378051337670591 0 0.0010508070077746249 0.01072069929084056 0 0.00065839393968697337 0.012336167857317856 0 0.00046924249200236867 0.012487612677317315 0 0.00053145085560900979 0.012720938681809933 0 0.0020001606335146678 0.01098481990764706 0 0.0015547913934118075 0.011638168881863514 0 0.00087916170707567811 0.011146255544627956 0 0.0015547913934118075 0.011638168881863514 0 0.0012966254948731683 0.010243215197081022 0 0.0016051583415824882 0.010766306352992045 0 0.0010508070077746249 0.01072069929084056 0 0.0022978245014590045 0.011270341965383639 0 0.0025608613607399178 0.01141969117763829 0 0.0024471902211010222 0.011235028863061597 0 0.0024471902211010222 0.011235028863061597 0 0.0025260129241141444 0.011173344179714139 0 0.0024148743060163421 0.011036176526429005 0 0.0024471902211010222 0.011235028863061597 0 0.0025992136079012718 0.011405951572640223 0 0.0025260129241141444 0.011173344179714139 0 0.0015547913934118075 0.011638168881863514 0 0.0023122486980086477 0.011288477943172196 0 0.0025608613607399178 0.01141969117763829 0 0.0024471902211010222 0.011235028863061597 0 0.0025992136079012718 0.011405951572640223 0 0.0028340019033582641 0.011803850955064369 0 0.0027166944474284957 0.01172981824465515 0 0.0026473168070517339 0.011626794374160258 0 0.0028340019033582641 0.011803850955064369 0 0.0026473168070517339 0.011626794374160258 0 0.0027215947369509923 0.011502061957025019 0 0.0026473168070517339 0.011626794374160258 0 0.0025992136079012718 0.011405951572640223 0 0.0027215947369509923 0.011502061957025019 0 0.0025992136079012718 0.011405951572640223 0 0.0027215947369509923 0.011502061957025019 0 0.0027275755973937689 0.011275072509980895 0 0.0028340019033582641 0.011803850955064369 0 0.0027215947369509923 0.011502061957025019 0 0.0027962596182079329 0.011445932319271117 0 0.0027215947369509923 0.011502061957025019 0 0.0027962596182079329 0.011445932319271117 0 0.0027275755973937689 0.011275072509980895 0 0.0029885170466838282 0.010722131186771528 0 0.0027989363094326324 0.010910665835837172 0 0.0029163499210999783 0.011183596317166969 0 0.0027989363094326324 0.010910665835837172 0 0.0026404982778078573 0.011096108941709908 0 0.0025089151603843052 0.010809070289134602 0 0.0027989363094326324 0.010910665835837172 0 0.0029163499210999783 0.011183596317166969 0 0.0027657571518785603 0.011112353407243149 0 0.0027962596182079329 0.011445932319271117 0 0.0029163499210999783 0.011183596317166969 0 0.0027275755973937689 0.011275072509980895 0 0.0029163499210999783 0.011183596317166969 0 0.0027275755973937689 0.011275072509980895 0 0.0027657571518785603 0.011112353407243149 0 0.0025992136079012718 0.011405951572640223 0 0.0027275755973937689 0.011275072509980895 0 0.0026404982778078573 0.011096108941709908 0 0.0027275755973937689 0.011275072509980895 0 0.0027657571518785603 0.011112353407243149 0 0.0026404982778078573 0.011096108941709908 0 0.0027989363094326324 0.010910665835837172 0 0.0027657571518785603 0.011112353407243149 0 0.0026404982778078573 0.011096108941709908 0 0.0026404982778078573 0.011096108941709908 0 0.0025260129241141444 0.011173344179714139 0 0.0025089151603843052 0.010809070289134602 0 0.0025260129241141444 0.011173344179714139 0 0.0024148743060163421 0.011036176526429005 0 0.0025089151603843052 0.010809070289134602 0 0.0025992136079012718 0.011405951572640223 0 0.0026404982778078573 0.011096108941709908 0 0.0025260129241141444 0.011173344179714139 0 0.0024148743060163421 0.011036176526429005 0 0.0025089151603843052 0.010809070289134602 0 0.0023450748264713731 0.010797836939879811 0 0.0024761222458143262 0.010400322876480522 0 0.0025089151603843052 0.010809070289134602 0 0.0027034279241615164 0.01057703341247225 0 0.0024761222458143262 0.010400322876480522 0 0.0025089151603843052 0.010809070289134602 0 0.0022938015731041035 0.01054388302453047 0 0.0027989363094326324 0.010910665835837172 0 0.0025089151603843052 0.010809070289134602 0 0.0027034279241615164 0.01057703341247225 0 0.0029885170466838282 0.010722131186771528 0 0.0029473521837357409 0.010355929576438683 0 0.0027034279241615164 0.01057703341247225 0 0.0029885170466838282 0.010722131186771528 0 0.0027989363094326324 0.010910665835837172 0 0.0027034279241615164 0.01057703341247225 0 0.0021810596577276618 0.010810530806817398 0 0.0020356452694559129 0.010712960773257377 0 0.0021196049310486507 0.010569820109529839 0 0.0021810596577276618 0.010810530806817398 0 0.0020356452694559129 0.010712960773257377 0 0.0020439403356663174 0.010904205158230536 0 0.0020356452694559129 0.010712960773257377 0 0.0020439403356663174 0.010904205158230536 0 0.0018790328778647406 0.010766783683640525 0 0.0022485658027669542 0.011027160393726377 0 0.0021810596577276618 0.010810530806817398 0 0.0020439403356663174 0.010904205158230536 0 0.0022485658027669542 0.011027160393726377 0 0.0021810596577276618 0.010810530806817398 0 0.0023450748264713731 0.010797836939879811 0 0.0022485658027669542 0.011027160393726377 0 0.0024148743060163421 0.011036176526429005 0 0.0023450748264713731 0.010797836939879811 0 0.0021810596577276618 0.010810530806817398 0 0.0023450748264713731 0.010797836939879811 0 0.0022938015731041035 0.01054388302453047 0 0.0021810596577276618 0.010810530806817398 0 0.0022938015731041035 0.01054388302453047 0 0.0021196049310486507 0.010569820109529839 0 0.0025089151603843052 0.010809070289134602 0 0.0023450748264713731 0.010797836939879811 0 0.0022938015731041035 0.01054388302453047 0 0.002093334581852865 0.010339975642564819 0 0.0022938015731041035 0.01054388302453047 0 0.0021196049310486507 0.010569820109529839 0 0.0020356452694559129 0.010712960773257377 0 0.0021196049310486507 0.010569820109529839 0 0.0019450553120907385 0.010513906743880627 0 0.002093334581852865 0.010339975642564819 0 0.0021196049310486507 0.010569820109529839 0 0.0019450553120907385 0.010513906743880627 0 0.002093334581852865 0.010339975642564819 0 0.0018020927253117049 0.01018443991232601 0 0.0019450553120907385 0.010513906743880627 0 0.0018020927253117049 0.01018443991232601 0 0.0019450553120907385 0.010513906743880627 0 0.0016776653575369832 0.010489393637754325 0 0.0020356452694559129 0.010712960773257377 0 0.0019450553120907385 0.010513906743880627 0 0.0018790328778647406 0.010766783683640525 0 0.0019450553120907385 0.010513906743880627 0 0.0018790328778647406 0.010766783683640525 0 0.0016776653575369832 0.010489393637754325 0 0.0018790328778647406 0.010766783683640525 0 0.0016788143698033063 0.010765390534771612 0 0.0017984606237456571 0.010864085308583366 0 0.0016776653575369832 0.010489393637754325 0 0.001338756548812961 0.010371156615947749 0 0.0014526406954110255 0.01066754869548696 0 0.0016788143698033063 0.010765390534771612 0 0.0014526406954110255 0.01066754869548696 0 0.0015902609162386412 0.0108871497967834 0 0.0018790328778647406 0.010766783683640525 0 0.0016788143698033063 0.010765390534771612 0 0.0016776653575369832 0.010489393637754325 0 0.0016788143698033063 0.010765390534771612 0 0.0016776653575369832 0.010489393637754325 0 0.0014526406954110255 0.01066754869548696 0 0.0014995653896842395 0.010093580154533884 0 0.0016776653575369832 0.010489393637754325 0 0.001338756548812961 0.010371156615947749 0 0.0014995653896842395 0.010093580154533884 0 0.0018020927253117049 0.01018443991232601 0 0.0016776653575369832 0.010489393637754325 0 0.0014995653896842395 0.010093580154533884 0 0.0012423222288839807 0.010090071110847781 0 0.001338756548812961 0.010371156615947749 0 0.0012423222288839807 0.010090071110847781 0 0.001338756548812961 0.010371156615947749 0 0.0010275086827238871 0.010260714720965434 0 0.00043686375991619758 0.010339776439169937 0 0.0010275086827238871 0.010260714720965434 0 0.00097708232965352713 0.010540131364866874 0 0.001338756548812961 0.010371156615947749 0 0.0010275086827238871 0.010260714720965434 0 0.00097708232965352713 0.010540131364866874 0 0.00099851165171689605 0.0099105684599151214 0 0.00072511682509041541 0.010041946914075747 0 0.0010275086827238871 0.010260714720965434 0 0.00099851165171689605 0.0099105684599151214 0 0.0012423222288839807 0.010090071110847781 0 0.0010275086827238871 0.010260714720965434 0 0.00097708232965352713 0.010540131364866874 0 0.0014526406954110255 0.01066754869548696 0 0.0013777460620332449 0.010903919851160793 0 0.001338756548812961 0.010371156615947749 0 0.00097708232965352713 0.010540131364866874 0 0.0014526406954110255 0.01066754869548696 0 0.0013777460620332449 0.010903919851160793 0 0.0011593942554684684 0.011096173532040818 0 0.0017311208890057417 0.011026578719143339 0 0.0014526406954110255 0.01066754869548696 0 0.0013777460620332449 0.010903919851160793 0 0.0015902609162386412 0.0108871497967834 0 0.00097708232965352713 0.010540131364866874 0 0.0013777460620332449 0.010903919851160793 0 0.0011593942554684684 0.011096173532040818 0 0.00034988372852411007 0.010998164451971403 0 0.00097708232965352713 0.010540131364866874 0 0.0011593942554684684 0.011096173532040818 0 0.0033296693976538508 0.00989862745321873 0 0.0032709960239869201 0.0099631591108938766 0 0.0033279367845226002 0.0098724948659293429 0 0.0032709960239869201 0.0099631591108938766 0 0.0032530023759124471 0.0098424644784172333 0 0.0033279367845226002 0.0098724948659293429 0 0.0023785359852912112 0.01092538691717845 0 0.0022407864932452058 0.010476752307748966 0 0.0032709960239869201 0.0099631591108938766 0 0.0031262954086822719 0.0098622895523874238 0 0.0028896242300054378 0.010066200257194128 0 0.0032709960239869201 0.0099631591108938766 0 0.0032530023759124471 0.0098424644784172333 0 0.0031262954086822719 0.0098622895523874238 0 0.0028753255747732309 0.0098143679135202118 0 0.0031262954086822719 0.0098622895523874238 0 0.0028896242300054378 0.010066200257194128 0 0.0018225097202003531 0.010688139594263457 0 0.0018256631347195738 0.010816152293073674 0 0.0017311208890057417 0.011026578719143339 0 0.0025961932397396041 0.0098972929287351689 0 0.0028753255747732309 0.0098143679135202118 0 0.0028896242300054378 0.010066200257194128 0 0.0019958239473213076 0.010427467297572894 0 0.0022407864932452058 0.010476752307748966 0 0.0025961932397396041 0.0098972929287351689 0 0.0022298300623157354 0.010159933327747278 0 0.0028896242300054378 0.010066200257194128 0 0.0019109001531187996 0.010970645233069426 0 0.0017544662044707512 0.010955292469571342 0 0.0018256631347195738 0.010816152293073674 0 0.0017311208890057417 0.011026578719143339 0 0.0017151843434126516 0.010956815209344113 0 0.0020065392551586844 0.011103560592611883 0 0.0019067546683254242 0.010937699351183975 0 0.0017151843434126516 0.010956815209344113 0 0.0020439403356663174 0.010904205158230536 0 0.0018790328778647406 0.010766783683640525 0 0.0019067546683254242 0.010937699351183975 0 0.0019067546683254242 0.010937699351183975 0 0.0017984606237456571 0.010864085308583366 0 0.0017151843434126516 0.010956815209344113 0 0.0018790328778647406 0.010766783683640525 0 0.0019067546683254242 0.010937699351183975 0 0.0017984606237456571 0.010864085308583366 0 0.0016788143698033063 0.010765390534771612 0 0.0015902609162386412 0.0108871497967834 0 0.0017151843434126516 0.010956815209344113 0 0.0016788143698033063 0.010765390534771612 0 0.0017984606237456571 0.010864085308583366 0 0.0017151843434126516 0.010956815209344113 0 0.0013777460620332449 0.010903919851160793 0 0.0017311208890057417 0.011026578719143339 0 0.0015902609162386412 0.0108871497967834 0 0.0017311208890057417 0.011026578719143339 0 0.0015902609162386412 0.0108871497967834 0 0.0017151843434126516 0.010956815209344113 0 
</DataArray>
</PointData>
<CellData Scalars="region_id,cross_section_updated," Vectors="" Tensors="stress,">
<DataArray type="Float64" Name="region_id" format="ascii">
6 5 5 5 5 5 5 5 5 6 5 5 5 6 5 5 5 5 5 5 5 5 5 5 5 5 5 5 5 6 5 5 6 5 5 5 6 5 5 5 6 5 5 5 5 5 5 5 5 6 5 5 5 5 5 5 6 5 5 5 5 5 5 5 5 5 6 5 5 6 5 5 5 6 5 6 5 6 6 5 5 5 5 5 5 5 5 5 6 5 6 5 5 6 5 5 5 5 5 5 5 5 5 5 5 5 5 5 5 6 5 5 5 5 6 5 5 6 6 5 5 6 5 5 5 6 6 6 5 6 5 5 5 5 5 5 5 5 5 6 6 5 5 5 5 5 5 6 5 5 5 5 5 6 6 5 5 6 5 5 6 6 5 6 6 5 5 5 5 5 5 5 5 5 5 5 5 6 5 5 6 5 5 5 5 5 5 5 5 5 5 5 5 5 5 5 5 5 5 5 5 6 5 5 5 5 5 5 5 5 5 5 5 5 5 5 5 6 5 5 6 5 5 5 5 6 6 5 5 5 5 5 5 5 5 5 5 5 5 5 5 5 6 5 5 5 6 5 5 5 5 5 5 5 5 6 6 5 5 5 5 5 5 5 5 5 6 5 5 5 5 5 6 5 6 5 5 5 5 5 6 6 5 5 5 6 5 6 5 5 5 6 5 6 5 5 6 5 5 5 6 5 5 5 5 5 6 6 5 5 6 5 6 6 5 5 6 5 6 5 5 5 5 6 5 6 5 5 6 6 6 5 6 5 6 6 5 5 5 5 5 5 5 5 5 6 5 5 5 5 5 5 5 5 5 5 5 5 5 5 5 5 5 5 5 5 5 5 5 5 6 5 6 5 5 5 5 5 6 5 6 5 5 6 5 5 5 5 6 5 6 5 5 5 5 5 5 5 5 5 5 5 5 5 6 5 5 6 5 5 5 5 5 5 5 5 5 5 5 5 5 5 5 5 5 6 5 5 5 5 5 5 5 5 5 5 6 5 5 5 6 6 5 5 5 5 5 5 5 5 5 5 5 5 5 5 5 5 5 5 5 5 5 5 5 6 5 5 6 5 5 6 5 6 5 5 5 6 5 6 6 5 5 5 5 5 5 5 5 5 5 6 5 5 5 5 5 5 5 5 5 5 5 5 5 5 5 5 5 5 5 5 5 5 5 5 5 5 5 5 5 5 5 5 6 5 5 5 5 6 5 5 5 5 5 5 5 6 5 5 5 5 5 5 5 5 5 6 5 6 6 5 5 6 5 6 5 5 5 5 5 5 5 5 6 5 5 5 5 5 6 5 5 5 5 5 5 6 5 5 5 5 5 5 5 5 6 5 6 5 5 5 5 5 6 5 6 5 5 5 5 5 5 6 5 5 5 5 5 5 5 5 5 5 6 6 5 5 5 5 6 5 5 5 5 5 5 5 5 5 5 5 5 6 5 5 6 5 5 5 5 5 5 5 5 5 5 6 6 5 5 5 5 5 5 5 5 5 5 6 5 6 5 5 5 5 5 5 5 5 5 5 5 5 5 5 5 5 5 5 5 5 5 5 5 5 5 5 5 5 5 5 5 5 5 5 5 5 5 5 5 6 5 5 5 6 5 6 5 6 5 5 6 5 6 5 6 5 5 6 5 5 5 5 5 5 5 5 6 5 5 6 5 5 5 5 6 5 5 5 5 5 5 5 5 5 5 6 5 6 5 6 5 6 5 6 5 5 5 6 5 6 5 5 5 5 5 5 5 5 5 5 5 5 6 5 5 6 6 5 5 5 6 5 5 6 5 5 6 5 5 5 6 5 5 5 5 5 6 5 5 6 6 5 5 5 6 6 6 5 5 6 5 5 6 5 5 5 5 5 5 6 5 5 6 5 5 6 5 5 5 5 5 5 5 5 6 5 5 5 5 5 6 6 6 5 5 5 5 5 5 5 5 5 5 5 6 5 5 5 5 6 5 5 5 5 5 5 5 6 5 5 5 6 5 6 5 6 5 6 5 5 5 5 5 5 5 5 5 5 6 5 5 5 5 5 5 5 5 6 5 5 6 5 5 5 5 6 5 5 5 5 5 5 6 5 6 5 5 5 5 5 5 6 6 5 5 5 5 6 5 6 5 5 5 6 5 5 5 5 5 5 5 6 6 5 5 6 5 6 6 6 5 5 5 5 5 5 5 6 5 5 5 5 5 5 5 5 5 5 5 5 5 6 5 5 5 5 5 5 5 5 5 5 6 5 5 6 5 5 5 5 5 6 5 5 5 5 5 5 5 5 6 5 6 5 5 6 5 5 6 5 5 5 5 6 5 5 5 5 5 6 5 5 5 5 5 5 5 5 5 6 5 5 6 6 5 5 5 5 6 5 6 5 5 6 6 5 6 5 6 5 5 5 5 5 6 5 5 5 6 5 5 5 6 5 5 5 5 5 5 5 5 5 5 6 5 5 5 5 5 5 5 5 5 5 5 5 5 5 5 5 5 5 6 5 5 6 5 5 5 5 6 5 5 5 5 5 5 5 5 5 5 5 5 5 5 5 5 5 5 5 5 5 5 5 5 5 5 5 5 5 5 5 5 5 5 5 5 5 5 5 5 5 5 5 5 5 5 5 5 5 5 5 5 5 5 5 5 5 5 6 5 5 5 5 5 5 5 5 5 5 5 5 5 5 5 5 5 5 5 6 5 5 5 5 6 5 5 5 5 5 5 5 5 5 5 5 5 5 5 5 5 5 5 6 5 5 5 5 6 5 5 5 5 5 6 6 5 5 5 5 5 5 5 5 5 5 5 5 5 5 5 5 5 5 6 5 5 5 6 5 6 5 5 5 5 5 5 5 5 5 6 5 5 5 5 6 6 5 5 5 5 5 5 5 5 5 5 5 5 5 5 5 5 5 5 5 6 5 5 5 5 5 5 5 5 5 5 5 5 5 6 5 5 5 5 5 5 5 5 5 5 5 5 5 5 5 5 5 5 5 5 5 5 6 5 5 5 5 5 5 5 6 5 5 5 6 5 5 5 5 5 5 5 5 5 5 5 5 5 5 5 5 5 5 5 5 5 5 5 5 6 5 6 5 5 5 5 6 5 6 5 5 5 5 5 5 5 6 5 5 5 5 6 5 5 5 5 5 5 5 5 5 5 5 6 5 5 5 5 5 5 6 5 6 5 5 5 5 5 6 5 5 6 5 5 6 5 5 5 5 5 5 5 5 5 5 5 5 5 5 5 5 5 5 5 5 5 5 5 5 5 5 5 6 5 5 5 6 5 6 5 5 6 6 5 5 5 6 5 5 5 5 6 5 6 5 5 6 5 5 5 5 5 6 5 5 5 5 5 6 5 5 5 5 5 5 5 5 5 5 5 5 5 5 5 5 5 5 5 5 5 5 5 5 5 5 5 5 5 5 5 5 5 5 5 5 5 5 5 5 5 5 5 6 6 5 5 5 5 5 5 5 5 5 5 5 5 5 5 5 5 5 5 5 5 5 5 5 5 5 5 5 5 6 5 5 5 5 6 5 5 5 5 6 5 5 5 5 5 5 5 6 5 6 5 5 5 5 5 6 5 5 5 5 5 5 5 5 5 5 6 5 5 5 5 5 5 5 5 5 5 5 5 5 5 5 5 5 5 5 5 5 5 5 5 5 6 5 5 5 5 6 5 6 5 5 6 5 6 5 5 5 5 5 5 6 5 5 5 6 5 5 5 5 5 5 5 5 5 5 5 5 5 5 5 5 5 6 5 6 5 5 5 5 5 6 5 6 5 5 5 5 5 5 5 5 6 5 5 5 5 5 5 5 5 5 5 5 5 5 5 5 5 5 5 5 5 5 5 5 6 5 6 5 5 5 5 5 5 5 5 5 5 5 5 6 5 5 5 5 5 5 5 5 5 5 5 5 5 5 5 5 5 5 5 5 5 5 5 5 5 5 5 6 5 5 5 6 5 6 6 5 5 5 5 5 6 5 5 5 5 5 5 5 5 5 5 5 5 5 5 5 5 5 5 5 5 5 5 5 5 6 5 5 6 5 5 5 5 5 5 5 5 6 6 5 5 5 5 5 5 5 5 5 5 6 5 5 6 6 5 6 5 5 5 5 5 6 5 6 6 6 5 5 5 5 5 5 6 5 5 5 5 5 5 5 5 5 6 5 6 5 5 6 5 5 5 5 5 5 5 5 5 5 5 5 5 5 5 5 5 5 5 5 5 5 5 5 5 5 6 6 5 5 5 5 5 5 5 5 5 5 5 5 5 5 5 5 5 5 5 5 5 5 5 5 5 5 5 5 5 5 5 5 5 5 5 5 5 5 5 5 5 5 5 5 5 5 5 5 5 5 5 5 5 5 5 5 6 5 5 5 5 5 5 5 5 5 6 6 5 5 5 6 5 5 5 5 5 5 5 5 5 5 5 5 5 5 5 5 5 5 5 5 5 5 5 5 5 5 5 5 5 5 6 5 5 5 5 5 5 5 6 5 5 5 5 5 5 5 6 5 5 6 5 5 5 5 5 5 5 5 5 6 5 5 6 6 5 5 5 6 5 5 5 5 5 5 5 5 5 5 5 6 5 5 5 5 6 5 6 5 5 6 5 5 6 6 5 5 5 5 5 5 5 5 5 5 6 6 5 5 5 5 5 5 6 5 5 5 5 5 5 6 5 6 5 5 5 5 5 6 6 5 5 5 5 5 5 5 5 5 5 5 5 5 5 5 5 5 5 5 6 6 5 5 6 5 5 5 5 5 5 5 5 5 5 5 6 5 5 5 5 5 5 5 5 5 5 5 5 5 5 5 5 5 5 5 5 5 5 5 5 5 5 5 5 6 5 5 5 5 6 6 5 5 5 5 5 5 5 6 5 6 5 5 5 5 5 5 5 5 5 5 5 5 5 5 5 5 5 5 5 5 6 6 5 6 5 5 5 5 5 6 5 5 5 5 5 5 5 5 5 5 5 5 5 5 5 5 5 6 5 5 5 5 5 5 5 5 5 5 5 6 5 5 5 5 5 5 5 5 5 5 6 5 5 5 5 5 5 5 5 5 6 5 5 5 5 6 5 5 5 6 5 5 5 5 6 5 5 5 5 5 5 5 5 5 6 5 5 5 5 6 5 5 5 5 5 5 5 5 6 5 6 6 5 6 6 5 5 5 6 5 5 5 6 5 6 5 5 5 5 5 6 5 5 5 6 5 5 5 5 5 5 6 6 5 5 5 5 5 5 5 5 5 5 5 6 5 6 6 5 5 5 5 5 6 6 5 5 6 5 5 5 5 6 5 5 5 5 5 6 5 5 5 5 6 6 5 5 6 5 6 6 5 5 5 5 5 5 5 5 5 5 5 5 5 5 5 5 5 5 5 5 5 6 5 5 6 5 6 5 5 5 6 5 5 5 5 5 5 6 6 5 5 5 5 5 5 6 5 5 6 5 5 5 5 5 5 6 5 5 5 6 5 5 5 5 5 5 6 5 5 5 5 5 5 5 5 5 5 5 5 5 6 5 6 5 5 5 5 5 5 5 5 5 6 5 5 5 6 5 5 5 5 5 5 5 5 5 5 6 5 5 5 5 5 5 5 5 5 5 5 5 5 5 5 5 5 5 5 5 5 5 5 5 5 6 5 5 5 6 5 5 6 5 5 5 5 5 6 5 5 5 6 5 5 5 5 5 5 5 6 5 5 5 5 5 5 5 5 5 5 5 5 5 5 5 5 5 6 5 6 5 5 5 5 5 5 5 5 5 6 5 6 5 6 5 6 6 5 5 5 5 6 5 5 5 5 6 5 5 5 5 5 6 5 6 5 5 6 5 5 5 5 5 5 5 5 5 5 5 5 5 5 5 5 5 6 5 5 5 5 5 5 6 5 5 5 5 5 6 5 5 5 5 5 5 5 6 5 5 6 5 5 5 5 5 5 6 5 5 5 6 5 5 5 5 5 5 5 5 5 5 5 5 5 5 5 5 5 6 5 5 5 5 5 6 6 5 5 5 5 5 6 5 6 5 6 5 6 6 5 5 5 6 6 5 5 5 5 5 5 5 5 5 5 5 5 5 5 5 5 5 5 5 5 5 5 5 5 5 5 5 5 5 5 5 5 5 5 5 5 5 5 6 5 5 5 5 5 5 5 6 5 6 5 5 5 5 5 5 6 5 5 5 6 5 5 5 6 6 5 6 5 5 5 5 5 5 6 5 5 6 5 5 5 5 5 5 5 5 5 5 5 5 6 6 6 5 5 5 6 5 5 5 5 5 5 5 5 5 5 5 5 5 5 5 5 5 5 5 5 5 5 6 5 5 5 5 6 5 5 5 5 5 5 5 6 5 5 5 5 5 6 5 5 5 5 5 6 5 5 5 5 5 5 5 5 5 6 5 5 5 5 6 5 5 5 5 5 5 5 5 5 5 6 5 5 6 5 5 5 5 5 5 5 5 5 5 5 5 5 5 5 5 5 5 5 5 6 5 5 5 5 6 5 5 5 5 5 5 5 5 6 5 5 5 5 5 6 5 5 6 5 5 5 5 5 5 5 5 5 5 5 5 6 5 5 5 5 5 5 5 5 5 5 5 5 5 5 5 5 5 5 5 5 5 5 5 5 5 5 5 5 6 5 5 5 5 5 5 5 5 5 5 5 5 5 5 6 5 5 5 5 5 5 5 5 5 5 5 5 5 5 5 5 5 5 5 6 5 5 5 5 5 5 5 6 5 5 5 5 5 5 5 5 5 5 5 5 5 5 5 5 5 5 5 5 5 5 5 5 6 5 5 5 5 5 6 5 5 5 5 5 5 5 5 5 5 6 5 5 6 5 6 5 5 5 5 5 5 5 6 5 6 5 6 5 5 5 5 5 5 5 5 5 5 5 5 5 5 5 5 5 5 5 5 5 5 5 5 5 5 5 5 5 5 5 5 5 5 5 5 6 5 5 5 5 5 5 5 5 5 5 5 5 5 5 5 5 5 5 5 5 5 5 5 5 5 5 5 5 5 5 5 6 5 5 5 5 5 5 6 6 5 5 5 5 5 5 5 5 5 5 5 5 5 6 5 5 5 5 5 5 5 5 5 5 6 6 5 6 5 5 5 6 5 6 6 5 6 5 5 5 5 5 5 5 6 6 5 5 5 5 6 5 5 5 5 6 5 6 5 6 6 5 6 5 5 5 5 5 6 5 6 6 6 6 5 5 5 5 5 6 5 5 6 6 5 5 5 6 5 5 6 5 5 5 5 6 5 5 6 5 5 6 5 5 5 5 5 5 5 5 5 5 5 5 5 5 6 5 6 5 5 5 5 5 6 5 5 6 5 5 5 5 5 6 5 5 5 5 5 5 5 5 5 5 6 5 5 5 5 5 5 5 5 5 5 5 6 5 5 5 5 5 5 6 5 5 5 5 5 5 5 5 5 5 5 5 5 5 6 5 5 5 6 5 5 5 5 5 5 5 6 5 6 5 5 5 5 5 5 5 5 5 5 5 5 5 5 5 5 5 5 5 5 5 5 5 5 5 5 5 5 5 5 5 5 5 5 5 5 6 5 6 5 5 6 5 6 5 5 5 5 5 5 6 5 5 6 6 5 5 5 5 5 5 6 5 5 5 5 5 5 5 6 5 5 5 5 5 5 5 5 5 5 5 5 5 5 5 5 5 5 5 6 5 5 5 6 5 6 5 6 5 5 5 5 6 5 5 5 5 5 5 6 5 5 5 5 5 5 6 5 5 6 5 5 5 5 5 5 6 5 5 5 5 5 5 5 5 5 6 5 6 5 5 5 5 5 6 6 5 5 5 6 6 5 5 5 5 5 5 6 5 5 6 6 5 5 6 5 5 6 5 5 5 5 6 5 5 5 5 5 5 6 5 5 5 5 5 5 5 5 5 5 6 5 5 5 6 6 5 5 5 5 5 5 5 5 5 6 5 5 5 5 5 5 5 5 5 5 5 6 6 5 5 5 5 6 5 5 5 5 6 5 5 5 5 6 5 5 5 6 5 5 5 5 6 5 5 5 5 5 6 5 5 5 5 6 5 5 5 5 5 5 5 5 5 5 5 5 5 5 5 5 5 5 5 5 5 5 5 5 5 5 5 5 5 5 5 5 6 5 5 5 5 6 5 5 5 5 5 5 6 5 5 5 6 5 6 5 5 5 5 5 5 5 5 5 5 5 5 5 5 5 5 5 5 5 5 5 5 5 6 5 6 5 5 5 6 5 5 5 5 5 5 5 5 5 5 5 5 5 6 5 5 6 5 5 6 6 5 6 5 5 5 5 5 5 5 5 5 5 5 5 5 5 5 5 5 6 5 5 5 5 5 6 5 5 5 5 5 5 5 6 5 5 5 5 5 5 5 6 5 5 5 5 5 5 5 5 5 5 5 5 5 5 5 6 5 5 5 6 5 5 5 5 5 5 5 5 5 5 5 6 5 5 5 5 5 5 6 5 5 6 5 6 5 5 5 6 5 5 5 5 5 5 5 5 5 5 5 6 5 5 5 5 5 6 5 5 5 6 5 5 5 6 5 5 5 5 5 6 5 6 5 5 5 5 5 5 5 5 6 5 6 5 5 6 5 6 5 6 5 5 5 5 5 5 5 5 5 5 6 5 6 5 5 5 5 6 5 5 5 6 6 5 5 5 6 5 6 6 5 5 6 6 5 6 6 5 5 6 6 5 5 6 5 5 6 5 6 5 5 6 5 5 6 5 6 5 5 5 6 5 6 5 5 6 6 5 5 5 6 6 5 6 5 5 5 5 5 5 5 5 6 5 5 6 6 5 6 5 6 6 5 5 5 6 5 5 6 5 5 5 5 5 5 6 6 5 5 5 5 5 5 5 6 6 5 5 5 5 6 5 5 5 6 5 5 6 5 5 5 5 5 6 5 5 6 5 5 5 6 6 5 5 6 5 5 5 6 5 5 5 6 6 5 5 6 5 5 5 5 6 6 5 5 6 6 5 6 6 5 5 5 5 5 5 6 5 5 5 5 5 5 5 5 5 5 6 6 5 5 5 5 5 5 5 6 5 5 5 5 5 5 5 5 5 6 5 5 6 5 5 6 5 5 5 5 5 5 5 5 5 5 5 5 5 5 5 5 5 5 6 6 5 5 5 5 6 5 5 6 5 5 5 5 5 5 5 5 5 6 5 5 6 5 5 5 5 5 5 5 5 5 5 5 6 5 6 5 5 5 5 5 5 5 5 5 5 6 5 5 5 5 5 5 5 5 5 5 5 5 5 5 5 5 5 5 5 5 5 5 5 5 5 5 5 5 5 5 5 5 5 5 5 5 5 5 5 6 5 5 5 5 5 5 5 5 5 6 5 5 6 5 5 5 5 5 5 5 5 5 5 5 5 5 5 5 5 6 5 6 5 5 6 5 5 5 6 6 5 6 6 5 6 5 5 6 5 5 6 5 5 5 5 5 5 5 5 5 5 5 5 5 5 5 5 5 5 5 5 5 6 5 5 5 5 5 5 5 5 5 5 5 5 5 5 5 5 5 5 5 6 5 5 5 5 5 6 5 5 5 5 5 5 5 5 5 5 5 5 5 5 5 5 5 5 5 5 5 5 5 5 6 5 5 5 5 5 5 6 5 5 5 5 5 5 5 5 5 5 5 5 5 5 5 6 5 5 5 6 6 5 5 5 6 5 5 5 5 5 5 5 5 6 5 5 5 5 6 5 5 5 5 5 5 5 5 5 5 5 5 5 6 5 5 5 5 5 5 5 5 5 5 5 5 5 5 5 5 5 5 5 5 5 5 5 5 5 5 5 6 5 5 5 5 5 5 5 5 5 5 5 5 5 5 5 6 6 5 5 5 6 5 5 5 5 5 5 5 5 5 5 5 5 5 5 5 5 5 5 5 5 5 5 5 5 5 5 5 5 5 5 6 5 5 5 5 5 5 5 5 5 5 5 5 5 5 5 5 5 5 5 5 5 5 5 5 5 6 5 5 5 5 5 5 5 6 5 5 5 6 5 5 6 5 5 5 5 5 5 5 5 6 6 5 5 5 5 5 6 5 5 5 5 5 5 5 5 5 5 5 5 5 5 5 5 5 5 5 6 5 6 5 6 5 5 5 6 5 6 5 5 5 5 5 5 5 5 5 5 5 5 6 5 5 5 5 6 5 5 6 5 6 5 5 6 5 5 5 6 5 5 5 5 5 5 5 5 5 6 5 5 5 5 6 5 5 5 5 6 5 5 5 5 5 5 6 5 6 5 6 5 5 5 6 5 5 5 5 5 5 6 6 5 5 5 5 5 6 5 5 5 5 5 5 5 5 5 5 5 5 5 5 5 5 5 5 5 6 5 5 5 5 5 5 5 5 5 6 5 6 5 6 5 5 5 5 5 5 5 5 5 5 5 5 6 5 5 6 5 5 5 5 5 5 5 5 5 6 5 6 5 5 5 5 5 5 6 5 5 5 5 5 5 5 5 5 5 5 5 5 5 5 5 5 5 5 5 5 5 5 5 5 5 5 5 5 5 5 5 5 5 5 5 5 5 5 5 5 6 5 5 6 5 6 5 5 5 6 6 5 5 6 5 5 5 5 5 5 5 5 5 5 5 5 6 5 5 5 5 5 5 5 5 5 5 5 5 6 5 5 5 5 5 5 5 5 5 5 5 5 5 5 5 6 5 5 5 5 5 6 5 5 5 5 5 5 5 5 5 6 5 5 5 5 6 5 5 5 5 5 5 5 5 5 5 5 6 5 6 5 6 5 5 5 6 5 5 5 5 5 5 5 5 5 5 5 5 5 5 5 5 5 5 5 5 6 5 5 5 5 5 5 5 5 5 5 5 5 5 5 5 5 5 5 6 5 5 5 5 5 6 5 5 5 5 5 5 5 5 6 5 5 6 5 5 5 5 5 5 5 6 5 5 5 5 5 5 5 5 5 6 5 5 5 5 5 5 5 5 5 5 5 5 5 5 5 5 5 5 5 5 5 5 5 5 6 5 6 5 5 6 5 5 5 5 5 5 5 5 6 5 5 5 5 5 5 6 5 5 5 5 5 5 5 5 5 5 5 5 6 5 5 5 5 5 5 5 5 5 5 5 5 5 5 6 5 5 5 6 5 5 5 5 6 5 5 5 5 5 5 5 5 5 5 5 5 5 5 5 5 5 5 5 5 5 5 5 5 5 5 6 5 5 6 5 5 5 5 5 5 5 5 5 6 5 5 6 5 5 6 5 5 5 5 5 5 5 5 5 5 5 5 5 5 5 5 5 5 5 5 5 5 5 5 5 5 5 5 5 5 5 5 5 5 5 5 5 5 5 5 5 5 5 5 5 5 5 5 5 5 5 5 5 5 5 5 5 5 5 5 5 5 5 6 5 5 5 5 5 5 6 5 5 5 5 5 5 5 5 5 5 5 6 6 5 5 6 5 6 5 5 6 5 5 6 5 5 5 5 5 5 5 5 6 5 5 5 5 5 5 5 5 5 6 5 5 5 5 6 5 5 5 5 5 5 5 5 5 5 5 5 5 5 5 6 5 5 5 5 6 5 6 5 5 5 6 5 5 6 5 5 5 5 5 5 5 5 5 5 5 6 5 5 6 5 5 5 6 5 5 6 6 5 5 6 5 5 5 5 5 5 5 5 6 5 5 5 5 6 5 6 5 6 5 5 5 5 6 5 5 5 6 5 5 5 5 5 5 5 5 5 5 5 5 5 5 5 5 5 5 6 5 5 5 5 5 5 5 5 5 5 5 5 5 5 5 5 5 5 5 5 5 5 5 5 5 5 5 5 5 5 5 5 5 5 5 5 5 5 5 5 6 5 5 5 5 5 6 5 5 5 5 5 5 5 5 5 5 5 5 5 6 5 5 6 5 5 5 6 5 6 5 5 5 5 6 5 5 5 5 5 5 5 5 5 6 5 5 6 6 5 6 5 5 5 5 5 5 5 5 5 5 5 5 5 5 5 5 5 5 5 5 5 5 5 6 5 5 5 6 5 5 5 5 5 5 5 6 5 5 5 5 5 5 5 5 5 5 5 5 5 5 5 5 5 5 5 5 5 5 5 6 5 5 5 5 5 6 5 6 6 5 5 5 6 5 5 6 5 5 5 5 5 5 5 5 5 5 5 6 5 5 5 6 5 6 5 5 5 5 5 6 5 6 5 6 5 5 5 5 5 5 5 5 6 6 6 5 5 6 5 5 5 5 5 5 5 5 5 5 5 5 5 5 5 5 5 5 5 5 5 5 5 5 5 5 5 5 5 5 5 5 5 5 5 5 5 6 5 5 5 5 5 5 5 6 5 5 6 5 5 5 5 5 5 5 5 5 5 5 5 5 5 5 5 5 5 5 5 5 5 5 6 5 5 5 5 5 5 5 5 5 5 6 5 5 5 5 6 5 5 5 5 6 5 6 6 5 5 5 5 6 5 5 6 5 5 6 6 5 5 5 5 5 5 5 6 5 5 5 5 5 5 5 5 5 5 5 5 5 6 5 5 5 5 5 5 5 6 6 5 6 5 6 5 5 5 6 5 5 5 5 5 6 5 5 6 5 5 5 5 5 5 5 6 5 5 5 5 5 5 5 5 6 5 5 5 6 5 5 5 5 5 6 6 5 5 6 5 5 5 5 5 5 5 5 5 5 5 5 5 5 6 5 5 6 5 6 5 5 5 5 6 5 5 5 5 5 6 5 5 6 6 5 5 5 5 6 5 5 5 5 5 5 5 5 6 5 6 5 5 5 5 5 5 5 5 6 5 5 5 5 6 5 5 5 5 5 5 5 5 5 5 5 5 5 5 5 5 5 5 5 5 5 5 5 5 5 5 5 5 5 5 5 5 5 6 5 5 5 5 5 5 5 6 5 5 5 5 5 5 5 5 5 5 5 5 6 5 5 5 5 6 5 5 5 5 5 5 5 5 5 5 5 5 5 6 5 5 6 5 5 5 5 6 5 5 5 5 5 5 5 5 5 5 5 6 5 6 5 5 6 5 5 5 5 6 5 5 5 5 5 5 5 5 5 5 5 5 5 5 5 5 5 5 5 5 5 5 5 5 5 5 5 5 6 5 5 5 5 6 5 5 5 5 5 5 5 5 5 6 5 5 5 6 5 5 5 5 5 5 6 5 6 5 6 5 5 5 5 5 5 5 5 5 5 5 5 5 5 5 5 5 5 5 5 5 5 5 5 5 5 5 5 5 5 5 5 5 5 5 6 5 6 5 5 5 5 5 5 5 5 6 5 5 5 5 5 5 5 5 5 5 5 5 6 5 5 5 5 5 5 5 5 5 5 5 5 5 6 5 5 6 5 5 5 5 6 5 5 5 5 6 5 5 5 5 5 6 6 5 6 5 5 6 5 5 5 5 6 5 6 5 5 5 5 5 5 5 5 6 5 5 5 5 6 5 5 5 5 5 5 5 5 5 5 5 5 5 5 5 5 5 5 5 5 5 5 6 5 5 5 5 5 5 5 5 5 5 5 5 5 5 5 5 5 5 5 5 5 6 5 5 5 5 5 5 5 6 5 6 5 5 5 5 5 5 5 5 5 5 5 5 5 5 5 5 5 5 5 5 5 5 5 5 5 5 6 5 5 5 5 5 6 5 6 5 5 5 5 6 6 6 5 6 5 5 5 6 5 5 5 5 6 5 6 5 5 5 5 6 5 5 5 6 6 6 5 6 5 6 5 5 6 5 5 5 5 5 5 5 5 5 5 6 5 6 5 6 5 5 5 5 6 5 5 5 5 6 5 5 5 5 5 5 5 5 5 5 6 5 6 5 5 6 5 5 6 5 5 5 5 5 6 5 5 5 5 5 5 5 5 5 5 5 5 6 5 5 5 6 5 5 5 5 5 6 5 5 5 5 5 5 5 5 5 5 5 5 5 5 5 5 5 5 5 5 5 6 5 5 5 5 6 5 5 5 6 5 6 5 5 6 5 6 5 5 5 5 5 5 6 5 5 5 5 6 5 6 5 5 5 5 5 5 5 6 5 5 5 5 5 5 5 6 5 5 5 5 5 5 5 5 5 5 5 5 5 5 5 5 5 6 5 5 5 6 5 5 5 5 5 5 5 5 5 5 5 5 5 5 6 5 5 5 5 5 5 5 5 5 5 5 5 5 5 5 5 5 5 5 5 5 5 5 5 5 5 5 6 5 6 5 5 5 6 5 5 5 6 5 5 6 6 5 5 5 5 5 5 5 5 6 5 5 6 5 5 5 5 6 5 6 5 5 5 6 5 5 5 5 5 5 5 5 5 5 6 5 5 6 5 5 6 5 5 5 5 5 5 5 6 5 5 6 6 5 5 5 6 5 5 5 5 5 5 6 5 5 5 5 6 5 5 5 6 5 5 5 5 6 5 5 6 5 5 5 5 5 5 5 5 5 5 5 6 5 5 5 5 6 5 6 5 6 5 6 5 5 5 5 5 5 5 5 5 5 5 6 6 5 5 5 5 5 5 6 5 5 6 5 5 5 5 5 5 6 5 5 5 6 5 6 5 5 5 6 5 5 5 5 5 5 6 5 5 5 5 5 5 6 5 6 5 5 5 6 5 5 5 5 6 5 5 5 5 5 5 5 6 5 6 5 6 5 5 5 6 6 5 5 6 5 5 5 5 5 6 5 6 6 6 6 5 5 5 5 5 6 6 5 5 6 5 5 5 6 5 5 5 5 5 5 5 5 5 6 5 5 5 6 5 5 5 5 5 5 5 6 5 6 5 5 5 5 6 5 6 5 5 5 5 6 5 5 5 5 5 5 5 5 5 6 5 5 5 5 5 5 5 5 5 5 5 5 5 5 5 5 5 5 5 5 5 6 5 5 5 5 6 5 5 5 5 5 6 5 6 5 5 5 5 5 5 5 5 5 5 5 6 5 6 5 6 6 5 6 5 6 5 5 5 6 5 5 5 6 5 5 5 5 6 5 6 5 5 5 5 5 5 5 5 6 5 5 5 5 5 5 5 5 6 5 5 5 5 5 5 5 5 5 6 5 5 6 5 5 5 6 5 5 5 5 5 5 5 5 5 5 5 5 6 5 5 5 5 6 5 5 5 5 5 5 6 5 5 5 5 6 5 6 5 5 5 5 5 5 5 6 5 5 5 6 6 5 5 5 5 6 5 6 5 5 6 5 5 5 5 5 5 5 5 5 5 5 5 5 5 5 5 5 5 5 5 5 5 5 5 5 5 5 5 5 5 5 5 5 5 5 6 5 5 5 6 5 5 5 5 5 5 5 5 5 5 5 5 5 6 5 6 5 5 5 5 5 5 5 5 5 5 5 5 5 6 5 5 6 5 5 5 5 5 6 5 5 5 5 5 5 5 5 5 5 5 5 5 5 5 5 5 5 5 6 6 5 5 6 5 5 6 5 5 5 5 5 5 5 6 5 5 5 5 6 5 5 5 5 5 5 5 5 5 5 5 5 5 5 6 5 5 6 5 5 5 5 5 5 5 6 6 5 5 5 5 5 5 5 5 5 5 5 5 5 5 5 5 6 5 5 5 5 6 5 5 6 5 5 6 5 5 5 5 5 5 5 5 5 5 5 5 6 5 5 5 5 6 5 5 5 5 5 5 5 5 5 6 6 6 5 5 5 6 5 5 6 6 5 6 5 5 5 6 5 5 5 5 5 5 5 5 5 5 5 5 5 5 5 5 5 5 5 5 5 5 5 5 5 5 5 5 5 5 5 5 5 5 5 5 5 5 5 5 5 5 5 5 5 5 5 5 6 5 6 5 5 5 5 5 5 5 5 5 6 5 5 5 5 5 5 6 5 5 5 5 5 6 5 5 5 5 5 5 5 5 5 5 5 5 5 5 5 6 5 5 5 5 5 5 5 6 5 5 5 5 5 6 6 5 5 5 5 6 5 5 5 5 5 5 5 5 5 5 5 5 5 5 5 5 5 5 5 5 5 6 5 5 5 5 5 5 6 5 5 5 6 5 5 5 5 5 5 5 5 5 5 5 5 5 5 5 5 5 5 6 5 6 5 5 5 5 5 6 6 5 5 5 6 5 5 5 5 5 5 6 5 5 5 5 5 6 5 6 5 5 6 5 5 5 5 6 5 5 5 5 6 5 5 5 5 6 5 5 5 5 5 5 5 5 5 5 5 5 5 6 5 5 5 5 5 5 5 5 5 5 5 5 5 5 5 5 6 5 5 5 5 6 5 5 5 5 6 5 5 5 5 5 5 5 5 5 5 6 5 5 5 5 6 5 5 5 5 5 5 5 5 5 5 5 5 5 5 5 6 5 5 5 6 5 5 5 5 5 5 5 5 5 5 5 5 5 5 6 5 5 5 5 5 5 5 5 5 5 5 6 5 5 6 5 5 5 5 5 5 6 6 5 5 5 5 6 5 6 5 5 5 6 5 5 6 5 5 5 5 5 5 5 5 5 5 5 5 5 5 5 5 6 5 5 5 5 5 5 5 5 6 6 5 5 5 6 6 5 6 5 6 5 5 5 5 6 5 5 5 5 5 5 5 5 5 5 5 5 5 6 5 6 5 5 5 5 5 5 5 5 6 6 5 5 6 6 6 5 5 5 5 5 5 6 5 5 6 5 5 6 6 6 6 5 5 5 5 5 5 5 5 5 5 5 5 5 6 5 5 6 5 6 5 5 5 5 5 5 5 6 6 5 5 6 5 5 6 5 5 5 5 6 6 6 6 5 5 5 5 5 5 5 5 5 5 5 5 5 5 6 5 5 6 5 5 5 5 6 5 5 5 6 5 5 6 5 5 6 5 5 6 6 5 6 5 5 5 5 5 5 6 5 5 5 5 6 5 5 5 5 5 6 5 5 6 5 6 6 5 5 5 6 5 5 5 5 5 6 5 5 5 6 5 5 5 6 5 5 5 5 5 5 5 6 5 5 5 5 5 6 5 5 5 5 5 5 5 6 5 6 6 5 5 6 5 5 5 5 5 5 6 5 5 5 5 5 5 6 5 5 5 5 5 5 6 5 6 5 6 5 5 6 5 5 5 5 6 6 6 6 5 5 5 5 5 5 5 5 6 5 5 5 6 5 6 5 5 5 5 5 5 5 5 5 5 5 5 5 5 5 5 6 5 6 5 5 5 5 5 5 5 5 6 5 5 5 5 5 6 5 5 6 5 5 5 5 5 5 6 6 5 5 6 5 5 5 5 5 5 5 5 5 5 5 6 6 5 5 5 5 6 5 5 5 5 5 5 5 5 6 5 5 5 5 6 5 5 5 5 5 5 6 5 6 5 6 5 5 5 5 5 5 5 5 5 5 5 5 5 5 5 5 5 5 6 5 5 5 5 5 5 5 5 5 5 5 5 5 5 5 5 5 6 6 5 5 5 5 5 5 5 5 5 5 5 5 5 5 5 5 5 5 5 5 5 5 5 5 5 5 5 5 5 5 5 5 5 5 5 5 5 5 5 5 5 5 5 5 5 6 5 6 5 5 5 5 5 5 5 6 5 5 5 6 5 6 6 6 5 6 6 5 5 6 6 6 5 5 5 5 5 6 5 6 6 5 5 5 5 5 5 5 6 5 5 6 5 5 6 6 5 5 5 5 5 5 6 5 5 6 6 5 5 6 5 5 5 6 5 5 5 5 6 5 5 5 6 5 5 6 5 5 5 5 5 5 5 5 5 5 5 5 5 5 5 5 5 5 5 6 6 5 5 5 6 5 5 5 5 6 5 5 5 5 5 6 6 5 5 5 5 5 5 5 5 5 6 5 5 5 5 5 5 5 5 5 5 5 5 5 5 5 5 5 5 5 5 5 5 5 5 5 5 5 6 5 6 6 5 5 5 5 5 5 5 5 5 5 5 5 5 5 5 5 5 5 5 5 5 5 5 5 5 5 5 6 5 5 6 5 5 6 5 5 6 5 6 5 5 5 5 5 5 5 6 5 5 5 5 5 5 5 5 5 5 5 5 6 5 6 5 6 5 5 5 5 5 6 5 5 5 5 6 5 5 6 5 5 5 5 5 5 5 5 6 5 5 5 5 5 5 6 5 5 5 5 6 5 5 5 6 5 5 5 5 5 5 5 5 5 5 5 5 5 5 5 5 5 5 6 5 6 5 5 5 6 5 5 5 5 5 5 5 5 5 5 5 5 5 5 5 5 5 5 5 6 5 5 5 6 5 5 5 6 5 5 5 5 5 5 5 5 5 5 5 5 5 5 5 6 5 5 5 5 6 5 5 6 5 5 5 5 5 5 6 5 6 5 6 6 6 5 5 5 6 6 5 5 5 5 5 5 5 6 5 5 5 6 5 6 5 5 5 5 5 5 5 5 5 6 5 5 5 5 5 5 5 5 6 5 5 5 5 6 5 5 5 5 5 5 5 5 5 5 5 5 5 5 5 5 5 5 5 5 5 6 6 5 5 5 5 5 5 5 5 6 5 5 5 5 5 5 5 5 5 5 6 5 5 5 5 5 5 6 5 5 5 5 5 6 5 6 5 5 6 6 5 5 5 5 5 5 5 5 5 5 5 5 5 5 5 5 5 5 5 5 5 5 5 5 5 5 5 5 5 5 5 5 5 5 5 5 5 5 5 5 5 5 5 5 5 5 5 5 6 6 5 5 6 5 5 5 5 5 6 6 5 5 6 6 5 5 5 5 5 5 5 5 5 5 6 5 5 5 5 5 5 5 5 5 5 5 5 5 5 5 6 5 5 5 5 5 5 5 5 5 5 5 5 5 6 5 6 6 6 5 5 5 5 5 5 5 5 6 6 5 5 5 5 6 5 5 5 5 5 5 5 5 6 5 5 5 5 5 5 5 5 5 5 5 5 5 5 5 5 5 6 5 5 5 5 5 5 6 5 5 6 5 5 5 5 5 5 5 5 5 5 5 5 5 5 5 5 5 5 6 5 5 5 6 5 5 6 5 6 6 5 5 6 5 5 5 6 5 5 6 5 6 6 5 5 5 5 6 5 5 5 5 5 5 6 5 6 5 5 5 6 5 5 5 5 6 5 6 6 5 5 5 5 5 6 5 6 5 6 5 6 6 5 5 5 5 5 5 5 6 5 6 5 5 6 5 5 6 5 5 5 5 5 5 5 5 5 5 5 5 5 5 5 5 5 5 5 5 5 5 5 5 5 5 5 5 5 5 5 6 5 5 5 5 5 5 5 5 5 5 5 5 5 5 5 5 5 5 5 5 5 5 5 6 5 5 5 5 5 6 6 5 5 5 5 5 5 5 5 5 5 5 5 5 5 5 5 5 5 5 5 5 6 5 5 5 5 5 5 5 5 5 5 5 5 5 6 5 6 5 5 5 6 5 5 5 5 5 5 5 5 6 5 6 5 5 5 5 5 6 5 5 5 5 5 5 5 5 5 5 5 6 5 5 5 5 5 5 5 5 5 5 5 6 5 5 5 5 5 5 5 5 6 5 5 5 5 5 5 5 5 5 5 5 5 5 5 5 5 5 5 5 5 5 5 5 5 5 5 6 5 5 6 5 5 5 5 5 5 5 5 5 5 5 5 5 5 5 5 5 5 5 5 5 5 5 5 5 5 5 5 6 5 6 5 6 5 5 5 5 5 6 5 5 5 5 6 5 5 5 6 5 5 5 5 5 5 5 5 5 5 5 5 5 5 5 5 5 5 6 6 6 5 5 5 5 5 5 5 5 5 5 5 5 5 6 5 5 5 5 5 5 5 5 5 5 5 5 6 5 5 6 5 5 5 5 5 5 5 5 5 5 5 5 5 5 5 5 5 5 5 5 5 6 6 5 5 5 5 5 5 5 5 5 5 5 5 5 5 6 5 5 6 5 5 5 5 6 5 5 5 5 5 5 6 5 5 5 5 5 5 5 5 5 5 5 5 5 5 5 5 5 5 6 5 5 5 5 5 6 5 5 5 5 5 5 5 5 5 5 5 5 5 5 5 5 5 5 5 5 5 5 5 5 5 5 5 5 6 5 6 5 5 5 5 6 6 5 5 5 5 5 5 5 5 5 5 5 5 5 5 5 5 5 5 5 5 5 5 5 5 5 5 5 5 5 5 5 5 5 5 5 6 5 5 5 5 6 5 5 5 5 5 5 5 5 5 5 5 6 5 5 5 5 5 5 5 5 5 5 5 5 5 5 5 5 5 6 6 5 6 5 5 5 5 5 5 5 5 5 5 6 5 5 5 5 5 5 5 5 5 5 5 5 5 5 5 5 5 6 5 5 5 5 6 5 5 5 5 5 5 5 5 5 5 5 5 5 5 5 5 5 5 5 5 5 5 5 5 5 5 5 5 5 5 5 5 5 5 5 5 5 5 5 5 5 5 5 5 5 5 5 5 5 5 5 5 5 5 5 5 5 5 5 5 5 5 5 5 5 5 5 5 5 5 5 5 5 5 5 5 5 5 5 5 5 6 5 5 5 5 5 5 5 6 5 5 6 5 5 5 5 5 5 5 5 5 5 5 5 6 5 6 5 6 5 5 5 5 5 5 5 5 6 5 5 5 5 5 5 5 5 5 6 5 5 5 5 5 5 5 5 5 5 5 5 5 5 5 5 5 5 5 5 5 6 5 5 5 5 5 5 5 5 5 5 5 5 6 5 5 5 5 5 6 5 5 6 5 5 5 5 6 6 5 5 6 5 5 5 5 5 5 5 6 6 5 5 5 5 5 5 5 5 5 5 5 5 6 5 5 5 5 6 5 5 5 5 5 5 5 5 6 5 5 5 5 6 5 5 5 5 6 5 5 5 5 5 5 5 6 5 5 5 5 5 6 5 5 5 6 5 5 5 5 5 6 5 5 5 5 5 5 5 5 5 5 5 5 5 5 6 5 5 6 5 5 5 5 5 5 5 5 5 5 5 5 5 5 5 5 5 5 5 5 5 6 5 5 6 5 5 6 5 5 5 5 5 5 5 5 5 5 5 5 5 5 5 5 5 5 5 5 5 5 5 5 5 5 5 5 5 5 6 5 5 5 5 6 5 5 6 5 6 5 5 5 5 6 5 6 5 5 6 5 6 5 6 6 5 5 6 5 6 5 6 5 5 6 5 5 5 5 5 5 6 5 6 5 5 6 6 5 5 6 5 6 5 5 6 5 5 6 5 5 6 6 6 5 6 5 5 5 5 5 5 5 5 6 5 5 5 5 5 5 5 6 5 5 5 5 5 5 5 5 5 5 5 5 5 5 6 5 5 5 5 5 5 5 5 5 5 5 5 5 5 5 5 5 5 5 6 5 5 5 5 5 5 5 5 5 5 5 5 5 5 5 5 5 5 5 5 5 5 5 5 5 5 5 5 5 5 5 6 5 5 5 6 5 6 6 5 6 5 5 5 6 5 5 5 5 6 6 6 5 5 5 5 5 5 5 5 5 5 5 5 5 5 5 5 5 6 5 5 5 5 5 5 5 5 5 6 5 5 5 6 5 5 5 5 5 5 5 5 5 5 5 5 6 5 5 6 5 5 5 5 5 5 5 5 5 5 5 5 5 5 5 5 5 5 5 5 5 5 6 5 5 5 5 5 5 5 5 5 5 5 5 5 5 5 5 5 5 6 5 5 5 5 5 5 5 6 5 5 5 5 6 5 5 5 5 5 5 5 5 5 5 5 5 5 5 5 5 5 5 5 5 5 5 5 5 5 5 5 5 5 5 5 5 5 5 5 6 6 5 5 5 5 6 5 6 5 5 5 5 5 6 5 5 5 5 5 5 5 5 6 6 5 5 5 5 6 5 5 5 5 5 5 5 5 5 5 5 5 5 5 5 5 5 5 5 5 5 6 5 5 5 5 5 5 6 5 5 6 5 5 5 5 5 5 5 5 5 6 5 5 5 5 5 5 5 5 6 5 5 5 5 5 5 5 5 5 5 5 5 5 5 5 5 5 6 5 5 6 5 5 5 5 5 5 5 5 5 5 5 5 5 5 5 5 5 5 5 5 5 5 5 5 5 5 5 5 5 6 5 6 5 5 5 5 5 5 5 5 5 5 5 5 5 5 5 5 5 5 5 5 5 5 6 5 5 5 6 5 5 5 5 5 5 5 5 5 5 5 5 6 5 5 5 6 6 5 5 6 5 5 5 5 5 5 5 5 5 6 5 5 5 5 5 5 5 5 5 5 5 5 5 6 5 6 5 5 5 5 5 5 5 5 5 5 5 5 5 5 5 5 5 5 5 5 5 5 5 5 5 5 5 5 5 6 5 5 5 5 5 5 6 5 5 5 5 5 5 5 5 5 5 5 5 5 5 5 5 6 5 6 5 5 5 5 5 5 5 6 5 5 5 6 5 5 5 5 6 5 5 5 5 5 5 6 5 5 5 5 6 5 6 5 5 5 5 5 5 5 5 6 6 5 5 5 6 6 5 5 5 5 5 5 5 6 6 5 6 6 5 5 5 5 6 5 6 5 5 5 5 5 5 6 5 5 5 5 6 5 5 5 5 6 5 5 5 5 5 6 5 5 6 5 5 5 5 6 5 5 5 5 5 5 5 5 5 6 6 5 5 5 5 5 5 5 5 5 5 5 5 5 6 5 6 5 5 5 5 5 5 5 5 5 5 5 5 5 5 5 5 5 5 5 5 5 6 5 5 5 5 5 5 5 5 5 5 5 5 5 5 5 5 5 5 5 5 5 5 5 5 5 5 6 5 5 5 5 5 5 5 5 6 5 6 5 5 5 5 5 5 6 5 5 5 5 5 5 5 5 5 5 5 5 5 5 5 5 5 5 5 5 5 5 5 5 5 5 6 5 5 5 5 5 5 5 5 6 5 5 6 5 5 6 5 5 5 5 5 6 5 5 5 5 5 5 5 5 5 6 5 5 5 5 5 5 5 5 5 5 5 5 5 5 5 6 5 5 5 5 5 5 5 5 6 5 5 5 5 5 5 5 5 5 5 5 5 5 5 5 5 5 5 6 5 6 5 6 5 5 6 6 5 5 5 5 5 5 5 5 5 5 5 5 5 5 6 5 5 5 5 5 5 6 5 5 5 6 5 5 5 5 5 5 5 5 5 5 5 5 6 5 5 5 5 6 6 6 5 5 5 5 5 5 5 6 5 5 6 5 6 5 6 5 5 5 5 5 6 5 5 5 5 5 5 5 5 5 5 5 5 5 5 5 5 5 5 5 5 6 5 5 5 6 5 6 6 6 5 5 5 5 5 6 5 5 5 5 5 5 5 5 5 5 5 5 5 5 5 5 5 5 5 5 5 5 5 5 5 5 6 5 5 6 5 5 5 5 5 5 5 5 6 5 6 5 5 5 5 5 5 5 5 6 5 5 5 5 6 5 5 6 5 5 6 5 5 5 6 5 5 5 5 5 5 5 5 5 5 5 5 5 5 5 5 5 5 5 5 6 5 5 5 5 5 5 6 5 5 5 5 5 6 5 5 5 5 5 6 5 6 6 5 5 5 5 5 5 5 5 5 5 5 5 6 5 5 5 5 6 5 6 6 5 5 5 6 5 5 5 5 5 5 5 5 5 5 5 5 5 5 5 5 5 5 5 5 5 5 6 5 6 5 5 6 5 5 6 5 5 6 5 5 5 6 6 5 5 5 5 5 5 5 6 5 5 5 5 5 5 5 5 6 5 5 5 5 5 5 5 6 5 5 5 6 5 6 6 5 5 5 6 5 5 5 5 5 5 5 5 5 5 5 5 5 5 5 5 5 5 5 5 5 5 6 5 5 6 5 5 5 6 5 5 5 5 5 5 5 6 6 5 5 6 5 5 5 5 5 5 5 5 5 5 5 5 5 5 5 5 5 5 5 5 5 5 5 5 5 5 5 5 5 5 5 5 5 5 5 6 5 5 5 5 5 5 5 6 5 5 6 5 5 6 5 5 5 5 5 5 5 5 5 5 5 5 5 5 5 5 5 5 5 6 5 5 5 5 6 5 5 5 5 5 5 5 5 5 5 6 5 5 5 5 6 5 5 5 5 6 6 5 6 5 5 5 5 5 5 5 5 5 5 5 5 5 5 6 5 5 5 5 5 5 5 5 5 6 5 5 5 5 5 5 5 5 5 5 5 5 5 5 5 5 5 5 5 5 5 5 5 5 5 5 5 5 5 5 5 5 5 5 5 5 5 5 5 5 5 6 5 5 5 5 6 5 5 6 5 5 5 5 5 5 6 6 5 5 5 5 6 5 5 5 5 5 5 5 5 5 5 5 5 5 5 5 5 5 5 5 5 5 5 5 5 5 5 5 5 5 5 5 5 5 5 5 5 5 5 5 5 5 5 5 5 5 5 5 5 5 5 5 5 5 5 5 5 5 5 5 5 5 6 5 5 5 5 5 6 5 6 5 5 5 5 5 5 5 5 5 
</DataArray>
<DataArray type="Float64" Name="stress" NumberOfComponents="9" format="ascii">
0.24956915907417615 0.89422292782580826 0 0.89422292782580826 -2.3941110579508202 0 0 0 0 -0.0043122352926106677 -0.75988562709550322 0 -0.75988562709550322 -1496.6834085637129 0 0 0 0 0.86275732771913349 7.1547802688182855 0 7.1547802688182855 -1500.0720745365816 0 0 0 0 35.580693569683135 118.279369938944 0 118.279369938944 -885.46856898121155 0 0 0 0 0.020019969310618033 60.812502355201218 0 60.812502355201218 -775.75780987723556 0 0 0 0 -18.296713620232655 172.58445552734793 0 172.58445552734793 -776.68709746731474 0 0 0 0 -48.997668430869751 141.87836609828082 0 141.87836609828082 -658.20464154286492 0 0 0 0 24.210305627072216 390.78319752778043 0 390.78319752778043 -1054.5344925822064 0 0 0 0 -0.18018576892986596 40.639975283964304 0 40.639975283964304 -612.31034810533129 0 0 0 0 0.53167416146449709 0.07006686412306351 0 0.07006686412306351 -2.2009962502341125 0 0 0 0 -102.14428155874552 334.690677461409 0 334.690677461409 -754.28620760265039 0 0 0 0 135.98282430780128 71.085870474840704 0 71.085870474840704 -756.18341280947061 0 0 0 0 7.2761231744397605 237.4840548223001 0 237.4840548223001 -882.56186735826668 0 0 0 0 -0.49132939933967118 0.93870443257206659 0 0.93870443257206659 -1.3420666685525262 0 0 0 0 -0.86326489008029927 215.6461773099023 0 215.6461773099023 -906.54527099331608 0 0 0 0 -163.77228729724578 293.8352071451809 0 293.8352071451809 -314.01550503198087 0 0 0 0 -137.53822487646681 296.87733994650625 0 296.87733994650625 -494.8268424946873 0 0 0 0 -69.517632062685379 247.29704511026648 0 247.29704511026648 -591.03752680015896 0 0 0 0 -56.806894197916563 304.45850759969835 0 304.45850759969835 -615.778434322061 0 0 0 0 -93.757188377114147 198.63080101354717 0 198.63080101354717 -72.590389605913515 0 0 0 0 53.246183393510989 180.10475675364614 0 180.10475675364614 -711.26219381807459 0 0 0 0 40.179197833388457 180.5942166571258 0 180.5942166571258 -669.58170799767686 0 0 0 0 -110.00531527450445 243.27627112174923 0 243.27627112174923 -983.14956965400052 0 0 0 0 -95.471951486497034 308.80293828556205 0 308.80293828556205 -699.65751705185903 0 0 0 0 13.102842231423637 260.24528285465658 0 260.24528285465658 -900.20273348008777 0 0 0 0 -4.6978506495821479 4.9921024699724512 0 4.9921024699724512 -1500.6596036893061 0 0 0 0 -67.965034027596602 126.29801520221372 0 126.29801520221372 -1198.2946228906949 0 0 0 0 -51.207391340950323 176.9641532615824 0 176.9641532615824 -1143.3050226741689 0 0 0 0 66.877918029363059 22.222000692330766 0 22.222000692330766 -946.26225379100561 0 0 0 0 0.69448704335800726 -0.13586054704539663 0 -0.13586054704539663 -2.0377096424307695 0 0 0 0 -5.7123033179518075 214.82172338406053 0 214.82172338406053 -1264.5308788928633 0 0 0 0 40.285851924936821 41.048932281748421 0 41.048932281748421 -664.38908515919866 0 0 0 0 1.0011981539674693 2.209947567159503 0 2.209947567159503 -2.5985381331264392 0 0 0 0 -9.4766089925622055 77.438952894524846 0 77.438952894524846 -1116.1407834168713 0 0 0 0 -30.498581061875711 34.882016245075647 0 34.882016245075647 -1195.0219303536778 0 0 0 0 79.287841046673194 5.4594605291604239 0 5.4594605291604239 -1499.2265070527137 0 0 0 0 1.6330459044287962 2.6557964017978435 0 2.6557964017978435 -3.0595387358639714 0 0 0 0 -50.896261899973751 250.61681400776433 0 250.61681400776433 -1329.2212401385768 0 0 0 0 13.258187344110651 14.554656992768287 0 14.554656992768287 -1499.5519802063791 0 0 0 0 19.642912872743636 111.10141759640101 0 111.10141759640101 -1490.8751286705774 0 0 0 0 0.88298086584932645 1.1276170915260906 0 1.1276170915260906 -2.6640370456266416 0 0 0 0 48.538455312037513 423.45912214276541 0 423.45912214276541 -2200.6179186896661 0 0 0 0 -101.83185930560239 174.66070468762155 0 174.66070468762155 -1706.3672127637474 0 0 0 0 -336.91584276220544 351.85709009265338 0 351.85709009265338 -1147.9328587777964 0 0 0 0 -137.08746983421224 163.03465682886599 0 163.03465682886599 -1053.6392825497915 0 0 0 0 -111.2048564546923 259.7703576773838 0 259.7703576773838 -1201.2576886134411 0 0 0 0 8.5139208699503257 732.35343015871786 0 732.35343015871786 -1788.0809833815511 0 0 0 0 -64.640806128819861 660.42994633202761 0 660.42994633202761 -1196.5878841572339 0 0 0 0 -205.44828286589822 640.15586674267797 0 640.15586674267797 -1675.3344325404287 0 0 0 0 -3.3104406708787808 1.56803560996849 0 1.56803560996849 -0.26561550858984617 0 0 0 0 -187.44509181080863 887.72391809680335 0 887.72391809680335 -1901.4199797314686 0 0 0 0 -24.166938084039657 42.015617719500369 0 42.015617719500369 25.264914012077497 0 0 0 0 61.902391724468089 75.980322187006095 0 75.980322187006095 -312.10665631316988 0 0 0 0 -405.40900641308144 321.27550735918885 0 321.27550735918885 -177.90301377017386 0 0 0 0 -56.342395902232198 -136.15018091749221 0 -136.15018091749221 -31.691921251269378 0 0 0 0 -32.755495587337919 18.964108582986228 0 18.964108582986228 -28.479869859023893 0 0 0 0 4.7413707089444497 -9.17350790920554 0 -9.17350790920554 -4.4027450559145009 0 0 0 0 -329.61274114961111 345.54401492551187 0 345.54401492551187 -1000.2663825760028 0 0 0 0 82.056528535482883 404.12299739140508 0 404.12299739140508 -1142.0326668240959 0 0 0 0 -308.22390518885106 431.33393642700685 0 431.33393642700685 -757.44970957526311 0 0 0 0 124.30676274572775 82.731530068180291 0 82.731530068180291 -778.42507203054424 0 0 0 0 -117.61154801061149 246.68818578107107 0 246.68818578107107 -111.67871358398406 0 0 0 0 -168.92124472153171 -109.94784836846884 0 -109.94784836846884 142.28063491524881 0 0 0 0 -339.11103127919824 527.80490279003425 0 527.80490279003425 -686.2126401284404 0 0 0 0 -606.77519904716337 349.01350219960841 0 349.01350219960841 -293.63056524048443 0 0 0 0 51.844377623391409 -76.081442315056847 0 -76.081442315056847 -198.3164837752629 0 0 0 0 0.15855579243451579 0.74229283894479103 0 0.74229283894479103 -4.6452174295842781 0 0 0 0 -331.93422415369338 369.2703048530575 0 369.2703048530575 -189.65719435524079 0 0 0 0 -222.10698568242884 -86.125076240061389 0 -86.125076240061389 114.82299130086903 0 0 0 0 0.26471031822431956 0.81050111057170682 0 0.81050111057170682 -3.1409199142272755 0 0 0 0 11.052332599760291 36.649277331969643 0 36.649277331969643 27.663400436154916 0 0 0 0 32.347369257684477 35.87540601517685 0 35.87540601517685 9.7070748747355537 0 0 0 0 7.9320314625977062 -0.17137350065058854 0 -0.17137350065058854 -25.549793665508332 0 0 0 0 2.5525446215346022 1.0623431232155482 0 1.0623431232155482 -15.744481471424535 0 0 0 0 3.0602301233598155 -0.94957968896778766 0 -0.94957968896778766 -3.4979524730006233 0 0 0 0 1.0810343456149221 -0.19405000172063591 0 -0.19405000172063591 -9.7689694714837003 0 0 0 0 91.529222207642533 80.514404224639293 0 80.514404224639293 114.44095556699904 0 0 0 0 0.3624990819154621 2.641629936674093 0 2.641629936674093 -14.790069228402359 0 0 0 0 4.7443554129575327 -6.9370582313228724 0 -6.9370582313228724 -7.7142590068570271 0 0 0 0 13.251333379823336 -8.5956838492129464 0 -8.5956838492129464 -26.85901021083555 0 0 0 0 21.721261558315291 -9.3844788144197082 0 -9.3844788144197082 -42.02766589273233 0 0 0 0 12.140558625348149 1.6233376777563535 0 1.6233376777563535 -29.645291342618293 0 0 0 0 10.215652606432968 6.9131277056603722 0 6.9131277056603722 -39.372808876767522 0 0 0 0 11.377098773823036 -0.47418974619358778 0 -0.47418974619358778 -32.610707766565611 0 0 0 0 -0.021094317212373426 9.4387064464790456 0 9.4387064464790456 -24.465459592707703 0 0 0 0 0.58308197349765578 11.445616330864141 0 11.445616330864141 -20.669830415230535 0 0 0 0 12.072296556897527 2.3555418158321118 0 2.3555418158321118 -30.568448845631792 0 0 0 0 46.546167667793156 -34.929474408800161 0 -34.929474408800161 -61.109003424448019 0 0 0 0 -0.49561708322701326 1.5350469834254845 0 1.5350469834254845 -6.368560214882109 0 0 0 0 3.4551580801035584 36.54266414511585 0 36.54266414511585 -27.311724717670586 0 0 0 0 1.1433997669946023 3.9675415910036786 0 3.9675415910036786 -19.858483798305457 0 0 0 0 15.839238170494355 1.4874641720962245 0 1.4874641720962245 -27.819967089220881 0 0 0 0 12.397523014662966 4.0822338478465099 0 4.0822338478465099 -28.459364584690775 0 0 0 0 0.60713539246298431 -0.65491808999629342 0 -0.65491808999629342 -4.993105225860198 0 0 0 0 -27.674467005393041 33.830337406028775 0 33.830337406028775 -19.034269526331627 0 0 0 0 8.1642270357562978 -16.376382126421959 0 -16.376382126421959 -61.878927180736241 0 0 0 0 4.1555377078574232 3.7714195859011284 0 3.7714195859011284 -62.531008235055197 0 0 0 0 8.8053873614474583 -21.538786296876424 0 -21.538786296876424 -39.120661748333077 0 0 0 0 4.2279742764327146 2.1068495568456456 0 2.1068495568456456 -32.153782900721126 0 0 0 0 7.9374384644047495 10.930628173467085 0 10.930628173467085 -43.504133573616855 0 0 0 0 23.212595192503841 -0.56376950591584318 0 -0.56376950591584318 -78.366203186888015 0 0 0 0 7.422887921288293 8.6660789470261079 0 8.6660789470261079 -38.931465806119377 0 0 0 0 9.8788640997181574 6.5269831071091176 0 6.5269831071091176 -39.475234392622951 0 0 0 0 -25.704667051298628 19.689011297256002 0 19.689011297256002 -10.974250132880115 0 0 0 0 3.8352024833657197 12.300412940843671 0 12.300412940843671 -30.369532541473745 0 0 0 0 -4.1743557979780235 19.455772574117873 0 19.455772574117873 -33.983164018736716 0 0 0 0 -5.9577217979478974 17.69183908494233 0 17.69183908494233 -15.218551514786668 0 0 0 0 -14.583016339934659 31.265150951676333 0 31.265150951676333 -36.50410650637059 0 0 0 0 1.319653421514829 21.76968705969557 0 21.76968705969557 -50.69776365832513 0 0 0 0 1.3192236789087111 -0.25543438098547355 0 -0.25543438098547355 -0.70261164010530308 0 0 0 0 -6.6129930308600819 -19.781146186825936 0 -19.781146186825936 -10.499952583973936 0 0 0 0 45.705737812026541 -19.838817741634557 0 -19.838817741634557 -27.935832496386865 0 0 0 0 35.801281944960976 -28.915092179086059 0 -28.915092179086059 -23.864610528937192 0 0 0 0 24.234817387677538 -19.783511898785946 0 -19.783511898785946 -30.369160335423658 0 0 0 0 3.9932577129276163 4.8280034482255267 0 4.8280034482255267 -12.909136688423544 0 0 0 0 29.402249958100015 -9.835070335000637 0 -9.835070335000637 -42.344298844749574 0 0 0 0 6.2574437722539642 -0.70933655783028371 0 -0.70933655783028371 -8.9726447733773966 0 0 0 0 1.0949256372629268 -2.3787662204893332 0 -2.3787662204893332 0.012276370776405088 0 0 0 0 3.0457457781373165 2.5376454231752206 0 2.5376454231752206 -17.554365871593276 0 0 0 0 26.876246748415156 -18.009897802527121 0 -18.009897802527121 -16.950016141359811 0 0 0 0 34.650088486929576 21.702064297220204 0 21.702064297220204 -0.35828879647306167 0 0 0 0 3.8997426329246832 -0.18626969431677054 0 -0.18626969431677054 -4.712910595658002 0 0 0 0 14.349481702205495 -0.4187348333148293 0 -0.4187348333148293 -6.1290660582308192 0 0 0 0 5.4190966562175618 -0.56072893334476248 0 -0.56072893334476248 -8.3185944821998419 0 0 0 0 6.5742112909470372 2.0637054231745111 0 2.0637054231745111 -12.169763976016839 0 0 0 0 2.4713792128926655 -0.7206414824623959 0 -0.7206414824623959 -5.94054974832369 0 0 0 0 1.4350452747583702 3.3807312669629113 0 3.3807312669629113 -7.1122626695059665 0 0 0 0 4.6946425248500612 -1.94790301457288 0 -1.94790301457288 -5.9620281833862094 0 0 0 0 8.0725934290985606 -4.6594145276612835 0 -4.6594145276612835 -15.592897638172872 0 0 0 0 3.2597574021876734 0.13208584574245208 0 0.13208584574245208 -7.0261783253862404 0 0 0 0 -9.003925853943997 15.695876558020245 0 15.695876558020245 -16.113041889679153 0 0 0 0 -12.014752072516671 3.8870961312386498 0 3.8870961312386498 2.0740710205827781 0 0 0 0 -8.8561023855756957 16.371230514392664 0 16.371230514392664 -18.900791932770517 0 0 0 0 -9.137527190889557 15.849401801066961 0 15.849401801066961 -16.503521270919009 0 0 0 0 -2.3514713316865254 16.243793590727364 0 16.243793590727364 -38.080599680732121 0 0 0 0 2.5630692757745237 4.6095504170225468 0 4.6095504170225468 -14.27086405413138 0 0 0 0 10.923765119923246 41.284066659172822 0 41.284066659172822 -28.191042343757545 0 0 0 0 14.636131829616716 32.763795626378851 0 32.763795626378851 -9.7285812254849588 0 0 0 0 3.1160197092328872 -1.3995835306668596 0 -1.3995835306668596 -26.243911124256556 0 0 0 0 1.6539486814836875 -0.5809351268692069 0 -0.5809351268692069 -2.63911506458129 0 0 0 0 4.722844260267471 0.18349047564578669 0 0.18349047564578669 -8.0912340335446942 0 0 0 0 22.969759901504403 -6.28536429151427 0 -6.28536429151427 -12.477902954706224 0 0 0 0 15.825317001081203 -0.31354489293880761 0 -0.31354489293880761 -34.037994828493538 0 0 0 0 6.8417229471779706 -6.3295518603017626 0 -6.3295518603017626 -10.278758636675775 0 0 0 0 12.240329366689366 -4.3737584516347852 0 -4.3737584516347852 -12.063109979528235 0 0 0 0 19.971142034803052 -12.719328481849516 0 -12.719328481849516 -3.3443732540763449 0 0 0 0 42.530679720430271 0.67023349824012257 0 0.67023349824012257 -21.392336182645522 0 0 0 0 -0.089952847435663674 0.515460726416201 0 0.515460726416201 -1.2994239196841164 0 0 0 0 35.906505778041719 -17.213108556417865 0 -17.213108556417865 21.599205661797896 0 0 0 0 16.294630184618654 3.804844678084919 0 3.804844678084919 -0.77745002941810526 0 0 0 0 5.4054667871346282 0.92884022936050314 0 0.92884022936050314 -7.2271452143177157 0 0 0 0 2.6198703858869976 4.4273240213769895 0 4.4273240213769895 -16.478712798343622 0 0 0 0 1.2044870173613162 6.3705156346477452 0 6.3705156346477452 -16.606226940522902 0 0 0 0 5.9663019120004419 -0.66687274826188059 0 -0.66687274826188059 -11.206724137275913 0 0 0 0 4.1075421950336271 2.2281415408661616 0 2.2281415408661616 -10.598366247473194 0 0 0 0 7.4906746734684475 5.5342991543475364 0 5.5342991543475364 -27.981149387327605 0 0 0 0 2.4890927904293676 -7.8630266672989819 0 -7.8630266672989819 15.878673250728752 0 0 0 0 2.3240310791068772 1.3459515072651058 0 1.3459515072651058 -7.3507789849161895 0 0 0 0 4.0213125574409787 3.2081174283666769 0 3.2081174283666769 -16.856067353841354 0 0 0 0 0.62932535555410141 5.1082207814906724 0 5.1082207814906724 -14.568459455753327 0 0 0 0 2.3471442188174656 2.8610378093222266 0 2.8610378093222266 -9.3144994473155691 0 0 0 0 1.2223255783958722 3.5353248865899456 0 3.5353248865899456 -11.991465022498105 0 0 0 0 24.037150006604861 13.132130504025554 0 13.132130504025554 -43.883048827090533 0 0 0 0 8.7623023716290565 -1.2257730876614765 0 -1.2257730876614765 -10.073275535806189 0 0 0 0 8.5003720200264592 -0.79941566313198109 0 -0.79941566313198109 -9.6893707894127914 0 0 0 0 -42.698430420735818 -38.971945729501385 0 -38.971945729501385 11.195889730501221 0 0 0 0 5.719594298353968 0.88570511981743039 0 0.88570511981743039 -12.40717019445583 0 0 0 0 -3.4600730533256865 10.723409617905418 0 10.723409617905418 -13.713309835483869 0 0 0 0 -4.5341006644955542 9.0416236984419811 0 9.0416236984419811 -15.339102354293573 0 0 0 0 -11.072767747116814 16.00097734521114 0 16.00097734521114 -16.259733147577208 0 0 0 0 10.214641627952687 46.668403092244262 0 46.668403092244262 -65.44308550390997 0 0 0 0 -41.740497668645276 2.2039149926786195 0 2.2039149926786195 -16.595659841739689 0 0 0 0 7.1783327363347667 -8.2128447282557318 0 -8.2128447282557318 -44.88373260750086 0 0 0 0 -5.2513183449232201 13.037145057114685 0 13.037145057114685 -56.925394365731336 0 0 0 0 -6.2314937274827571 4.1459635321371024 0 4.1459635321371024 -8.6938730680267327 0 0 0 0 12.364109351713637 71.294300642888629 0 71.294300642888629 -43.547319055811386 0 0 0 0 22.590813589318032 1.7224948718248925 0 1.7224948718248925 -34.274759901330981 0 0 0 0 0.095910648404428284 5.6869587680950637 0 5.6869587680950637 -19.195985691459242 0 0 0 0 66.617076074495685 25.008283407776617 0 25.008283407776617 -53.658164383843541 0 0 0 0 -19.418869999356019 -25.611175476762583 0 -25.611175476762583 4.3176033908021054 0 0 0 0 0.27161313904130113 -0.50672062437042698 0 -0.50672062437042698 -2.9075041498280427 0 0 0 0 48.632180345712499 -47.359410862211007 0 -47.359410862211007 -11.123779532557819 0 0 0 0 18.012486741554177 31.956744738002271 0 31.956744738002271 -33.038440862670541 0 0 0 0 -64.37699870666188 64.214050466721801 0 64.214050466721801 -3.3661313554766821 0 0 0 0 -36.356170346155103 44.691706463919218 0 44.691706463919218 -65.85365118853224 0 0 0 0 -50.1281568318457 2.948753432930971 0 2.948753432930971 49.085196005173202 0 0 0 0 -53.700704641860369 71.915521292405174 0 71.915521292405174 -95.024525791195629 0 0 0 0 -78.443038210798321 30.088636314878386 0 30.088636314878386 -1.3947271011784323 0 0 0 0 -41.638368136158221 7.4734519955200085 0 7.4734519955200085 20.995012826580933 0 0 0 0 -29.909352754459988 25.440618316919426 0 25.440618316919426 -53.660984209707749 0 0 0 0 -33.17752283322195 14.288699702146914 0 14.288699702146914 -27.376906068981043 0 0 0 0 -28.618062307567016 52.043862251270184 0 52.043862251270184 -80.617750581460541 0 0 0 0 -0.014117971711539723 66.270185286155538 0 66.270185286155538 -155.75023912650795 0 0 0 0 -56.092934834959777 74.940271246876364 0 74.940271246876364 -78.831254207574375 0 0 0 0 -79.523960201793614 56.50633380567524 0 56.50633380567524 -32.459601039136032 0 0 0 0 -45.014727087085411 75.105615029977344 0 75.105615029977344 -114.61302932982653 0 0 0 0 -106.10276526718158 127.42394376286393 0 127.42394376286393 -117.29650431417235 0 0 0 0 -18.802205512060535 119.15695133870577 0 119.15695133870577 -229.5007104069482 0 0 0 0 0.03655807816409138 75.343954467840376 0 75.343954467840376 -226.90630578137825 0 0 0 0 -2.1433087025279147 70.136489814390643 0 70.136489814390643 -235.31378733855308 0 0 0 0 0.51551688153421082 126.31469390351867 0 126.31469390351867 -623.37482692115736 0 0 0 0 -0.64051058316053866 0.69108251633448958 0 0.69108251633448958 -0.75910657272683579 0 0 0 0 -231.98253486575177 232.78538471683351 0 232.78538471683351 -165.32414647826954 0 0 0 0 -161.17077911790855 268.53680103975785 0 268.53680103975785 -327.3483925299879 0 0 0 0 -215.4546246485973 134.7820478875874 0 134.7820478875874 97.926055053292657 0 0 0 0 -17.313282607119405 -16.220907073444323 0 -16.220907073444323 -46.49170006228087 0 0 0 0 -154.28213779373777 83.271508768630156 0 83.271508768630156 -142.31666201228654 0 0 0 0 -62.728994337413411 23.163820427253086 0 23.163820427253086 -75.096657306461566 0 0 0 0 47.046211997468355 8.5015729818545083 0 8.5015729818545083 -85.804563302444876 0 0 0 0 -120.3268651719184 114.30192555052781 0 114.30192555052781 -114.08987859175977 0 0 0 0 -107.69280478466661 10.813144163083052 0 10.813144163083052 -17.423879299763939 0 0 0 0 -19.974215115353573 72.546194273691071 0 72.546194273691071 -25.524263022191008 0 0 0 0 -132.64042625564574 92.86424302962223 0 92.86424302962223 -35.485190580846393 0 0 0 0 -73.714240910715858 129.3231208322577 0 129.3231208322577 -192.59595157759668 0 0 0 0 -95.004528480545773 66.738577081536732 0 66.738577081536732 -93.377858781161194 0 0 0 0 3.9121044264391003 -7.7378968939847255 0 -7.7378968939847255 8.7900063621564186 0 0 0 0 16.278079346147024 -4.6296311957012222 0 -4.6296311957012222 -13.085106649021327 0 0 0 0 9.2776733196274499 -2.5179100282178624 0 -2.5179100282178624 -7.8703009168275102 0 0 0 0 2.9757639998899492 1.2363945114177568 0 1.2363945114177568 -24.630394514424552 0 0 0 0 4.0925417806574842 9.1188840477116173 0 9.1188840477116173 -17.087446155084763 0 0 0 0 7.6903475015366665 -2.2005966163891415 0 -2.2005966163891415 -4.9810120764337711 0 0 0 0 8.9537802108970936 -21.861160267262676 0 -21.861160267262676 8.3790493135129509 0 0 0 0 -62.668845057774575 123.99652846916069 0 123.99652846916069 -185.1071194041142 0 0 0 0 -50.253897109301249 13.793140405423401 0 13.793140405423401 1.2730242139314214 0 0 0 0 2.5212343509253401 5.3409714053770472 0 5.3409714053770472 -6.4442233064000902 0 0 0 0 8.0442258825290605 -5.265565631089995 0 -5.265565631089995 -5.5716097369027082 0 0 0 0 5.4432318770721961 -1.6746350366829859 0 -1.6746350366829859 -8.0933047411511581 0 0 0 0 -39.262622906732972 -7.6025388884464746 0 -7.6025388884464746 -59.958645367485587 0 0 0 0 -61.832801229870597 287.40723443889328 0 287.40723443889328 -430.33087889464696 0 0 0 0 121.08244853480159 47.035628129873658 0 47.035628129873658 -701.06151914226575 0 0 0 0 330.20493013033467 311.47086100508568 0 311.47086100508568 -1499.0572756632555 0 0 0 0 92.875974756304373 452.32730814299066 0 452.32730814299066 -1037.2728202015605 0 0 0 0 222.14728843982988 -85.516808362086522 0 -85.516808362086522 -691.66691839365376 0 0 0 0 211.4627001483295 104.85500537140524 0 104.85500537140524 -1262.0998147382415 0 0 0 0 82.689349355479237 -20.408451817835157 0 -20.408451817835157 -719.3724346169256 0 0 0 0 3.0025238493110464 -118.46784408546227 0 -118.46784408546227 -127.79652330851604 0 0 0 0 66.033632679013067 -106.93036974878032 0 -106.93036974878032 -546.0554273031521 0 0 0 0 -181.60638018593156 -619.91573103096744 0 -619.91573103096744 -1500.3146417580301 0 0 0 0 242.04572860058306 -245.30057992978072 0 -245.30057992978072 -1374.8151687425307 0 0 0 0 -95.795696614209305 -499.53406643028575 0 -499.53406643028575 -672.53190034656291 0 0 0 0 -120.78708815265583 -138.49033434579542 0 -138.49033434579542 216.21729768821388 0 0 0 0 -178.8043284391704 -336.04307040849199 0 -336.04307040849199 -370.52883223011304 0 0 0 0 -2.2787521741241235 -2.3770769776091782 0 -2.3770769776091782 -1.4669377981077574 0 0 0 0 31.565875864658778 -224.26809217632035 0 -224.26809217632035 -1959.0131137072985 0 0 0 0 4.8050090800601311 56.990281625539865 0 56.990281625539865 -195.20528824597932 0 0 0 0 -55.959876550264511 33.802583283679269 0 33.802583283679269 -127.74416887808911 0 0 0 0 2.4655855812412408 0.39865980150239722 0 0.39865980150239722 -0.11853625410893187 0 0 0 0 -111.80475426004784 -144.29854011670432 0 -144.29854011670432 109.6467935850269 0 0 0 0 54.456772162727589 68.460833155646469 0 68.460833155646469 -115.19734951425562 0 0 0 0 6.1704040428003282 111.69432758655421 0 111.69432758655421 -170.15613893173213 0 0 0 0 89.1421749435533 103.26137391950761 0 103.26137391950761 -233.24059001372734 0 0 0 0 166.1673577772396 13.866394772585409 0 13.866394772585409 -184.21700737542778 0 0 0 0 -2.1422655799879635 -24.137060565724823 0 -24.137060565724823 -34.290504389122361 0 0 0 0 4.5884258693095035 2.640749177149587 0 2.640749177149587 -18.421414315605944 0 0 0 0 44.414422418538038 64.003167719361954 0 64.003167719361954 -176.98040991377025 0 0 0 0 9.6192951231010344 -0.23909540294219767 0 -0.23909540294219767 -5.7587185689547908 0 0 0 0 2.7796561377539386 -0.27139800409779258 0 -0.27139800409779258 -2.1052474315095822 0 0 0 0 -88.430992940354201 58.559871614739677 0 58.559871614739677 -36.359660730466203 0 0 0 0 74.441879952276622 -0.90420925791295303 0 -0.90420925791295303 -76.862231150846355 0 0 0 0 36.800925096498531 31.157266793074086 0 31.157266793074086 -71.8959524791685 0 0 0 0 12.60453377154181 10.304820038940306 0 10.304820038940306 -46.211213048081845 0 0 0 0 10.433680417354935 14.180460761701397 0 14.180460761701397 -43.18496716748632 0 0 0 0 1.5609655459798546 -25.401699855904553 0 -25.401699855904553 -25.042976234777598 0 0 0 0 -7.4901800492193615 9.0681210204111267 0 9.0681210204111267 -49.130562449267018 0 0 0 0 32.353633813402098 -12.53262854021159 0 -12.53262854021159 -19.809043527448011 0 0 0 0 41.479648580941557 24.552442675540078 0 24.552442675540078 -170.85654495529798 0 0 0 0 7.852003744429279 1.0137049886907832 0 1.0137049886907832 0.73308964425483936 0 0 0 0 91.066998922647201 -52.209562332864152 0 -52.209562332864152 -111.68145169950731 0 0 0 0 -18.483080101944665 52.301058433142316 0 52.301058433142316 -115.93745706656046 0 0 0 0 -0.16688917582769136 -1.380019376979817 0 -1.380019376979817 -86.055083248946175 0 0 0 0 68.921459503866345 3.1911190781702317 0 3.1911190781702317 -144.71035023039167 0 0 0 0 200.18875441211964 190.40775369974835 0 190.40775369974835 -1498.9593696447009 0 0 0 0 -5.2338794449856447 -4.0224623514468192 0 -4.0224623514468192 -8.9608451434400145 0 0 0 0 -248.08800510228573 -378.43965905630648 0 -378.43965905630648 -633.28928648725741 0 0 0 0 -4.0299751126869872 1.420547341796528 0 1.420547341796528 -4.9920726306431362 0 0 0 0 44.339679640358554 -18.773514124524809 0 -18.773514124524809 -65.077078555896151 0 0 0 0 31.325701710077738 -80.919486912745924 0 -80.919486912745924 45.088921893688166 0 0 0 0 52.819332865873491 -49.623437719305912 0 -49.623437719305912 -49.018350331039983 0 0 0 0 -457.09747943885264 750.99668267497418 0 750.99668267497418 -1265.198712600537 0 0 0 0 -2.7408074229460908 20.838041660477757 0 20.838041660477757 -51.853789803417385 0 0 0 0 2.0570955800861324 -5.043540914474427 0 -5.043540914474427 -37.142132230008073 0 0 0 0 -10.617737179699551 5.6392197388315992 0 5.6392197388315992 -3.1595863113337899 0 0 0 0 -246.57432520474376 617.21146350539857 0 617.21146350539857 -1499.2617398255861 0 0 0 0 -1.4821292322565114 33.753692196287375 0 33.753692196287375 -70.972406415738078 0 0 0 0 34.230105251865098 -12.112580548444384 0 -12.112580548444384 -89.080614865030839 0 0 0 0 12.715392040915537 4.0526582279245957 0 4.0526582279245957 -9.3497150417383139 0 0 0 0 41.694385850845265 0.38786017003621964 0 0.38786017003621964 -100.73953969263857 0 0 0 0 5.9235361770149373 -10.169670563357183 0 -10.169670563357183 -42.434264944157306 0 0 0 0 8.1028522403503302 5.464193279128267 0 5.464193279128267 -42.155792178458796 0 0 0 0 8.8395129443097176 5.1056590132284327 0 5.1056590132284327 -42.03282935317111 0 0 0 0 10.923584597116587 0.26771590794487565 0 0.26771590794487565 -37.938750822795555 0 0 0 0 8.0962198937819725 -3.7841587502040106 0 -3.7841587502040106 -28.093704555518542 0 0 0 0 12.694443847520802 6.3784900612517959 0 6.3784900612517959 -42.457587940156372 0 0 0 0 6.1919438993517648 -6.2536123061235145 0 -6.2536123061235145 -15.117703880738638 0 0 0 0 1.1650414593655114 -39.765500841779158 0 -39.765500841779158 -28.432362539184396 0 0 0 0 -0.20538490538888254 7.9500296995256576 0 7.9500296995256576 -36.073840791443217 0 0 0 0 5.1336071633792706 -0.84301315982458647 0 -0.84301315982458647 -30.336815638057516 0 0 0 0 3.7687882360996809 5.9105017867805145 0 5.9105017867805145 -35.328950959919894 0 0 0 0 -2.0380271684314266 8.7992348902080266 0 8.7992348902080266 -37.923785250088258 0 0 0 0 2.2834837013915603 10.948902592797822 0 10.948902592797822 -40.337240969727645 0 0 0 0 2.6007912817846934 0.19017525624826703 0 0.19017525624826703 -2.3863931437349208 0 0 0 0 1.2049163379819845 10.17095627000549 0 10.17095627000549 -38.817341795733228 0 0 0 0 4.0358155534800062 -6.0440872508970642 0 -6.0440872508970642 -4.6447770976283209 0 0 0 0 4.9129528157645836 -0.51359138342377264 0 -0.51359138342377264 -16.959441750455881 0 0 0 0 3.1183796991597319 0.27601668712031824 0 0.27601668712031824 -14.669578146142157 0 0 0 0 1.3418245575130641 10.973800142912296 0 10.973800142912296 -34.683342355257992 0 0 0 0 1.4455682841600588 6.6367152119044093 0 6.6367152119044093 -13.590148530508024 0 0 0 0 5.0203350429772362 1.907809559129845 0 1.907809559129845 -10.105826297513786 0 0 0 0 4.519808929931429 3.0457364184908187 0 3.0457364184908187 -14.154271138082549 0 0 0 0 4.2722869555345824 3.6868186974461423 0 3.6868186974461423 -13.856162747375492 0 0 0 0 3.8816595163573293 0.58125045877639536 0 0.58125045877639536 -9.9712602997195248 0 0 0 0 7.3275937604867067 2.0314594715709973 0 2.0314594715709973 -13.595458289681119 0 0 0 0 5.1499291419683946 2.9305105229786008 0 2.9305105229786008 -9.9651634413896488 0 0 0 0 4.0790886966912421 1.2347239430188779 0 1.2347239430188779 -7.6977340354202823 0 0 0 0 2.2580765238106828 4.1123488602322311 0 4.1123488602322311 -12.960055518331501 0 0 0 0 23.900850851476207 -5.0422114534667344 0 -5.0422114534667344 -5.5565284592776152 0 0 0 0 0.29511652465479088 -0.27241316530242443 0 -0.27241316530242443 -0.49044781567073414 0 0 0 0 10.625720689912669 -10.981534269605618 0 -10.981534269605618 5.8368924911919748 0 0 0 0 7.3845971760316722 -0.4457302970281134 0 -0.4457302970281134 -7.9698974455610525 0 0 0 0 17.089462100879246 19.665918645176134 0 19.665918645176134 -53.613723033333372 0 0 0 0 -4.5486438960549549 3.3971574567556218 0 3.3971574567556218 -41.832641174929449 0 0 0 0 -1.172714425976892 -18.775091751364698 0 -18.775091751364698 -49.655535152684024 0 0 0 0 8.9875871087515407 5.7914464285968279 0 5.7914464285968279 -0.88297074678303034 0 0 0 0 -0.0009803882179539869 0.60475272537119196 0 0.60475272537119196 -0.76090607255790133 0 0 0 0 5.9734477296387922 6.1874413598779938 0 6.1874413598779938 -0.91748697279763292 0 0 0 0 5.8289331979933188 1.5056078946820506 0 1.5056078946820506 -3.7534346772114588 0 0 0 0 7.5477513212267695 1.5913045616398449 0 1.5913045616398449 -10.676643120161316 0 0 0 0 6.8616534097945987 0.61748399294810952 0 0.61748399294810952 -10.326187001053768 0 0 0 0 6.0987701276700328 -0.96175346859450883 0 -0.96175346859450883 -3.8912321983641789 0 0 0 0 5.9382698494755326 1.2248113074854388 0 1.2248113074854388 -5.2990517935766661 0 0 0 0 6.7719851398009041 -1.6263668971460419 0 -1.6263668971460419 -6.2952487300265076 0 0 0 0 6.5622322917463407 0.47725623609403556 0 0.47725623609403556 -12.276142927301407 0 0 0 0 5.0627421058957669 3.0458914102502632 0 3.0458914102502632 -5.9175380268707514 0 0 0 0 1.5046564264084736 2.310486430520541 0 2.310486430520541 -11.939228630792059 0 0 0 0 6.6910443350962723 -0.64444403199214406 0 -0.64444403199214406 -4.369484859264503 0 0 0 0 2.5451870878955205 3.8192986188698939 0 3.8192986188698939 -3.7478385209195864 0 0 0 0 2.1136303518469504 7.1590905965713318 0 7.1590905965713318 -12.91400278510082 0 0 0 0 5.6523943203624185 4.753916035309885 0 4.753916035309885 -13.044716533529936 0 0 0 0 1.9532632301707054 4.1143360290443525 0 4.1143360290443525 -13.152841032249853 0 0 0 0 5.6552907811915247 3.0254983393911061 0 3.0254983393911061 -0.8507618605508469 0 0 0 0 7.2735296283462958 1.6720735100443562 0 1.6720735100443562 -0.82146749404637376 0 0 0 0 10.777582765895204 2.3678942577098496 0 2.3678942577098496 -0.80921532951469999 0 0 0 0 4.0224106365240004 2.5029687890710193 0 2.5029687890710193 -0.57498401260454557 0 0 0 0 8.2395943042456565 1.1418035656170105 0 1.1418035656170105 3.5920968500649906 0 0 0 0 7.2706205205977312 3.9657076587100164 0 3.9657076587100164 -2.5153326695872238 0 0 0 0 -0.039010498907884994 0.52606808612566169 0 0.52606808612566169 1.5060354290004057 0 0 0 0 -1.7168894930873648 2.9702427867159713 0 2.9702427867159713 -11.598796893988037 0 0 0 0 0.2435859231154609 0.30726555824730895 0 0.30726555824730895 -8.4148531004757388 0 0 0 0 0.34734212811599718 5.1986822006001603 0 5.1986822006001603 -11.704350857209647 0 0 0 0 0.36363186207745457 4.6654195768132922 0 4.6654195768132922 -5.8455093543288967 0 0 0 0 1.6294540260478243 2.4833699009068368 0 2.4833699009068368 -2.1334364132089831 0 0 0 0 6.0862730060971444 1.400388711152118 0 1.400388711152118 -4.3260880005254876 0 0 0 0 0.76086602514624246 -1.2814744200732093 0 -1.2814744200732093 -4.0711728806636529 0 0 0 0 0.79399468740302837 0.31413640226674033 0 0.31413640226674033 -1.6757653272507014 0 0 0 0 0.8610653872246985 1.2078457529769366 0 1.2078457529769366 -6.4353971721138805 0 0 0 0 2.7589924278399849 3.2410740356790484 0 3.2410740356790484 -4.5909280080049939 0 0 0 0 6.3507259879770572 5.0504336229496403 0 5.0504336229496403 -5.4452031860564603 0 0 0 0 1.6134175696370221 3.1358157382674108 0 3.1358157382674108 -1.8127511085040169 0 0 0 0 4.5275012537658768 4.032733177400587 0 4.032733177400587 -4.7945324452739442 0 0 0 0 3.9965888603760504 4.7061240560524311 0 4.7061240560524311 -7.1313354913145304 0 0 0 0 4.6786677120308013 3.9970933747736126 0 3.9970933747736126 -6.9738214096869342 0 0 0 0 4.3111905982268581 3.7797395419056556 0 3.7797395419056556 -6.9824829767458141 0 0 0 0 3.204714872625118 3.650262118804676 0 3.650262118804676 -8.507873582020693 0 0 0 0 2.5640040255566419 2.29912209926988 0 2.29912209926988 -8.8808628223050619 0 0 0 0 1.9560812518720923 4.6370745133681339 0 4.6370745133681339 -8.9620839512101611 0 0 0 0 1.6505700433572201 7.0287683569567889 0 7.0287683569567889 -9.3227275786771315 0 0 0 0 2.6807070967215623 4.8822454771998309 0 4.8822454771998309 -7.7753728559619049 0 0 0 0 2.4672688633745565 6.8263467968481564 0 6.8263467968481564 -12.656686175419964 0 0 0 0 6.0130311965976944 4.8651766442926601 0 4.8651766442926601 -13.249927330165519 0 0 0 0 24.608402657489933 9.1878346669873281 0 9.1878346669873281 -14.249245579503622 0 0 0 0 8.9179741652659832 -0.11096675685467972 0 -0.11096675685467972 -3.721802966924443 0 0 0 0 -6.2784890119519332 -47.900932051297787 0 -47.900932051297787 8.2281526854003459 0 0 0 0 0.79586006092226658 -0.063615566970142368 0 -0.063615566970142368 -0.37796012783616106 0 0 0 0 6.2799065623556771 39.307895947421457 0 39.307895947421457 -62.880234710159129 0 0 0 0 -10.468029795582765 23.219369055173047 0 23.219369055173047 -47.029592046324979 0 0 0 0 33.129677485717707 31.432803067884379 0 31.432803067884379 -61.488220243743854 0 0 0 0 35.025808977678736 37.769253284345723 0 37.769253284345723 -28.950898687595327 0 0 0 0 -4.1153671094751552 10.968132488224001 0 10.968132488224001 -27.539973554037715 0 0 0 0 7.2791819382606029 0.213519849600317 0 0.213519849600317 -3.8891476264434175 0 0 0 0 4.0324576554539817 5.4000096015515737 0 5.4000096015515737 -13.992677571553941 0 0 0 0 17.053534440033406 -2.6961846166407373 0 -2.6961846166407373 -6.7380197408874238 0 0 0 0 17.056658220350073 -8.8756675689692202 0 -8.8756675689692202 -4.0167585166509525 0 0 0 0 5.016900651031392 5.8494656347756973 0 5.8494656347756973 -15.899522189778509 0 0 0 0 9.7856390463751559 0.48903912839487163 0 0.48903912839487163 -8.7877503816730922 0 0 0 0 18.914892494346532 28.970049733472479 0 28.970049733472479 -53.392960153512831 0 0 0 0 27.94511646186038 16.943805464514298 0 16.943805464514298 -47.724291995047679 0 0 0 0 41.102096797112608 13.749735879282525 0 13.749735879282525 -65.37956182162452 0 0 0 0 35.19278358531119 3.3492228787590648 0 3.3492228787590648 -71.256381138402503 0 0 0 0 2.8237182853999281 4.8897080454174509 0 4.8897080454174509 -10.689541828252558 0 0 0 0 10.042067942818903 6.3316898219563882 0 6.3316898219563882 -12.204898539117494 0 0 0 0 7.3001707176395811 1.6282791682063475 0 1.6282791682063475 -4.610080730793527 0 0 0 0 5.7882245060000059 3.3963123171197367 0 3.3963123171197367 -8.4058075878710952 0 0 0 0 11.675882360955256 4.4888563485446866 0 4.4888563485446866 -8.1491566010554379 0 0 0 0 10.236615793015517 2.9963367466116324 0 2.9963367466116324 -8.8475682060980034 0 0 0 0 6.9881320280946966 4.0772141923152958 0 4.0772141923152958 -8.4356208906319807 0 0 0 0 7.0225002021288674 4.2522023247038305 0 4.2522023247038305 -7.6511426215292886 0 0 0 0 7.840835735485598 3.5967018030787585 0 3.5967018030787585 -8.0006601798522752 0 0 0 0 8.4727794795762748 4.5441965697900741 0 4.5441965697900741 -7.6155123576463666 0 0 0 0 9.0435479040024802 3.4136680823648931 0 3.4136680823648931 -8.0046021207272133 0 0 0 0 7.5187857237024218 4.1697565639224194 0 4.1697565639224194 -6.6397945818462176 0 0 0 0 7.0869132385432749 4.809282203008479 0 4.809282203008479 -6.6134247292902728 0 0 0 0 8.7524100542468659 6.0436003152572084 0 6.0436003152572084 -4.7229987609157433 0 0 0 0 6.0774997804776376 5.6917052039061673 0 5.6917052039061673 -3.0559054353179818 0 0 0 0 11.042753825530326 5.3016381887991884 0 5.3016381887991884 -6.7267625026324822 0 0 0 0 -1.0579887418556817 6.7114054248479498 0 6.7114054248479498 -6.7068226630139947 0 0 0 0 5.7042293350968976 5.6812601186029497 0 5.6812601186029497 -2.9443534780639311 0 0 0 0 -0.89440308401026414 21.593258667198825 0 21.593258667198825 11.309927392139798 0 0 0 0 3.0034396027021728 2.9845047677719734 0 2.9845047677719734 -4.335699732114243 0 0 0 0 10.088796656432351 5.7943563265162084 0 5.7943563265162084 -5.6179196347293328 0 0 0 0 -10.427505628295648 16.454898448296603 0 16.454898448296603 30.330853986553848 0 0 0 0 6.2544529723327287 -2.9587457802772406 0 -2.9587457802772406 -41.247092818251986 0 0 0 0 27.951187831828065 30.098298999982944 0 30.098298999982944 -26.225856046348781 0 0 0 0 16.229426621393941 49.459786867013463 0 49.459786867013463 18.331487139839737 0 0 0 0 -4.7599318606753513 30.701095483354948 0 30.701095483354948 19.795590607172926 0 0 0 0 -17.295875783260271 44.522869408938277 0 44.522869408938277 59.715940439445149 0 0 0 0 15.740147583348516 68.418293557948346 0 68.418293557948346 63.784685353239183 0 0 0 0 15.005976516464216 60.624359251301939 0 60.624359251301939 40.849549340244266 0 0 0 0 35.68588024703422 -36.233996018410835 0 -36.233996018410835 56.278179820816149 0 0 0 0 83.370292302501184 47.117023006554518 0 47.117023006554518 39.352444752490555 0 0 0 0 61.472413127801701 16.252773860593152 0 16.252773860593152 -77.443872285137331 0 0 0 0 67.954923522385798 55.991742885329586 0 55.991742885329586 -54.302679142769193 0 0 0 0 127.42808174331731 -82.188372300515766 0 -82.188372300515766 53.626421212335117 0 0 0 0 53.70808426360054 11.289368476351228 0 11.289368476351228 -76.714015205405303 0 0 0 0 4.8850818701957905 13.302999497082055 0 13.302999497082055 -77.412514015857596 0 0 0 0 28.985982600103853 6.9145528201588604 0 6.9145528201588604 -75.950652539855582 0 0 0 0 1.106465531225183 -0.87835835331068779 0 -0.87835835331068779 0.17166121308562898 0 0 0 0 -24.857420650891072 50.443175814736605 0 50.443175814736605 86.597983321305946 0 0 0 0 -45.576058370847022 25.643258049603901 0 25.643258049603901 69.818220329794713 0 0 0 0 -17.500944844641708 42.586756919329673 0 42.586756919329673 48.91112103011983 0 0 0 0 -16.212982517006822 24.817744686468359 0 24.817744686468359 44.457537037233124 0 0 0 0 -27.655543582432074 5.9794298523756879 0 5.9794298523756879 13.45138203884926 0 0 0 0 -5.5678393119651446 18.423464568499185 0 18.423464568499185 5.1698423579691735 0 0 0 0 0.67355173549094616 27.783483720901131 0 27.783483720901131 2.0272580778437259 0 0 0 0 156.05887200771895 -0.71852206414587272 0 -0.71852206414587272 -24.744326553460269 0 0 0 0 46.008499208507601 31.956800726507936 0 31.956800726507936 -28.166126245771011 0 0 0 0 16.944384611442729 -38.369548022444178 0 -38.369548022444178 55.75755327290608 0 0 0 0 1.1385055271561129 0.88952882588451843 0 0.88952882588451843 -0.13330028676891459 0 0 0 0 186.68238770611879 -10.743416020690347 0 -10.743416020690347 26.224591930060342 0 0 0 0 -25.801507822463464 15.284780454621796 0 15.284780454621796 3.806585081088997 0 0 0 0 7.599466851033867 -2.4655679337847687 0 -2.4655679337847687 -9.5593932856172614 0 0 0 0 -0.66345927849597963 -0.91052567486508451 0 -0.91052567486508451 0.4416915977629472 0 0 0 0 2.610933811222564 -1.0093315013752218 0 -1.0093315013752218 -0.68931312919496168 0 0 0 0 -80.244981165440549 -34.789240696405614 0 -34.789240696405614 72.968640023496846 0 0 0 0 5.2287262386003022 -9.5054969409866317 0 -9.5054969409866317 -118.11942986404756 0 0 0 0 -7.2733665093549007 -6.1001036151501467 0 -6.1001036151501467 -57.566761206671799 0 0 0 0 0.82700873588851209 15.252890281956752 0 15.252890281956752 -57.383945885994763 0 0 0 0 -8.4319641512875023 -4.5178364910771052 0 -4.5178364910771052 -41.039928377387696 0 0 0 0 -5.5012499871736509 -15.425650135672186 0 -15.425650135672186 -55.022386004744476 0 0 0 0 20.137955482752659 -6.5608641343678755 0 -6.5608641343678755 -84.096006606398078 0 0 0 0 30.657546026728596 8.7485227290089824 0 8.7485227290089824 -62.47616623040085 0 0 0 0 2.3283096706791184 -4.9523557855318359 0 -4.9523557855318359 -41.476312506076283 0 0 0 0 -10.076662047848913 19.576439733429652 0 19.576439733429652 -68.804779038589913 0 0 0 0 0.49209876855684342 1.3343318631841612 0 1.3343318631841612 0.2663968887172814 0 0 0 0 20.086099226880833 -1.4365865962254247 0 -1.4365865962254247 -41.474794620778994 0 0 0 0 -1.1287751760628453 -3.2975251068764919 0 -3.2975251068764919 -9.3775481346838205 0 0 0 0 7.2939261603376053 7.9571258576520449 0 7.9571258576520449 -33.802450879975368 0 0 0 0 2.0799423913915689 -7.1177449562328547 0 -7.1177449562328547 6.7000928121997276 0 0 0 0 -10.112748158745489 1.436147529653681 0 1.436147529653681 -59.857371648045955 0 0 0 0 28.583568670711429 26.299331498219544 0 26.299331498219544 -44.108401409652288 0 0 0 0 4.8204279826570655 22.164861844985808 0 22.164861844985808 -177.33154303668562 0 0 0 0 -37.557035794344301 52.326425774052041 0 52.326425774052041 -62.665882799366955 0 0 0 0 14.159331871794166 56.479444902874093 0 56.479444902874093 -97.146436170625748 0 0 0 0 19.788414953989559 34.598113483946008 0 34.598113483946008 -94.905476942498353 0 0 0 0 2.632597769394124 13.103607686038231 0 13.103607686038231 -92.449351149181894 0 0 0 0 -8.9612520999564822 20.654426038582642 0 20.654426038582642 -56.295365516849415 0 0 0 0 -4.1267354441284976 1.4151423254526208 0 1.4151423254526208 -0.49740843566571158 0 0 0 0 39.562335196778804 20.928475701162824 0 20.928475701162824 3.9659434027198586 0 0 0 0 32.920715608108367 32.026250456505295 0 32.026250456505295 11.04327832641502 0 0 0 0 0.81900274947198959 3.1781122010770027 0 3.1781122010770027 -0.29346683305989529 0 0 0 0 5.6203980321329254 4.7111163207237041 0 4.7111163207237041 -7.7613122492330149 0 0 0 0 -3.8832134542194581 10.136697105382154 0 10.136697105382154 -8.7979535728445626 0 0 0 0 -3.6055681471714394 4.5080930070200509 0 4.5080930070200509 -2.9248578186313381 0 0 0 0 -6.1395635204444261 8.3988346471833211 0 8.3988346471833211 13.723273465580405 0 0 0 0 -0.074007893375549472 0.53327358036558081 0 0.53327358036558081 -3.7083334002428359 0 0 0 0 -10.799581454559984 22.800136780120738 0 22.800136780120738 -52.970143343169184 0 0 0 0 -39.016970089001006 10.542837786610107 0 10.542837786610107 8.8817192799560871 0 0 0 0 2.6687657160356366 14.423860709346627 0 14.423860709346627 -6.1602735000196844 0 0 0 0 -0.063187956766949882 0.056778878266275257 0 0.056778878266275257 -0.85411089712582111 0 0 0 0 -10.874838632731553 9.9325968007578922 0 9.9325968007578922 1.5783697180322633 0 0 0 0 -3.863948250319428 5.7957017856817572 0 5.7957017856817572 -4.4232980324110187 0 0 0 0 0.052369026050374745 2.0283797287963647 0 2.0283797287963647 -2.272307244898812 0 0 0 0 13.61875642015093 4.3165382188744843 0 4.3165382188744843 -16.161397562817001 0 0 0 0 -1.0069129887278905 5.5233861410524696 0 5.5233861410524696 -15.665664045038284 0 0 0 0 -3.36847871324062 6.5878363969168277 0 6.5878363969168277 -13.029366629807555 0 0 0 0 -8.0803252235364198 0.36532094945869176 0 0.36532094945869176 5.2266474108982948 0 0 0 0 -12.384067880746443 -6.9531412002961588 0 -6.9531412002961588 2.8962459395534097 0 0 0 0 -36.34175533182588 -41.414914188229886 0 -41.414914188229886 -25.647339635659591 0 0 0 0 -33.995615545178225 -47.277932496563153 0 -47.277932496563153 -58.255475380043208 0 0 0 0 -2.6061150835248554 -16.339922740415204 0 -16.339922740415204 -66.999408415620564 0 0 0 0 -6.7768361417538472 -35.515175804923274 0 -35.515175804923274 -125.70743897930515 0 0 0 0 -41.193900443913662 37.39626626046811 0 37.39626626046811 -116.13621587550006 0 0 0 0 0.44595592252714056 0.00013279012935640822 0 0.00013279012935640822 -1.3413279867719723 0 0 0 0 32.588672321766353 -58.297110593390244 0 -58.297110593390244 -138.23724361484346 0 0 0 0 -72.617743719359851 114.7571550323064 0 114.7571550323064 -127.38694527225744 0 0 0 0 -67.857484881464188 -5.9387483744867495 0 -5.9387483744867495 -138.79974243007746 0 0 0 0 -69.946516096156756 65.673933544690954 0 65.673933544690954 -118.22227211816789 0 0 0 0 -121.07099390006624 -4.2705084438130143 0 -4.2705084438130143 -20.446359587665938 0 0 0 0 -25.794389908416633 36.997865137116605 0 36.997865137116605 -41.257735264489384 0 0 0 0 -34.51807855986408 42.683087122548386 0 42.683087122548386 -5.3235048221977195 0 0 0 0 3.3042514488533925 41.954279323821538 0 41.954279323821538 -58.791385363185327 0 0 0 0 -4.964288590835622 19.098697536738655 0 19.098697536738655 -48.743068329727976 0 0 0 0 -4.7187983829835503 27.290025199286902 0 27.290025199286902 -119.36246751546423 0 0 0 0 -68.209429678292508 42.025084561810218 0 42.025084561810218 -40.756022302251949 0 0 0 0 12.026445548934589 19.548780306869958 0 19.548780306869958 -11.141372291393054 0 0 0 0 28.631691702900753 34.429009680206946 0 34.429009680206946 -31.858300451785908 0 0 0 0 20.190100695534056 9.9784930617533973 0 9.9784930617533973 -37.704469783460809 0 0 0 0 40.032730357704168 20.283838185945569 0 20.283838185945569 -26.683890352041999 0 0 0 0 32.624289485758254 27.115423046742762 0 27.115423046742762 -32.241553739739174 0 0 0 0 35.398421846281963 23.491399305890809 0 23.491399305890809 -39.69721246761037 0 0 0 0 29.910177188266516 21.151143670103011 0 21.151143670103011 -34.324424667393032 0 0 0 0 0.6300559376981596 6.8612831298052015 0 6.8612831298052015 -19.645705252230982 0 0 0 0 32.177857620141367 17.238031332999526 0 17.238031332999526 -42.674089862419351 0 0 0 0 -0.6439695639137426 -21.601366118549777 0 -21.601366118549777 -54.915168654699301 0 0 0 0 20.210687922976831 17.638109393190462 0 17.638109393190462 -71.885810886727995 0 0 0 0 2.3871746069089568 -12.081761225465016 0 -12.081761225465016 -40.167506223184319 0 0 0 0 -19.367205688147806 -24.783763448860554 0 -24.783763448860554 -30.97019433413152 0 0 0 0 -17.518183756140388 -26.45502214704311 0 -26.45502214704311 -34.879870215525443 0 0 0 0 3.3397412435388105 0.79519709256055648 0 0.79519709256055648 -34.202817271303957 0 0 0 0 9.0395746592407704 15.603953122502389 0 15.603953122502389 -10.954373747561476 0 0 0 0 7.3017167723401144 10.713151598200056 0 10.713151598200056 -23.622589165825048 0 0 0 0 -3.8398500142138801 4.896538439897995 0 4.896538439897995 -11.396093383667903 0 0 0 0 -13.835652073539677 -58.016681380466252 0 -58.016681380466252 -72.20287363767784 0 0 0 0 -17.653399037275108 -18.029421670513102 0 -18.029421670513102 -20.798447580171342 0 0 0 0 7.1813181852357957 17.263546272504755 0 17.263546272504755 7.0913486819395075 0 0 0 0 -0.36732317136680592 0.10289785573195687 0 0.10289785573195687 0.021677300453944781 0 0 0 0 -16.195220304086035 3.6255892704417647 0 3.6255892704417647 -37.260730586793215 0 0 0 0 6.9280145433567668 -8.2572110722394427 0 -8.2572110722394427 -32.593846369316452 0 0 0 0 65.435819503125458 20.103246982569544 0 20.103246982569544 -19.709147805126918 0 0 0 0 70.311400010390571 -0.3701638573670607 0 -0.3701638573670607 1.4386375407339074 0 0 0 0 0.3811823362643274 0.76544839742314963 0 0.76544839742314963 -1.4767722539118253 0 0 0 0 32.304436538586742 44.819630975835025 0 44.819630975835025 15.964933174371254 0 0 0 0 10.016667781562148 21.312761336419612 0 21.312761336419612 13.803293567252695 0 0 0 0 31.730529755834141 -35.988205340625427 0 -35.988205340625427 -22.099951241871167 0 0 0 0 75.349207307839606 13.681685292585826 0 13.681685292585826 -31.165602729081002 0 0 0 0 12.27615449548648 -5.5869178283574001 0 -5.5869178283574001 -36.027381835410779 0 0 0 0 32.009142666435764 13.30980912724408 0 13.30980912724408 -39.18311627170624 0 0 0 0 18.576638592345262 -8.743335641851445 0 -8.743335641851445 -47.884395434762155 0 0 0 0 -1.8639106552743208 4.6643828601201971 0 4.6643828601201971 -7.8623492391573961 0 0 0 0 8.0707960663116864 17.586601018690089 0 17.586601018690089 -2.4882452540477971 0 0 0 0 14.71399750296996 19.408072684848776 0 19.408072684848776 -8.2742180610221112 0 0 0 0 16.647756205915357 -13.175946729203133 0 -13.175946729203133 -33.46115213363737 0 0 0 0 16.76741682274951 23.464207298173278 0 23.464207298173278 -8.3283870896921144 0 0 0 0 13.810897901686076 17.291779991150179 0 17.291779991150179 -12.022523131228809 0 0 0 0 4.080877124088147 17.381416236439691 0 17.381416236439691 22.022935518581107 0 0 0 0 9.5287106696696355 22.190702041794793 0 22.190702041794793 11.824128879830823 0 0 0 0 -2.5836730613864347 -0.6422031358924869 0 -0.6422031358924869 -9.2302405601149076 0 0 0 0 -15.599164194056357 4.349365509711788 0 4.349365509711788 -8.1062668826198205 0 0 0 0 0.30725728974289979 3.1131776823744204 0 3.1131776823744204 -9.1925645908160263 0 0 0 0 1.5588314827873546 3.1357929121350026 0 3.1357929121350026 -12.007748853749945 0 0 0 0 0.97250123912717612 2.6419723090606926 0 2.6419723090606926 -8.1383841520947868 0 0 0 0 0.95482806515171603 1.9096508070972007 0 1.9096508070972007 -7.0274332655754677 0 0 0 0 3.5761637442956271 1.3555409538166714 0 1.3555409538166714 -3.7305413471185602 0 0 0 0 3.0106324102130202 -1.8669396619163763 0 -1.8669396619163763 -11.47196283384983 0 0 0 0 3.5167584784523918 -0.12407716793750012 0 -0.12407716793750012 -10.459345255281399 0 0 0 0 4.1094574071357783 4.2769381889156648 0 4.2769381889156648 -13.465600631672714 0 0 0 0 -0.93020766831871171 7.2689412853649849 0 7.2689412853649849 -12.058920452523722 0 0 0 0 2.2496741908071272 6.9665355150063988 0 6.9665355150063988 -6.2602929823915474 0 0 0 0 20.946980201635597 27.454903761527021 0 27.454903761527021 -19.93110131665162 0 0 0 0 34.552999850389824 18.590572989614884 0 18.590572989614884 -46.879002054112789 0 0 0 0 6.1855372096506471 -0.2185079837727244 0 -0.2185079837727244 -28.302058692403079 0 0 0 0 -19.890701899526903 -6.3611550067653297 0 -6.3611550067653297 -9.7943476203654427 0 0 0 0 -10.613986230862793 -9.5173238355055219 0 -9.5173238355055219 -18.666030994558241 0 0 0 0 9.1094191366119048 -0.017342314564302796 0 -0.017342314564302796 -30.756412181974156 0 0 0 0 2.9643800293897584 -2.4513432061512503 0 -2.4513432061512503 -17.10876649065176 0 0 0 0 0.23229983785219588 -0.084149229475695364 0 -0.084149229475695364 -0.92302207528399549 0 0 0 0 52.862479832234385 19.551391817502008 0 19.551391817502008 -4.9853576940804487 0 0 0 0 -5.7593699352769363 -29.351703142634506 0 -29.351703142634506 -43.030452957362286 0 0 0 0 46.855814988613929 38.271904093970079 0 38.271904093970079 -19.279912529331398 0 0 0 0 18.899280488029945 -16.560992217237981 0 -16.560992217237981 -62.292355705663795 0 0 0 0 26.806729279451702 43.393145076292058 0 43.393145076292058 13.609318357248412 0 0 0 0 -0.96631881157973254 5.646570961751479 0 5.646570961751479 -9.6398191079560718 0 0 0 0 35.726077027045903 2.2757158095773775 0 2.2757158095773775 -65.46662448608231 0 0 0 0 2.0978024534815631 8.8984980272871326 0 8.8984980272871326 -8.0432191886338842 0 0 0 0 2.3964720375097386 10.281976125366782 0 10.281976125366782 -8.8719537650340499 0 0 0 0 1.970134710147704 9.6102342136009611 0 9.6102342136009611 -11.057621967716841 0 0 0 0 1.5283800119295847 5.2236171974036552 0 5.2236171974036552 -4.4337719829636626 0 0 0 0 1.9666811307170065 8.485555004892376 0 8.485555004892376 -8.8796755586154177 0 0 0 0 -1.4610308805510606 3.7270648155741846 0 3.7270648155741846 -7.345725618904936 0 0 0 0 1.5208693212777575 5.4436985677444341 0 5.4436985677444341 -9.7980495431620511 0 0 0 0 1.5818953339849031 5.6814636452490959 0 5.6814636452490959 -3.4891612788414932 0 0 0 0 2.0717015264305019 7.7378806856604569 0 7.7378806856604569 -3.6910761816470767 0 0 0 0 2.1511093571293713 5.1376172444888653 0 5.1376172444888653 -3.7507753071986372 0 0 0 0 3.6475404794759925 2.52781296321632 0 2.52781296321632 -1.9126469688198995 0 0 0 0 3.8439222167553453 5.4302343773779285 0 5.4302343773779285 -3.4634475700913754 0 0 0 0 0.28484431304332247 4.2725634566049848 0 4.2725634566049848 -2.6734669271208986 0 0 0 0 -2.568557620092804 -12.891783719588148 0 -12.891783719588148 -32.60089360850543 0 0 0 0 -1.3446086515221563 2.3116086663720239 0 2.3116086663720239 -3.7972969740306439 0 0 0 0 -3.9911973786373096 -1.1880209826781538 0 -1.1880209826781538 -16.744715051128878 0 0 0 0 -1.4751739009454976 5.3106160045617941 0 5.3106160045617941 -9.6694954802413235 0 0 0 0 8.9430442735482529 15.149739888242948 0 15.149739888242948 -18.874390733930341 0 0 0 0 13.455818669207019 3.0539086491544367 0 3.0539086491544367 -42.951143316655362 0 0 0 0 -5.976283206620792 4.9092387477539887 0 4.9092387477539887 -7.4779192924888775 0 0 0 0 69.598506500916301 -91.831977652288515 0 -91.831977652288515 -113.7189323637358 0 0 0 0 -0.99605129183055396 26.702479160223447 0 26.702479160223447 4.2810346640981152 0 0 0 0 -6.141909194345395 8.396834188218179 0 8.396834188218179 -8.2999757053303824 0 0 0 0 -5.8938434906544899 11.366203505267549 0 11.366203505267549 -12.500396701096179 0 0 0 0 -0.0036951928614925578 0.57973478105139975 0 0.57973478105139975 -1.7400246812297269 0 0 0 0 -98.160680070872331 0.80368667197762989 0 0.80368667197762989 3.2547072036431928 0 0 0 0 -23.852921967712973 -8.7363524680295086 0 -8.7363524680295086 -3.8586725653185567 0 0 0 0 -25.896446552755151 29.269568214382161 0 29.269568214382161 -8.6285208753870393 0 0 0 0 37.661247008880309 43.369322995469702 0 43.369322995469702 -75.159813577556633 0 0 0 0 2.5684482451670192 24.592478958351421 0 24.592478958351421 -21.682772669344558 0 0 0 0 -1.310757338465919 58.608749534934759 0 58.608749534934759 -40.068418237577134 0 0 0 0 0.084106122334180355 4.2848334955743255 0 4.2848334955743255 -4.1328141540271162 0 0 0 0 -326.07134975427471 -77.503318661969388 0 -77.503318661969388 30.138485315896105 0 0 0 0 -136.51696750102565 100.08636711518193 0 100.08636711518193 27.064670920655772 0 0 0 0 -78.177256532993852 188.36778061986479 0 188.36778061986479 160.65364443539875 0 0 0 0 4.402555871230561 102.43976391563456 0 102.43976391563456 -153.99596017508884 0 0 0 0 121.11213762443003 332.51580323672533 0 332.51580323672533 -92.099215411486512 0 0 0 0 22.768546658027844 15.351424427070015 0 15.351424427070015 -85.491216121168691 0 0 0 0 16.548953386552967 32.653569473572134 0 32.653569473572134 -3.2246006278584218 0 0 0 0 188.29645402242761 -189.30904946133091 0 -189.30904946133091 4.6738757895582239 0 0 0 0 41.412344156957261 9.3215573813249648 0 9.3215573813249648 -132.49864191714369 0 0 0 0 11.344060001112211 7.6637731413343317 0 7.6637731413343317 -12.065920977645874 0 0 0 0 -1.0928959754504568 -0.98308165721112317 0 -0.98308165721112317 -1.5591962258058345 0 0 0 0 2.4269458084947679 2.2396966972773455 0 2.2396966972773455 -5.8742197267839913 0 0 0 0 45.950155896931903 -17.76818385994568 0 -17.76818385994568 -5.4615969776641577 0 0 0 0 -0.050879745005659061 38.014397691731574 0 38.014397691731574 42.073978023365271 0 0 0 0 -1.6496257861062986 14.753319627434394 0 14.753319627434394 1.6982192347622913 0 0 0 0 12.340687714777687 10.822040163977363 0 10.822040163977363 -2.0768345442120335 0 0 0 0 0.87595530237340924 4.0671715666942703 0 4.0671715666942703 -8.2070762092227056 0 0 0 0 24.831704767355404 24.454669996168377 0 24.454669996168377 25.183756822563737 0 0 0 0 28.625190594719243 65.608435133824969 0 65.608435133824969 31.721481018132181 0 0 0 0 -11.370311709450107 49.833894224164396 0 49.833894224164396 15.098953706130487 0 0 0 0 28.706274915060046 26.45405020467247 0 26.45405020467247 28.726629938464612 0 0 0 0 -38.73523623924666 16.107379372600917 0 16.107379372600917 42.877393950217083 0 0 0 0 -3.6946655322453807 36.982876278034382 0 36.982876278034382 -4.4924240801155975 0 0 0 0 -43.300064903206476 -10.133579120825743 0 -10.133579120825743 -20.011179003632151 0 0 0 0 -64.769090305817372 49.216116995343327 0 49.216116995343327 12.794361733071128 0 0 0 0 -31.10192589649705 30.144853473379044 0 30.144853473379044 44.660468059832056 0 0 0 0 -11.758043196525165 23.426956890954045 0 23.426956890954045 44.555952444759896 0 0 0 0 -8.6515673549472183 -31.13279824708809 0 -31.13279824708809 51.121391526205116 0 0 0 0 -2.8186475402753786 8.2794542056672071 0 8.2794542056672071 63.256662516017968 0 0 0 0 2.6578539761504274 1.5816565483325675 0 1.5816565483325675 -0.52469413827662947 0 0 0 0 -42.614642672702757 6.9774732338937611 0 6.9774732338937611 -1.9294485272657766 0 0 0 0 -10.820524245792399 -32.769034959026612 0 -32.769034959026612 -144.05264477447781 0 0 0 0 -1.1224401539804987 0.5294397061597067 0 0.5294397061597067 -0.00036595159409102962 0 0 0 0 -7.1908165139693665 62.327750899203238 0 62.327750899203238 -106.94832315702752 0 0 0 0 -18.388152889912817 -6.0828086612291372 0 -6.0828086612291372 -57.965572610264644 0 0 0 0 -32.544076993039312 63.693372273325622 0 63.693372273325622 -62.936305478368013 0 0 0 0 -22.569786518216006 44.267470424509156 0 44.267470424509156 -38.937359473588003 0 0 0 0 -6.4488676980263335 15.495393475361197 0 15.495393475361197 -103.76755913761735 0 0 0 0 -10.25458536524684 24.820720033471844 0 24.820720033471844 -42.165184229710576 0 0 0 0 -10.321138638571711 22.142406439590559 0 22.142406439590559 -31.812040742737736 0 0 0 0 6.582294845782144 47.190631263132673 0 47.190631263132673 -48.210721095427289 0 0 0 0 -21.511877216114044 35.701562410502447 0 35.701562410502447 -49.035486600303557 0 0 0 0 -1.613202452567748 59.923127815345651 0 59.923127815345651 -75.896231545948467 0 0 0 0 0.73064086171967801 -0.13942064907773499 0 -0.13942064907773499 -0.21557363916382144 0 0 0 0 1.2490180520677399 0.66438852486149358 0 0.66438852486149358 0.48573111652064682 0 0 0 0 -18.72452261775652 -13.517405379017873 0 -13.517405379017873 132.95415054103432 0 0 0 0 28.367739496803551 -32.702760654213307 0 -32.702760654213307 34.470330539003044 0 0 0 0 -32.64008295582633 -37.480165563307537 0 -37.480165563307537 42.958192521553428 0 0 0 0 -10.16041221835826 -51.710421497741663 0 -51.710421497741663 178.78745846479433 0 0 0 0 33.418459969726882 24.407037905037214 0 24.407037905037214 27.61253585880695 0 0 0 0 -6.4335899248071087 8.6481177762871084 0 8.6481177762871084 9.2882521659666963 0 0 0 0 0.26384389340229575 26.50544159283163 0 26.50544159283163 -5.3182639659098641 0 0 0 0 -5.3456051010816674 12.077473818406816 0 12.077473818406816 -16.341957831391483 0 0 0 0 -11.926428813263385 21.184340987412725 0 21.184340987412725 -7.7941691929190711 0 0 0 0 -39.151251020494996 -45.111056415389612 0 -45.111056415389612 -8.2273951529350597 0 0 0 0 -0.24469001848065625 0.071515701145813182 0 0.071515701145813182 0.28993367127654324 0 0 0 0 -24.890037513177578 8.2518625326738402 0 8.2518625326738402 -1.5232036805755342 0 0 0 0 1.4864189589958789 -0.78331566132556674 0 -0.78331566132556674 -1.3972652034541113 0 0 0 0 16.22125671828551 -0.28052785644649703 0 -0.28052785644649703 -12.793334216199582 0 0 0 0 16.069870174463439 5.7641802256439405 0 5.7641802256439405 -6.8967515444674063 0 0 0 0 0.96650697970961552 5.0709474510404107 0 5.0709474510404107 -18.994463731884025 0 0 0 0 -9.361567194385735 6.7816939970689418 0 6.7816939970689418 -7.725126706827723 0 0 0 0 6.7697725961243336 -5.9741414492054901 0 -5.9741414492054901 -3.394129529777274 0 0 0 0 -8.7506117176206573 10.101749515717529 0 10.101749515717529 -24.564675710804295 0 0 0 0 -8.0875672572559854 12.931882003795181 0 12.931882003795181 -30.190084063317045 0 0 0 0 -6.8997015261664423 14.967190964491238 0 14.967190964491238 -26.739374421100365 0 0 0 0 -0.01201732316679697 7.1941422176623746 0 7.1941422176623746 -20.515785144045367 0 0 0 0 0.00058542013379684482 17.424058547512686 0 17.424058547512686 -33.141507046299012 0 0 0 0 -12.105784023064594 18.173570881026535 0 18.173570881026535 -28.066350062756101 0 0 0 0 -16.144850652066182 22.897411380887206 0 22.897411380887206 -22.474636534221645 0 0 0 0 -11.495199186606726 17.6370160438928 0 17.6370160438928 -27.398543890943984 0 0 0 0 -11.279227332829524 15.052506048639771 0 15.052506048639771 -17.557409352848481 0 0 0 0 -14.594374510942506 17.1342704695397 0 17.1342704695397 -55.294869154589833 0 0 0 0 -13.968115457455042 28.881829190973804 0 28.881829190973804 -34.50276419162401 0 0 0 0 -4.8244237393836569 24.164268628306672 0 24.164268628306672 -42.555223042167199 0 0 0 0 -14.435046679173453 33.126795963737095 0 33.126795963737095 -47.718268995045946 0 0 0 0 -0.055907384953286517 25.202437642320479 0 25.202437642320479 -55.459098007646389 0 0 0 0 -10.894883704499591 6.8044736790579918 0 6.8044736790579918 -45.548990055562172 0 0 0 0 26.879820649489488 -35.516629470832413 0 -35.516629470832413 -26.018386044150247 0 0 0 0 -9.6856442189693723 8.4714381564699579 0 8.4714381564699579 -77.993299427747843 0 0 0 0 -12.816884474236957 14.850401953270193 0 14.850401953270193 -34.444146170186286 0 0 0 0 -106.65439169283319 -8.5802101887311437 0 -8.5802101887311437 -40.209778034331976 0 0 0 0 -48.752498008887514 52.302813659458479 0 52.302813659458479 -72.424561021752197 0 0 0 0 -0.44148686228468037 21.954702566275046 0 21.954702566275046 -31.312969781341963 0 0 0 0 0.84135473736654376 -16.903070616361219 0 -16.903070616361219 -13.872642302027089 0 0 0 0 -21.93721160568137 -39.049944761667575 0 -39.049944761667575 -30.899199931533076 0 0 0 0 -21.861896982731309 -30.934180028896662 0 -30.934180028896662 -9.1460069531749468 0 0 0 0 11.695124978694821 -32.180244349510758 0 -32.180244349510758 -22.882486691465601 0 0 0 0 -45.723837921488681 -15.512260179304576 0 -15.512260179304576 -42.416243426079745 0 0 0 0 -49.490164207485066 -32.588495560587035 0 -32.588495560587035 -85.396831187536009 0 0 0 0 -22.788913999610614 0.27290012905723415 0 0.27290012905723415 -45.385770283915917 0 0 0 0 -1.5059026490956171 -10.718169747407956 0 -10.718169747407956 -49.967522418213775 0 0 0 0 -7.7859044596285401 -14.225872385737603 0 -14.225872385737603 -54.714962995101814 0 0 0 0 -8.6939103530581221 -14.151476439721591 0 -14.151476439721591 -11.376344363467069 0 0 0 0 14.984444805753014 2.68141253941576 0 2.68141253941576 -39.938075994883548 0 0 0 0 21.202756848631537 37.442381800297881 0 37.442381800297881 -68.577965751857846 0 0 0 0 -98.389046929656985 98.360827028745916 0 98.360827028745916 -61.783295483219263 0 0 0 0 0.13415411886658485 0.06634739506067433 0 0.06634739506067433 -1.1457400749423527 0 0 0 0 1.0752121656049383 7.2065877992790774 0 7.2065877992790774 -106.57654429095419 0 0 0 0 6.3782570676942214 17.277209882720854 0 17.277209882720854 -21.460704978046124 0 0 0 0 113.52932710644274 31.021674972762412 0 31.021674972762412 -77.984012682616594 0 0 0 0 0.61341158824797215 4.4959432374108994 0 4.4959432374108994 -17.123798358841498 0 0 0 0 21.176062337171629 36.250586881939853 0 36.250586881939853 -24.408956993138418 0 0 0 0 2.7758790492091552 1.4443887088968452 0 1.4443887088968452 -7.5968533428435308 0 0 0 0 -8.7132351955651757 7.1910190018134017 0 7.1910190018134017 -8.4807922509062337 0 0 0 0 0.3385673982562824 0.47148435607569095 0 0.47148435607569095 -0.49342399601567877 0 0 0 0 -10.277673018252699 -12.704991444570624 0 -12.704991444570624 -7.8052023408381501 0 0 0 0 -28.763540988067689 21.797017310294905 0 21.797017310294905 -11.015355473937234 0 0 0 0 -1.3429428813012958 1.5650358611006254 0 1.5650358611006254 -3.2414476559715695 0 0 0 0 2.5469957688430895 0.94861288683932798 0 0.94861288683932798 -5.543858756107511 0 0 0 0 2.1650037690752533 1.6679114821876198 0 1.6679114821876198 -7.551689751425954 0 0 0 0 -0.44699319021401607 2.8880889245649541 0 2.8880889245649541 -11.84550574261084 0 0 0 0 2.6681032123734165 1.2435171165569141 0 1.2435171165569141 -7.0228427857416449 0 0 0 0 -0.76418009391818487 3.8997481819642417 0 3.8997481819642417 -12.667219042159559 0 0 0 0 107.25120469511283 -39.323221464987 0 -39.323221464987 -33.326533654064406 0 0 0 0 -0.73304966904799485 4.6313848397738493 0 4.6313848397738493 -13.560501906753615 0 0 0 0 33.547915631356148 -8.5679847391402291 0 -8.5679847391402291 -20.189440145448316 0 0 0 0 69.630976258352291 -38.716252562728187 0 -38.716252562728187 -12.31729855586309 0 0 0 0 66.976360479809983 -53.229949969147128 0 -53.229949969147128 9.8854068298824131 0 0 0 0 30.226470039355604 15.416207376802049 0 15.416207376802049 18.433108545199502 0 0 0 0 46.556097453245769 -32.805422492396275 0 -32.805422492396275 34.3992568065878 0 0 0 0 46.655132934489416 -12.336076702515129 0 -12.336076702515129 -12.889254625168178 0 0 0 0 17.739253761516096 -9.1036965069288271 0 -9.1036965069288271 10.438399294100236 0 0 0 0 10.768207800536018 9.0004226388575148 0 9.0004226388575148 -6.2976667842449388 0 0 0 0 -0.22257068784664408 3.5342823967404504 0 3.5342823967404504 -6.2827676956035816 0 0 0 0 12.99026413401225 6.2101548847385857 0 6.2101548847385857 -11.20477418097289 0 0 0 0 1.6007603361763358 5.2477187763834081 0 5.2477187763834081 -8.9538025536821806 0 0 0 0 0.11410827784912847 3.1470178815017604 0 3.1470178815017604 -7.1683864811210611 0 0 0 0 2.3259504640036539 3.1084298299465445 0 3.1084298299465445 -10.159668396983761 0 0 0 0 3.1467665072223099 4.8369824881665409 0 4.8369824881665409 -10.883044599346249 0 0 0 0 2.671505501602951 4.9443150503502693 0 4.9443150503502693 -9.25031196459895 0 0 0 0 2.448189713501506 2.3200155357244512 0 2.3200155357244512 -5.0767578789382242 0 0 0 0 2.7185561128497646 3.3376706537951009 0 3.3376706537951009 -7.5876538940091507 0 0 0 0 -2.8201491951156186 -4.6647928062229767 0 -4.6647928062229767 -1.7815372449986171 0 0 0 0 23.695927937971192 -8.8469134842598578 0 -8.8469134842598578 -12.679511999920578 0 0 0 0 5.384342146423478 -1.0369454404444696 0 -1.0369454404444696 -13.054114885089803 0 0 0 0 0.73776213357632514 4.6911867777380394 0 4.6911867777380394 -12.23653659368847 0 0 0 0 1.7136188955992111 -0.78069438918100786 0 -0.78069438918100786 -11.597131657475074 0 0 0 0 1.7769300072393364 2.856807673267042 0 2.856807673267042 -20.052679591492051 0 0 0 0 -2.9206372128246585 9.8642924613886862 0 9.8642924613886862 -21.714546530061853 0 0 0 0 -3.5048769314589663 1.9186337635219388 0 1.9186337635219388 -12.155268342728959 0 0 0 0 6.5440200792791074 3.9861533955318009 0 3.9861533955318009 -12.767124019963376 0 0 0 0 5.4516464803164126 5.1610812247854483 0 5.1610812247854483 -11.18673184850195 0 0 0 0 -0.17881100289763491 3.7925167976570622 0 3.7925167976570622 -11.05616648951586 0 0 0 0 1.8661094222275096 8.4762678451443207 0 8.4762678451443207 -21.286784488067497 0 0 0 0 2.4856683908562545 1.4682707023335446 0 1.4682707023335446 -9.0901402113547789 0 0 0 0 5.1868258809754479 6.3434038218256319 0 6.3434038218256319 -7.8009700054390123 0 0 0 0 0.6495019808156286 8.4188780389714637 0 8.4188780389714637 -9.7981361826043099 0 0 0 0 6.9592347834095563 2.2667102800769499 0 2.2667102800769499 -9.7591586162670865 0 0 0 0 2.896101545670418 2.5245068062907432 0 2.5245068062907432 -9.5222070162345887 0 0 0 0 3.8807352318071935 3.6853191015043194 0 3.6853191015043194 -10.57404129623319 0 0 0 0 4.7592638470726811 0.97274781499460516 0 0.97274781499460516 -12.477370464147398 0 0 0 0 -13.517895745338137 7.4039241369209776 0 7.4039241369209776 -9.8533729799455614 0 0 0 0 -10.439838059074191 12.821982026285696 0 12.821982026285696 -14.883567440803745 0 0 0 0 0.71432071621040194 5.6688120245138407 0 5.6688120245138407 -12.708869698748458 0 0 0 0 3.1594414252911847 -0.25257418974999268 0 -0.25257418974999268 -4.2342545110669505 0 0 0 0 -7.2612105205898843 9.3203775799192954 0 9.3203775799192954 -13.936586946168973 0 0 0 0 0.4512339372947789 3.4123682899981631 0 3.4123682899981631 -6.8752109958944629 0 0 0 0 -2.1573857711337041 5.0362450900865952 0 5.0362450900865952 -14.344825820744973 0 0 0 0 -6.3995059033618418 2.6525903729343554 0 2.6525903729343554 -14.245369795622537 0 0 0 0 -1.4478668364372425 12.833583437233756 0 12.833583437233756 -26.912750720279291 0 0 0 0 -13.75942545226917 11.058193920791382 0 11.058193920791382 -12.479919147648616 0 0 0 0 -7.9274202133856306 8.8356600353945396 0 8.8356600353945396 -11.724255030785571 0 0 0 0 -5.8692856248489989 8.9684084613109007 0 8.9684084613109007 -11.899705409370654 0 0 0 0 0.92714948700358946 4.2433280525474402 0 4.2433280525474402 -14.452381112598232 0 0 0 0 -6.4471062898201126 8.1028063324156392 0 8.1028063324156392 -12.684887156370678 0 0 0 0 -0.76145796921719011 6.4707766050159989 0 6.4707766050159989 -15.125808746852272 0 0 0 0 -1.2698230308619145 1.9289116613508668 0 1.9289116613508668 -7.8363519186241319 0 0 0 0 -4.7324489442062259 7.9150212436470611 0 7.9150212436470611 -8.02486399605732 0 0 0 0 -31.356321609760926 -3.2235973321949132 0 -3.2235973321949132 16.507686084427405 0 0 0 0 -2.6219801321422942 1.8101892826789623 0 1.8101892826789623 1.9226070991783644 0 0 0 0 9.0449940245914604 11.291152303231684 0 11.291152303231684 -18.913676706186379 0 0 0 0 -16.607536166950013 14.669133842588053 0 14.669133842588053 -10.242715573633177 0 0 0 0 -0.40562792000922876 0.1699751591381613 0 0.1699751591381613 0.47530418545920838 0 0 0 0 -0.65940698109067519 4.2383604857757469 0 4.2383604857757469 -6.4036745499781773 0 0 0 0 -0.3001977539024665 9.3167178115309071 0 9.3167178115309071 -8.5026306363724871 0 0 0 0 0.47795705678163358 4.1841586849459418 0 4.1841586849459418 -5.5216925042586809 0 0 0 0 12.213366111802316 21.224644718535274 0 21.224644718535274 -10.472004794799432 0 0 0 0 -1.2187712154891095 4.6905248725381945 0 4.6905248725381945 -8.1957708278260242 0 0 0 0 78.758379134484571 -7.9731468450336251 0 -7.9731468450336251 -19.635751834368421 0 0 0 0 9.1815777262454503 3.3557474181598081 0 3.3557474181598081 -14.805068500281777 0 0 0 0 1.4954624207602532 2.2222903577947264 0 2.2222903577947264 -8.1730592249487444 0 0 0 0 -0.00096720056262711296 4.3814008863046183 0 4.3814008863046183 -12.37958778981556 0 0 0 0 9.0236857599072664 3.854067774014311 0 3.854067774014311 -11.044001028378261 0 0 0 0 1.5950302965989329 0.99392773259654632 0 0.99392773259654632 -7.9395093383542843 0 0 0 0 -1.4672725475174957 -0.94169231635896722 0 -0.94169231635896722 -2.4071980358785368 0 0 0 0 -2.9095259224422989 9.190172719918337 0 9.190172719918337 -8.3804475210806686 0 0 0 0 5.6484861395401822 -1.705946330435836 0 -1.705946330435836 -4.7561546569631901 0 0 0 0 -0.1161107178520574 2.5504432331844864 0 2.5504432331844864 -6.4647470145511221 0 0 0 0 5.5248089052820433 -3.1798793859852594 0 -3.1798793859852594 -9.8371738362984615 0 0 0 0 -7.6393016126063742 -16.081740433968662 0 -16.081740433968662 -4.7736032764078118 0 0 0 0 26.718079566874756 -27.249403715384688 0 -27.249403715384688 -19.600933801428255 0 0 0 0 18.452439910998692 -17.441100499701861 0 -17.441100499701861 -9.12568671459303 0 0 0 0 5.6592591014500897 1.3964561211737418 0 1.3964561211737418 -17.315928697193158 0 0 0 0 1.022005090858493 1.9929347689149175 0 1.9929347689149175 -10.891253650946169 0 0 0 0 -1.1728134197521456 3.3926210212746355 0 3.3926210212746355 -9.2883411592047196 0 0 0 0 -1.5554029436616474 0.88856109879998257 0 0.88856109879998257 -9.0390920924182865 0 0 0 0 0.49190737051248234 1.634425781789119 0 1.634425781789119 -10.363921386746 0 0 0 0 -0.74600201830851809 5.6332361120889445 0 5.6332361120889445 -11.624230006122104 0 0 0 0 8.4978381898520183 -1.4989263644874882 0 -1.4989263644874882 -7.7615927765000379 0 0 0 0 13.462683443704918 -0.47750871805328643 0 -0.47750871805328643 -6.8537282050237991 0 0 0 0 -6.9987801387114814 9.4215933549348847 0 9.4215933549348847 -2.0104171644561575 0 0 0 0 6.8291604300641033 -5.1787405477611088 0 -5.1787405477611088 -8.5692834226879597 0 0 0 0 2.3131992107531643 0.38453930864224617 0 0.38453930864224617 -7.7312667302969089 0 0 0 0 1.9554490995969009 0.98733705303648689 0 0.98733705303648689 -12.208458959504242 0 0 0 0 -7.2635613571373767 -9.6756134935110367 0 -9.6756134935110367 20.743342317495262 0 0 0 0 -6.5835864504199719 3.377069698143714 0 3.377069698143714 -3.282163841300644 0 0 0 0 -0.85840464694972829 0.59999142989398635 0 0.59999142989398635 -0.61834954230141648 0 0 0 0 -0.60630925619670961 2.870865848606627 0 2.870865848606627 -2.5364797929287306 0 0 0 0 5.2842961391729659 102.39221495569291 0 102.39221495569291 -147.45282022136962 0 0 0 0 -0.56778813435987807 0.62024643024291493 0 0.62024643024291493 -0.74046149893378299 0 0 0 0 -173.78603599189228 113.49946854380323 0 113.49946854380323 67.808775837431313 0 0 0 0 -26.826115203245763 54.997102103057841 0 54.997102103057841 -59.562662055686815 0 0 0 0 -1.222956649336993 47.238548414170509 0 47.238548414170509 -103.61280744691612 0 0 0 0 -12.03114719149653 -23.6671592276507 0 -23.6671592276507 45.631613716373977 0 0 0 0 4.7370570511666301 19.545433358362061 0 19.545433358362061 -93.441898131786729 0 0 0 0 47.082528267934322 -78.654221491691715 0 -78.654221491691715 -55.437471339631884 0 0 0 0 -0.53458385660557695 1.0611409127313305 0 1.0611409127313305 -0.30369536380760564 0 0 0 0 -4.4338705089026007 18.37084758515266 0 18.37084758515266 -10.121532203716924 0 0 0 0 -1.1621297061270681 -4.45507982793157 0 -4.45507982793157 -1.8295481388049666 0 0 0 0 -2.2213156822464892 4.9032066060462718 0 4.9032066060462718 -10.651303436318059 0 0 0 0 -0.31876612812993699 3.0126682277950749 0 3.0126682277950749 -10.407025825246819 0 0 0 0 22.014737954670302 8.5158841292679028 0 8.5158841292679028 -25.653238071405212 0 0 0 0 -1.7328633059730862 3.0445603031790052 0 3.0445603031790052 -9.0649386889905514 0 0 0 0 10.321981032423537 5.3251356649197987 0 5.3251356649197987 -17.564728874334833 0 0 0 0 -0.47703592575544462 -0.49995640531051322 0 -0.49995640531051322 -9.5291570670597139 0 0 0 0 -11.979230949534212 -15.879430166012753 0 -15.879430166012753 -29.411266639817768 0 0 0 0 9.2866295561980223 10.883605637603978 0 10.883605637603978 -41.097405642984086 0 0 0 0 -9.0549859949023812 10.77655774584855 0 10.77655774584855 -18.849253266761025 0 0 0 0 -12.361844164342074 27.419649365765508 0 27.419649365765508 -83.573152605429641 0 0 0 0 -10.598208971934355 28.662372592305474 0 28.662372592305474 -25.510783218465804 0 0 0 0 -7.5958826036658138 -18.046940076135797 0 -18.046940076135797 -74.419992045479376 0 0 0 0 -0.94840032274439778 0.41752369322948368 0 0.41752369322948368 -0.053401450070595047 0 0 0 0 0.47796310833700772 -11.439580424539599 0 -11.439580424539599 -10.703863137154258 0 0 0 0 22.013213416915278 -21.55212314920027 0 -21.55212314920027 -9.4282252438933938 0 0 0 0 -0.31246230625356475 -14.758810721177724 0 -14.758810721177724 -1.491622742236359 0 0 0 0 -2.023636633202841 3.125907740330149 0 3.125907740330149 -10.397467038199466 0 0 0 0 7.3674985680363534 -7.1560845791645988 0 -7.1560845791645988 -13.576098476487459 0 0 0 0 -0.4302797652465371 2.3500870028571743 0 2.3500870028571743 -12.027785470242861 0 0 0 0 -0.55738583187908564 1.2949206095914292 0 1.2949206095914292 -3.5576325734113965 0 0 0 0 -0.6684619001653439 3.7946996069115428 0 3.7946996069115428 -7.0499833215719576 0 0 0 0 -15.439050257269628 7.5994640001463267 0 7.5994640001463267 -2.4393910903017968 0 0 0 0 0.25890650564906537 5.9556549559292762 0 5.9556549559292762 -7.6864105022723379 0 0 0 0 -6.9087980839940428 11.993241650507116 0 11.993241650507116 -5.0054891019244678 0 0 0 0 4.2985786455506059 7.7616623624162457 0 7.7616623624162457 -9.6447180851682788 0 0 0 0 5.3482722869002828 16.799034300984204 0 16.799034300984204 17.027406560631789 0 0 0 0 -5.6630917728184613 3.6483677180003724 0 3.6483677180003724 -7.5441065185223124 0 0 0 0 12.167218544196203 -14.053835530154174 0 -14.053835530154174 -32.985163507766629 0 0 0 0 -1.6464302712722656 8.525201731830748 0 8.525201731830748 -8.1299997687415271 0 0 0 0 -5.9440889114432025 17.018637416063257 0 17.018637416063257 -6.1575003103425843 0 0 0 0 -8.8239319342310409 -6.6481586648546909 0 -6.6481586648546909 3.9736595519498223 0 0 0 0 1.6936300949892029 -8.3690986489746138 0 -8.3690986489746138 -6.1412393522323327 0 0 0 0 -3.0363818050948304 5.515162991232625 0 5.515162991232625 -9.6364239264878364 0 0 0 0 10.414144438450421 24.206277021945425 0 24.206277021945425 -2.2740258723497391 0 0 0 0 -16.977296309411031 -4.7257720645648078 0 -4.7257720645648078 4.4477725854931123 0 0 0 0 -19.057767547122012 21.60382459889297 0 21.60382459889297 -27.575411041059851 0 0 0 0 -30.270464800179752 34.139772689326492 0 34.139772689326492 -0.058698464439657982 0 0 0 0 -0.6048548003338059 0.12977697130208554 0 0.12977697130208554 0.18927460848905753 0 0 0 0 -3.4715353691779001 -4.1705049203701492 0 -4.1705049203701492 -36.129097890254343 0 0 0 0 -3.5634943810493169 -3.1248113647745868 0 -3.1248113647745868 -8.1573424287562375 0 0 0 0 3.4549596029510212 -2.7593706498701067 0 -2.7593706498701067 -15.747412357072079 0 0 0 0 -3.4861840440066771 9.19345125817199 0 9.19345125817199 -15.658307395263932 0 0 0 0 4.7525134770664863 0.73834692547097802 0 0.73834692547097802 -6.9825468800263479 0 0 0 0 7.6146352660166485 -1.1432112039910862 0 -1.1432112039910862 -8.1758040907816394 0 0 0 0 2.388492318226664 -6.9410941541646025 0 -6.9410941541646025 -7.8467633646068862 0 0 0 0 1.5745896134787025 0.50692829084562874 0 0.50692829084562874 -5.8383433692885376 0 0 0 0 6.4734034954939474 1.0109052181924199 0 1.0109052181924199 -11.263265230292745 0 0 0 0 6.4050163760341547 -0.93406141105697316 0 -0.93406141105697316 -5.8709984993256512 0 0 0 0 3.0098296398357434 -3.1678605669549142 0 -3.1678605669549142 -8.6069040879228851 0 0 0 0 0.15841172291677719 0.55809917709094492 0 0.55809917709094492 -2.1307572671748289 0 0 0 0 4.282062983254491 -5.6984424458751164 0 -5.6984424458751164 -5.618308922154938 0 0 0 0 1.7324455783295098 0.12341267627925134 0 0.12341267627925134 -6.0100292790781111 0 0 0 0 11.358712370688409 -4.7990727976393828 0 -4.7990727976393828 -17.226541819949489 0 0 0 0 2.2327852468266811 0.6956623996187048 0 0.6956623996187048 -7.3481990401802193 0 0 0 0 3.8489615834350488 -5.4914693723621895 0 -5.4914693723621895 -6.1676025254346314 0 0 0 0 0.9623000252785554 -0.095454715755039388 0 -0.095454715755039388 -1.4764443857731777 0 0 0 0 4.3151306379237049 -6.0940355365009964 0 -6.0940355365009964 -10.477394738038129 0 0 0 0 13.236323778691499 11.726554395365383 0 11.726554395365383 -4.9001988057059407 0 0 0 0 2.5300941289241692 -2.0347206334627117 0 -2.0347206334627117 -9.667699651698058 0 0 0 0 -4.7737302453078385 -7.8567317392771656 0 -7.8567317392771656 -13.484407441677831 0 0 0 0 4.7698998032155231 -5.2487141220663034 0 -5.2487141220663034 -9.2335535023339617 0 0 0 0 9.2510425078654492 -1.0448192444673623 0 -1.0448192444673623 -8.926406278849754 0 0 0 0 9.5760813852940458 -1.5241201910812379 0 -1.5241201910812379 -8.6762557912588818 0 0 0 0 7.408666786661418 16.10399634078567 0 16.10399634078567 -9.9958196212319308 0 0 0 0 -7.0332566883355909 33.295465432996025 0 33.295465432996025 11.830437745782547 0 0 0 0 -4.2675790375397042 -7.2705907610288705 0 -7.2705907610288705 -33.978619453655938 0 0 0 0 -0.081239756154084852 0.036777211523144615 0 0.036777211523144615 0.15130380999403314 0 0 0 0 20.691791470057694 -0.90407044366656919 0 -0.90407044366656919 -18.29979695417569 0 0 0 0 0.050157809469439485 -9.4010827916536073 0 -9.4010827916536073 12.454127803499205 0 0 0 0 -9.9508527994559799 -27.824163073888485 0 -27.824163073888485 -19.807538557543012 0 0 0 0 0.52960576966636363 11.510048730549897 0 11.510048730549897 -46.465445665133302 0 0 0 0 0.0010027752410573694 4.6033674837635772 0 4.6033674837635772 -23.818645340194053 0 0 0 0 -19.044261306476628 7.0455412143637659 0 7.0455412143637659 -3.0606584082852351 0 0 0 0 4.6776143485644193 16.216123133663132 0 16.216123133663132 1.2931341797993809 0 0 0 0 0.77680487048328573 -0.36359269572494668 0 -0.36359269572494668 4.6125901258110389 0 0 0 0 -0.19490948819387921 0.15506854016475558 0 0.15506854016475558 -0.063537669729697654 0 0 0 0 -11.41271066774155 -5.0038106793472252 0 -5.0038106793472252 -9.0253672516628285 0 0 0 0 8.0945399059169532 2.0381172363886435 0 2.0381172363886435 -3.906673430257797 0 0 0 0 0.75551957267008363 -0.028721216999919363 0 -0.028721216999919363 -1.6333818444469728 0 0 0 0 17.728478046603222 11.632206146139652 0 11.632206146139652 -10.667791532316187 0 0 0 0 -9.4709988906475591 10.047307292283222 0 10.047307292283222 -5.6288057026031311 0 0 0 0 -0.0084007750851978931 -4.3810934378689126 0 -4.3810934378689126 -25.466976467389031 0 0 0 0 10.429670048531996 -3.0374421404230816 0 -3.0374421404230816 -29.103234740978223 0 0 0 0 -0.075087086913692702 0.12350597009562847 0 0.12350597009562847 -0.1327804730811124 0 0 0 0 -15.812177866503031 -15.604926511558006 0 -15.604926511558006 -11.237162011304463 0 0 0 0 3.2108127943163898 2.964841619694198 0 2.964841619694198 -13.497694047473487 0 0 0 0 1.1472128369029475 1.4110816198372049 0 1.4110816198372049 -1.2309134207025636 0 0 0 0 13.527418223591425 -7.6058146189679974 0 -7.6058146189679974 -12.664498458405433 0 0 0 0 2.893796013340582 -8.0754946735614794 0 -8.0754946735614794 -1.7346300557719587 0 0 0 0 7.3755967676328567 2.2819115817856073 0 2.2819115817856073 -12.812462009547744 0 0 0 0 1.1415253563105865 0.3941032773264368 0 0.3941032773264368 -5.818055243707164 0 0 0 0 0.0026212082195248006 -0.52895753786287969 0 -0.52895753786287969 1.3653115504203015 0 0 0 0 0.44784660554475347 -0.51423353423369988 0 -0.51423353423369988 -0.87521817508357458 0 0 0 0 1.3080881907997772 -1.1890918867484288 0 -1.1890918867484288 -2.1964843899550033 0 0 0 0 11.271019121111067 6.0033759417092369 0 6.0033759417092369 -7.4194627887545721 0 0 0 0 7.4362178140322612 -1.4912260280743794 0 -1.4912260280743794 -6.9040851310492144 0 0 0 0 -11.80338750453393 3.8922853305921308 0 3.8922853305921308 6.2012779368815245 0 0 0 0 3.176141181677167 -1.4066022593360685 0 -1.4066022593360685 -1.8281965959104127 0 0 0 0 4.0904491339355218 -9.6388295534034114 0 -9.6388295534034114 -6.8005160462416825 0 0 0 0 1.5147123745079607 0.15656161164130822 0 0.15656161164130822 -5.4691138046376579 0 0 0 0 0.73244439330889399 0.096629048527155703 0 0.096629048527155703 -2.0004590900779533 0 0 0 0 6.3970890462753687 -0.48084202438258217 0 -0.48084202438258217 -32.245259695206187 0 0 0 0 5.4763641114391248 6.0641804917941045 0 6.0641804917941045 -7.4175297284959925 0 0 0 0 -5.5929696007094662 -9.7114881496163434 0 -9.7114881496163434 -8.6210236172955774 0 0 0 0 -57.829268064642747 40.371050673376885 0 40.371050673376885 -51.9188598673245 0 0 0 0 -0.23176363083340412 -0.09332151756609619 0 -0.09332151756609619 0.22941847212159416 0 0 0 0 -4.5138900271794 -4.0703200061120697 0 -4.0703200061120697 -42.366281714166689 0 0 0 0 -0.34188455534110052 0.25711857487736722 0 0.25711857487736722 -0.089736278271615788 0 0 0 0 -27.752850799971156 18.857730926854856 0 18.857730926854856 1.1469701634414378 0 0 0 0 -16.538348142028781 2.3828595364075227 0 2.3828595364075227 2.0572931568676722 0 0 0 0 -17.019927418141037 -26.028362371347612 0 -26.028362371347612 37.948819251654641 0 0 0 0 -3.1906707441347306 2.9724649064399813 0 2.9724649064399813 1.5986123315541292 0 0 0 0 -4.6482207137832461 16.868997830309127 0 16.868997830309127 -16.739517912581505 0 0 0 0 -8.0789392221160483 -29.850420113289147 0 -29.850420113289147 42.194998121743993 0 0 0 0 18.575711048448078 -18.506327723706818 0 -18.506327723706818 -91.385386832764198 0 0 0 0 -19.681779502301197 23.81856486124525 0 23.81856486124525 -14.414027796345181 0 0 0 0 0.050163315646266637 0.65982901224924717 0 0.65982901224924717 -3.6439643623143638 0 0 0 0 0.25891984404859159 9.3744988607577397 0 9.3744988607577397 -8.6183974824780307 0 0 0 0 -4.1945840436453636 5.9879228231111483 0 5.9879228231111483 -7.3628096747597738 0 0 0 0 -0.30332708620516069 2.0901831426650936 0 2.0901831426650936 -5.0466079507659458 0 0 0 0 -3.3701916873189197 2.4786800239413225 0 2.4786800239413225 1.9964569142257957 0 0 0 0 0.0012259065681568379 0.62943010857270565 0 0.62943010857270565 -2.8045425862655975 0 0 0 0 -0.35169620311266669 1.1827542634209749 0 1.1827542634209749 -1.7946927788361791 0 0 0 0 0.17258080597378755 0.50876039262421813 0 0.50876039262421813 -2.1538840422550436 0 0 0 0 -25.32792823594481 -7.1479676261842542 0 -7.1479676261842542 34.39678181605268 0 0 0 0 -0.93692008141600502 1.2237949248439293 0 1.2237949248439293 -0.9363155764925466 0 0 0 0 -0.18332474930928638 0.32418923562816815 0 0.32418923562816815 -0.49572298570258511 0 0 0 0 -0.22029567933115277 0.14270444318516695 0 0.14270444318516695 -0.19243206616820885 0 0 0 0 -0.002691662447260248 0.62146150272747036 0 0.62146150272747036 -0.8398950688279001 0 0 0 0 22.575346852094903 -6.9809533275929425 0 -6.9809533275929425 -163.72567996061116 0 0 0 0 11.022344088866667 -20.698033847427723 0 -20.698033847427723 -168.72854154069137 0 0 0 0 0.088603358222475864 10.379934474285619 0 10.379934474285619 -218.97178170772895 0 0 0 0 9.806810016554083 32.35480678631211 0 32.35480678631211 -277.0489363843044 0 0 0 0 -41.553545701651167 -7.8272042562348361 0 -7.8272042562348361 -224.6607338847316 0 0 0 0 -45.362916320642881 11.702575943506872 0 11.702575943506872 -210.05153905755287 0 0 0 0 -0.55981032356311311 0.4330358816497224 0 0.4330358816497224 -0.35731238211633354 0 0 0 0 13.085352867246154 40.895986091697523 0 40.895986091697523 -77.179064912888862 0 0 0 0 -28.366935637285959 -42.384378655980981 0 -42.384378655980981 -123.04292525757046 0 0 0 0 8.8070623207256045 13.347056404730893 0 13.347056404730893 -216.78768712859164 0 0 0 0 35.17650105798829 4.6932980345445685 0 4.6932980345445685 -211.24640933996125 0 0 0 0 22.711731986470056 22.31953447765045 0 22.31953447765045 -102.92497726718193 0 0 0 0 36.662400924779945 -24.568987093361613 0 -24.568987093361613 -217.74038782949356 0 0 0 0 36.413716707644461 -36.60712026290318 0 -36.60712026290318 -293.88373696376948 0 0 0 0 69.999760657954596 3.4250188398909813 0 3.4250188398909813 -262.05752729553205 0 0 0 0 59.739348423685442 30.250151209213072 0 30.250151209213072 -254.72229001553933 0 0 0 0 48.433092845475358 -16.224890643148683 0 -16.224890643148683 -221.65797916318843 0 0 0 0 9.1457539028891688 -26.046032052583541 0 -26.046032052583541 -24.901867654472881 0 0 0 0 14.15313380231791 49.350192162264648 0 49.350192162264648 -156.15549842826658 0 0 0 0 4.3443210920026729 84.837939702900258 0 84.837939702900258 -283.5681248397741 0 0 0 0 -0.0390071815606432 -1.1211834011923827 0 -1.1211834011923827 -3.0412021578007682 0 0 0 0 130.74224677936402 -43.69070370323243 0 -43.69070370323243 -142.20259283786436 0 0 0 0 7.4103832346835645 -19.035200119527872 0 -19.035200119527872 -25.023123901436634 0 0 0 0 0.25260249497858922 -9.9689940962689434 0 -9.9689940962689434 21.718068508562283 0 0 0 0 52.479000480744972 16.489400690297771 0 16.489400690297771 10.352239254254528 0 0 0 0 16.527642200315796 8.1881770796244382 0 8.1881770796244382 25.235493223182857 0 0 0 0 -45.664397796037235 39.673123988271982 0 39.673123988271982 12.358542437865253 0 0 0 0 -0.027896915685242527 17.105936537524521 0 17.105936537524521 -157.15202543706255 0 0 0 0 10.113853987596498 37.954054209803871 0 37.954054209803871 -178.71393884862482 0 0 0 0 57.414765565286984 -71.160741508201681 0 -71.160741508201681 -51.620126918340247 0 0 0 0 -49.812234577015147 77.921122956186082 0 77.921122956186082 -174.92393984056253 0 0 0 0 0.019009491911417459 -0.19212498321541815 0 -0.19212498321541815 -1.2751851440039559 0 0 0 0 -71.748661786816669 -257.70676015187706 0 -257.70676015187706 -294.10058712820319 0 0 0 0 -47.923987066755672 -2.6418342387005396 0 -2.6418342387005396 -59.634875540654321 0 0 0 0 -0.26210905348050989 0.21684565284135893 0 0.21684565284135893 -5.03278898582235 0 0 0 0 -359.80345791739035 416.42288675587395 0 416.42288675587395 -475.82481395218929 0 0 0 0 -93.089780001755798 79.117025040803128 0 79.117025040803128 -656.73572056532066 0 0 0 0 -18.162656561682184 -126.09229340949241 0 -126.09229340949241 -246.71652607378564 0 0 0 0 82.007613294073934 106.30359569663415 0 106.30359569663415 -190.31749012775435 0 0 0 0 5.2073668901107339 -188.10337464997247 0 -188.10337464997247 42.87756156742762 0 0 0 0 -0.30793195402767004 -0.77122657009176976 0 -0.77122657009176976 -1.4687525966968593 0 0 0 0 -96.212372175302221 -125.4612499276609 0 -125.4612499276609 -148.92970124717613 0 0 0 0 -8.3294543211260361 -116.05224986011672 0 -116.05224986011672 -239.63947117905809 0 0 0 0 -5.3891840457683884 -2.2563210310090653 0 -2.2563210310090653 -146.8036277524152 0 0 0 0 -59.090242530718484 -75.192064864037093 0 -75.192064864037093 -115.69734140981382 0 0 0 0 -73.120647899342885 20.364419019839261 0 20.364419019839261 -40.452677271539869 0 0 0 0 -26.904712391308522 -0.94529492618585209 0 -0.94529492618585209 -16.747777497439529 0 0 0 0 37.556149285275296 40.97189757950764 0 40.97189757950764 -31.443218634607547 0 0 0 0 102.83542081443238 -5.4732933280047291 0 -5.4732933280047291 -94.619878573776077 0 0 0 0 -0.027551731166589523 0.51976961670944455 0 0.51976961670944455 -12.422438305215394 0 0 0 0 54.980786819062942 26.810169619706329 0 26.810169619706329 -21.381803840267821 0 0 0 0 0.36530068918443076 1.4397161991747596 0 1.4397161991747596 -16.258499162894054 0 0 0 0 13.419631945689275 31.703397708688499 0 31.703397708688499 14.81577786350681 0 0 0 0 -4.2024777570263723 50.070129703535713 0 50.070129703535713 -1.1937420786707662 0 0 0 0 -0.22337408619504817 4.9334336510776211 0 4.9334336510776211 -5.9426646235751335 0 0 0 0 0.64877794346667628 2.4032160108512954 0 2.4032160108512954 -9.3806040074123302 0 0 0 0 -2.4335281777971431 3.5319443808148208 0 3.5319443808148208 -8.4149210152463638 0 0 0 0 -0.18129481713316328 2.0351075458051593 0 2.0351075458051593 -8.0731709135966696 0 0 0 0 4.4574359828627763 5.2951120804148388 0 5.2951120804148388 -10.650642463966506 0 0 0 0 -6.0025878730934892 -6.4421771375418757 0 -6.4421771375418757 -6.3606558096507797 0 0 0 0 -10.178739108560308 -9.6386256672321906 0 -9.6386256672321906 -26.792418371080203 0 0 0 0 -2.2118295427117118 3.9194023221316456 0 3.9194023221316456 -11.975501016577255 0 0 0 0 -1.998454321544211 5.3810092224811825 0 5.3810092224811825 -2.5454158108270661 0 0 0 0 -28.861853780800402 36.649824545782394 0 36.649824545782394 45.060050067560951 0 0 0 0 6.7592287491243042 -7.2052234601906093 0 -7.2052234601906093 -4.8741008459182922 0 0 0 0 -22.850586202454906 36.620854038053949 0 36.620854038053949 -21.575710194541898 0 0 0 0 40.053867891993605 19.155708492886333 0 19.155708492886333 -82.879944458123646 0 0 0 0 -12.812406394533355 10.897550046014658 0 10.897550046014658 -10.334057350950388 0 0 0 0 -0.11085741219029899 -1.1397601391962269 0 -1.1397601391962269 -1.8480012612541898 0 0 0 0 1.1526791354464194 -1.6164112546703109 0 -1.6164112546703109 -11.684461346616445 0 0 0 0 -29.88408995373203 -0.25434677808607375 0 -0.25434677808607375 -11.443732551138964 0 0 0 0 -3.5092137158035257 14.873267140752432 0 14.873267140752432 -14.387239250849234 0 0 0 0 -8.5125211284866964 10.076340116822394 0 10.076340116822394 -15.463311885112489 0 0 0 0 -8.6781429032566848 10.606822895908408 0 10.606822895908408 -5.9552616864384618 0 0 0 0 -5.384093840906587 21.150425701968743 0 21.150425701968743 -10.256909901945619 0 0 0 0 -17.064305843013699 17.179754125172622 0 17.179754125172622 -9.1519623675048933 0 0 0 0 5.5949645660463148 -0.46190902759474284 0 -0.46190902759474284 -16.914883607736556 0 0 0 0 -0.13459239508484266 4.6183932553033173 0 4.6183932553033173 -11.234957745116844 0 0 0 0 -0.7677489123605189 1.349561557421461 0 1.349561557421461 -8.564889931742556 0 0 0 0 -4.6913366674293684 4.2790224719792604 0 4.2790224719792604 -9.2426287253329065 0 0 0 0 -6.8486506296435437 3.744476690864758 0 3.744476690864758 -4.9718488545331638 0 0 0 0 0.52602913133012486 -1.1356150104565792 0 -1.1356150104565792 -1.6477441194953997 0 0 0 0 0.22020526650837979 -0.29398327942257652 0 -0.29398327942257652 -3.0393211109643516 0 0 0 0 -1.2047735495248162 5.7779010741542152 0 5.7779010741542152 -12.997100002274237 0 0 0 0 -1.9755638886101963 2.2544968937431804 0 2.2544968937431804 -11.731525387695001 0 0 0 0 1.808796497442529 -0.29705354011275631 0 -0.29705354011275631 -9.1985173971988843 0 0 0 0 18.599471462908156 9.0265002680803264 0 9.0265002680803264 -18.410801570702461 0 0 0 0 -2.0639303530643835 4.6131444133756752 0 4.6131444133756752 -9.359113689102216 0 0 0 0 -3.117727737640962 3.2040663970001333 0 3.2040663970001333 -4.086465030675754 0 0 0 0 -0.72008677036043656 3.8495913709630178 0 3.8495913709630178 -7.9918713577706058 0 0 0 0 -4.8126103935028794 8.9626588617336864 0 8.9626588617336864 -14.689884144347161 0 0 0 0 1.1196761045066523 2.6535619742717245 0 2.6535619742717245 -3.9214029479480814 0 0 0 0 -1.0314023832311561 1.9374060972114577 0 1.9374060972114577 -6.6368694094927037 0 0 0 0 -1.5778409382787366 7.1144279067292189 0 7.1144279067292189 -14.007841891247487 0 0 0 0 -0.72911489097119286 2.1649583042101597 0 2.1649583042101597 -5.3345641566629638 0 0 0 0 -2.6126827167226727 1.9106213574379565 0 1.9106213574379565 -3.2416203318583712 0 0 0 0 -8.3354947354296201 6.7631614235724555 0 6.7631614235724555 -1.9700326595702791 0 0 0 0 -5.6992986177337723 2.6485110890471901 0 2.6485110890471901 0.80307309446794761 0 0 0 0 -12.262789995904768 2.3382272899980308 0 2.3382272899980308 -3.7714432207249047 0 0 0 0 -9.0603450375463126 0.1405729840771528 0 0.1405729840771528 -10.609300357784377 0 0 0 0 -18.835217224496773 4.3272699006101902 0 4.3272699006101902 -2.5006313758749457 0 0 0 0 -8.7126582589598911 -2.3720433994676569 0 -2.3720433994676569 -10.291511692134009 0 0 0 0 -20.196663809237634 2.565870017537236 0 2.565870017537236 -4.7421923264864745 0 0 0 0 -6.7996793257715282 4.8562847796229534 0 4.8562847796229534 -1.7611157831799176 0 0 0 0 -19.543652734711486 12.18509392483611 0 12.18509392483611 -4.1697949578810949 0 0 0 0 41.776282832232027 36.550214946128108 0 36.550214946128108 -15.697892971473266 0 0 0 0 -15.222112807784413 20.988257764515311 0 20.988257764515311 7.5440297628883854 0 0 0 0 -15.086164822139398 14.216130819444324 0 14.216130819444324 -11.592804590610598 0 0 0 0 40.96167918329661 41.074612658583192 0 41.074612658583192 -38.986259907796921 0 0 0 0 6.8845664261330057 24.9301133154122 0 24.9301133154122 1.6889389214848052 0 0 0 0 -12.665497116543719 42.380997481840495 0 42.380997481840495 9.8846755005652085 0 0 0 0 -13.345971940978369 12.277293092816336 0 12.277293092816336 -11.038631686188594 0 0 0 0 -27.39505899224622 13.435577514610486 0 13.435577514610486 8.0793543403924559 0 0 0 0 -19.29302973799804 8.0881059914008802 0 8.0881059914008802 -2.9119902631537116 0 0 0 0 -42.013104024097402 19.996454836928024 0 19.996454836928024 -9.0658981530286837 0 0 0 0 -31.66161304067964 12.293354675213322 0 12.293354675213322 -5.8562968704318337 0 0 0 0 -21.79795920646427 1.1160164174625606 0 1.1160164174625606 -51.98061876452266 0 0 0 0 -47.250392385422174 62.082845516093585 0 62.082845516093585 -104.30458252742392 0 0 0 0 -35.549590720257584 21.529153822413718 0 21.529153822413718 -35.273931446161441 0 0 0 0 -40.932888708712198 21.43630235098135 0 21.43630235098135 -32.51715810035239 0 0 0 0 -22.777851712334268 -1.7495896973705385 0 -1.7495896973705385 -11.855836126496797 0 0 0 0 -1.5993161642953648 12.084622971545144 0 12.084622971545144 -53.52401588464636 0 0 0 0 0.36804238970263814 -0.16396535689985825 0 -0.16396535689985825 -2.8154716533095936 0 0 0 0 -2.6196678665332911 -1.8755702245107386 0 -1.8755702245107386 -15.615648455750488 0 0 0 0 -21.492857899283194 -6.5807384108757105 0 -6.5807384108757105 -7.8509355929127196 0 0 0 0 -25.497739231097967 5.4841377564735012 0 5.4841377564735012 -5.502805469123814 0 0 0 0 -31.037091064710808 -1.9928029404545669 0 -1.9928029404545669 -14.140699701187259 0 0 0 0 -28.869609010690738 5.1791607562204263 0 5.1791607562204263 7.5362231844228518 0 0 0 0 -19.726923153478765 14.270390896723711 0 14.270390896723711 4.7145159085921478 0 0 0 0 -20.952162738441984 4.0237351972828037 0 4.0237351972828037 -44.840987044106441 0 0 0 0 -38.311012246333576 -7.4332070954460505 0 -7.4332070954460505 5.4749229079061479 0 0 0 0 -32.512562656406772 12.672588069244739 0 12.672588069244739 18.648445785274816 0 0 0 0 -13.126367818124436 30.657979351192353 0 30.657979351192353 -16.543673142470652 0 0 0 0 -99.899338598556824 -1.0136375278125342 0 -1.0136375278125342 -27.474739842375129 0 0 0 0 -16.518526101895986 59.551426653244562 0 59.551426653244562 -29.620601337672269 0 0 0 0 -6.4055215060179762 7.2530885306605342 0 7.2530885306605342 19.005742949484556 0 0 0 0 12.785886473218852 89.817155311207898 0 89.817155311207898 28.713530100765638 0 0 0 0 -9.5602408265508529 37.204258664090958 0 37.204258664090958 -22.137224331458128 0 0 0 0 4.2006620097091627 4.0491539438244217 0 4.0491539438244217 -122.41924519733584 0 0 0 0 12.08924102881474 -25.726264304185634 0 -25.726264304185634 -174.82543501121836 0 0 0 0 -0.3424919759659133 58.94503848129898 0 58.94503848129898 58.290097403860273 0 0 0 0 -10.803645848186823 10.054995601143425 0 10.054995601143425 -8.9705655477583122 0 0 0 0 8.056691215153819 9.4041553956490134 0 9.4041553956490134 6.2773571446341521 0 0 0 0 -6.4366439595178235 43.807821389767923 0 43.807821389767923 40.327429162318367 0 0 0 0 -7.3500189445761954 6.8409386505794245 0 6.8409386505794245 -6.3941280378030854 0 0 0 0 6.7957708414535318 15.737488285187283 0 15.737488285187283 -225.71078292492894 0 0 0 0 -6.4550521222617103 14.356173456454993 0 14.356173456454993 -33.158103804045822 0 0 0 0 -36.060496396562598 67.138368694809287 0 67.138368694809287 -801.34727165588993 0 0 0 0 -16.12072499406645 -25.041275252568994 0 -25.041275252568994 -379.767363579831 0 0 0 0 -2.9242837828521022 2.3590881942629593 0 2.3590881942629593 -2.4656701327711232 0 0 0 0 -12.39826589421682 17.301328958137674 0 17.301328958137674 -222.93381037718063 0 0 0 0 19.902236430932021 -5.3682017195515073 0 -5.3682017195515073 -330.9325881225559 0 0 0 0 27.060140545053628 50.331828383150423 0 50.331828383150423 -237.0172994854529 0 0 0 0 25.96022305702185 18.363409244428624 0 18.363409244428624 -273.43700627897852 0 0 0 0 27.759542547695787 81.749858332983422 0 81.749858332983422 -278.73434475349859 0 0 0 0 20.043434240906663 93.890121146569072 0 93.890121146569072 -367.30762147678797 0 0 0 0 35.054289119419252 90.285033997537994 0 90.285033997537994 -373.07824740940123 0 0 0 0 20.930158069825211 95.941421843581338 0 95.941421843581338 -359.29834778432632 0 0 0 0 17.107162880385431 88.421429791107585 0 88.421429791107585 -373.92573058049675 0 0 0 0 16.891760859747592 105.63132931996188 0 105.63132931996188 -387.02753250940805 0 0 0 0 -73.933647440527238 97.851507681007206 0 97.851507681007206 -326.19492296246608 0 0 0 0 -116.05299173807362 97.628828066298411 0 97.628828066298411 -325.94742006089655 0 0 0 0 -20.927545910796198 161.27674111115448 0 161.27674111115448 -508.29483407049702 0 0 0 0 -41.386151504637326 79.479454847522916 0 79.479454847522916 -116.06456942029035 0 0 0 0 -71.159335529754799 11.627750034707788 0 11.627750034707788 -35.096032028550326 0 0 0 0 -71.037475368831394 92.812649641914376 0 92.812649641914376 -131.22122044813295 0 0 0 0 -18.629384892617509 41.849072865405105 0 41.849072865405105 -142.51354141115735 0 0 0 0 -12.523176803963452 73.998180607986797 0 73.998180607986797 -152.81125243965562 0 0 0 0 -14.27194700756263 84.324252648129914 0 84.324252648129914 -223.84695288162402 0 0 0 0 36.739105665914963 111.99214304582529 0 111.99214304582529 -402.22632282454651 0 0 0 0 71.688544310044563 68.362737162107805 0 68.362737162107805 -387.98558292907092 0 0 0 0 -9.9192041168441847 118.05793437461762 0 118.05793437461762 -219.47422415947108 0 0 0 0 21.710546803835769 100.26853482623847 0 100.26853482623847 -455.81458782877553 0 0 0 0 -53.550269033541213 227.09933266158259 0 227.09933266158259 -438.78653525399204 0 0 0 0 -192.50618075992452 123.07210982664219 0 123.07210982664219 -72.613345430552727 0 0 0 0 -178.518696608563 37.054104140770505 0 37.054104140770505 -802.64745826373837 0 0 0 0 -63.276428385387476 211.42375339201953 0 211.42375339201953 -597.91224679240258 0 0 0 0 6.9707753739832015 0.0525139373694401 0 0.0525139373694401 -638.4239445414496 0 0 0 0 -259.18986991452755 256.06835379431504 0 256.06835379431504 -648.45472595700994 0 0 0 0 122.54503866857726 -13.407594007521766 0 -13.407594007521766 -667.82571866078069 0 0 0 0 -43.690698664632691 -57.925523480744232 0 -57.925523480744232 -234.76836755785189 0 0 0 0 33.559435244095766 75.518715403854003 0 75.518715403854003 -490.51446218883348 0 0 0 0 13.52597569577415 -21.182786560393652 0 -21.182786560393652 -239.03827891115725 0 0 0 0 41.694985696480671 -84.79635297724235 0 -84.79635297724235 -468.67635634277713 0 0 0 0 60.579496391520024 8.534500874020523 0 8.534500874020523 -432.10360859510547 0 0 0 0 61.450944155188608 102.96868136159901 0 102.96868136159901 -504.39889623767158 0 0 0 0 73.194768492723938 47.787829697559573 0 47.787829697559573 -406.44546679321138 0 0 0 0 53.592843369776574 48.873237516752852 0 48.873237516752852 -269.64953126739056 0 0 0 0 80.095320386300045 23.787714297912316 0 23.787714297912316 -423.94185500919411 0 0 0 0 22.424003002984136 -28.536286297952756 0 -28.536286297952756 -215.80905168121899 0 0 0 0 -40.480297682915193 3.2193163930669471 0 3.2193163930669471 -4.5778574253054103 0 0 0 0 -5.3461046282886855 1.3300642610156501 0 1.3300642610156501 -3.6260709263915487 0 0 0 0 3.0461917610529099 42.909854805078794 0 42.909854805078794 -134.27925843454432 0 0 0 0 19.491691735597442 27.005628037422866 0 27.005628037422866 -79.754390595055156 0 0 0 0 77.898477936828158 2.3778537107828015 0 2.3778537107828015 -44.564705362714449 0 0 0 0 -15.401051427758375 2.8417405935360875 0 2.8417405935360875 -32.190621618528894 0 0 0 0 26.983602719516853 -35.541143907531477 0 -35.541143907531477 -242.46543414396729 0 0 0 0 29.669417072574788 -29.757530819260865 0 -29.757530819260865 -240.57327826713299 0 0 0 0 7.71120809170651 -3.4253374586537575 0 -3.4253374586537575 -97.148000160879747 0 0 0 0 -22.579578373783761 13.567651403294803 0 13.567651403294803 -237.91763136838563 0 0 0 0 -35.864389462025429 21.403148139420409 0 21.403148139420409 -200.16744409725288 0 0 0 0 -23.771538021105755 49.421165671599738 0 49.421165671599738 -281.51414658635622 0 0 0 0 -41.314292498685404 110.86015058147541 0 110.86015058147541 -344.54786958092518 0 0 0 0 43.559585267532839 30.962158829346663 0 30.962158829346663 -291.20569184290434 0 0 0 0 23.100506238905155 39.755831247988681 0 39.755831247988681 -399.39425803855738 0 0 0 0 18.503521596072005 90.07886353363574 0 90.07886353363574 -372.87059907526782 0 0 0 0 -4.2747749163227127 88.567212977020972 0 88.567212977020972 -353.74887862500509 0 0 0 0 -29.186636905674732 157.46197563387796 0 157.46197563387796 -179.20135483503691 0 0 0 0 0.081644727287940588 0.17839942362926209 0 0.17839942362926209 -2.0060649742324017 0 0 0 0 14.261631150344328 70.267783164497814 0 70.267783164497814 -30.963454878075026 0 0 0 0 108.40777757642634 -93.697681962861765 0 -93.697681962861765 -222.85654048651486 0 0 0 0 -17.925748601152577 -13.90470086280402 0 -13.90470086280402 -142.24644627676025 0 0 0 0 -25.983160507191542 -4.4839317981404747 0 -4.4839317981404747 -7.7225964883364213 0 0 0 0 -50.56286653162806 18.061745246308419 0 18.061745246308419 -53.11853412650089 0 0 0 0 -15.073117284874115 22.862227177607565 0 22.862227177607565 -200.09993124923494 0 0 0 0 -40.749264499780111 5.1107885456576696 0 5.1107885456576696 -134.7737779975796 0 0 0 0 -36.320298918255048 49.113706876771175 0 49.113706876771175 -49.967374686944822 0 0 0 0 -6.5970328259454618 61.612338055245345 0 61.612338055245345 -54.811787321232487 0 0 0 0 -33.393520700384443 61.289063070484872 0 61.289063070484872 -54.786663234059233 0 0 0 0 -32.540123857581364 53.163645744600899 0 53.163645744600899 -47.243975836187019 0 0 0 0 -39.50229870596695 54.936684146650805 0 54.936684146650805 -43.470360127781987 0 0 0 0 -34.496394696382595 47.966649474699807 0 47.966649474699807 -64.485733871521916 0 0 0 0 -50.242713501262187 39.686983986133782 0 39.686983986133782 -45.608755803878012 0 0 0 0 -29.218340149904634 31.819662709611293 0 31.819662709611293 -24.511899906588951 0 0 0 0 -21.324355221920996 84.234483424866994 0 84.234483424866994 -62.328019009415584 0 0 0 0 -27.035536250617042 76.447683626214712 0 76.447683626214712 -24.840631046051698 0 0 0 0 -39.695046725268185 51.363051649186673 0 51.363051649186673 14.108206141325354 0 0 0 0 110.99010696348614 18.218996076180701 0 18.218996076180701 -38.103088881034637 0 0 0 0 0.178039578276111 0.4476498087085794 0 0.4476498087085794 -3.6750943343443652 0 0 0 0 82.625141535243642 24.489534548743023 0 24.489534548743023 -7.8207700954299071 0 0 0 0 2.8892029301448474 6.3871101300719602 0 6.3871101300719602 31.528621289833609 0 0 0 0 62.649538411073763 54.110528995743152 0 54.110528995743152 -228.53663423631224 0 0 0 0 95.636496431346018 -28.251149138076698 0 -28.251149138076698 -90.09936276175722 0 0 0 0 0.041305722404340495 0.26270775506450583 0 0.26270775506450583 -1.6689058905579941 0 0 0 0 -14.930849836300695 69.791312084416859 0 69.791312084416859 -213.11686960377119 0 0 0 0 -41.721902758215265 5.9856185549906513 0 5.9856185549906513 -161.75382850158348 0 0 0 0 8.4289530008877591 -13.304203105577471 0 -13.304203105577471 -210.28455401835708 0 0 0 0 12.704897301520077 1.8022514983658766 0 1.8022514983658766 -157.26739120313869 0 0 0 0 0.71682261768091848 93.540251888469356 0 93.540251888469356 -218.46856937012535 0 0 0 0 -72.356364620201276 117.02379293818029 0 117.02379293818029 -77.493528137812973 0 0 0 0 2.3941363035025347 77.207131094031411 0 77.207131094031411 -96.787135107879294 0 0 0 0 -4.2490539939003611 68.935449181881268 0 68.935449181881268 -80.577257121713046 0 0 0 0 -6.8569141993368703 66.418503377177331 0 66.418503377177331 -70.29237505805213 0 0 0 0 14.284429327943599 48.459617297994555 0 48.459617297994555 -90.928464240729227 0 0 0 0 21.883696439580604 44.792937512007938 0 44.792937512007938 -93.046038632732234 0 0 0 0 20.786792494680867 58.468836986088718 0 58.468836986088718 -164.82090943855292 0 0 0 0 26.107580381015396 -9.1781205953047902 0 -9.1781205953047902 -151.05156145953606 0 0 0 0 16.911370370575241 14.223064896068536 0 14.223064896068536 -179.32718385335465 0 0 0 0 29.222555803774867 -17.386076531980507 0 -17.386076531980507 -183.77769199025352 0 0 0 0 25.956299245468479 2.9286024154283155 0 2.9286024154283155 -128.80111430844408 0 0 0 0 65.366067916474094 -14.753627849313489 0 -14.753627849313489 -129.26801331338356 0 0 0 0 29.236061879577278 -55.982323388274381 0 -55.982323388274381 7.3159786082615028 0 0 0 0 0.29983416389839945 -0.11026878431117382 0 -0.11026878431117382 -0.91503044726810145 0 0 0 0 2.1467556439065447 63.462683111232764 0 63.462683111232764 -238.38790770396736 0 0 0 0 23.532719267973334 1.3327725874769385 0 1.3327725874769385 -211.78433899713127 0 0 0 0 17.83758144028252 13.496768362609146 0 13.496768362609146 -204.53972914902261 0 0 0 0 -11.121961794799631 30.285650320432978 0 30.285650320432978 -194.5540175417409 0 0 0 0 0.011749856399816849 -0.032119559210400439 0 -0.032119559210400439 -0.16859842562914196 0 0 0 0 6.2303872459880267 30.846551468621328 0 30.846551468621328 -56.825586742728774 0 0 0 0 6.1843078523252188 18.876105081304559 0 18.876105081304559 -16.381401625691069 0 0 0 0 -25.005642596922826 45.365603113979887 0 45.365603113979887 -57.763431453589874 0 0 0 0 43.617387131656869 63.424280664774415 0 63.424280664774415 82.171348079229574 0 0 0 0 97.292416682991188 -10.690558455222344 0 -10.690558455222344 -19.135974109376548 0 0 0 0 0.27476881931121255 1.0799934490376017 0 1.0799934490376017 -2.1886838688175345 0 0 0 0 -0.50635138599084373 2.4761317135796475 0 2.4761317135796475 -6.241846510025141 0 0 0 0 0.6085504817817764 2.0820116971808602 0 2.0820116971808602 -5.2604170918857562 0 0 0 0 28.136464415149021 57.830970268914825 0 57.830970268914825 40.299255973844993 0 0 0 0 48.232084882319214 60.599288768686165 0 60.599288768686165 34.570646638305334 0 0 0 0 74.696133200830218 56.622269955860247 0 56.622269955860247 22.911275266116718 0 0 0 0 12.483725969899297 8.6445396050658019 0 8.6445396050658019 -1.7897147667536046 0 0 0 0 -19.342433036425973 15.648464261967092 0 15.648464261967092 11.376267825695322 0 0 0 0 42.713326030748703 -7.7876078942499589 0 -7.7876078942499589 -21.088121585718909 0 0 0 0 -25.708049941400986 -6.9972878416301683 0 -6.9972878416301683 22.924626649990387 0 0 0 0 -12.684213190197624 48.912449613417266 0 48.912449613417266 -46.863549413767032 0 0 0 0 2.6283664380075606 -5.2909469270616682 0 -5.2909469270616682 14.952264240066143 0 0 0 0 21.7866179054854 69.465322309963085 0 69.465322309963085 60.484657619660538 0 0 0 0 26.198713548228852 -23.676603838533083 0 -23.676603838533083 41.705348282346677 0 0 0 0 -0.14346307839196015 18.085938847145371 0 18.085938847145371 -30.285175415738195 0 0 0 0 -25.114940412782289 98.884239717761375 0 98.884239717761375 -64.1936955304609 0 0 0 0 57.160295303762723 16.516505516079633 0 16.516505516079633 -113.52007243724802 0 0 0 0 46.449853341227254 87.428772352752276 0 87.428772352752276 -261.94825250665599 0 0 0 0 54.626140462387866 16.35617789983371 0 16.35617789983371 -267.07513098435561 0 0 0 0 -67.636049698692602 -254.94055827115608 0 -254.94055827115608 -450.8996861885098 0 0 0 0 -0.00027637066205921101 0.48646890369369089 0 0.48646890369369089 -3.1169664374983341 0 0 0 0 -67.860505288356535 217.24662143233218 0 217.24662143233218 -205.34342591616769 0 0 0 0 37.538916125735796 21.362640017665399 0 21.362640017665399 -47.4771223354619 0 0 0 0 38.208989202371413 27.414410439261701 0 27.414410439261701 -40.176172947951272 0 0 0 0 0.055286866819744152 2.3297774000988056 0 2.3297774000988056 -7.243263563769176 0 0 0 0 -41.747302959286515 -19.464228094402642 0 -19.464228094402642 -43.25703039320797 0 0 0 0 -0.83009848412256382 1.9771156622367556 0 1.9771156622367556 -1.2859215331347542 0 0 0 0 27.042812357068783 7.9600708240686799 0 7.9600708240686799 -149.16695407446969 0 0 0 0 14.332404298630081 -69.85901394807297 0 -69.85901394807297 -142.76718779504017 0 0 0 0 38.357698897742694 -118.47676216119362 0 -118.47676216119362 -388.75838971890153 0 0 0 0 38.576908938857002 -96.783483391163827 0 -96.783483391163827 -410.15026813237637 0 0 0 0 -38.569146291930508 -153.56876920420473 0 -153.56876920420473 -350.50599721510298 0 0 0 0 10.663342996859782 -54.595516792223862 0 -54.595516792223862 -528.47954076201131 0 0 0 0 34.316932932967944 -243.90045058408577 0 -243.90045058408577 -783.85798442150235 0 0 0 0 83.18323980018755 305.16572269823155 0 305.16572269823155 -651.11457043648988 0 0 0 0 36.782290698313261 -75.636267461884927 0 -75.636267461884927 49.505824688465509 0 0 0 0 -1.7338317352443418 -1.2177690805896191 0 -1.2177690805896191 -1.905075783843543 0 0 0 0 -32.343522304582677 26.919058718689485 0 26.919058718689485 -109.75660599028924 0 0 0 0 74.883477381809655 -48.096614623813366 0 -48.096614623813366 -5.8117127435398288 0 0 0 0 -12.652364661582055 143.01858429398999 0 143.01858429398999 -212.35975214944119 0 0 0 0 62.664347891648731 -3.496991236032045 0 -3.496991236032045 -503.63862554765365 0 0 0 0 -0.5497924898425125 -0.72394454428531452 0 -0.72394454428531452 -0.43565818492331232 0 0 0 0 0.080459023355153925 0.88783071658917834 0 0.88783071658917834 -6.0510522508631936 0 0 0 0 0.69928588520633639 2.7188999539030192 0 2.7188999539030192 -6.5505518722766283 0 0 0 0 65.1890111555565 -8.2879726521368866 0 -8.2879726521368866 -48.432055161552853 0 0 0 0 23.448009867057522 -33.451316942257108 0 -33.451316942257108 33.850253264074126 0 0 0 0 8.9584621627257803 20.359669149484944 0 20.359669149484944 -38.64881959745253 0 0 0 0 -80.304633782491237 121.50043818532868 0 121.50043818532868 -58.249040568916826 0 0 0 0 -16.56300502826349 -13.691820796379034 0 -13.691820796379034 0.22388843029693817 0 0 0 0 -68.90168158003172 112.99926105041595 0 112.99926105041595 -260.96729354530544 0 0 0 0 -64.21115904919381 95.954184687884663 0 95.954184687884663 -115.32516083036171 0 0 0 0 -61.991793156095923 84.420783042080075 0 84.420783042080075 -142.91340803013009 0 0 0 0 -6.3299718119686759 -12.663558501721127 0 -12.663558501721127 -96.726166006951644 0 0 0 0 -102.17794543342319 -18.908757832337869 0 -18.908757832337869 -19.326060654122557 0 0 0 0 -125.83594188545831 -50.250308172022415 0 -50.250308172022415 -178.10328213026514 0 0 0 0 -108.97145253257708 -18.560377375473763 0 -18.560377375473763 -155.28318758003661 0 0 0 0 -104.17359666267583 -5.8060757494167774 0 -5.8060757494167774 -87.255129870463861 0 0 0 0 -106.59355997374823 -187.95657465326258 0 -187.95657465326258 -341.27815959617146 0 0 0 0 -201.37633444935716 -208.66769283258691 0 -208.66769283258691 -98.148379912893006 0 0 0 0 -146.43522823627805 -91.722138898006961 0 -91.722138898006961 137.62742901142337 0 0 0 0 10.20924734320684 30.17542291227619 0 30.17542291227619 -4.9828402306593489 0 0 0 0 -57.643350498084246 -69.695832493260241 0 -69.695832493260241 -673.27547755541309 0 0 0 0 -1.2849812386618966 -1.0391981838456132 0 -1.0391981838456132 -0.71794266446799782 0 0 0 0 -135.55279994614955 -194.04087790383801 0 -194.04087790383801 -626.73817130394309 0 0 0 0 39.874359247799589 196.97510505863875 0 196.97510505863875 -173.34493769464461 0 0 0 0 -129.29093384176684 27.469111109941878 0 27.469111109941878 -323.04098530892497 0 0 0 0 -184.07359520934421 13.589110803372023 0 13.589110803372023 -149.98720870227407 0 0 0 0 -114.35002977261071 -138.58268712649442 0 -138.58268712649442 -206.48580830330866 0 0 0 0 -107.75903555578742 -14.937787897288217 0 -14.937787897288217 -109.24383333045262 0 0 0 0 -117.41857193250992 -51.609079772319092 0 -51.609079772319092 -161.934927341601 0 0 0 0 15.148537715756788 -19.059024119853348 0 -19.059024119853348 -120.96100405596735 0 0 0 0 -89.254590012621378 -66.142511038617158 0 -66.142511038617158 -88.370053956277843 0 0 0 0 -133.48978325377476 -242.14661568592055 0 -242.14661568592055 -321.71105494982476 0 0 0 0 -91.350972321196906 -71.308918107788486 0 -71.308918107788486 -251.0916416710761 0 0 0 0 -95.240477708638196 -145.39904531300635 0 -145.39904531300635 -233.22216584246053 0 0 0 0 -0.167445260540135 -40.2437739731904 0 -40.2437739731904 -40.35013862093183 0 0 0 0 0.026243315801824069 0.073331293783255092 0 0.073331293783255092 -2.6789706365579491 0 0 0 0 32.625220456417068 173.49838965143863 0 173.49838965143863 -218.79846824152446 0 0 0 0 0.28538806002648731 -56.731706669923369 0 -56.731706669923369 -482.10501510375616 0 0 0 0 -84.726173392941519 46.374055381606013 0 46.374055381606013 -409.6478123155357 0 0 0 0 -125.17345661230918 41.585502450388503 0 41.585502450388503 -379.42470857181615 0 0 0 0 -115.51320302030155 -21.92059171705364 0 -21.92059171705364 -463.54091211446212 0 0 0 0 -73.307966648552579 -38.268651779129868 0 -38.268651779129868 -211.24892330688454 0 0 0 0 -62.407382060133564 19.131408020530216 0 19.131408020530216 -463.67648751188972 0 0 0 0 -56.278904587339042 -17.014759656838578 0 -17.014759656838578 -368.66982425197784 0 0 0 0 -81.936024068773321 82.963195949083456 0 82.963195949083456 -329.09362754184986 0 0 0 0 -49.380063685686295 90.966260033418621 0 90.966260033418621 -362.97753802975058 0 0 0 0 -53.040016944927743 103.54509429039172 0 103.54509429039172 -321.57704775520688 0 0 0 0 -55.376316603713462 137.28054963450631 0 137.28054963450631 -302.12510501759971 0 0 0 0 -40.859300396832026 135.45479264602545 0 135.45479264602545 -349.99550369954977 0 0 0 0 -52.01621000438962 107.65164189920779 0 107.65164189920779 -418.8625979691933 0 0 0 0 -1.3785059585080717 194.1433744471924 0 194.1433744471924 -361.52026306265907 0 0 0 0 -46.885610182232412 70.55421669768657 0 70.55421669768657 -520.54017039573228 0 0 0 0 -0.6798478172923208 14.582239806919461 0 14.582239806919461 -453.2593651175921 0 0 0 0 -44.628739397905726 88.030761541282118 0 88.030761541282118 -387.87183427468153 0 0 0 0 -46.476958943858392 159.73554320508629 0 159.73554320508629 -400.61457468253502 0 0 0 0 -45.840078973442004 160.11565043739029 0 160.11565043739029 -410.08748173445929 0 0 0 0 -83.354654681211429 253.03873683309939 0 253.03873683309939 -426.79221683119613 0 0 0 0 -27.838076976955662 189.33418059748146 0 189.33418059748146 -543.34650949638853 0 0 0 0 0.027854430365563308 0.14460790962895942 0 0.14460790962895942 -1.6964710222756025 0 0 0 0 0.012627705830837893 -2.2634146063793459 0 -2.2634146063793459 1.590172588112182 0 0 0 0 -97.141173517967601 249.70800005059209 0 249.70800005059209 -298.00510443795065 0 0 0 0 31.846587859486732 -44.43545739853289 0 -44.43545739853289 -25.78386142920499 0 0 0 0 21.06817477596184 -6.3750561877973269 0 -6.3750561877973269 1.3242496804450639 0 0 0 0 86.214307471894955 -22.073989120503029 0 -22.073989120503029 -18.756275943102082 0 0 0 0 7.7417586869540207 -10.424473167622637 0 -10.424473167622637 -7.7021541356989474 0 0 0 0 -0.02245625298043926 -2.2640657600841223 0 -2.2640657600841223 1.5911030779680004 0 0 0 0 0.14804070518704782 -0.34336668432730733 0 -0.34336668432730733 -2.7780375713205103 0 0 0 0 53.218681864076814 147.88364948021626 0 147.88364948021626 -354.5468787632617 0 0 0 0 -12.164082433517962 184.00159266476112 0 184.00159266476112 -371.02626155151665 0 0 0 0 -17.276113845998623 159.27148206572747 0 159.27148206572747 -419.36482892437562 0 0 0 0 0.056398915361977664 -0.25076760929423614 0 -0.25076760929423614 -1.6073662469546548 0 0 0 0 -86.606072380236128 248.13620890784296 0 248.13620890784296 -365.2830518953906 0 0 0 0 31.38031864875822 -5.8930390551649907 0 -5.8930390551649907 1.1850883799706935 0 0 0 0 -57.363618181801598 170.26756582595681 0 170.26756582595681 -159.3851468347857 0 0 0 0 62.492202118671116 28.952698308596155 0 28.952698308596155 -328.87104685862869 0 0 0 0 39.679712187887603 218.33483479510051 0 218.33483479510051 -363.36096034046568 0 0 0 0 -4.6105602373291958 193.25877269666307 0 193.25877269666307 -374.01963491678225 0 0 0 0 -3.3528305310006701 220.54079914127306 0 220.54079914127306 -547.40840479150211 0 0 0 0 -105.98117912558473 272.92431455947371 0 272.92431455947371 -397.63345952079544 0 0 0 0 -111.33342015765493 144.33294078691688 0 144.33294078691688 -410.18766491133283 0 0 0 0 -7.7056040263608452 133.61462122279045 0 133.61462122279045 -456.32928320675273 0 0 0 0 -406.54214927546309 239.05349711807867 0 239.05349711807867 -554.91959334289822 0 0 0 0 -107.70796609405397 160.60589415565846 0 160.60589415565846 -629.08355804938401 0 0 0 0 -508.81790381455983 127.05416282991064 0 127.05416282991064 -521.38119403474411 0 0 0 0 -493.38252133065384 116.15738874915405 0 116.15738874915405 -526.79683599928831 0 0 0 0 -698.27473589883198 399.11986346131016 0 399.11986346131016 -239.94560796406586 0 0 0 0 -334.5004965302586 86.925630865604035 0 86.925630865604035 -861.92360266448668 0 0 0 0 -381.77443250641477 523.13222201290409 0 523.13222201290409 -802.63337414324633 0 0 0 0 -282.94831725159293 221.24752881120367 0 221.24752881120367 -535.01529939563989 0 0 0 0 -307.43681238390593 334.38168037315154 0 334.38168037315154 -375.51170262388769 0 0 0 0 -109.2808933849002 302.62318817213963 0 302.62318817213963 -664.09796528022343 0 0 0 0 -189.75171809034475 247.09938225362384 0 247.09938225362384 -174.64947202032636 0 0 0 0 -207.00041898137033 328.97029215894872 0 328.97029215894872 -376.0400046675577 0 0 0 0 -176.76574833717666 29.84500512890736 0 29.84500512890736 22.03979942056867 0 0 0 0 -167.94103809698402 225.60387786244064 0 225.60387786244064 -196.09646370557311 0 0 0 0 0.0021027285013672237 0.90198164652911572 0 0.90198164652911572 -4.6276564643399638 0 0 0 0 122.53708325995194 -179.36853901961695 0 -179.36853901961695 -300.27328574137209 0 0 0 0 0.91431156056722018 -1.0102770691468308 0 -1.0102770691468308 -0.65030104196188177 0 0 0 0 -505.19648315131082 276.00368509419786 0 276.00368509419786 -18.318876823788742 0 0 0 0 -31.740375936865689 24.791339140723721 0 24.791339140723721 87.409804156974133 0 0 0 0 142.49524635338651 118.70107035772799 0 118.70107035772799 -35.408632226644841 0 0 0 0 5.0246581446831442 1.6807001409306395 0 1.6807001409306395 -6.1445639473658957 0 0 0 0 0.0076117691933635656 1.6990249654980656 0 1.6990249654980656 -4.813809278437958 0 0 0 0 12.93209094677708 54.582600021817825 0 54.582600021817825 -98.482414124431671 0 0 0 0 0.40833115459105263 0.85642469458129966 0 0.85642469458129966 -6.0706471754049716 0 0 0 0 -74.055469330677738 109.39074204206918 0 109.39074204206918 -93.898873805170297 0 0 0 0 -81.84127975092747 203.78157141930205 0 203.78157141930205 -262.9452485065849 0 0 0 0 -21.668418324606534 233.0991142529183 0 233.0991142529183 -379.27077801254086 0 0 0 0 -67.609241251788035 224.46418023994374 0 224.46418023994374 -250.32149854559248 0 0 0 0 -98.714618615367044 295.1960867951384 0 295.1960867951384 -407.13549611334565 0 0 0 0 -47.34822320532794 -110.36498231885344 0 -110.36498231885344 105.98169875224266 0 0 0 0 -3.8470435559718226 -100.84179494124555 0 -100.84179494124555 18.157035297747825 0 0 0 0 0.10863151381626901 -2.5009754248294698 0 -2.5009754248294698 0.23524321744343268 0 0 0 0 1.9586785197602694 -21.224197695119528 0 -21.224197695119528 34.499936737017379 0 0 0 0 -10.819203515615072 -78.425928296044731 0 -78.425928296044731 -53.840699507640238 0 0 0 0 -19.265312402718791 -3.5791813193045527 0 -3.5791813193045527 -376.91152889233399 0 0 0 0 -57.704189193724687 -66.096463384679964 0 -66.096463384679964 102.6787664507583 0 0 0 0 -0.41870816374293796 -1.9687444824092797 0 -1.9687444824092797 -0.92325001648185978 0 0 0 0 -83.683748031247887 -121.97603030177652 0 -121.97603030177652 12.673814199472417 0 0 0 0 25.436561564470807 -80.194191617606521 0 -80.194191617606521 -167.05973579675447 0 0 0 0 -29.252108841633117 15.270171830688923 0 15.270171830688923 -115.41347022890659 0 0 0 0 75.405265318645434 -31.359204598949873 0 -31.359204598949873 -101.19919852076782 0 0 0 0 53.967238247167188 -64.10897411577389 0 -64.10897411577389 -81.75591894351237 0 0 0 0 65.171663552478776 -32.836860342712498 0 -32.836860342712498 -51.259992245855756 0 0 0 0 27.238740256689852 -47.5261626769543 0 -47.5261626769543 -25.058663874620834 0 0 0 0 64.40084029368029 -36.603720512396194 0 -36.603720512396194 -66.115840821184065 0 0 0 0 65.547104395836868 -33.03158892281499 0 -33.03158892281499 -68.142851786697065 0 0 0 0 74.881451232225345 -24.605724913913946 0 -24.605724913913946 -61.494913278447711 0 0 0 0 11.54548060643674 22.958306918317248 0 22.958306918317248 -151.43849163795221 0 0 0 0 -2.3044529792745454 -0.77053966161038367 0 -0.77053966161038367 -15.517668234520347 0 0 0 0 57.613246812840771 -33.855973739045112 0 -33.855973739045112 -56.679745781408201 0 0 0 0 24.053293617956115 43.625596057720941 0 43.625596057720941 -121.8975287214671 0 0 0 0 41.772063083934654 -13.686444426190974 0 -13.686444426190974 0.49043782195940366 0 0 0 0 -76.600528149218974 68.03972580592972 0 68.03972580592972 -216.68852184909883 0 0 0 0 -8.7027697316895285 -27.085870567765369 0 -27.085870567765369 -219.34376698167762 0 0 0 0 35.507226015647632 29.420426734291141 0 29.420426734291141 -18.410982898197744 0 0 0 0 -0.90415609166208921 -2.9518365734127858 0 -2.9518365734127858 -5.1479067059570855 0 0 0 0 57.215965708858448 -68.769838994598786 0 -68.769838994598786 -140.16762685180038 0 0 0 0 6.7323905731388765 -10.900157126380472 0 -10.900157126380472 -94.294203999010648 0 0 0 0 13.351674730783259 -54.379111384479302 0 -54.379111384479302 -72.681081386795995 0 0 0 0 -48.97512890688995 4.4021655477963577 0 4.4021655477963577 -112.33027576597942 0 0 0 0 8.4369995526021739 -15.048475185188181 0 -15.048475185188181 -195.33572524019837 0 0 0 0 15.935008520433257 -71.61949791124789 0 -71.61949791124789 -140.17446550066234 0 0 0 0 31.299712049109075 11.934788483970351 0 11.934788483970351 -16.764891246391926 0 0 0 0 17.157746106949919 -9.9445968222849999 0 -9.9445968222849999 -78.176524474089661 0 0 0 0 4.550865107080881 9.3861407710433014 0 9.3861407710433014 -89.587991714744931 0 0 0 0 4.3797789463633308 8.0378003846617503 0 8.0378003846617503 -73.421079600023404 0 0 0 0 8.0006142480152072 9.5116217690552638 0 9.5116217690552638 -42.814243944695455 0 0 0 0 7.809814159241796 10.450374867854407 0 10.450374867854407 -19.746234621590702 0 0 0 0 31.7893711414481 17.340276059710959 0 17.340276059710959 -72.085823238789317 0 0 0 0 -0.70551205953606466 -2.8704271347534904 0 -2.8704271347534904 -8.8858666694896158 0 0 0 0 45.839688710106572 -3.5729421045809886 0 -3.5729421045809886 -82.78248807968248 0 0 0 0 -1.4832689826891965 -27.298956022649691 0 -27.298956022649691 -84.460788225807846 0 0 0 0 -40.359037695043753 -5.7924650969926006 0 -5.7924650969926006 -62.546251542017217 0 0 0 0 -35.80865617250447 0.18306755068260827 0 0.18306755068260827 -81.207047486605006 0 0 0 0 -39.518968882125364 -0.12606669969318318 0 -0.12606669969318318 -65.556896316528309 0 0 0 0 78.858643642550078 72.806214790955892 0 72.806214790955892 -349.67012033425908 0 0 0 0 68.773698097573401 47.44418003039118 0 47.44418003039118 -105.22450184611284 0 0 0 0 -119.83210622398769 -57.995554128075128 0 -57.995554128075128 -104.61194353452083 0 0 0 0 -4.3368437519930012 -74.1716227929046 0 -74.1716227929046 -304.63157078460245 0 0 0 0 0.27187291182417539 7.5980188818425631 0 7.5980188818425631 -117.33358235155856 0 0 0 0 -92.520701942184132 13.892290549409154 0 13.892290549409154 -58.83135388327355 0 0 0 0 -25.427473126578207 27.248341301523851 0 27.248341301523851 -80.042537643108517 0 0 0 0 -55.976203956693553 -2.657527472048514 0 -2.657527472048514 -59.380862680706741 0 0 0 0 -36.726549857948612 12.407235901181593 0 12.407235901181593 -49.502248647690976 0 0 0 0 -12.315058100191209 2.7191562388534294 0 2.7191562388534294 -46.718075868067899 0 0 0 0 27.728608185926987 -3.0754231171276842 0 -3.0754231171276842 -41.691638705699916 0 0 0 0 12.710656089428539 24.553339849974464 0 24.553339849974464 -74.044784252108002 0 0 0 0 38.212560138597837 30.019838483901822 0 30.019838483901822 -48.957492490260393 0 0 0 0 55.283790653766573 -3.1957996481968394 0 -3.1957996481968394 -24.639291121745373 0 0 0 0 21.6109560190298 -1.4079958822667322 0 -1.4079958822667322 -24.715125048534105 0 0 0 0 46.200309684507829 18.901031651979565 0 18.901031651979565 -18.585314476076746 0 0 0 0 41.393757674496555 -1.1269209773690818 0 -1.1269209773690818 -14.294238033151487 0 0 0 0 54.476210523232567 -20.050078912324352 0 -20.050078912324352 -18.801230945939096 0 0 0 0 28.628179586693932 -21.53721254167931 0 -21.53721254167931 -29.52844126648688 0 0 0 0 43.76948223655836 -38.424596146089243 0 -38.424596146089243 -35.898313955973663 0 0 0 0 12.748485629042875 -36.555335057331604 0 -36.555335057331604 -41.287379750227046 0 0 0 0 1.2341042742700665 1.7948322335769262 0 1.7948322335769262 -15.242717405080384 0 0 0 0 1.5395097822480093 0.8000253254884333 0 0.8000253254884333 -11.932312067570253 0 0 0 0 23.903363805333356 -10.323329729967554 0 -10.323329729967554 -13.152467362055177 0 0 0 0 -8.2276380560069811 4.1702476090013079 0 4.1702476090013079 -15.372119984436495 0 0 0 0 0.72532237714767689 1.7222056842219899 0 1.7222056842219899 -8.2368378152687001 0 0 0 0 0.59975896792889216 -1.0740467816250465 0 -1.0740467816250465 -1.8244274306270949 0 0 0 0 10.137699695017545 7.9877103486796841 0 7.9877103486796841 -9.4734627984307735 0 0 0 0 0.47527569260684466 -1.4464019541087243 0 -1.4464019541087243 -7.2573529296403869 0 0 0 0 6.2541563610020603 -7.296770185906098 0 -7.296770185906098 -11.57295668597726 0 0 0 0 0.88382076701964252 -2.6118142655141128 0 -2.6118142655141128 -10.849310496691032 0 0 0 0 1.4596165383596222 0.62817226240476742 0 0.62817226240476742 -2.5606934913258677 0 0 0 0 -0.93087862790681797 0.61693105701630202 0 0.61693105701630202 -2.8271803242355174 0 0 0 0 -4.3583700305116508 -9.0973308962909414 0 -9.0973308962909414 3.6862134259431514 0 0 0 0 5.6720541576389678 -4.0101112876164962 0 -4.0101112876164962 -18.166155621980579 0 0 0 0 -6.9607566266668073 1.0169558196118942 0 1.0169558196118942 -8.8404095335299644 0 0 0 0 -0.38642510310108236 -0.47877528080487686 0 -0.47877528080487686 -0.4817540248279597 0 0 0 0 -25.818490560068312 55.74452902544499 0 55.74452902544499 -440.36716096694181 0 0 0 0 -0.63048370278556831 5.0038388443390431 0 5.0038388443390431 -15.015932733047521 0 0 0 0 -84.659805917983249 121.14925915197364 0 121.14925915197364 -415.2390054922007 0 0 0 0 1.8048197181665273 2.0636036453047382 0 2.0636036453047382 -10.268439591872266 0 0 0 0 -1.2356755137883795 -0.17351065202055338 0 -0.17351065202055338 -1.3555489199696202 0 0 0 0 0.18404410769107926 1.4820811278150359 0 1.4820811278150359 -7.860316437563597 0 0 0 0 0.089155007083007831 -1.6371478953360232 0 -1.6371478953360232 -7.3971358641454543 0 0 0 0 59.767204631034474 154.64394025067031 0 154.64394025067031 -742.36377876030929 0 0 0 0 -130.06508788325118 131.05792131651469 0 131.05792131651469 396.18556096721159 0 0 0 0 -2.0065696042301546 0.60140870571641258 0 0.60140870571641258 -0.2592605577615168 0 0 0 0 33.004874796078184 29.203216585517566 0 29.203216585517566 -626.67644650966213 0 0 0 0 26.863583925136481 -45.807224170417612 0 -45.807224170417612 -20.934801107147905 0 0 0 0 21.714230278441846 -40.594982044942753 0 -40.594982044942753 19.726921907209544 0 0 0 0 23.814617797454048 -19.367019828023331 0 -19.367019828023331 -17.358315188034339 0 0 0 0 13.553596666435624 1.3198075786840491 0 1.3198075786840491 -13.434483317380227 0 0 0 0 -2.1405832903245816 -3.2664784281764323 0 -3.2664784281764323 -2.540990572640399 0 0 0 0 -73.130557137868891 -13.641984541898637 0 -13.641984541898637 -330.45835401495606 0 0 0 0 -6.2794154015764434 33.674355378697328 0 33.674355378697328 -275.88003236128134 0 0 0 0 13.203776440823276 -4.0390521432709647 0 -4.0390521432709647 -338.36319261111203 0 0 0 0 -172.48897694097832 330.10398204648482 0 330.10398204648482 -512.37900513317345 0 0 0 0 -10.675187629902211 191.73352719298418 0 191.73352719298418 -508.22388332503579 0 0 0 0 -0.4708401239767408 0.39667539477879066 0 0.39667539477879066 -0.12372415268940173 0 0 0 0 45.922156754557363 249.95245604950833 0 249.95245604950833 -34.297302404667789 0 0 0 0 24.769246311811003 131.28736702052993 0 131.28736702052993 -363.77735932294399 0 0 0 0 -24.367227838009057 62.578385544881712 0 62.578385544881712 -174.54933501565392 0 0 0 0 -26.372584221048783 44.081092125428768 0 44.081092125428768 -280.96292724547675 0 0 0 0 -34.901930922639849 31.136772549479247 0 31.136772549479247 -189.63228521843121 0 0 0 0 -58.641579298420766 -4.9999735798364782 0 -4.9999735798364782 -202.19214653893323 0 0 0 0 -60.399683375277618 9.8750961262612691 0 9.8750961262612691 -112.87868021550275 0 0 0 0 -54.337052244127335 0.93869099724906846 0 0.93869099724906846 -99.756983655633121 0 0 0 0 -49.670641428678209 93.589655365582075 0 93.589655365582075 -149.21267580803033 0 0 0 0 -52.6871000769695 84.661156502186259 0 84.661156502186259 50.092874013123946 0 0 0 0 -38.439816654963579 12.70214561060402 0 12.70214561060402 -103.07356741916374 0 0 0 0 -46.700689838361541 -2.6778332591538856 0 -2.6778332591538856 -4.3007102642040991 0 0 0 0 -45.588491346807587 -20.853165367909241 0 -20.853165367909241 -139.39732232681854 0 0 0 0 -20.262400684573549 -4.2825478697468498 0 -4.2825478697468498 -125.22388972175577 0 0 0 0 -51.671858039087965 -26.830395293587571 0 -26.830395293587571 -80.314845549986785 0 0 0 0 -42.721936807850398 -1.6416519091562805 0 -1.6416519091562805 -185.47889051319726 0 0 0 0 -59.431615279860125 -10.448384771996643 0 -10.448384771996643 -145.35122018009861 0 0 0 0 -64.551866690759198 6.6221548060364057 0 6.6221548060364057 -121.23923159506376 0 0 0 0 -55.573569161879732 -117.33996606674555 0 -117.33996606674555 262.3868336667274 0 0 0 0 75.498736324515448 -94.197248289071922 0 -94.197248289071922 -40.620169520178024 0 0 0 0 -34.090673298896945 -17.89065490172834 0 -17.89065490172834 31.841864319026172 0 0 0 0 2.803203911133096 65.941102026597946 0 65.941102026597946 34.216256775396687 0 0 0 0 -14.206566027809458 -2.4272945450302359 0 -2.4272945450302359 -10.714943411267996 0 0 0 0 -5.3004930198067086 -27.270475037113101 0 -27.270475037113101 -102.80954130027931 0 0 0 0 -22.38727287146412 -32.025864567039207 0 -32.025864567039207 -201.22580516171365 0 0 0 0 -66.608495255311936 60.40282158107857 0 60.40282158107857 -195.71518572210698 0 0 0 0 53.003887227160703 -37.174565025846277 0 -37.174565025846277 -130.03917237729911 0 0 0 0 -46.207440565884099 -33.338218336197315 0 -33.338218336197315 -136.69854231796944 0 0 0 0 33.066805231979743 61.565411108693411 0 61.565411108693411 -236.5412646754321 0 0 0 0 -4.7172868563843622 72.001391527030137 0 72.001391527030137 -223.51277654542355 0 0 0 0 3.6365301575997364 72.874207625344297 0 72.874207625344297 -286.24334634129264 0 0 0 0 -95.263487403803083 134.54690696375474 0 134.54690696375474 -322.90053185054421 0 0 0 0 -124.69746404061834 199.3205534342809 0 199.3205534342809 -459.90188199409386 0 0 0 0 -15.189999359937246 -4.6557378862562473 0 -4.6557378862562473 -245.63775895523031 0 0 0 0 -150.18184223687041 6.0512503610832482 0 6.0512503610832482 -241.42179526489781 0 0 0 0 1.9481733445782083 44.853253897194918 0 44.853253897194918 -412.65342854997107 0 0 0 0 -135.07698253293893 230.5219749517928 0 230.5219749517928 -194.36956218637715 0 0 0 0 -158.02731237983244 70.796426760616669 0 70.796426760616669 -8.5073004471632885 0 0 0 0 -101.4986722916401 127.09204373716057 0 127.09204373716057 -191.94303988970205 0 0 0 0 19.516665348743572 72.444378411127445 0 72.444378411127445 -343.04637932431615 0 0 0 0 14.270910158107654 44.918330657621482 0 44.918330657621482 -485.68979522891095 0 0 0 0 9.671189415264962 59.962250469559876 0 59.962250469559876 -533.74386808944018 0 0 0 0 -105.55528219020198 -126.73340337193076 0 -126.73340337193076 -154.17507332890818 0 0 0 0 -2.1074139037702224 0.43577569998176102 0 0.43577569998176102 -1.5335394536399178 0 0 0 0 -0.27520334762469068 -0.4198570022567214 0 -0.4198570022567214 0.20949413764664371 0 0 0 0 -46.648617451222435 57.726352165354911 0 57.726352165354911 -119.4026488407435 0 0 0 0 -31.577878346830403 56.919512099470921 0 56.919512099470921 -145.41043983559939 0 0 0 0 -18.586181973456405 43.574577723802577 0 43.574577723802577 -228.43184471867426 0 0 0 0 -35.151976086436662 -28.819470189407184 0 -28.819470189407184 -174.38261106204482 0 0 0 0 -16.745552619489899 94.341693875767305 0 94.341693875767305 -194.47070094484343 0 0 0 0 4.7994138279084382 81.093582509845078 0 81.093582509845078 -187.96711372912978 0 0 0 0 -11.521141545289538 109.63361342477538 0 109.63361342477538 -151.24696351516104 0 0 0 0 -40.081546742701903 121.54143773226224 0 121.54143773226224 -117.51975344919083 0 0 0 0 -62.67335182567831 109.8351955221533 0 109.8351955221533 -89.623523504713376 0 0 0 0 -46.333993103397688 76.169173294648772 0 76.169173294648772 -29.93338929759193 0 0 0 0 -36.315010618792158 34.343943802598687 0 34.343943802598687 -4.395839816199441 0 0 0 0 -37.883799244913689 46.013850838144208 0 46.013850838144208 -85.739753496992307 0 0 0 0 -22.835071766592336 89.034120468367291 0 89.034120468367291 -56.726171611810059 0 0 0 0 -55.419274784907884 57.337204822199055 0 57.337204822199055 -63.280792729608947 0 0 0 0 -56.249677668906543 14.996195659774457 0 14.996195659774457 -112.80111111549559 0 0 0 0 -66.401177723537216 27.407357009293264 0 27.407357009293264 -62.40101203352242 0 0 0 0 -28.213386476047845 -5.6517017603100612 0 -5.6517017603100612 -106.03769037014536 0 0 0 0 -25.496883687972591 22.569040851929174 0 22.569040851929174 -61.469513600550272 0 0 0 0 39.270237451513339 -22.689575176978906 0 -22.689575176978906 -118.66807575170424 0 0 0 0 -105.80971216072589 -72.745226997782538 0 -72.745226997782538 -157.94415301113622 0 0 0 0 -50.510775012467093 17.983303866744791 0 17.983303866744791 -129.48585316208482 0 0 0 0 -101.46921899737754 -16.784893682896836 0 -16.784893682896836 -116.45081126046091 0 0 0 0 83.848420593241229 24.976572463518551 0 24.976572463518551 -16.412414113594423 0 0 0 0 60.669335257857256 -27.384225645042534 0 -27.384225645042534 -47.578976147422509 0 0 0 0 42.07057770893303 -10.592971459488581 0 -10.592971459488581 -66.703741571230239 0 0 0 0 85.617164160045604 -17.39778815981208 0 -17.39778815981208 -81.649001871955988 0 0 0 0 37.439294441367849 26.640821099050299 0 26.640821099050299 -35.66453141625334 0 0 0 0 36.342161915625525 8.0627314284265594 0 8.0627314284265594 -74.130854933371666 0 0 0 0 -0.9370942101034796 4.7323610045453703 0 4.7323610045453703 -16.969739862483443 0 0 0 0 154.12412207113243 36.97492411655503 0 36.97492411655503 -63.067912257154603 0 0 0 0 91.81468744408815 -16.341967918824594 0 -16.341967918824594 -14.881438884829549 0 0 0 0 -312.81036722184353 -156.98356166633312 0 -156.98356166633312 18.424911373316718 0 0 0 0 119.76686662734005 87.853199643924199 0 87.853199643924199 -16.570850904531412 0 0 0 0 -0.47072498315890954 1.6421268630266601 0 1.6421268630266601 -9.4499065553053754 0 0 0 0 33.566433188864664 -8.2042042234534165 0 -8.2042042234534165 -1.6228228802719968 0 0 0 0 -339.14773953626468 -250.80828782324397 0 -250.80828782324397 38.774198311624787 0 0 0 0 112.28232180713258 17.554303897911268 0 17.554303897911268 -21.147747289061954 0 0 0 0 132.68399749425839 8.9616531107822084 0 8.9616531107822084 -55.581612511956337 0 0 0 0 0.20328501999501475 -0.65114476323627546 0 -0.65114476323627546 -6.7629079872065176 0 0 0 0 72.211422899540821 -39.448662600151692 0 -39.448662600151692 -211.80058541036306 0 0 0 0 132.8254714616096 4.6073625502913274 0 4.6073625502913274 -47.212527954945926 0 0 0 0 77.337984933131338 -33.606695170798048 0 -33.606695170798048 -58.606515537334417 0 0 0 0 32.999521185095546 -23.389372981299857 0 -23.389372981299857 -101.04405483817391 0 0 0 0 53.67569832864865 -7.1453928140326752 0 -7.1453928140326752 -12.938498347133645 0 0 0 0 32.633477471097649 -26.148469128507713 0 -26.148469128507713 -8.5268724978159298 0 0 0 0 70.028792247852607 -5.3596009309967485 0 -5.3596009309967485 -47.19841313597135 0 0 0 0 1.7709037945094854 -5.9594891012323021 0 -5.9594891012323021 -7.5713141897828677 0 0 0 0 58.079157505491594 -73.111304631342136 0 -73.111304631342136 -48.286129091033217 0 0 0 0 1.7292200380650091 -4.3311162331213637 0 -4.3311162331213637 -53.998329210716435 0 0 0 0 41.161565624645391 -23.02623292206772 0 -23.02623292206772 -31.604722783261309 0 0 0 0 11.024952335860462 -4.5919959606108023 0 -4.5919959606108023 -37.161704238998936 0 0 0 0 33.978717597583 22.776913168816463 0 22.776913168816463 -134.67199024738875 0 0 0 0 38.085803939771495 60.737042201861186 0 60.737042201861186 -33.736223954806746 0 0 0 0 -40.108381988789375 -12.179814610979975 0 -12.179814610979975 -133.93993041100839 0 0 0 0 -0.81469248629427482 1.2622671583427731 0 1.2622671583427731 -0.40156338849465101 0 0 0 0 -132.40054756636368 -150.75724640883527 0 -150.75724640883527 -70.13170612565591 0 0 0 0 -101.21087599245902 -94.032825117057655 0 -94.032825117057655 0.065815359499538317 0 0 0 0 6.1025517911034513 -49.225843413551047 0 -49.225843413551047 -260.49081509315874 0 0 0 0 -23.223153889555306 16.90469089729595 0 16.90469089729595 -14.413172300274709 0 0 0 0 85.91610996366353 34.171332518046256 0 34.171332518046256 -118.85838515606156 0 0 0 0 -25.257573565000484 -1.5944961219192919 0 -1.5944961219192919 -36.008102822917863 0 0 0 0 -25.08105070970214 1.4993852784682531 0 1.4993852784682531 -50.625215142848901 0 0 0 0 -69.731052076772357 83.090967852578615 0 83.090967852578615 -107.17452587041043 0 0 0 0 3.666403417993024 2.6654712020390434 0 2.6654712020390434 -39.331447824581119 0 0 0 0 -38.922679836417956 -9.973563790517801 0 -9.973563790517801 -18.311438617107342 0 0 0 0 0.38852216894591951 0.086058848623821405 0 0.086058848623821405 -0.10308005661619291 0 0 0 0 -16.703449951225593 -11.031862937117694 0 -11.031862937117694 -25.110126263922211 0 0 0 0 -37.12154411745405 -9.166349534121764 0 -9.166349534121764 -27.800813330206438 0 0 0 0 -35.194878344483186 -14.627209495993156 0 -14.627209495993156 -25.583543464679678 0 0 0 0 -34.347983240817939 -19.489961807259533 0 -19.489961807259533 -23.580959673803591 0 0 0 0 -40.650950498411021 -17.957009536461555 0 -17.957009536461555 -17.928358470533567 0 0 0 0 -44.216456111946172 -23.298704420209106 0 -23.298704420209106 -18.538355889337254 0 0 0 0 -32.564136891611042 -25.633960085826402 0 -25.633960085826402 -44.446749044029275 0 0 0 0 -38.442504463633668 -22.007432426333253 0 -22.007432426333253 -28.760114059619809 0 0 0 0 -36.938368503037054 -17.54868962337423 0 -17.54868962337423 -30.402515186447999 0 0 0 0 -31.705973935446764 -43.356114252408588 0 -43.356114252408588 -79.169445410378103 0 0 0 0 -20.280281814270893 -22.634071091171791 0 -22.634071091171791 -47.348721151378413 0 0 0 0 -48.505963748551039 -39.825756444646686 0 -39.825756444646686 -38.619932290246652 0 0 0 0 -39.697574580342007 -28.325485664223379 0 -28.325485664223379 -41.765332380004111 0 0 0 0 -45.951270226537417 -33.248407786202733 0 -33.248407786202733 -35.241341362940148 0 0 0 0 -46.946897605237609 -33.886086695332779 0 -33.886086695332779 -34.182281698726001 0 0 0 0 8.2483668465183655 -15.416261359907367 0 -15.416261359907367 -57.079745673276193 0 0 0 0 27.220427493720763 -7.1128650172031485 0 -7.1128650172031485 -57.632833475538064 0 0 0 0 -23.409616686340541 -7.0125300748331938 0 -7.0125300748331938 -40.673092548400746 0 0 0 0 -25.849585279660914 -16.704266177097452 0 -16.704266177097452 -36.517493706836831 0 0 0 0 -5.3710548164508509 -27.885587714075882 0 -27.885587714075882 -79.924791490237112 0 0 0 0 5.1209250316142061 -11.238175342230534 0 -11.238175342230534 -56.69629281120524 0 0 0 0 54.592890660657758 1.4927173121905071 0 1.4927173121905071 -87.892430688378226 0 0 0 0 23.583592508905838 -17.28021768972576 0 -17.28021768972576 -27.382852468188503 0 0 0 0 49.918564111993874 15.079143850718538 0 15.079143850718538 -64.819618092809833 0 0 0 0 52.382310130755798 10.730007656480211 0 10.730007656480211 -96.51588317999267 0 0 0 0 0.93214581834155075 -5.8272187177399211 0 -5.8272187177399211 -59.657282814275391 0 0 0 0 98.400430680316731 -6.9469252307490024 0 -6.9469252307490024 89.288532507594937 0 0 0 0 -289.68210654215227 -89.191929982668626 0 -89.191929982668626 216.96537158748106 0 0 0 0 102.52303102881933 -58.865151496906037 0 -58.865151496906037 -613.49668910072069 0 0 0 0 122.52003774134391 -196.99671022859184 0 -196.99671022859184 -388.04977212543236 0 0 0 0 -0.083544751525962579 -0.39342078447203388 0 -0.39342078447203388 -2.5119105557463399 0 0 0 0 127.52708611971343 18.652742343802856 0 18.652742343802856 -13.268795317948388 0 0 0 0 2.1009615507491843 -7.9521830539442053 0 -7.9521830539442053 -56.264912229031161 0 0 0 0 126.59014983962931 -44.266742384098507 0 -44.266742384098507 -84.930012507538777 0 0 0 0 0.54720431336681941 -2.0136347157676937 0 -2.0136347157676937 -4.272844945822726 0 0 0 0 0.29616027945182388 -0.99583331948069542 0 -0.99583331948069542 -2.7283958474547063 0 0 0 0 -1.5765704269593925 -3.8979439846525565 0 -3.8979439846525565 -11.129385289888887 0 0 0 0 0.72189669530206046 1.2168544573252333 0 1.2168544573252333 -0.081055870901117544 0 0 0 0 -14.505622669832519 42.591610645817127 0 42.591610645817127 -167.85875956262316 0 0 0 0 -6.277323592085736 21.920304275739909 0 21.920304275739909 -148.62556900511117 0 0 0 0 3.4433601762011676 35.638184436811571 0 35.638184436811571 -162.92726475214658 0 0 0 0 -3.3596483781388997 39.300568724487675 0 39.300568724487675 -150.58585480328838 0 0 0 0 -9.2337960854210905 32.381291266861808 0 32.381291266861808 -123.45082438048121 0 0 0 0 0.11287824258718615 -4.5347672571881503 0 -4.5347672571881503 -0.24429769106791355 0 0 0 0 0.86640459162950378 0.94880853816293609 0 0.94880853816293609 0.21486075297999463 0 0 0 0 5.3405045576309931 1.7630170560514671 0 1.7630170560514671 -11.754169373294644 0 0 0 0 3.0053464768529921 31.955962133410139 0 31.955962133410139 -137.72246432175234 0 0 0 0 5.8001899393179883 7.093860154524009 0 7.093860154524009 -15.046342930490937 0 0 0 0 0.81920580162016599 0.53669820429605153 0 0.53669820429605153 0.064782756972036282 0 0 0 0 -15.967306512316327 27.704273648905655 0 27.704273648905655 -100.83836036736466 0 0 0 0 -15.106495242349638 25.234506598460939 0 25.234506598460939 -68.903037272102665 0 0 0 0 18.471509862169114 5.7881625676163821 0 5.7881625676163821 -82.886482560616059 0 0 0 0 -0.39526010244458121 9.9082179485139932 0 9.9082179485139932 -19.897347670710587 0 0 0 0 -24.917594367093443 -5.3054399910633947 0 -5.3054399910633947 -9.5116142453698558 0 0 0 0 -25.696447575523052 -3.1724240121329785 0 -3.1724240121329785 -15.111601629381767 0 0 0 0 -51.010892938301367 -19.797912410234858 0 -19.797912410234858 -10.893918915528047 0 0 0 0 -37.722914294372544 -21.621748196557292 0 -21.621748196557292 -26.060759541054722 0 0 0 0 -5.4549823885263322 18.349798789415217 0 18.349798789415217 35.473127574645332 0 0 0 0 -16.211514898607675 -5.6238787209731527 0 -5.6238787209731527 1.3546290450904053 0 0 0 0 -38.697995996066822 -10.943155630866841 0 -10.943155630866841 6.4350477434636559 0 0 0 0 4.4234159332308991 4.2922747018819791 0 4.2922747018819791 -12.349590560846991 0 0 0 0 3.3228149999275729 -0.73531961969274562 0 -0.73531961969274562 -0.97168067393067759 0 0 0 0 -44.470301344505629 24.375318088722452 0 24.375318088722452 -23.107786253443919 0 0 0 0 19.255590780171588 6.0649275646610477 0 6.0649275646610477 -18.46189082044657 0 0 0 0 45.164300740756971 5.4202113172432291 0 5.4202113172432291 -6.7804829585656989 0 0 0 0 34.330621969123058 -25.314687144829804 0 -25.314687144829804 4.5508986651111627 0 0 0 0 -0.12645493556377652 -0.2861515410106108 0 -0.2861515410106108 -0.9211046007650765 0 0 0 0 -4.3238413249728183 -1.1294958868384128 0 -1.1294958868384128 -0.66738693689694628 0 0 0 0 -0.44576971706598023 -0.58312153395795718 0 -0.58312153395795718 -1.4230839817843588 0 0 0 0 11.081794444904972 -5.6054494454792803 0 -5.6054494454792803 5.7203902221153839 0 0 0 0 1.3854869968628236 4.7923197951595284 0 4.7923197951595284 -8.3651416291686473 0 0 0 0 -1.2215593428406919 2.595083672533292 0 2.595083672533292 -4.3539750397612806 0 0 0 0 10.876651809992836 -1.2524353252447327 0 -1.2524353252447327 -6.997697534317922 0 0 0 0 8.4800135228202862 -8.0060113933891444 0 -8.0060113933891444 -3.417644945475331 0 0 0 0 0.13732472473540724 -0.84984037648789013 0 -0.84984037648789013 -2.2549244826788168 0 0 0 0 -4.2345962208537458 1.5674226314658881 0 1.5674226314658881 -7.6870230558561161 0 0 0 0 -0.57365301147921599 -0.12547996103593562 0 -0.12547996103593562 -0.63906999936540387 0 0 0 0 -48.250199149421405 50.708020838308585 0 50.708020838308585 -43.408855853898785 0 0 0 0 -41.634946709752512 23.933396432457812 0 23.933396432457812 -36.424750862315705 0 0 0 0 -41.765014204931276 52.679678128884916 0 52.679678128884916 -87.318369729116966 0 0 0 0 -33.871495554503326 41.253892633325449 0 41.253892633325449 -49.437960157114503 0 0 0 0 -51.656851718229518 45.934679546968255 0 45.934679546968255 -47.166392959654331 0 0 0 0 -40.497842759326431 41.307422205052717 0 41.307422205052717 -84.513444270558466 0 0 0 0 -37.166871987532261 46.013213175114743 0 46.013213175114743 -43.394443698853138 0 0 0 0 -1.8304205593740335 8.5483710721091484 0 8.5483710721091484 -1.3317700512197916 0 0 0 0 -0.29474427000460324 -0.14110043486882518 0 -0.14110043486882518 -0.15335843833770468 0 0 0 0 -46.103611855614645 47.256663721975201 0 47.256663721975201 -43.4917446324107 0 0 0 0 -36.96630815003391 -0.75682237097498728 0 -0.75682237097498728 -189.91694991295662 0 0 0 0 -32.123294275999797 22.830565772314003 0 22.830565772314003 -188.89971378450718 0 0 0 0 -42.526056935484235 25.86688561828305 0 25.86688561828305 -122.04584359397995 0 0 0 0 -46.027280480921036 39.948485917739163 0 39.948485917739163 -83.63904851292682 0 0 0 0 -33.97762733666309 21.187057076967903 0 21.187057076967903 -136.81424181046168 0 0 0 0 -31.281009413977699 51.533014843013007 0 51.533014843013007 -119.59164650663297 0 0 0 0 -32.176906129986492 32.747070138761046 0 32.747070138761046 -138.59872066077878 0 0 0 0 -37.2206888638284 40.548961765220156 0 40.548961765220156 -120.64724778446543 0 0 0 0 -40.602284379397133 -6.045908642357972 0 -6.045908642357972 -187.30485822397895 0 0 0 0 -32.894679003447891 -8.9127716651892115 0 -8.9127716651892115 -243.99270790118317 0 0 0 0 -27.910451583347367 21.827170199803732 0 21.827170199803732 -205.09052591511863 0 0 0 0 -32.214807500874031 0.82669974175223615 0 0.82669974175223615 -197.89020924441866 0 0 0 0 -47.177477831781061 -19.493917232504828 0 -19.493917232504828 -236.37151470070967 0 0 0 0 -91.88619542187871 3.2604704840268823 0 3.2604704840268823 -236.02347195022594 0 0 0 0 -75.825977336114647 -22.264919570905477 0 -22.264919570905477 -292.60447951019887 0 0 0 0 -47.992769976383897 23.811611751982127 0 23.811611751982127 -221.50482026975442 0 0 0 0 -29.647990124335251 28.784094504972927 0 28.784094504972927 -237.82553515366453 0 0 0 0 -46.375776101017436 42.271557335763646 0 42.271557335763646 -185.25429863799945 0 0 0 0 -53.854224769742359 112.74078833110252 0 112.74078833110252 -142.80046161128121 0 0 0 0 -7.2835303485990153 9.3252938650548458 0 9.3252938650548458 -5.0526154590243095 0 0 0 0 -56.53345715468987 91.86382045228811 0 91.86382045228811 -247.24630871289992 0 0 0 0 -39.049288498389501 43.714350545165871 0 43.714350545165871 -297.22430629954761 0 0 0 0 0.20921522692715833 -0.063604430740539897 0 -0.063604430740539897 -0.72405276386143669 0 0 0 0 -12.756269340676681 -59.138581027891632 0 -59.138581027891632 -243.99163665842207 0 0 0 0 -0.23200475169257473 -0.33488186865632485 0 -0.33488186865632485 -0.41246628161941601 0 0 0 0 -53.957642959711848 -67.704145110874379 0 -67.704145110874379 12.298229326912406 0 0 0 0 -33.697054205184031 -15.010008678334998 0 -15.010008678334998 43.426911422415287 0 0 0 0 -59.974362853711227 -42.315169696990779 0 -42.315169696990779 16.499179615668254 0 0 0 0 -67.207982749619077 -38.801226150295406 0 -38.801226150295406 -10.635283545998391 0 0 0 0 -52.635592132536203 -44.610937331455716 0 -44.610937331455716 -38.982182919411571 0 0 0 0 -75.776257942058692 -107.57640127043123 0 -107.57640127043123 -53.367648617308078 0 0 0 0 -25.594254411583279 -103.58830036309701 0 -103.58830036309701 -227.28723614291812 0 0 0 0 -92.034563213790079 -18.093788283200411 0 -18.093788283200411 -258.04085566357571 0 0 0 0 -92.329394937202437 -18.445005310828492 0 -18.445005310828492 -213.21751565381419 0 0 0 0 -104.8624602501277 -24.637339702672762 0 -24.637339702672762 -241.14225898546283 0 0 0 0 -120.35137165949982 -33.123240341046767 0 -33.123240341046767 -243.18734138831678 0 0 0 0 -60.201860172877559 -20.655591442833611 0 -20.655591442833611 -318.3892150062311 0 0 0 0 -0.29233786745955204 -0.58569249954256009 0 -0.58569249954256009 -0.45898309854928243 0 0 0 0 -15.596516639489437 -98.008014241837373 0 -98.008014241837373 -22.169735085539287 0 0 0 0 -49.854196101942307 116.0710631914917 0 116.0710631914917 -303.58312875303 0 0 0 0 41.758343136497615 32.361507719000656 0 32.361507719000656 -62.095710095571121 0 0 0 0 59.215034656592252 86.687804881803459 0 86.687804881803459 -48.43207959560641 0 0 0 0 -7.9090823918090791 30.635279285634169 0 30.635279285634169 -27.174679333504173 0 0 0 0 -22.439192927364502 -7.935144836004838 0 -7.935144836004838 -114.32815488975029 0 0 0 0 -72.560226326526845 15.529176677679061 0 15.529176677679061 -99.207042894180631 0 0 0 0 -74.22954380162264 37.833408278143907 0 37.833408278143907 -69.373531042816467 0 0 0 0 -71.153571226165695 63.012052358993969 0 63.012052358993969 -187.74941939483688 0 0 0 0 -83.263752798084624 0.12935364098666469 0 0.12935364098666469 -120.96303637367237 0 0 0 0 -45.142899995382777 -24.798118306382094 0 -24.798118306382094 -250.91858468314604 0 0 0 0 -43.823702169201823 -38.144019384439844 0 -38.144019384439844 -203.6461141122636 0 0 0 0 -16.921400521744999 -83.485087733692353 0 -83.485087733692353 -154.42128425200644 0 0 0 0 -75.609605966983395 8.8905652380444735 0 8.8905652380444735 -214.92978828110063 0 0 0 0 -52.11214603346798 -9.63782169422484 0 -9.63782169422484 -202.69461821886944 0 0 0 0 -62.301388270081134 -26.497389453246797 0 -26.497389453246797 -161.50516270218941 0 0 0 0 -87.101974176749081 54.446277581293543 0 54.446277581293543 -247.94773011457619 0 0 0 0 -89.422134026197341 24.417956323265571 0 24.417956323265571 -202.72066393851128 0 0 0 0 -86.447536582776593 20.186504593886639 0 20.186504593886639 -209.82513753501553 0 0 0 0 -83.211661051551346 52.682009983192984 0 52.682009983192984 -248.30595616768551 0 0 0 0 -53.180090357883273 8.2845324188456289 0 8.2845324188456289 -225.76976826373539 0 0 0 0 -62.123346279952329 18.000251290814049 0 18.000251290814049 -189.1760954900019 0 0 0 0 41.875874907195339 -4.4659233179008879 0 -4.4659233179008879 -150.36603197769728 0 0 0 0 23.068979979222377 -28.618706477907836 0 -28.618706477907836 -158.16153214428959 0 0 0 0 77.152649276952843 -17.569800633820705 0 -17.569800633820705 -167.36238859503646 0 0 0 0 42.952458911048552 3.0239072831809608 0 3.0239072831809608 -139.44052506916341 0 0 0 0 10.954777539788438 -33.860015293304969 0 -33.860015293304969 -81.180563462228747 0 0 0 0 1.9276935220822913 -13.284371159624875 0 -13.284371159624875 -84.031689188263101 0 0 0 0 68.984511951756758 -43.510674526805815 0 -43.510674526805815 -192.31864828319522 0 0 0 0 4.7468626153090554 20.073224895801104 0 20.073224895801104 -103.62238661133597 0 0 0 0 9.5743866896746113 -44.18386398848088 0 -44.18386398848088 61.519899994833395 0 0 0 0 8.910048243658494 -19.410055079559402 0 -19.410055079559402 -13.865058204899356 0 0 0 0 60.567417211649399 -29.524868758261391 0 -29.524868758261391 -59.323823023620207 0 0 0 0 0.01605702303458445 -3.3272564978507209 0 -3.3272564978507209 -31.649298525703905 0 0 0 0 12.070607333066448 28.641571099257 0 28.641571099257 -117.37042792146566 0 0 0 0 -53.19117452550563 22.939647443090507 0 22.939647443090507 -85.348070247397118 0 0 0 0 61.942961286117679 -25.299044567316514 0 -25.299044567316514 -68.362597371167794 0 0 0 0 43.00646034858778 -15.873331175691419 0 -15.873331175691419 -101.39441334655567 0 0 0 0 59.298309690355836 4.0969822247170669 0 4.0969822247170669 -120.04371258505853 0 0 0 0 36.815751495301811 -42.816058176180377 0 -42.816058176180377 -62.935567489348614 0 0 0 0 0.083972869281391915 3.9390811298911927 0 3.9390811298911927 -23.452906890084705 0 0 0 0 90.49632727051528 -6.4196496438744362 0 -6.4196496438744362 -139.90413939941209 0 0 0 0 -15.841486571316636 -36.246940737546538 0 -36.246940737546538 -83.558070397557458 0 0 0 0 27.878033445665096 -16.813561549311999 0 -16.813561549311999 -131.54346597288168 0 0 0 0 15.06943317445301 -33.574044994162591 0 -33.574044994162591 -148.71523387483467 0 0 0 0 28.775755654943623 -10.214805092160532 0 -10.214805092160532 -94.131361385818309 0 0 0 0 -61.803046373406914 -68.732796306591808 0 -68.732796306591808 -76.31014628984849 0 0 0 0 -29.758815407043585 -47.661652344759204 0 -47.661652344759204 -105.25950084790747 0 0 0 0 -14.79373780623871 -29.876932251800554 0 -29.876932251800554 -88.377104434417561 0 0 0 0 -29.934720906327584 -62.161733589127834 0 -62.161733589127834 -119.79262990719872 0 0 0 0 14.424127664671687 -23.357836162802414 0 -23.357836162802414 -175.85193676928611 0 0 0 0 -50.738170139515205 2.9916282794001745 0 2.9916282794001745 -215.96447159105719 0 0 0 0 4.3550846285343141 34.052272286062362 0 34.052272286062362 -164.80722553778833 0 0 0 0 -0.29557401323108934 -11.608736133723141 0 -11.608736133723141 -243.43833687504957 0 0 0 0 -39.465545496342202 -25.344383769024716 0 -25.344383769024716 -237.54318041510851 0 0 0 0 -1.6391649137108288 -8.7291303988240543 0 -8.7291303988240543 -162.13904991495292 0 0 0 0 -32.458783057289793 29.240158236594652 0 29.240158236594652 -231.50626811975962 0 0 0 0 25.405374309415947 -7.4940186788389838 0 -7.4940186788389838 -198.02277871997649 0 0 0 0 35.455861647606525 14.723650959353108 0 14.723650959353108 -153.14898160745406 0 0 0 0 43.419042588619504 -3.9165708210821322 0 -3.9165708210821322 -151.31350673260386 0 0 0 0 6.9561706825845704 54.22291081799267 0 54.22291081799267 -179.8211661983587 0 0 0 0 18.328810658635348 24.952180259535453 0 24.952180259535453 -112.30840755133249 0 0 0 0 -35.367452615227194 61.690628224630927 0 61.690628224630927 -89.535400480430326 0 0 0 0 1.213921426287925 17.506385303993738 0 17.506385303993738 -242.01924046646309 0 0 0 0 -49.100313609855931 105.90777967556846 0 105.90777967556846 -170.54108532504324 0 0 0 0 -0.056787517344206506 2.0733209200312075 0 2.0733209200312075 -7.0154171631940869 0 0 0 0 51.545716998421653 12.604298693863711 0 12.604298693863711 -29.468915193625435 0 0 0 0 -4.1789570832017944 22.052062360105992 0 22.052062360105992 -77.310638679897238 0 0 0 0 -1.2705033673220099 16.368936871391625 0 16.368936871391625 -7.1492393980493958 0 0 0 0 -5.9854040148012473 24.249531436555117 0 24.249531436555117 -75.021988071686792 0 0 0 0 -12.360395159007567 46.035626349790618 0 46.035626349790618 -113.20205650959804 0 0 0 0 7.9921103490693213 3.6381125913912911 0 3.6381125913912911 -116.06404906689568 0 0 0 0 4.1216876990117726 17.034868070660195 0 17.034868070660195 -120.08106441522978 0 0 0 0 18.401032463701085 20.658506077885249 0 20.658506077885249 -130.75174867557143 0 0 0 0 13.888513070502995 14.076217302254008 0 14.076217302254008 -102.76712568903531 0 0 0 0 24.393303071590253 12.395187361798889 0 12.395187361798889 -121.8185444452356 0 0 0 0 6.4595396425443141 5.5332930604945432 0 5.5332930604945432 -32.388200808805777 0 0 0 0 3.1880862427577701 10.811112985846982 0 10.811112985846982 -17.215504900947 0 0 0 0 -1.1453077216327863 14.097172538353639 0 14.097172538353639 -20.976076988262029 0 0 0 0 20.794586169497961 3.9765052042603202 0 3.9765052042603202 -129.87729791461607 0 0 0 0 -0.53636191908117326 -9.8390160364469921 0 -9.8390160364469921 -94.787560733293503 0 0 0 0 -6.3944555721870984 12.537507562155952 0 12.537507562155952 -34.393427796598189 0 0 0 0 -3.8127030037832128 -1.2277298011576931 0 -1.2277298011576931 -47.240169076716484 0 0 0 0 3.9762961861106305 5.9375738122271287 0 5.9375738122271287 -73.649752621760854 0 0 0 0 2.7001574420453736 21.232299893661548 0 21.232299893661548 -95.719862664380798 0 0 0 0 -3.7149882638840381 13.165443518993015 0 13.165443518993015 -74.708319336992645 0 0 0 0 0.78832869267341721 -0.0039664638029535126 0 -0.0039664638029535126 -84.724350135453278 0 0 0 0 -13.584795434908756 5.0732505351543296 0 5.0732505351543296 -68.419085857054597 0 0 0 0 -14.5411192649334 5.4327257727509277 0 5.4327257727509277 -36.630749427897172 0 0 0 0 -2.3613133108552429 14.425704863190944 0 14.425704863190944 -22.400330639650015 0 0 0 0 -1.3735320543373746 2.4146823109567777 0 2.4146823109567777 -51.881005720307257 0 0 0 0 -3.6554972618746433 6.5490065153280739 0 6.5490065153280739 -36.732815323426621 0 0 0 0 1.4085750464398199 0.79174505524807159 0 0.79174505524807159 -22.9159005860772 0 0 0 0 1.531251038104303 -7.1799972065149191 0 -7.1799972065149191 -12.167974449011659 0 0 0 0 -1.6447611054122717 9.2166100098829702 0 9.2166100098829702 -34.783802416917752 0 0 0 0 -3.2132360377773193 8.305199716457274 0 8.305199716457274 -8.0712550839935879 0 0 0 0 12.752843340353593 17.649466705177474 0 17.649466705177474 -22.950143416986975 0 0 0 0 -149.26474147023669 266.1157512621794 0 266.1157512621794 -156.38412989462449 0 0 0 0 -129.12828397066733 175.68779593741237 0 175.68779593741237 -291.34379278303823 0 0 0 0 -616.73896952307041 886.85687927093386 0 886.85687927093386 -514.59795893319097 0 0 0 0 303.72825371908539 204.73418031111032 0 204.73418031111032 -616.10528686347243 0 0 0 0 12.020085247453242 -16.855880324233866 0 -16.855880324233866 -31.574986938780555 0 0 0 0 6.6954733122183825 -5.8192106173300999 0 -5.8192106173300999 -17.818927005166188 0 0 0 0 3.6105048378845348 -11.467687994959299 0 -11.467687994959299 -21.903157654344625 0 0 0 0 0.39510975107173252 -5.6199070810207132 0 -5.6199070810207132 -39.288125597232451 0 0 0 0 2.770318741705978 -1.2578175850815612 0 -1.2578175850815612 -7.7951580236840385 0 0 0 0 103.02970944551043 217.75761259597493 0 217.75761259597493 410.62074128221138 0 0 0 0 -513.09293093585711 -553.85417024220078 0 -553.85417024220078 -426.71703539328155 0 0 0 0 -282.1770531119023 -448.476207495376 0 -448.476207495376 -83.052848681589239 0 0 0 0 -38.587283567719538 330.05675692689329 0 330.05675692689329 -379.0269017597966 0 0 0 0 -215.81079102588774 727.95447163309836 0 727.95447163309836 -867.40430798678426 0 0 0 0 164.54744026959725 131.25669585309515 0 131.25669585309515 -1496.5996110259657 0 0 0 0 -1.1618771002216899 5.5070941236434292 0 5.5070941236434292 -15.153902156626728 0 0 0 0 480.15062051880409 -89.88346309147164 0 -89.88346309147164 -700.02334427040478 0 0 0 0 216.43251491426781 450.49564168054712 0 450.49564168054712 -1257.2948756780861 0 0 0 0 206.33209157548367 -173.6331728516252 0 -173.6331728516252 -107.26679103646165 0 0 0 0 -518.49551879976184 561.95079605394312 0 561.95079605394312 -273.00211652767757 0 0 0 0 -63.889428186547775 -29.300717718375381 0 -29.300717718375381 174.00183049173575 0 0 0 0 -249.33029752223638 466.63111858334742 0 466.63111858334742 -682.23781313225481 0 0 0 0 -221.69134453094307 275.71366219184529 0 275.71366219184529 -331.36166626464092 0 0 0 0 62.480545123588172 -113.13278813411432 0 -113.13278813411432 -468.12720767809515 0 0 0 0 -527.76280299631344 684.44515860357569 0 684.44515860357569 -549.26631878156149 0 0 0 0 2.8340940725292327 -0.44636551341575981 0 -0.44636551341575981 -7.4309385117413456 0 0 0 0 67.563999608124092 11.111932377631774 0 11.111932377631774 23.474333626414591 0 0 0 0 17.02107962860854 -21.755920936955686 0 -21.755920936955686 -32.085257195959954 0 0 0 0 11.405292137635115 -51.06420052454996 0 -51.06420052454996 51.150752256668056 0 0 0 0 2.1207630617672066 262.84942748399953 0 262.84942748399953 -601.53858315451362 0 0 0 0 2.1559609329268676 -9.3277846011846464 0 -9.3277846011846464 -5.1680290546405274 0 0 0 0 -272.84059011748923 460.12226285741235 0 460.12226285741235 -528.27225302835723 0 0 0 0 -164.01107765185691 565.43514008323018 0 565.43514008323018 -440.17593449971173 0 0 0 0 -113.52877760506271 103.31268657428882 0 103.31268657428882 -353.58795507124614 0 0 0 0 -82.902352995940362 24.959009336200097 0 24.959009336200097 -293.26197693473659 0 0 0 0 -157.25730872225131 49.316654606265729 0 49.316654606265729 -299.58674956733012 0 0 0 0 -63.253732671848411 59.920567336630484 0 59.920567336630484 -298.80793322795944 0 0 0 0 -41.15263673013078 40.745523685747685 0 40.745523685747685 -361.32281561937998 0 0 0 0 -58.222020040841016 6.9322314516302868 0 6.9322314516302868 -417.21089972200571 0 0 0 0 -14.172160142100893 17.802990601472629 0 17.802990601472629 -421.58605346990953 0 0 0 0 -14.470954267033449 12.889804755415753 0 12.889804755415753 -455.52977840007134 0 0 0 0 34.862238598806925 67.511191767429409 0 67.511191767429409 -441.93783757301571 0 0 0 0 21.87539209321892 109.88565600592392 0 109.88565600592392 -496.4104549032927 0 0 0 0 16.397389103648493 52.528843568154116 0 52.528843568154116 -443.43338308182501 0 0 0 0 -37.263542732357564 96.061547089171654 0 96.061547089171654 -310.00069058519875 0 0 0 0 -36.973916705520026 92.855461614282376 0 92.855461614282376 -343.63435075309826 0 0 0 0 -72.663199715617793 75.657225725401076 0 75.657225725401076 -174.91687404354161 0 0 0 0 -63.466660182782562 93.119287475063174 0 93.119287475063174 -150.07645427141688 0 0 0 0 -65.889131138585981 152.43428892157681 0 152.43428892157681 -275.68925983113149 0 0 0 0 -74.200716609289884 131.03063072527584 0 131.03063072527584 -114.62536348291906 0 0 0 0 -82.002530866164307 273.99228242399113 0 273.99228242399113 -409.95455793837027 0 0 0 0 -3.9332763880884158 127.24313545401674 0 127.24313545401674 -425.96075921975716 0 0 0 0 -16.799979672392965 107.23301913895193 0 107.23301913895193 -432.82291379076196 0 0 0 0 -66.902595234680575 152.3450065586585 0 152.3450065586585 -446.76263640889374 0 0 0 0 -20.932078436585471 201.600558777267 0 201.600558777267 -578.84863308427521 0 0 0 0 -170.27885143056392 263.63895626159865 0 263.63895626159865 40.313187608466251 0 0 0 0 74.38317665546856 51.889210507681128 0 51.889210507681128 7.8415671780676348 0 0 0 0 -0.14672855815135577 1.1848798370456919 0 1.1848798370456919 -3.3945145725068215 0 0 0 0 0.25660520872525172 1.0692640387028902 0 1.0692640387028902 -2.9171706642582009 0 0 0 0 4.2639039834029973 -26.463824661856052 0 -26.463824661856052 -13.514389869058505 0 0 0 0 -0.99551102494751831 63.188232498898287 0 63.188232498898287 57.979994692417677 0 0 0 0 12.032250170766474 151.68765260151122 0 151.68765260151122 -517.45077048576059 0 0 0 0 143.10240405866443 92.627539109304053 0 92.627539109304053 -544.35284641749786 0 0 0 0 0.037786462930853304 139.07259630877888 0 139.07259630877888 -530.23943152069842 0 0 0 0 46.079050681948047 284.12767140199139 0 284.12767140199139 -625.09116799996991 0 0 0 0 187.1571328022053 59.184191804806687 0 59.184191804806687 -536.67982545073028 0 0 0 0 190.33324621769179 -10.8904759169709 0 -10.8904759169709 -529.68269928670225 0 0 0 0 106.91685278590239 104.51199657548932 0 104.51199657548932 -216.3267965252337 0 0 0 0 65.574628163856914 112.49975137822184 0 112.49975137822184 63.776661108277949 0 0 0 0 100.77936324893653 -16.414036197460518 0 -16.414036197460518 -201.06613531173207 0 0 0 0 -9.0385295784810751 119.74402935006219 0 119.74402935006219 -232.10346309085799 0 0 0 0 105.84242612387311 76.405904906645446 0 76.405904906645446 -494.99663671430244 0 0 0 0 69.980765859677717 -22.074766940722839 0 -22.074766940722839 -490.21047694446679 0 0 0 0 -216.10847694801541 173.50681251343735 0 173.50681251343735 -96.613380794071418 0 0 0 0 -187.42878450051103 -3.5897884781479661 0 -3.5897884781479661 50.979699201156109 0 0 0 0 -215.78754122923237 -128.47894427951542 0 -128.47894427951542 -510.25529347086194 0 0 0 0 -10.217109230220103 139.96549687792867 0 139.96549687792867 -543.24297468682607 0 0 0 0 -266.37318191089844 128.41457678550796 0 128.41457678550796 -357.47893110809218 0 0 0 0 -66.177814019632478 43.906583047430104 0 43.906583047430104 20.50195549322234 0 0 0 0 -65.835237774505913 -7.0806908924587333 0 -7.0806908924587333 18.680671624362731 0 0 0 0 -67.268047428530735 29.403542684780405 0 29.403542684780405 -4.4866855963427952 0 0 0 0 -90.979458179589301 66.264047408204533 0 66.264047408204533 20.044637389852141 0 0 0 0 1.7943333413750224 82.548167818447837 0 82.548167818447837 18.633574213200291 0 0 0 0 79.420192619212912 77.742834272123218 0 77.742834272123218 -11.254849216398725 0 0 0 0 73.168407536551967 114.82739076285361 0 114.82739076285361 2.9955346498372819 0 0 0 0 -5.2392147618513718 141.26154472535018 0 141.26154472535018 -34.769871117168805 0 0 0 0 28.244337113960455 38.396239247484118 0 38.396239247484118 -110.22829952072789 0 0 0 0 172.30232159377954 149.42927003971454 0 149.42927003971454 5.9398846231742937 0 0 0 0 99.482525442900453 118.16150674457185 0 118.16150674457185 15.159208789144031 0 0 0 0 105.80613906570147 85.167327443661634 0 85.167327443661634 0.96875076679862104 0 0 0 0 127.79805097119379 109.54277045672461 0 109.54277045672461 -1.4714686499792151 0 0 0 0 188.75313492061946 58.905419437243836 0 58.905419437243836 -30.508088422451692 0 0 0 0 124.91500328372331 53.800898771816719 0 53.800898771816719 -28.834912274740418 0 0 0 0 119.25023862698936 72.173843481130461 0 72.173843481130461 -9.2899656999998115 0 0 0 0 61.764531168762403 50.045029612364033 0 50.045029612364033 10.919350171760016 0 0 0 0 56.569222652711233 65.314366876900749 0 65.314366876900749 1.3962362285892596 0 0 0 0 60.838171104226831 85.584874125004717 0 85.584874125004717 11.098472868186946 0 0 0 0 14.584395063869806 70.256761888635083 0 70.256761888635083 15.222423328694276 0 0 0 0 78.792122842261506 67.974737333821395 0 67.974737333821395 -3.5199546049552737 0 0 0 0 -49.38626666305322 34.440713584280275 0 34.440713584280275 19.070426006539492 0 0 0 0 2.5178718160168501 53.710875519732326 0 53.710875519732326 15.691229584634129 0 0 0 0 1.967980569995234 54.583486331766835 0 54.583486331766835 16.756511356765259 0 0 0 0 -15.424364754257567 41.84168787003 0 41.84168787003 8.7174292187100946 0 0 0 0 -14.762016381770536 25.90118109922696 0 25.90118109922696 -25.989738072577893 0 0 0 0 -206.42169415301441 100.7761044602812 0 100.7761044602812 -59.770134249398325 0 0 0 0 -131.78839678767548 62.811274093484826 0 62.811274093484826 -177.87252336297752 0 0 0 0 -288.01816841574009 206.93303539580666 0 206.93303539580666 -158.38744090907403 0 0 0 0 -242.82907584607301 272.86946127789543 0 272.86946127789543 -200.20782552176024 0 0 0 0 -419.39756814956036 291.78767904522101 0 291.78767904522101 -188.20403627663109 0 0 0 0 -318.10742977381182 146.81969304872928 0 146.81969304872928 -376.0303505998636 0 0 0 0 -276.9708415154837 269.40210328697503 0 269.40210328697503 -193.31580061216846 0 0 0 0 -215.34418751533872 83.133625795668195 0 83.133625795668195 65.436058305171173 0 0 0 0 -292.38796817897423 272.67711546178907 0 272.67711546178907 -155.86297560162711 0 0 0 0 -165.91487700925313 337.49108940516999 0 337.49108940516999 -264.11493513146706 0 0 0 0 387.86150600959252 145.50020322641467 0 145.50020322641467 -57.169323465519483 0 0 0 0 -1.2617558662194555 10.317475620884203 0 10.317475620884203 -39.761462685649477 0 0 0 0 524.93229375281635 179.72012603806979 0 179.72012603806979 -177.61453005955991 0 0 0 0 17.881666511458661 209.32737345787791 0 209.32737345787791 181.08337437076443 0 0 0 0 28.791338514275139 81.783074846880481 0 81.783074846880481 -106.07444271057284 0 0 0 0 -132.92736749798013 57.992339568352691 0 57.992339568352691 54.655411121380894 0 0 0 0 39.469940667536036 272.04954981769924 0 272.04954981769924 -408.68690148075621 0 0 0 0 1.5979500661836248 -162.54293061129454 0 -162.54293061129454 -163.2375117417505 0 0 0 0 616.82474500097442 253.63426771458217 0 253.63426771458217 -693.07412244495936 0 0 0 0 270.58776422034828 124.34898490187697 0 124.34898490187697 -48.271185210680414 0 0 0 0 497.06743551172303 -166.56445006866215 0 -166.56445006866215 -97.676784135407161 0 0 0 0 -1.4123156087816828 11.082973986689044 0 11.082973986689044 -52.989767106130202 0 0 0 0 0.31280196008423644 -0.3562685542848083 0 -0.3562685542848083 -1.6382352823238691 0 0 0 0 -243.87802355942722 -96.476792683097756 0 -96.476792683097756 476.16442608029593 0 0 0 0 -18.47985709098262 60.099928651035952 0 60.099928651035952 -1.3582941343520361 0 0 0 0 519.51074240397384 -205.21220587726111 0 -205.21220587726111 -194.11776819195256 0 0 0 0 0.61316433721693864 -1.0095161346167156 0 -1.0095161346167156 -6.0286220146694518 0 0 0 0 41.43841696067966 -416.07888129380444 0 -416.07888129380444 -131.88007266600152 0 0 0 0 120.33099416651817 107.60139139787771 0 107.60139139787771 -369.77624005942369 0 0 0 0 22.230551000137211 178.61562234715348 0 178.61562234715348 -175.2298344773435 0 0 0 0 -66.538196536802417 31.322021093560096 0 31.322021093560096 -164.95804898755523 0 0 0 0 3.7251098622940617 -27.815945045140325 0 -27.815945045140325 -386.01432885487861 0 0 0 0 -65.373863512988919 131.14283616973989 0 131.14283616973989 -211.31251518010322 0 0 0 0 -159.12953264178032 212.6864261536266 0 212.6864261536266 -275.07177085939657 0 0 0 0 18.540475759353285 133.32400131235136 0 133.32400131235136 -275.67475732258953 0 0 0 0 -197.85983417679745 250.11280364593858 0 250.11280364593858 -285.16449064942572 0 0 0 0 -47.927695482047966 286.86031060486175 0 286.86031060486175 -367.39386443862895 0 0 0 0 -181.14290627480295 254.15175964541959 0 254.15175964541959 -456.26230754835251 0 0 0 0 -510.48490846995992 342.90026946152648 0 342.90026946152648 -490.83835748862657 0 0 0 0 -795.06488064513724 706.21313373897556 0 706.21313373897556 -740.34638508903663 0 0 0 0 -698.77063205410377 505.47059209003783 0 505.47059209003783 -418.43224217982515 0 0 0 0 -676.61464240785426 367.96731302735679 0 367.96731302735679 -251.97982424247311 0 0 0 0 -957.96569986655231 262.89328448481774 0 262.89328448481774 -208.5621015015131 0 0 0 0 -660.22871567804032 246.41087584927595 0 246.41087584927595 -216.46816541206499 0 0 0 0 -481.6664265778054 345.43292282486436 0 345.43292282486436 -313.8867749461424 0 0 0 0 -416.97073680231551 405.39196037893998 0 405.39196037893998 -349.4406907366938 0 0 0 0 -414.70534949235662 272.30732322130098 0 272.30732322130098 -217.60994829008268 0 0 0 0 -601.9692214899751 277.72487449014443 0 277.72487449014443 -171.46126653957799 0 0 0 0 -275.94703674091579 364.26669497601506 0 364.26669497601506 -347.83120487686392 0 0 0 0 -136.31870861846664 251.51813454063904 0 251.51813454063904 -260.18945824632829 0 0 0 0 -253.01669638289513 291.36251844405069 0 291.36251844405069 -264.58699486606747 0 0 0 0 -37.799448449898591 329.26185325070537 0 329.26185325070537 -827.20791795989135 0 0 0 0 -191.38120534545487 532.23377896840066 0 532.23377896840066 -656.92006904180653 0 0 0 0 -188.89140479757589 539.30261548444832 0 539.30261548444832 -880.90931294403981 0 0 0 0 -131.19590420835993 465.83644262624148 0 465.83644262624148 -818.1232471752237 0 0 0 0 -68.99561384251092 438.60995283555758 0 438.60995283555758 -1025.2120604595793 0 0 0 0 2666.2520506671767 -1201.0957882236141 0 -1201.0957882236141 2819.9146276725387 0 0 0 0 1.3358169784430496 -3.6590394209544037 0 -3.6590394209544037 -20.862908810073996 0 0 0 0 -797.24546859197289 880.54357721293354 0 880.54357721293354 -720.12679261326048 0 0 0 0 -130.7537309048501 936.20079574334136 0 936.20079574334136 -1757.4335093520622 0 0 0 0 -1664.4866193838634 849.87651665525925 0 849.87651665525925 -383.26504043287423 0 0 0 0 -1384.4499882075688 399.7351395337937 0 399.7351395337937 -204.251459829542 0 0 0 0 -604.16728804630293 284.75422135167173 0 284.75422135167173 -193.85838790709022 0 0 0 0 82.37473778006688 -775.4910700229093 0 -775.4910700229093 1077.4866454608164 0 0 0 0 19.806334377462917 -349.66271323234469 0 -349.66271323234469 -1211.8647645901601 0 0 0 0 3.8668007228313401 -3.8853381661357478 0 -3.8853381661357478 -66.375914726836243 0 0 0 0 2430.0134563614306 254.77876953208101 0 254.77876953208101 -5052.4087068146619 0 0 0 0 211.75882490591721 107.16718423631755 0 107.16718423631755 -2081.556029741143 0 0 0 0 -58.727840789796574 181.62405185441503 0 181.62405185441503 -254.46665137715354 0 0 0 0 73.381433566872829 -166.9117696822957 0 -166.9117696822957 -242.35461001537078 0 0 0 0 -3.0973649811840005 152.46419733564107 0 152.46419733564107 -392.01046773097914 0 0 0 0 149.07038352875497 32.234772381445055 0 32.234772381445055 -907.45563494899943 0 0 0 0 -31.145460623713916 44.034978629066927 0 44.034978629066927 13.878374221008073 0 0 0 0 0.93310308173362655 1.3566773050274108 0 1.3566773050274108 0.86514178833824928 0 0 0 0 -33.544846798236449 -69.836805176629923 0 -69.836805176629923 61.894448646500678 0 0 0 0 74.858787988715449 2.0420034298845167 0 2.0420034298845167 -106.17053067444249 0 0 0 0 5.2541075236089974 7.3502452942566991 0 7.3502452942566991 8.0018063934019228 0 0 0 0 -73.694473639113085 19.566154383488765 0 19.566154383488765 49.821907777405613 0 0 0 0 -551.55645247969142 -57.855267672864557 0 -57.855267672864557 981.32638032216164 0 0 0 0 -278.50672319088744 -78.689449614336581 0 -78.689449614336581 -99.545924501569971 0 0 0 0 -45.42785365919417 479.81776237221402 0 479.81776237221402 957.24129588981486 0 0 0 0 -28.59210119009731 229.97128386998156 0 229.97128386998156 -72.790455344935367 0 0 0 0 -147.06201290937406 99.1680983987535 0 99.1680983987535 -3.4151633286710421 0 0 0 0 223.19284326107527 -178.22889271605914 0 -178.22889271605914 -174.0697062599429 0 0 0 0 -288.0170792708077 570.71599730260914 0 570.71599730260914 -650.74417957573496 0 0 0 0 -25.992439546822425 9.2011589726253078 0 9.2011589726253078 38.539735095371725 0 0 0 0 -4.2049179914063011 1.3153199811973906 0 1.3153199811973906 3.6255226780625094 0 0 0 0 -12.457235526980128 7.0821762989966217 0 7.0821762989966217 21.289560193007901 0 0 0 0 -1.4735843456701332 18.316066572364662 0 18.316066572364662 -19.710282671444816 0 0 0 0 2.4733869692947525 3.6232666048426587 0 3.6232666048426587 -1.4250300433206791 0 0 0 0 0.25886229026900998 14.279973963230363 0 14.279973963230363 15.225873479921511 0 0 0 0 -338.18974775884362 274.81371675215814 0 274.81371675215814 -175.92171144541499 0 0 0 0 -292.42026828416419 302.596121987277 0 302.596121987277 -213.88627701095538 0 0 0 0 -276.44735290335575 255.60339833082617 0 255.60339833082617 -170.66654217597988 0 0 0 0 4.5518320797987872 -3.6860738305378362 0 -3.6860738305378362 -89.737928246516887 0 0 0 0 802.83155530025761 5.4428290400421702 0 5.4428290400421702 -301.28301700484553 0 0 0 0 -331.07609938246424 215.72073702619673 0 215.72073702619673 -173.31009492277735 0 0 0 0 -317.63091955396158 226.0363763473415 0 226.0363763473415 -165.43256239088623 0 0 0 0 -210.65146213225853 109.33780435298468 0 109.33780435298468 -86.102879290159763 0 0 0 0 -184.28419706751799 264.5277783615968 0 264.5277783615968 -253.37354372456321 0 0 0 0 -160.1666215338164 203.01793172529688 0 203.01793172529688 -177.92818534050093 0 0 0 0 -195.89967586383409 408.15369517674299 0 408.15369517674299 -440.5815148042384 0 0 0 0 -84.540621038338031 -101.32755897635343 0 -101.32755897635343 -42.821245629209443 0 0 0 0 -18.215642692224719 208.67561986395594 0 208.67561986395594 -285.33765869645504 0 0 0 0 8.7941462175231209 -5.3880201891897741 0 -5.3880201891897741 -118.19690540576585 0 0 0 0 -6.2117892433507222 32.73688549965118 0 32.73688549965118 -108.03776665099713 0 0 0 0 18.090044470883822 -19.146820710215898 0 -19.146820710215898 -35.767914007722787 0 0 0 0 -1.9906819527204789 20.293487369820014 0 20.293487369820014 -72.103282040179693 0 0 0 0 0.50098568690373213 6.8524428202026684 0 6.8524428202026684 -138.66792261074443 0 0 0 0 -48.010616667335171 14.386026615842638 0 14.386026615842638 -78.396529951849516 0 0 0 0 -49.792226543769175 85.455987975750759 0 85.455987975750759 -108.36895702979518 0 0 0 0 1.9929703612273748 -0.65999262665029867 0 -0.65999262665029867 -0.083778632222553995 0 0 0 0 68.816573661821167 97.155113901866571 0 97.155113901866571 -274.24093549106328 0 0 0 0 10.580344027722122 -5.1309736659694805 0 -5.1309736659694805 -99.323295150752941 0 0 0 0 -3.828983982642967 42.378633208972587 0 42.378633208972587 -68.262744603018291 0 0 0 0 192.32806076739735 67.612315148453149 0 67.612315148453149 -164.6535182078951 0 0 0 0 8.7100161213019369 24.657082757100888 0 24.657082757100888 3.3252607864498955 0 0 0 0 2.167879650543 52.601304594770909 0 52.601304594770909 -54.228462596049212 0 0 0 0 30.01036301844033 39.192485214185126 0 39.192485214185126 -56.366418911966775 0 0 0 0 3.1080067272138336 23.886475885007826 0 23.886475885007826 17.667654182366714 0 0 0 0 0.47693635876249119 14.400535595306724 0 14.400535595306724 -30.524515611384398 0 0 0 0 9.3854501222701856 16.962365087256444 0 16.962365087256444 -25.483698856464457 0 0 0 0 2.1035237391633927 18.196514793838787 0 18.196514793838787 -19.75797385734063 0 0 0 0 3.631905608157922 12.193888876487449 0 12.193888876487449 -29.324095438699032 0 0 0 0 0.63519638321076854 10.636983357660256 0 10.636983357660256 -28.981383029254403 0 0 0 0 20.010795775892802 -4.1236408106378803 0 -4.1236408106378803 -46.455836134507308 0 0 0 0 24.218922119138369 1.0302130580516859 0 1.0302130580516859 -43.487295377950431 0 0 0 0 50.605361961819654 -2.1620294754720817 0 -2.1620294754720817 -61.179263885182991 0 0 0 0 15.393790782597534 -14.019806618971415 0 -14.019806618971415 -37.167928738236697 0 0 0 0 2.7040395596341114 49.249038835713236 0 49.249038835713236 -75.548170522954138 0 0 0 0 3.6391012179062727 11.982544290113083 0 11.982544290113083 -34.525157533311358 0 0 0 0 1.9908328721178981 8.495283980751676 0 8.495283980751676 -34.436725812222782 0 0 0 0 1.3002647202193458 0.7758101237524837 0 0.7758101237524837 -5.2896207503892647 0 0 0 0 3.3894988129322883 10.736513188250228 0 10.736513188250228 -37.701613144183284 0 0 0 0 -22.992563681757019 22.073305486427216 0 22.073305486427216 -57.099842912581153 0 0 0 0 -31.307158458736922 31.725278841862291 0 31.725278841862291 -70.145062784753463 0 0 0 0 9.3988937276335491 37.521339759121474 0 37.521339759121474 -76.85148581558542 0 0 0 0 -22.172967255194635 22.714163885675589 0 22.714163885675589 -90.134168590130685 0 0 0 0 -71.625460092805042 51.982683151327365 0 51.982683151327365 -76.116908267757026 0 0 0 0 1.7591855937017162 -4.7094781660708271 0 -4.7094781660708271 -0.52597942454300295 0 0 0 0 -31.559513468047101 14.768835809511643 0 14.768835809511643 -52.193061218402363 0 0 0 0 -34.646053477609939 6.961254297612868 0 6.961254297612868 -56.320480004602359 0 0 0 0 7.5092751587526436 16.368637744375064 0 16.368637744375064 -65.095606146945102 0 0 0 0 -24.846427383798073 27.825294190050045 0 27.825294190050045 -55.084237188595807 0 0 0 0 -28.072405301619277 11.503299317479787 0 11.503299317479787 -55.95480526852225 0 0 0 0 8.073311118635111 -15.654263688176172 0 -15.654263688176172 -59.131788139499349 0 0 0 0 15.016509974576945 -12.584670800535465 0 -12.584670800535465 -18.586216227957465 0 0 0 0 2.7914795940298074 8.6326299272459437 0 8.6326299272459437 -60.661149863684841 0 0 0 0 12.662992563044023 -13.793448805781436 0 -13.793448805781436 -18.254612956501269 0 0 0 0 -9.5833894488323494 -6.706127675008247 0 -6.706127675008247 -25.031993626324038 0 0 0 0 5.2921475480752633 -22.353511970315594 0 -22.353511970315594 -28.926626260668854 0 0 0 0 25.448016583183062 2.0575909620315542 0 2.0575909620315542 -71.90413742502551 0 0 0 0 12.526679016118067 -10.227001353757259 0 -10.227001353757259 -81.260351200791263 0 0 0 0 21.178859079309859 -13.335511604578642 0 -13.335511604578642 -17.735010311385849 0 0 0 0 0.78713567629836501 -0.33257072412207833 0 -0.33257072412207833 -2.8124172599417889 0 0 0 0 -1.2791825762159776 -4.97993329226329 0 -4.97993329226329 3.5855073785049854 0 0 0 0 9.2834835105832099 6.6487245697171602 0 6.6487245697171602 -51.156932387741108 0 0 0 0 13.40148397590383 10.340345044573041 0 10.340345044573041 -53.408985700691119 0 0 0 0 -1.8104326937834685 13.389273950857387 0 13.389273950857387 -52.348112472804132 0 0 0 0 0.020460527893419567 -6.7463883565178548 0 -6.7463883565178548 -45.292454311147594 0 0 0 0 -2.535936158529239 -1.7136683865774103 0 -1.7136683865774103 -54.536849034850093 0 0 0 0 -2.773611228023583 7.1996669303880481 0 7.1996669303880481 -56.982735605632115 0 0 0 0 -2.737676956625819 19.795134403942939 0 19.795134403942939 -96.938810475621722 0 0 0 0 -13.035054599637078 2.3547938249062099 0 2.3547938249062099 -59.09047933941838 0 0 0 0 -4.5261849254084154 11.614348570419679 0 11.614348570419679 -79.881974233824167 0 0 0 0 14.051356634179683 -14.447313342036068 0 -14.447313342036068 -65.1318312307003 0 0 0 0 -18.209943931290127 1.5157505895431314 0 1.5157505895431314 -51.36925309430444 0 0 0 0 17.321773555298478 -6.6127835673883055 0 -6.6127835673883055 -49.892936469386768 0 0 0 0 -6.8898718759919575 2.1431527317909058 0 2.1431527317909058 -32.786597566915589 0 0 0 0 -14.99328181438068 -15.594610426564714 0 -15.594610426564714 -64.510682732177884 0 0 0 0 38.035106882673063 26.658581177232122 0 26.658581177232122 -76.408712412165158 0 0 0 0 0.40272218868199161 16.978574794067015 0 16.978574794067015 -40.842531155762117 0 0 0 0 -5.8693305846391013 12.822827006116768 0 12.822827006116768 -43.321153409272029 0 0 0 0 2.7497608413987109 0.6104207893451985 0 0.6104207893451985 -40.79693821644878 0 0 0 0 3.3514243487616113 -3.7317065204413211 0 -3.7317065204413211 -30.083574224465337 0 0 0 0 3.9866765656677643 -3.7149836204974811 0 -3.7149836204974811 -27.39353326583808 0 0 0 0 0.15816582765430809 -1.2967645048309535 0 -1.2967645048309535 -3.8400488826820771 0 0 0 0 21.194739098721584 0.037384168840162602 0 0.037384168840162602 -19.205346844507176 0 0 0 0 5.7255530163845378 -4.4673214442602216 0 -4.4673214442602216 -59.027431578399046 0 0 0 0 -0.91106483403045679 -0.92333689328205804 0 -0.92333689328205804 1.4941166958443755 0 0 0 0 36.857544788821997 19.056041895423732 0 19.056041895423732 0.75440064098529547 0 0 0 0 44.739935871559283 72.425611920516985 0 72.425611920516985 11.824347929077874 0 0 0 0 7.1011929633205 17.885336413037749 0 17.885336413037749 -35.696411615630495 0 0 0 0 56.714082219555166 45.75672446570843 0 45.75672446570843 -66.892548870659084 0 0 0 0 36.995527245190715 49.232811059562664 0 49.232811059562664 -51.825518240635574 0 0 0 0 9.4203520898963689 36.548351250548876 0 36.548351250548876 -53.184080396048557 0 0 0 0 -3.5775484205196335 52.83398124130008 0 52.83398124130008 -50.305347396713842 0 0 0 0 41.209184019657187 32.626645501165058 0 32.626645501165058 -65.671246523080299 0 0 0 0 3.1100454628779062 27.278307308041491 0 27.278307308041491 -102.91706468453503 0 0 0 0 0.26933574519352987 -11.934709976436011 0 -11.934709976436011 -84.209067993332781 0 0 0 0 25.063040101998013 -29.49066052812168 0 -29.49066052812168 -146.47950144717197 0 0 0 0 1.278870012211593 -0.90360387713770995 0 -0.90360387713770995 -0.55175530017941643 0 0 0 0 2.4103434578209999 25.213809645617175 0 25.213809645617175 -26.441901857938774 0 0 0 0 24.579811509487627 19.004215072830025 0 19.004215072830025 -32.996811987007575 0 0 0 0 18.894871091199093 25.440779647471562 0 25.440779647471562 -28.70675692499173 0 0 0 0 -0.80897566838120838 7.4232526420880731 0 7.4232526420880731 -34.802776829735535 0 0 0 0 -8.9587459005319943 13.57373285134571 0 13.57373285134571 -25.229689350910803 0 0 0 0 5.1757583443722979 18.281412300785796 0 18.281412300785796 -24.255510827595074 0 0 0 0 -0.55689102214046216 15.145818047363996 0 15.145818047363996 -21.932865526208786 0 0 0 0 5.7087727485577489 11.858156904839575 0 11.858156904839575 -19.053147676260096 0 0 0 0 0.81086141576270165 15.769486296212449 0 15.769486296212449 -21.970759933927603 0 0 0 0 5.6190995730598843 18.055681927755135 0 18.055681927755135 -25.581416704189358 0 0 0 0 8.9726063144298678 16.994544911622597 0 16.994544911622597 -25.717493833873803 0 0 0 0 18.527292015290186 11.671732176643559 0 11.671732176643559 -27.181475587366094 0 0 0 0 22.483021751359956 17.981617155361278 0 17.981617155361278 -33.020872025403506 0 0 0 0 7.5740947076901648 18.631044818026794 0 18.631044818026794 -23.350422625665487 0 0 0 0 15.999323111343529 10.880185529261809 0 10.880185529261809 -32.215374536659056 0 0 0 0 -0.1880075508279333 15.208865677395295 0 15.208865677395295 -29.165574192318786 0 0 0 0 -12.262211002644108 15.226664621649718 0 15.226664621649718 -26.875501862345544 0 0 0 0 -5.3685715789624737 13.175598001639578 0 13.175598001639578 -29.210163818761657 0 0 0 0 -4.6410963684747912 15.333106436861726 0 15.333106436861726 -23.997670225291415 0 0 0 0 -14.001599623743914 21.972741206847957 0 21.972741206847957 -0.0068953184359088482 0 0 0 0 46.182181624551049 35.688420267227229 0 35.688420267227229 -20.883092570421809 0 0 0 0 10.394520214378872 23.596816344585989 0 23.596816344585989 -24.94756331121971 0 0 0 0 -16.318243998596699 40.660190454754456 0 40.660190454754456 28.152597778945619 0 0 0 0 -39.303551313800199 3.1532707392595967 0 3.1532707392595967 -6.0055558447705835 0 0 0 0 -7.5006002145428283 13.05117891416694 0 13.05117891416694 -18.615927400536293 0 0 0 0 7.0111960619824458 0.93936682581033892 0 0.93936682581033892 -20.016047781808084 0 0 0 0 40.632611273656948 7.1206541841468152 0 7.1206541841468152 -28.270292533437214 0 0 0 0 23.321605824426115 12.911323724414274 0 12.911323724414274 -26.862011528555286 0 0 0 0 2.3913504380376978 -0.46433858336199485 0 -0.46433858336199485 -0.48952431819316011 0 0 0 0 27.078117700103576 0.80475692082291062 0 0.80475692082291062 -20.661312889732699 0 0 0 0 -35.623803586959184 98.980331751247832 0 98.980331751247832 18.744654970405122 0 0 0 0 -0.85246548122995591 -44.237013504513925 0 -44.237013504513925 53.950341523796396 0 0 0 0 14.038711635373147 12.993078092769792 0 12.993078092769792 5.6788550373203179 0 0 0 0 -0.75488416130176716 1.3781020079550714 0 1.3781020079550714 -0.26392522011016872 0 0 0 0 2.6288829163989202 5.4102579853568962 0 5.4102579853568962 2.4905486249676763 0 0 0 0 -0.13317671509025786 67.971303700789576 0 67.971303700789576 -509.13670994334643 0 0 0 0 2.6413167459695615 143.61611617119797 0 143.61611617119797 -543.46247932997721 0 0 0 0 -77.738787201475134 229.45428608640123 0 229.45428608640123 -565.13069823294336 0 0 0 0 -48.600942329249847 172.32638921496437 0 172.32638921496437 -719.72332779227781 0 0 0 0 -190.14636615105155 309.49570005605165 0 309.49570005605165 -606.8836329455853 0 0 0 0 -44.613278738051122 276.54815564901037 0 276.54815564901037 -600.98594351338215 0 0 0 0 66.902964109325467 28.040480630218553 0 28.040480630218553 -196.46563137365683 0 0 0 0 0.6635253941242496 1.0526591083978136 0 1.0526591083978136 -2.1271352783175637 0 0 0 0 74.070053930642416 -71.463952102414567 0 -71.463952102414567 -56.212253832491115 0 0 0 0 -6.0619285921602941 6.7122479934589405 0 6.7122479934589405 -2.3637391076019982 0 0 0 0 36.214782098762043 27.478868301881448 0 27.478868301881448 -0.30133351822541954 0 0 0 0 119.47145221817118 104.72695610423307 0 104.72695610423307 -555.54876276013692 0 0 0 0 21.396501209158487 196.93166316433872 0 196.93166316433872 -415.02605875274367 0 0 0 0 -34.272858606817181 40.985378663042184 0 40.985378663042184 -356.19079343285921 0 0 0 0 -112.29012400436113 55.969574918257422 0 55.969574918257422 -199.77113317750263 0 0 0 0 27.713025621114866 111.74048042414688 0 111.74048042414688 -667.20797012284493 0 0 0 0 0.074133768183401116 126.21568119967696 0 126.21568119967696 -558.45844763408945 0 0 0 0 17.002139828180589 142.40208406583292 0 142.40208406583292 -595.10829378497874 0 0 0 0 -101.12039370125058 206.95561623750109 0 206.95561623750109 -488.94913671564746 0 0 0 0 -222.91265847590603 -32.953870641259073 0 -32.953870641259073 -449.47354900553319 0 0 0 0 -130.18940603694517 147.67376051230497 0 147.67376051230497 -235.94485157343024 0 0 0 0 -115.09268271814244 187.85250581857099 0 187.85250581857099 -479.92550137261605 0 0 0 0 -139.56506600082093 96.74853927540471 0 96.74853927540471 -172.72506858600173 0 0 0 0 -133.86313741317247 69.593117449983993 0 69.593117449983993 -16.524306050235282 0 0 0 0 -98.482432984694697 131.50872736099745 0 131.50872736099745 -150.04258963926031 0 0 0 0 -152.0727919947085 66.178943900793456 0 66.178943900793456 -182.80881444547686 0 0 0 0 -120.03864049142612 101.99374056950819 0 101.99374056950819 -149.89763977902294 0 0 0 0 -37.710914458704337 -41.348660589862675 0 -41.348660589862675 5.2563135826585494 0 0 0 0 6.3561172361264653 10.281003695697564 0 10.281003695697564 8.2134065098316569 0 0 0 0 1.5370312846296201 -15.407076205859767 0 -15.407076205859767 35.458712483581621 0 0 0 0 -0.50347280980619846 -1.6358712279280727 0 -1.6358712279280727 -8.6099191977661391 0 0 0 0 0.034525301211808745 -0.68489323201498031 0 -0.68489323201498031 -3.9420507824032711 0 0 0 0 -27.188905419121511 -31.802348009010075 0 -31.802348009010075 -45.54226547614644 0 0 0 0 0.092017008193824523 -1.3807827427884036 0 -1.3807827427884036 -1.396067221521303 0 0 0 0 -252.69129669493486 187.56409291839191 0 187.56409291839191 -63.716754570383557 0 0 0 0 -49.762832376469305 19.551499329163562 0 19.551499329163562 -0.36526280907042974 0 0 0 0 82.66914840712252 -61.253436043772126 0 -61.253436043772126 -479.88170701898434 0 0 0 0 -172.16224487124782 -65.662788125380757 0 -65.662788125380757 -59.647648188511084 0 0 0 0 -261.01902869575906 333.16050424093237 0 333.16050424093237 -444.46703482783414 0 0 0 0 -0.43731981990655555 -1.1358600811510051 0 -1.1358600811510051 -4.2919530025451067 0 0 0 0 -98.274195627789595 247.18283628482368 0 247.18283628482368 -678.97473708270627 0 0 0 0 -330.4221861377855 113.84848210030486 0 113.84848210030486 -592.37451077693504 0 0 0 0 -149.42791186235172 205.05637844275816 0 205.05637844275816 -532.31244626842272 0 0 0 0 -103.68829659967309 218.88332303239099 0 218.88332303239099 -547.69848586607441 0 0 0 0 -122.15669004776919 180.37345456098137 0 180.37345456098137 -533.45869792416488 0 0 0 0 -125.28317731276002 350.92524977418771 0 350.92524977418771 -499.78825769096693 0 0 0 0 -299.67030924605388 319.18236006380084 0 319.18236006380084 -449.91099287361612 0 0 0 0 -146.90748787983466 410.9835556633243 0 410.9835556633243 -482.67895797439996 0 0 0 0 -144.0444586078703 389.77650116043839 0 389.77650116043839 -510.68808510907002 0 0 0 0 -231.87108807733603 482.17685149677527 0 482.17685149677527 -370.32828056084884 0 0 0 0 52.089102932299284 164.69655481956397 0 164.69655481956397 -339.15229149118898 0 0 0 0 -115.47341429879452 -155.27955864113392 0 -155.27955864113392 118.39450343646934 0 0 0 0 -647.61856202073159 434.91400388650709 0 434.91400388650709 -127.77840631402432 0 0 0 0 -522.23293713314342 238.87944666414842 0 238.87944666414842 128.77207408059803 0 0 0 0 -199.7184817227444 317.65043690996572 0 317.65043690996572 -266.00103802317972 0 0 0 0 -510.92623601281412 604.09255835390013 0 604.09255835390013 -423.45582328469027 0 0 0 0 -1669.1862524992584 1130.1213673466891 0 1130.1213673466891 -619.50577633824287 0 0 0 0 1.0464278870104753 -2.7354994261809313 0 -2.7354994261809313 -24.191599491223272 0 0 0 0 2111.3613148496079 -1746.243896976971 0 -1746.243896976971 2984.4188391483149 0 0 0 0 -670.95865444235824 701.76979935905547 0 701.76979935905547 -914.29409384019891 0 0 0 0 -726.6380760759007 466.64239673911561 0 466.64239673911561 -665.66013576572368 0 0 0 0 -117.04406762609869 129.46213102195361 0 129.46213102195361 -2126.0729883483673 0 0 0 0 -378.91231915540038 -307.94208973749414 0 -307.94208973749414 -437.77683091936342 0 0 0 0 -1019.5565516310508 1272.3638735842342 0 1272.3638735842342 -1544.8464234290368 0 0 0 0 -93.623309323145804 3052.6684316074698 0 3052.6684316074698 -5986.7327333115099 0 0 0 0 -120.62186973901953 -31.914148013655904 0 -31.914148013655904 -304.11885654304797 0 0 0 0 107.14305449778942 -661.64975441095407 0 -661.64975441095407 -956.7024285359621 0 0 0 0 -232.2932504389546 -193.19357601159345 0 -193.19357601159345 434.95044688413418 0 0 0 0 -33.721524241767838 -384.31895433052159 0 -384.31895433052159 -631.83854270244501 0 0 0 0 4.1876476663305189 -2.3597908367203111 0 -2.3597908367203111 -47.019557878169792 0 0 0 0 274.98123212209794 -147.00197424111275 0 -147.00197424111275 -263.86312667837956 0 0 0 0 1200.5426347004254 -249.91942992867189 0 -249.91942992867189 -1584.8004921109787 0 0 0 0 134.58282741207313 163.78950065304343 0 163.78950065304343 -84.313532038317135 0 0 0 0 25.477171927472682 117.62761530529497 0 117.62761530529497 -406.8295998815338 0 0 0 0 -160.39883520930562 46.391079624258964 0 46.391079624258964 -163.06488495108806 0 0 0 0 -145.64690891514874 127.60129551836053 0 127.60129551836053 -598.62357678241369 0 0 0 0 -319.07501949608013 155.83690491206471 0 155.83690491206471 -492.08830857057819 0 0 0 0 -406.63806955951986 437.05846274404121 0 437.05846274404121 -569.71230962921982 0 0 0 0 -339.78093462057041 534.94384586881733 0 534.94384586881733 -874.54749958141838 0 0 0 0 -643.52322589712821 -90.544287439466189 0 -90.544287439466189 -154.13508441458862 0 0 0 0 0.11404951172990074 0.88024191984296785 0 0.88024191984296785 1.1705115764551799 0 0 0 0 -273.12186008948356 129.00441143420528 0 129.00441143420528 -34.439194953746664 0 0 0 0 -42.509049384830178 -193.06836896170762 0 -193.06836896170762 -335.52654392239765 0 0 0 0 -64.583139131940698 46.875356208293397 0 46.875356208293397 33.397404399060179 0 0 0 0 -96.765799940917645 -102.26027420730992 0 -102.26027420730992 126.35386003772328 0 0 0 0 -173.51467560152014 -47.492337170826886 0 -47.492337170826886 -42.515708859886217 0 0 0 0 -177.49072046823221 -40.28859971591919 0 -40.28859971591919 135.05683747799958 0 0 0 0 7.8220838064335112 -85.202292797977861 0 -85.202292797977861 -18.998682733141322 0 0 0 0 -46.459847406448603 -30.834487143650222 0 -30.834487143650222 21.97099717103174 0 0 0 0 162.83625566219371 -187.3056153298495 0 -187.3056153298495 134.3778521784543 0 0 0 0 -7.0375631375187098 -15.479978606059731 0 -15.479978606059731 -25.887080205118984 0 0 0 0 77.237084081761168 -1.5187933182919551 0 -1.5187933182919551 77.646853952254787 0 0 0 0 -5.09648222866781 -137.91357551977671 0 -137.91357551977671 194.78159251428542 0 0 0 0 111.59917018006098 -215.70822200454398 0 -215.70822200454398 128.29643853317157 0 0 0 0 152.54578513677279 -117.85944980430759 0 -117.85944980430759 -26.440170169210433 0 0 0 0 4.640737375774366 0.17730495159799453 0 0.17730495159799453 -44.736225639237475 0 0 0 0 -62.220559061837548 -137.36437113488284 0 -137.36437113488284 41.885141957432097 0 0 0 0 -177.51835818678683 265.81348140352202 0 265.81348140352202 365.08018027031352 0 0 0 0 -412.98201993691055 134.26917152428337 0 134.26917152428337 59.359280201090769 0 0 0 0 -0.50481786794192551 1.1513209531015161 0 1.1513209531015161 4.3270147927892566 0 0 0 0 -153.56079139314897 23.943084630178873 0 23.943084630178873 -44.744636974277228 0 0 0 0 164.97410606725953 -17.396442832257208 0 -17.396442832257208 -74.714088139267005 0 0 0 0 22.610256777693394 9.323241252945536 0 9.323241252945536 -41.946902022637914 0 0 0 0 -66.841928911134346 113.27007113455556 0 113.27007113455556 -59.005585312838349 0 0 0 0 -0.4533835390761336 0.87132301525487321 0 0.87132301525487321 4.5256269581912889 0 0 0 0 -278.0886311587501 73.279590898530614 0 73.279590898530614 14.633146416748787 0 0 0 0 -224.26824763821924 -34.978979312584556 0 -34.978979312584556 62.235446385072464 0 0 0 0 -77.570841866971023 -35.38476401956359 0 -35.38476401956359 -26.68842542272796 0 0 0 0 -119.43450266709806 12.489757646746511 0 12.489757646746511 -40.715505274778252 0 0 0 0 -166.89701631152639 12.682387388505049 0 12.682387388505049 -5.2078590640307993 0 0 0 0 -129.19597190925515 -33.760171244372827 0 -33.760171244372827 7.5745539663867021 0 0 0 0 -75.401545845921646 -18.906954376938302 0 -18.906954376938302 -8.7882827455773622 0 0 0 0 -17.644798826536316 -23.198412363114585 0 -23.198412363114585 -27.474076267940745 0 0 0 0 -63.881750764730896 10.332127048588063 0 10.332127048588063 -17.219157561150951 0 0 0 0 -1.4354265556100643 -0.42330190856653793 0 -0.42330190856653793 2.1449445457760437 0 0 0 0 -17.26894778123733 28.332461769934298 0 28.332461769934298 -32.29387825970025 0 0 0 0 -176.69722046653465 86.822086418845629 0 86.822086418845629 -13.096473542556851 0 0 0 0 37.14340318922784 5.2130655827788814 0 5.2130655827788814 -110.53329825682158 0 0 0 0 335.51984563193628 -130.21765956532795 0 -130.21765956532795 39.781862490035564 0 0 0 0 -2.8705521358760855 -4.9478847535705555 0 -4.9478847535705555 -0.9102667496215382 0 0 0 0 44.484726455837517 -107.44152710994103 0 -107.44152710994103 3.693408178753316 0 0 0 0 55.973800500451034 -61.511632562598606 0 -61.511632562598606 36.965431444151363 0 0 0 0 -0.66700406461313833 -135.45950386479035 0 -135.45950386479035 61.360403203118949 0 0 0 0 -34.933718911398273 -21.753439566929615 0 -21.753439566929615 56.813541421583068 0 0 0 0 -86.32043132401941 -75.954684676592933 0 -75.954684676592933 42.035127133956848 0 0 0 0 -55.995172620856465 -78.059178259766668 0 -78.059178259766668 -30.132789008069381 0 0 0 0 -5.0240878972053906 -60.361260908380245 0 -60.361260908380245 -49.923712219467689 0 0 0 0 38.252957539812996 -79.264831984957254 0 -79.264831984957254 -43.475112177802202 0 0 0 0 4.4672455672817497 1.9847302533370632 0 1.9847302533370632 -4.1086155960894679 0 0 0 0 32.674210714391847 45.277883438676781 0 45.277883438676781 -41.581027329086282 0 0 0 0 -0.35807713994795964 -12.446028300904278 0 -12.446028300904278 -30.899694938930594 0 0 0 0 5.5383102047300738 -0.050165605750418507 0 -0.050165605750418507 -7.0571946997803927 0 0 0 0 0.34704787046234742 -8.7937748239805842 0 -8.7937748239805842 -18.801830026513016 0 0 0 0 0.10326213020669911 -6.0956825625527653 0 -6.0956825625527653 -17.13358143685792 0 0 0 0 -5.1821024189303095 -11.060537474784145 0 -11.060537474784145 -18.857965261251845 0 0 0 0 16.583338297010414 -65.32644120656505 0 -65.32644120656505 -30.948296669040474 0 0 0 0 -40.764430155173216 12.164406715902146 0 12.164406715902146 45.035454510402815 0 0 0 0 -1.0856033054200225 -71.057860078137423 0 -71.057860078137423 -26.342676073891198 0 0 0 0 -7.0650809376443586 -4.8976250543033686 0 -4.8976250543033686 -7.8452916114536215 0 0 0 0 -125.40683002988635 -56.795481843921152 0 -56.795481843921152 6.031229537937179 0 0 0 0 -315.9712622345105 -185.82489787469376 0 -185.82489787469376 219.89148756505529 0 0 0 0 -94.476348037189382 -17.104459300521739 0 -17.104459300521739 17.033879104847074 0 0 0 0 -2.3139285452633622 0.85692875653248279 0 0.85692875653248279 -0.93941901038163245 0 0 0 0 -8.9518210352880487 8.8715002435346832 0 8.8715002435346832 -155.45258219034531 0 0 0 0 -2.0976265218598726 0.92743137963890199 0 0.92743137963890199 -0.50072326579441651 0 0 0 0 -80.80659367428234 94.725407084438302 0 94.725407084438302 -81.135171405754591 0 0 0 0 -113.44822354314238 19.216383797361459 0 19.216383797361459 -2.3514410046955163 0 0 0 0 -43.65136892800524 -36.967400535936804 0 -36.967400535936804 -2.1548196435005593 0 0 0 0 -26.21972103511871 47.922000055769786 0 47.922000055769786 -107.35957376588067 0 0 0 0 -71.004762250799104 10.197886391878001 0 10.197886391878001 57.390455964264902 0 0 0 0 1.3782182411974304 -3.4550501852888527 0 -3.4550501852888527 -3.5982257978638739 0 0 0 0 15.520993849007439 11.208649703659477 0 11.208649703659477 -2.6507896801153947 0 0 0 0 60.986660816888616 -76.794289050957559 0 -76.794289050957559 -76.423044609067347 0 0 0 0 -52.369382858010795 19.713361153434562 0 19.713361153434562 -12.529276904639573 0 0 0 0 -15.908046196942653 -15.695017849430865 0 -15.695017849430865 -13.786188034772373 0 0 0 0 -106.81348245158824 -10.69171507415922 0 -10.69171507415922 61.117401362666897 0 0 0 0 -73.22360263536757 -19.828906226267463 0 -19.828906226267463 -22.925735680985781 0 0 0 0 -261.22041146739866 -19.964527209328025 0 -19.964527209328025 -13.921322764823344 0 0 0 0 -91.721841902233791 139.50859725848136 0 139.50859725848136 -372.59145467604503 0 0 0 0 -73.55944237100266 67.539602769518524 0 67.539602769518524 -154.99179488236587 0 0 0 0 -103.93162052003208 38.57539298283973 0 38.57539298283973 33.23886430796756 0 0 0 0 -1.0483216951633638 2.2080085317736309 0 2.2080085317736309 -14.595226148502263 0 0 0 0 0.13810490330960423 4.1306447724702391 0 4.1306447724702391 -16.77114240033259 0 0 0 0 -31.279468323955371 -3.983020607439812 0 -3.983020607439812 -36.969184797203525 0 0 0 0 -2.3931934956065106 -2.3346107997857644 0 -2.3346107997857644 -16.454553618122418 0 0 0 0 80.180152792684567 67.529695757396894 0 67.529695757396894 -94.371306794839256 0 0 0 0 81.541151963871926 68.697494189792565 0 68.697494189792565 -156.10237134861745 0 0 0 0 15.292766131783537 -44.699716560544744 0 -44.699716560544744 -6.7619307230793169 0 0 0 0 33.386857168589813 -3.7312122344839906 0 -3.7312122344839906 -26.978031511653334 0 0 0 0 6.7510038110467576 -0.34937399061405472 0 -0.34937399061405472 -12.859818559017185 0 0 0 0 -68.048658289986633 -67.24381540124341 0 -67.24381540124341 -72.316962820490062 0 0 0 0 -1.1757712108574196 12.683078905712136 0 12.683078905712136 15.223397630436921 0 0 0 0 -11.988134262408039 -1.6630608566949832 0 -1.6630608566949832 -15.576333573384545 0 0 0 0 151.45988816492172 -107.06741589908415 0 -107.06741589908415 74.583204860000478 0 0 0 0 -1.323877459727143 2.2647532676385467 0 2.2647532676385467 -3.5060733637111392 0 0 0 0 -11.155906290223356 41.256410850211978 0 41.256410850211978 -35.494830711544637 0 0 0 0 -4.9023471006616166 0.0042499733897134462 0 0.0042499733897134462 -22.562795563060494 0 0 0 0 0.39903564428429839 -2.2305193713533837 0 -2.2305193713533837 -3.6093949674134116 0 0 0 0 -29.862474074323472 3.6685254438330048 0 3.6685254438330048 -9.4677495013174848 0 0 0 0 -25.760701272036385 4.8046353595245819 0 4.8046353595245819 -10.595601928802353 0 0 0 0 -10.941812460297569 12.850872262320536 0 12.850872262320536 -19.350840975519077 0 0 0 0 -24.445209375375271 5.3905740392979169 0 5.3905740392979169 -10.42845331805961 0 0 0 0 -6.3063976183573232 21.381408050858681 0 21.381408050858681 -29.183197801513415 0 0 0 0 -9.6670371169756191 2.2323171651742371 0 2.2323171651742371 -1.7938090371304405 0 0 0 0 -8.7320240766247892 -0.32655642700317422 0 -0.32655642700317422 1.2685024435082788 0 0 0 0 -1.7414806777333069 6.6295445349915099 0 6.6295445349915099 -20.342448940853956 0 0 0 0 208.72277056141411 47.710925619089267 0 47.710925619089267 -231.39226124179368 0 0 0 0 -3.0314733165813799 -3.5873628744560602 0 -3.5873628744560602 -11.826239439499396 0 0 0 0 -396.6603770578472 -16.951047201425354 0 -16.951047201425354 39.17648452273761 0 0 0 0 -122.19238853210186 78.577929085890446 0 78.577929085890446 1.5571190409236806 0 0 0 0 28.20548138771801 -0.065980205165033112 0 -0.065980205165033112 -21.560574933087537 0 0 0 0 -14.079620427618238 7.0375430960058338 0 7.0375430960058338 -11.459931635294197 0 0 0 0 -0.61747302207354604 -3.4240661749534524 0 -3.4240661749534524 -12.646116605796397 0 0 0 0 18.77143132832316 -18.664770797679239 0 -18.664770797679239 -25.87411690796398 0 0 0 0 -110.28678243381364 60.062683590984307 0 60.062683590984307 -25.69613419093179 0 0 0 0 -118.39318531678691 41.067351997734477 0 41.067351997734477 -70.206770174505436 0 0 0 0 -166.51860898062614 95.637099090136417 0 95.637099090136417 -48.594575720904686 0 0 0 0 13.98788373037587 -1.7724811317702915 0 -1.7724811317702915 -52.109523422347593 0 0 0 0 -0.7257586653390522 -3.1012876999067984 0 -3.1012876999067984 -11.157889200845641 0 0 0 0 -43.129036454266497 -34.537073716375289 0 -34.537073716375289 32.017288918610575 0 0 0 0 36.795617083445677 -40.119163139099101 0 -40.119163139099101 -18.652178701091543 0 0 0 0 12.184055318904029 21.477123155941172 0 21.477123155941172 -115.89792245590343 0 0 0 0 29.801756105348431 72.308763190648165 0 72.308763190648165 -117.0962987302446 0 0 0 0 3.799610653961734 4.8747998720949592 0 4.8747998720949592 -34.202635049849235 0 0 0 0 4.0807821594658549 -2.1414581446770296 0 -2.1414581446770296 -8.1899253548506863 0 0 0 0 35.387520402230621 -44.590577692192028 0 -44.590577692192028 -25.260862492954971 0 0 0 0 -49.503065402705943 -37.006915950972143 0 -37.006915950972143 22.792997617582387 0 0 0 0 -0.38401601679491115 3.8780095493008595 0 3.8780095493008595 -11.558586448444887 0 0 0 0 29.967695956975604 -25.797885172864198 0 -25.797885172864198 -19.60293648759216 0 0 0 0 -0.74469619297642886 2.8940389272751545 0 2.8940389272751545 -20.283826672231584 0 0 0 0 -0.02588838039085406 -0.070423413806902424 0 -0.070423413806902424 -0.90753413920107562 0 0 0 0 -8.7263603912347207 33.323691606600732 0 33.323691606600732 -25.319432071993106 0 0 0 0 -26.890244431666815 7.4872474460926242 0 7.4872474460926242 -6.258841739525451 0 0 0 0 -73.170493500278099 -0.23694208545236961 0 -0.23694208545236961 12.007152948390285 0 0 0 0 17.515266461704414 -14.983347392593714 0 -14.983347392593714 17.311632271648705 0 0 0 0 13.695939534707577 2.4782851133750228 0 2.4782851133750228 33.34208033025061 0 0 0 0 17.989801405516346 -7.0880963993149635 0 -7.0880963993149635 12.199761337407836 0 0 0 0 46.072431599125139 7.7563349541887874 0 7.7563349541887874 10.623525323995409 0 0 0 0 22.821736518113084 4.7948179059458198 0 4.7948179059458198 -35.778162178994535 0 0 0 0 57.401717955124241 21.059708009039241 0 21.059708009039241 -127.78698110921323 0 0 0 0 40.358944874401459 27.126201550119731 0 27.126201550119731 -31.961292514320121 0 0 0 0 36.008926608317324 37.395842185416768 0 37.395842185416768 -55.105005017056101 0 0 0 0 -0.3660031863124118 49.375718808335932 0 49.375718808335932 -10.438318618478661 0 0 0 0 11.204053894277536 41.762132213528275 0 41.762132213528275 -55.851385485180799 0 0 0 0 16.377767551955458 58.998669738519311 0 58.998669738519311 -31.819740621209348 0 0 0 0 15.681688027914674 62.40150065675698 0 62.40150065675698 11.463948658965819 0 0 0 0 35.591267191371458 87.396064056309115 0 87.396064056309115 -109.34476598912443 0 0 0 0 29.594112831649909 64.395277418696423 0 64.395277418696423 -30.077118503880229 0 0 0 0 -8.7973557518830603 90.672223949966792 0 90.672223949966792 -18.722054526071588 0 0 0 0 63.615564166967033 47.385508816321817 0 47.385508816321817 -23.874161901012485 0 0 0 0 92.314338880760943 78.924379748454157 0 78.924379748454157 0.78804571606451645 0 0 0 0 204.20156196699304 -51.898179857495052 0 -51.898179857495052 -35.504436018887645 0 0 0 0 1.8374279752238003 7.3274056756224937 0 7.3274056756224937 -10.630589319381656 0 0 0 0 62.420440336210163 90.575183129587458 0 90.575183129587458 -50.106439740036876 0 0 0 0 149.15081832278247 26.208901966092526 0 26.208901966092526 -162.62355829924491 0 0 0 0 0.49610234536710274 4.1655184951526154 0 4.1655184951526154 -44.875170486034193 0 0 0 0 30.436276398428618 -37.304878165852642 0 -37.304878165852642 -23.71158125695365 0 0 0 0 -0.32505013493790713 1.3418807016355219 0 1.3418807016355219 -1.4998730348580125 0 0 0 0 -16.068106797711607 83.459180324571207 0 83.459180324571207 -9.5368859512909694 0 0 0 0 49.095921622225887 -21.497268150076707 0 -21.497268150076707 -59.911258408214053 0 0 0 0 6.2475994464906535 58.068597503986894 0 58.068597503986894 14.915736393642874 0 0 0 0 -0.39867073163168487 4.8133830719018498 0 4.8133830719018498 -41.288116112670835 0 0 0 0 143.72787686473987 24.372951804939476 0 24.372951804939476 -77.551536046161345 0 0 0 0 46.50647898502308 69.400540723211179 0 69.400540723211179 -44.482857071294347 0 0 0 0 -99.378867832749052 46.246750201240502 0 46.246750201240502 -15.767943903662854 0 0 0 0 14.415599692470664 28.913681559962242 0 28.913681559962242 -33.783138837527076 0 0 0 0 -53.590464136680794 77.462079187911513 0 77.462079187911513 -49.030831153501822 0 0 0 0 -50.884814518567396 77.369742323930041 0 77.369742323930041 -77.403353431067444 0 0 0 0 6.1783409081737704 0.63421305623159441 0 0.63421305623159441 -7.2695250510354086 0 0 0 0 -0.65732202763421044 -4.3127321634532292 0 -4.3127321634532292 0.10041065404925575 0 0 0 0 296.9516009656931 -101.73353326570486 0 -101.73353326570486 -20.987827707169345 0 0 0 0 -86.112238553180532 95.276539123511611 0 95.276539123511611 -37.026646721771613 0 0 0 0 25.855696706338676 -14.632830133728021 0 -14.632830133728021 14.231720192365174 0 0 0 0 36.536220014746505 2.3359097505417594 0 2.3359097505417594 -1.9957836079292974 0 0 0 0 -3.4676646044807171 2.7475277392659336 0 2.7475277392659336 -35.18524385389901 0 0 0 0 20.905772963346806 65.622551514267798 0 65.622551514267798 -50.981476788043437 0 0 0 0 5.3365742325852397 6.0602521383207488 0 6.0602521383207488 -14.954112032053281 0 0 0 0 30.996621009284354 -38.007164863760408 0 -38.007164863760408 -26.533818346571934 0 0 0 0 12.038700745672031 -46.055637076857238 0 -46.055637076857238 -29.878747866119738 0 0 0 0 0.017521746846352659 10.112175948061967 0 10.112175948061967 -56.920302920732311 0 0 0 0 138.36703006493985 -8.9078552887153819 0 -8.9078552887153819 -83.744776655334135 0 0 0 0 65.820583044950354 -158.20819033321186 0 -158.20819033321186 151.81011769045836 0 0 0 0 287.78873107374534 101.62203096463782 0 101.62203096463782 -61.189349125323133 0 0 0 0 403.72119523384202 -159.83563023546503 0 -159.83563023546503 -40.056532598489866 0 0 0 0 1.0812888439199924 -23.469018313819106 0 -23.469018313819106 -15.318725499913853 0 0 0 0 227.54518800155927 24.251427565376616 0 24.251427565376616 14.676221267796791 0 0 0 0 -0.73172113589733301 -2.3816150552319932 0 -2.3816150552319932 -2.3250577586005505 0 0 0 0 173.09234410903275 -57.889282690996879 0 -57.889282690996879 -86.222484397580047 0 0 0 0 -48.680307447045593 83.953773067680913 0 83.953773067680913 32.834497422356435 0 0 0 0 381.0585506596608 -161.21684259442327 0 -161.21684259442327 -162.91017189374497 0 0 0 0 -2.3943420874983241 -6.1784412219046096 0 -6.1784412219046096 -13.453271024085282 0 0 0 0 -21.047055488699243 104.26005051640277 0 104.26005051640277 -115.61651698709466 0 0 0 0 158.0831487204714 -84.932047896931181 0 -84.932047896931181 -50.479064727723653 0 0 0 0 -35.511778480762587 -83.721709956552786 0 -83.721709956552786 86.484510089473588 0 0 0 0 299.48787143323534 22.039844842893217 0 22.039844842893217 -210.46556733972466 0 0 0 0 -66.977908398505946 33.361176650678544 0 33.361176650678544 17.531524691319646 0 0 0 0 302.21559521429208 -236.8681807879716 0 -236.8681807879716 -46.181390326714563 0 0 0 0 -6.8142296431306191 -11.678717253092259 0 -11.678717253092259 -19.073973747023715 0 0 0 0 186.60800684609876 -144.38358713605339 0 -144.38358713605339 25.835947901109648 0 0 0 0 91.156063629287019 -61.239358828204786 0 -61.239358828204786 103.25232801947277 0 0 0 0 37.768182696095096 -134.76068509040306 0 -134.76068509040306 20.925327784824731 0 0 0 0 97.325239382161271 -16.950715212223713 0 -16.950715212223713 28.751086629319616 0 0 0 0 150.55883424163335 -52.843692174926218 0 -52.843692174926218 69.118275014307073 0 0 0 0 123.17819542238533 -93.15547201053414 0 -93.15547201053414 9.7813655701811513 0 0 0 0 86.269186513208183 -47.077952534022188 0 -47.077952534022188 -41.172174304283544 0 0 0 0 87.727107591086451 -15.652761888903115 0 -15.652761888903115 24.209162659855792 0 0 0 0 -28.797086960393216 -73.978022372161831 0 -73.978022372161831 23.814841454648558 0 0 0 0 156.07884019910028 1.5358647677758199 0 1.5358647677758199 -12.323679677912878 0 0 0 0 -18.700771077789568 -83.147156531684232 0 -83.147156531684232 -42.980423466182401 0 0 0 0 -19.025446290779861 -63.996625359626648 0 -63.996625359626648 51.070011272942793 0 0 0 0 -26.635162174390175 62.105149881108446 0 62.105149881108446 -140.77933788462542 0 0 0 0 1.7255228168865611 -1.9672765788296651 0 -1.9672765788296651 -4.8698321343801396 0 0 0 0 254.84785010118173 -164.04253322363184 0 -164.04253322363184 35.85701227556865 0 0 0 0 1.6403969203043123 -1.6824020390409764 0 -1.6824020390409764 0.47626794610177825 0 0 0 0 -126.81160565217846 69.55662834751729 0 69.55662834751729 -114.67457054923943 0 0 0 0 -122.63355480836992 87.953072753065499 0 87.953072753065499 -81.270517694196315 0 0 0 0 -195.38347555250644 243.13819916472835 0 243.13819916472835 -228.50385267053935 0 0 0 0 -152.92998729607967 116.88135658593637 0 116.88135658593637 -101.30213022545649 0 0 0 0 -16.410220701636149 21.745611046532076 0 21.745611046532076 -167.03435086383251 0 0 0 0 -83.84995259364922 122.52291591933681 0 122.52291591933681 -193.5195429814521 0 0 0 0 -36.520048432025646 141.2844212813834 0 141.2844212813834 -349.23657136718975 0 0 0 0 123.60147912793207 -261.88176791247315 0 -261.88176791247315 86.195642593997945 0 0 0 0 91.552083472021877 -164.85859723743579 0 -164.85859723743579 34.624230521210848 0 0 0 0 -0.13868530391935696 -0.66922523561657954 0 -0.66922523561657954 -1.7843101374185508 0 0 0 0 113.84032382553109 74.730779458865072 0 74.730779458865072 -136.81107740914194 0 0 0 0 -38.960122684730351 -35.344840064493837 0 -35.344840064493837 9.9441795691745938 0 0 0 0 16.941401914429662 0.5077090591621527 0 0.5077090591621527 -37.290312339152479 0 0 0 0 5.7891070589509228 -2.0307091223024365 0 -2.0307091223024365 -3.4153754897113497 0 0 0 0 -52.835443329570126 59.890128261637074 0 59.890128261637074 98.774956563909655 0 0 0 0 53.922444109916881 0.19151053508176119 0 0.19151053508176119 -23.56796238363313 0 0 0 0 21.920282015695392 -39.14583912512353 0 -39.14583912512353 -113.98293202673085 0 0 0 0 -58.774132139149799 7.9858696584688005 0 7.9858696584688005 -24.106469212015782 0 0 0 0 6.3678312298344224 -44.594558527423487 0 -44.594558527423487 -227.47578068883013 0 0 0 0 -23.996470233724267 37.783683263342027 0 37.783683263342027 -119.15195991709936 0 0 0 0 19.340474327199217 -15.247374566928556 0 -15.247374566928556 -74.938951282580092 0 0 0 0 67.907535826072831 -26.688335276941871 0 -26.688335276941871 -86.388796212084344 0 0 0 0 75.335991996108646 -48.970519954645169 0 -48.970519954645169 -65.701054441276938 0 0 0 0 29.187177219718819 8.368866329521552 0 8.368866329521552 -15.394098103100987 0 0 0 0 1.6878966192095182 -0.62457653588304396 0 -0.62457653588304396 0.7910930920407413 0 0 0 0 -3.8120830076405525 -46.950902522821707 0 -46.950902522821707 24.492429089070356 0 0 0 0 49.807858460961427 35.702295989764025 0 35.702295989764025 84.089191959029449 0 0 0 0 45.910100014818454 -41.524835825410264 0 -41.524835825410264 -14.886734248462744 0 0 0 0 132.04335425282568 -75.385123568185008 0 -75.385123568185008 -2.5598152995644341 0 0 0 0 56.522176005435313 -59.012596951422893 0 -59.012596951422893 -27.943329418632857 0 0 0 0 48.984079963006366 -36.541589143709643 0 -36.541589143709643 -47.398090393477105 0 0 0 0 53.078052214428453 -41.203538026740716 0 -41.203538026740716 -50.849026782081637 0 0 0 0 73.404650241149739 -15.186282617053621 0 -15.186282617053621 -70.069556914684654 0 0 0 0 53.536785765870036 26.873117650256972 0 26.873117650256972 -84.779102607067216 0 0 0 0 42.246623008295643 6.3532457694127515 0 6.3532457694127515 -109.71538482713731 0 0 0 0 51.935635958886223 -24.447943351570757 0 -24.447943351570757 -61.825513914875046 0 0 0 0 37.045415025177874 -3.6140641748415874 0 -3.6140641748415874 -131.63583526859657 0 0 0 0 -34.621617758551565 51.583962892648742 0 51.583962892648742 -126.35094318185293 0 0 0 0 -35.343701679203605 51.427992289607573 0 51.427992289607573 -124.57040862278268 0 0 0 0 12.160303890711589 0.29292202441320114 0 0.29292202441320114 -92.722297847827576 0 0 0 0 -30.087893255953645 58.72973456354157 0 58.72973456354157 -107.85367096716573 0 0 0 0 -35.839702521959794 46.407358756381655 0 46.407358756381655 -133.05547797020336 0 0 0 0 -171.89559403080466 108.2500069410753 0 108.2500069410753 -92.803455741657672 0 0 0 0 -48.488930415013442 55.55129638541257 0 55.55129638541257 -80.536549572525018 0 0 0 0 -49.05091628109426 52.209153803210938 0 52.209153803210938 -52.501256090394691 0 0 0 0 16.457668598080431 61.80830000079186 0 61.80830000079186 -92.168212917651545 0 0 0 0 31.036337836525547 23.171764358819701 0 23.171764358819701 -11.465211584782082 0 0 0 0 20.489482642892654 6.3949638986496211 0 6.3949638986496211 -69.315765173658292 0 0 0 0 98.149512814597188 -22.585507848768884 0 -22.585507848768884 -53.792421749623827 0 0 0 0 110.49429732109559 -16.066850686917405 0 -16.066850686917405 -7.386286437875242 0 0 0 0 -0.26385779888036409 1.9010485685352472 0 1.9010485685352472 -4.4074579590041765 0 0 0 0 118.20908034865829 30.832564798187377 0 30.832564798187377 -64.537750706658699 0 0 0 0 137.26257767810034 -9.6006805148326748 0 -9.6006805148326748 -72.702953290516234 0 0 0 0 -61.423059074853199 23.812383653894358 0 23.812383653894358 36.412193752918029 0 0 0 0 -0.045847895090077806 3.3213926652820644 0 3.3213926652820644 -37.246079787352173 0 0 0 0 145.89325185265329 15.965931101331989 0 15.965931101331989 -74.433250502672308 0 0 0 0 69.484204088810884 -6.0678533720165433 0 -6.0678533720165433 -21.452855287288912 0 0 0 0 0.10849340962161969 2.1244686233793644 0 2.1244686233793644 -33.68413632204274 0 0 0 0 55.939455436099934 -24.453696634403968 0 -24.453696634403968 -40.131958095582377 0 0 0 0 57.767264561254365 -30.452167826271307 0 -30.452167826271307 -28.278968135417017 0 0 0 0 44.237006278786822 -36.37135077995481 0 -36.37135077995481 -22.409466723056539 0 0 0 0 -21.788090620043704 -3.0081969116454275 0 -3.0081969116454275 8.3045730746143818 0 0 0 0 53.189572809276342 -41.164697284406429 0 -41.164697284406429 -31.700202424613963 0 0 0 0 -0.23873342595780711 2.0325832939052111 0 2.0325832939052111 -4.9871541423243144 0 0 0 0 -33.079779508495164 -13.889887006243725 0 -13.889887006243725 24.551854945217201 0 0 0 0 -74.538704296905507 78.317308869047338 0 78.317308869047338 89.951481000507556 0 0 0 0 188.47529965743206 -11.255466948216053 0 -11.255466948216053 -180.37045430747457 0 0 0 0 -0.36943521304102744 1.5362373337373274 0 1.5362373337373274 -2.0580887053151997 0 0 0 0 -45.659925150003346 90.842105617222842 0 90.842105617222842 72.419485220627394 0 0 0 0 -46.879364135107153 116.20426761306771 0 116.20426761306771 1.9342109025274112 0 0 0 0 63.811290352203969 -42.99592766869273 0 -42.99592766869273 -108.61798294864275 0 0 0 0 41.842989811056214 44.573800413050776 0 44.573800413050776 4.1041105894219072 0 0 0 0 9.4826321153618665 96.33132182763984 0 96.33132182763984 -52.070749909635197 0 0 0 0 34.058946575287337 28.095009361055418 0 28.095009361055418 18.692577043966594 0 0 0 0 -46.468501665493477 52.900003709881275 0 52.900003709881275 83.444081639718206 0 0 0 0 -1.98941713953276 -0.047523642361689156 0 -0.047523642361689156 0.30949676715178498 0 0 0 0 25.965467034156063 0.58636623047277681 0 0.58636623047277681 -225.53591773145854 0 0 0 0 -15.284877507209785 42.251436945562091 0 42.251436945562091 -38.353782112524641 0 0 0 0 -10.270051528721069 92.234111019803095 0 92.234111019803095 -117.53539811654264 0 0 0 0 0.31320941630383459 10.840276738341345 0 10.840276738341345 -17.793834823016368 0 0 0 0 -13.352321912348543 43.731115125470751 0 43.731115125470751 21.260375009740528 0 0 0 0 28.076212777506953 -37.35599553083739 0 -37.35599553083739 39.517729447607053 0 0 0 0 13.058880317079911 -20.423150836166315 0 -20.423150836166315 20.721410646885488 0 0 0 0 -3.2652684122340361 17.684864897764783 0 17.684864897764783 -3.1904524109049817 0 0 0 0 0.20733904162761974 0.64695242356719973 0 0.64695242356719973 6.9801480306068697 0 0 0 0 25.487262411707889 -5.5999060009216919 0 -5.5999060009216919 -34.0687337071613 0 0 0 0 1.491047111750504 7.4892525273917272 0 7.4892525273917272 -34.455475716841647 0 0 0 0 -0.12708766692139761 12.190084168365502 0 12.190084168365502 -36.758761011892602 0 0 0 0 -1.1261503146138239 4.3359792592145823 0 4.3359792592145823 -33.886083228089319 0 0 0 0 2.3155188532799684 11.649924412637574 0 11.649924412637574 -32.438952048949432 0 0 0 0 0.41771774638550596 9.581989023825372 0 9.581989023825372 -19.948354865240617 0 0 0 0 8.9466584749597473 8.4852713950979251 0 8.4852713950979251 -47.074959605935874 0 0 0 0 6.2376545944554778 16.138982567441872 0 16.138982567441872 -17.640611048060236 0 0 0 0 -0.22728587610541684 -1.726464511126764 0 -1.726464511126764 -6.0045266962507462 0 0 0 0 -2.7719861441887588 -2.7909628720044566 0 -2.7909628720044566 -40.925408681642693 0 0 0 0 -0.85614823584642785 -0.70725175346163383 0 -0.70725175346163383 -0.16049267579231596 0 0 0 0 -69.960134469057266 23.469654178112251 0 23.469654178112251 55.065055965378633 0 0 0 0 2.4510180910278905 -6.3239934620924032 0 -6.3239934620924032 -70.345161457589711 0 0 0 0 72.234796538819865 74.247398468349274 0 74.247398468349274 -16.392985615491853 0 0 0 0 2.3505462200362217 45.828141117628547 0 45.828141117628547 -5.2051748122103163 0 0 0 0 9.8487462266220973 48.294426624696825 0 48.294426624696825 -185.60027468762564 0 0 0 0 -112.50682190340649 -99.943598097124777 0 -99.943598097124777 -4.6398408075601765 0 0 0 0 -21.50287304197991 132.89225475350759 0 132.89225475350759 -47.951869132783031 0 0 0 0 8.445336773438612 0.97411337412722787 0 0.97411337412722787 -45.793889017075344 0 0 0 0 -0.99496832090244425 -5.5848376371723134 0 -5.5848376371723134 -33.443099302976407 0 0 0 0 0.73500821630289259 -4.825496981795844 0 -4.825496981795844 -4.5811162412883828 0 0 0 0 -60.060095819343644 -15.097916251188963 0 -15.097916251188963 70.825483194781555 0 0 0 0 1.965299843077263 3.430526031151043 0 3.430526031151043 -3.5769308295780355 0 0 0 0 2.1173666372219486 -4.5708532877679318 0 -4.5708532877679318 -36.268439793648213 0 0 0 0 -0.11829344472845771 1.3982046826902546 0 1.3982046826902546 -19.027605167386454 0 0 0 0 -0.0018878024584410014 -2.8867285222440842 0 -2.8867285222440842 -32.289268364216696 0 0 0 0 0.25203855726438373 2.8799992281092344 0 2.8799992281092344 -9.5311649211885019 0 0 0 0 0.45394503760276428 2.3343043571977065 0 2.3343043571977065 -30.602609480877994 0 0 0 0 -21.952874362786361 93.718312695151326 0 93.718312695151326 73.866050322852971 0 0 0 0 61.238885462125836 5.3724501841825258 0 5.3724501841825258 -34.60598752120859 0 0 0 0 51.639257282979088 -17.328985330915202 0 -17.328985330915202 -87.799827669543447 0 0 0 0 60.649334896566415 37.418828792837303 0 37.418828792837303 -171.62029038552282 0 0 0 0 -0.42991480417064354 -0.97396091139082586 0 -0.97396091139082586 -6.7663903527326621 0 0 0 0 1.1992749255936133 11.460027055553837 0 11.460027055553837 -65.42217873375921 0 0 0 0 -2.5787501059482452 0.066708343909795076 0 0.066708343909795076 -36.60362377774436 0 0 0 0 -27.32871005239781 23.568105673552054 0 23.568105673552054 -21.752895290681408 0 0 0 0 11.476517435021833 12.951974933859674 0 12.951974933859674 -27.28288922674983 0 0 0 0 0.22584382563609795 -0.53709028208301746 0 -0.53709028208301746 -7.6515511536125285 0 0 0 0 2.7292576340019252 -3.1298261123454267 0 -3.1298261123454267 -40.901909782875009 0 0 0 0 -6.0963378187784656 12.51727167406716 0 12.51727167406716 -5.7300099453893836 0 0 0 0 7.8849483211026836 21.570599372376819 0 21.570599372376819 -30.928813508220628 0 0 0 0 10.150643512690863 8.5163172097281858 0 8.5163172097281858 -19.711608871670251 0 0 0 0 12.724947687575423 -1.955691816979197 0 -1.955691816979197 -64.192779873003019 0 0 0 0 -0.78115399855447265 -0.31195135058051093 0 -0.31195135058051093 -6.5340437910278624 0 0 0 0 8.7871459434538224 8.1666429460160543 0 8.1666429460160543 -8.6632146007905249 0 0 0 0 -0.13940867984271743 2.8876345561655499 0 2.8876345561655499 -24.511474041252214 0 0 0 0 4.0555957795525046 -3.4327194706565933 0 -3.4327194706565933 -36.125775069025622 0 0 0 0 6.1961938018937417 10.029553199070506 0 10.029553199070506 -19.622691721304363 0 0 0 0 -0.39529547202493254 3.4501749329621303 0 3.4501749329621303 -24.457655357165756 0 0 0 0 9.3169810932906785 13.389934819033442 0 13.389934819033442 -17.119372595781897 0 0 0 0 11.685037223858217 -1.3659619348054548 0 -1.3659619348054548 -51.403376088921505 0 0 0 0 14.002352156604957 13.137546706450848 0 13.137546706450848 -22.264168274712915 0 0 0 0 14.900486788580963 18.180547419418872 0 18.180547419418872 -13.405350843255292 0 0 0 0 11.654186858168714 12.675849762932557 0 12.675849762932557 -22.314415341897984 0 0 0 0 34.07734524817517 18.549093627472757 0 18.549093627472757 -30.084002266934021 0 0 0 0 21.862150421264118 20.729462475152104 0 20.729462475152104 -4.7065097050708573 0 0 0 0 21.310003912955608 16.319650248814469 0 16.319650248814469 -24.935616320051622 0 0 0 0 19.708864118135807 14.444552826539621 0 14.444552826539621 -25.128880123978433 0 0 0 0 27.069979229093889 16.184749882755568 0 16.184749882755568 -29.203374171413088 0 0 0 0 31.785242006914501 8.9516605193357464 0 8.9516605193357464 -47.910016804849874 0 0 0 0 28.172371836573376 10.398398879171737 0 10.398398879171737 -13.406582104667905 0 0 0 0 27.996765587806294 20.227886683323959 0 20.227886683323959 -28.945806012778121 0 0 0 0 27.013766576013253 21.35747724030216 0 21.35747724030216 21.162934874897473 0 0 0 0 59.478335996903297 16.316111940069277 0 16.316111940069277 -12.292692407831055 0 0 0 0 26.291787841799874 16.910445594561679 0 16.910445594561679 -4.2748136809846073 0 0 0 0 16.109102602953897 21.993865667019691 0 21.993865667019691 14.254964138159266 0 0 0 0 -0.35683852155871421 0.20600678324220922 0 0.20600678324220922 0.12208426575659459 0 0 0 0 -1.0231600549320738 -57.510891545040295 0 -57.510891545040295 -106.37161244984964 0 0 0 0 9.1149496890498369 31.293099132934458 0 31.293099132934458 -91.074657139555711 0 0 0 0 31.352874025004837 67.065258509093837 0 67.065258509093837 -41.576217605823331 0 0 0 0 -7.3445331727164671 -36.101490910071561 0 -36.101490910071561 69.909671499062824 0 0 0 0 23.587295421054307 -40.076319870227962 0 -40.076319870227962 -5.6590163706878229 0 0 0 0 69.74482695418132 -129.44768414742396 0 -129.44768414742396 -149.66154321302201 0 0 0 0 -0.15018623202720188 -0.1867052215692695 0 -0.1867052215692695 0.12121913298795661 0 0 0 0 72.465348974458664 63.402845063270433 0 63.402845063270433 48.190274067796054 0 0 0 0 100.45788509476989 7.3721897836880999 0 7.3721897836880999 -14.516453320982691 0 0 0 0 33.193756434319994 -19.404055481141768 0 -19.404055481141768 -14.294578373028344 0 0 0 0 -4.4269157377069632 -9.8488629045159541 0 -9.8488629045159541 -16.639118028146186 0 0 0 0 8.9751842498869792 -2.1419233599963263 0 -2.1419233599963263 -22.455241458561432 0 0 0 0 -0.16150511376319876 1.2186279837791503 0 1.2186279837791503 -12.48794228918333 0 0 0 0 17.406545811211799 -2.6466025006629934 0 -2.6466025006629934 -0.08961507715866901 0 0 0 0 19.638858330161611 9.447051401751196 0 9.447051401751196 -15.610108316966944 0 0 0 0 41.041619988530101 -6.5039232189756149 0 -6.5039232189756149 0.021699451757285715 0 0 0 0 38.158947775013758 -0.23704950978662964 0 -0.23704950978662964 -13.39432645281795 0 0 0 0 31.419580842983919 -3.6749400978605991 0 -3.6749400978605991 -7.2406987878694054 0 0 0 0 39.988919006237893 -3.4273899208901639 0 -3.4273899208901639 -11.56695843298985 0 0 0 0 -70.218406509118182 -53.137816883479445 0 -53.137816883479445 -40.361732096431297 0 0 0 0 -0.069984688852459342 0.62832069825131764 0 0.62832069825131764 -7.7516118445766438 0 0 0 0 -198.60622986911372 -146.32060038420741 0 -146.32060038420741 -96.057451951572148 0 0 0 0 17.667192070826331 56.149926655237323 0 56.149926655237323 -73.061720087434878 0 0 0 0 -0.18412783327439686 0.3378706998450145 0 0.3378706998450145 -2.6418460867990134 0 0 0 0 41.493009249651095 11.114776429232734 0 11.114776429232734 -92.892789995912608 0 0 0 0 5.8551345501284686 32.597511193699575 0 32.597511193699575 -16.030491429988615 0 0 0 0 50.949058959825493 44.519920052530779 0 44.519920052530779 -147.74200696217304 0 0 0 0 55.624994884203488 -66.813449260668676 0 -66.813449260668676 -172.74049291215761 0 0 0 0 -231.48128695748744 19.744068262794826 0 19.744068262794826 89.852373291859294 0 0 0 0 94.922183412510776 -55.688947682727303 0 -55.688947682727303 -210.24254445678525 0 0 0 0 -4.4266685807888253 -1.8777408669754685 0 -1.8777408669754685 -0.17988489876277036 0 0 0 0 -94.196313576517696 -230.32810414186406 0 -230.32810414186406 -1187.4250081068931 0 0 0 0 11.143369359427862 -245.45478953028987 0 -245.45478953028987 -1500.7343580819979 0 0 0 0 -26.105047688821173 -353.15703648597173 0 -353.15703648597173 -1320.5802953663624 0 0 0 0 -1.6355513404311914 -6.0304343831789211 0 -6.0304343831789211 2.2731242918268908 0 0 0 0 17.853291613471214 -44.899574411749199 0 -44.899574411749199 -43.071283815888364 0 0 0 0 0.30428783713685448 -431.91327623687403 0 -431.91327623687403 -1113.9112574761511 0 0 0 0 96.096996842975727 -619.54020850677625 0 -619.54020850677625 -1497.4836955772175 0 0 0 0 -1.3334345577033897 -7.9303557818071084 0 -7.9303557818071084 -47.911383484000908 0 0 0 0 -0.60352901931426572 -32.87774935305606 0 -32.87774935305606 -46.424872489080371 0 0 0 0 20.496413277856675 -3.0024702925293241 0 -3.0024702925293241 -46.132056277279844 0 0 0 0 9.6946742922095837 -13.189504098936595 0 -13.189504098936595 -46.834373165043985 0 0 0 0 30.599285281304788 -37.182233544960582 0 -37.182233544960582 -65.466358176303402 0 0 0 0 47.859265652372073 -53.96373413425772 0 -53.96373413425772 -56.88651067781575 0 0 0 0 34.347154507420143 -5.4643424536952807 0 -5.4643424536952807 -83.062516583063825 0 0 0 0 40.686152228626256 12.823478135980395 0 12.823478135980395 -51.463128497844082 0 0 0 0 24.246697505482274 1.6687637089394229 0 1.6687637089394229 -41.928702560131569 0 0 0 0 26.698576127759452 9.4687043903504673 0 9.4687043903504673 -44.683275595763916 0 0 0 0 11.890245390839368 4.2095875838658685 0 4.2095875838658685 -30.775899963073414 0 0 0 0 17.935949532705536 11.40232099641662 0 11.40232099641662 -30.278179402323076 0 0 0 0 18.307378543433515 6.9581792505132398 0 6.9581792505132398 -27.725140786312295 0 0 0 0 12.793302830364723 10.241666383032452 0 10.241666383032452 -23.014150924456771 0 0 0 0 -0.65659424873759931 3.694602835862423 0 3.694602835862423 -22.121068634438572 0 0 0 0 8.2631163007572468 -6.4512786966706699 0 -6.4512786966706699 -31.040647170044849 0 0 0 0 15.618582084786681 8.3959145073454238 0 8.3959145073454238 -28.325764377261294 0 0 0 0 5.0429929122240083 -16.773513263827226 0 -16.773513263827226 -45.021709832482884 0 0 0 0 11.230724976684087 -13.705075867643245 0 -13.705075867643245 -60.87706933525169 0 0 0 0 11.123485900985841 -0.59385877302594281 0 -0.59385877302594281 -43.719816482360329 0 0 0 0 5.2860032909749224 -9.7137931532096982 0 -9.7137931532096982 0.13921306960576274 0 0 0 0 -2.5531217623216929 -3.5583813625079159 0 -3.5583813625079159 -0.74188337999542142 0 0 0 0 -28.186397416045541 177.41413598550207 0 177.41413598550207 -1499.0705142450727 0 0 0 0 -537.75678951477948 -280.06114635480117 0 -280.06114635480117 -127.26231481970899 0 0 0 0 84.362663084415345 -563.22360938201018 0 -563.22360938201018 -1498.0490003107145 0 0 0 0 -26.785845707217941 148.29601283205187 0 148.29601283205187 -965.48735107419998 0 0 0 0 4.3327801059197668 -5.2014653349579021 0 -5.2014653349579021 -14.683174047577268 0 0 0 0 0.76891517412757238 -3.1661653940299246 0 -3.1661653940299246 -7.454536609369212 0 0 0 0 5.7963773403996584 -7.362228683834843 0 -7.362228683834843 -35.214154831417545 0 0 0 0 4.6632526742701055 -9.1988137070121248 0 -9.1988137070121248 -14.323491225750793 0 0 0 0 17.660713150736683 -4.815720264913125 0 -4.815720264913125 -39.427671503151032 0 0 0 0 1.8194498074809056 -0.4566317673868332 0 -0.4566317673868332 -21.038621130405176 0 0 0 0 -132.63435448595504 -82.607451283416594 0 -82.607451283416594 0.080777078335813712 0 0 0 0 11.282847725258682 -6.7118542637097178 0 -6.7118542637097178 -17.646999414190844 0 0 0 0 2.0657633784411877 -0.12991641243854346 0 -0.12991641243854346 -19.78627143766829 0 0 0 0 192.66342629312402 90.49572554570068 0 90.49572554570068 -154.90600750051817 0 0 0 0 -294.64458757068405 106.56465944484626 0 106.56465944484626 151.45460289473158 0 0 0 0 -59.65543447141944 310.20426883919413 0 310.20426883919413 -1697.1679486341382 0 0 0 0 -2.9870786304000077 1.4430170289724344 0 1.4430170289724344 -2.9442538317658808 0 0 0 0 -2.8024650560469717 0.64639416653381865 0 0.64639416653381865 -0.8405977207670503 0 0 0 0 -589.46649829847809 804.58876659774978 0 804.58876659774978 -1499.426537981964 0 0 0 0 78.62325290178967 526.06965781773761 0 526.06965781773761 -1413.5923175684384 0 0 0 0 -537.88698977880006 635.04514554430716 0 635.04514554430716 -460.30622203728126 0 0 0 0 47.074476077815532 4.1120570655857591 0 4.1120570655857591 -331.29380008940188 0 0 0 0 8.9863126772011128 -5.3570002700876103 0 -5.3570002700876103 -11.520732116901854 0 0 0 0 4.8687373900570492 3.5164928280719323 0 3.5164928280719323 -15.198059389622358 0 0 0 0 9.4285454592254609 5.3009418005553925 0 5.3009418005553925 -18.376979734784982 0 0 0 0 0.031986849596194133 2.2577574664470035 0 2.2577574664470035 -17.125367236894817 0 0 0 0 5.8880613939900286 3.796845966258843 0 3.796845966258843 -16.723584728872083 0 0 0 0 9.6113772391272505 -4.407877169663152 0 -4.407877169663152 -12.990926995949849 0 0 0 0 0.37309690483789382 1.8610613631080923 0 1.8610613631080923 -11.304662524966261 0 0 0 0 -316.42512741636892 -264.88441872674684 0 -264.88441872674684 -255.31708177544965 0 0 0 0 -109.00952376084069 -93.627784414280541 0 -93.627784414280541 -149.98424018827427 0 0 0 0 -221.64061449580515 -298.50696841749118 0 -298.50696841749118 -273.0316339973142 0 0 0 0 46.148742549481085 86.113846813648252 0 86.113846813648252 -27.129624785387932 0 0 0 0 1.5759283910651902 -129.83694618358095 0 -129.83694618358095 -234.38196740869535 0 0 0 0 -56.530180966382773 63.667017869363406 0 63.667017869363406 -53.443010479759323 0 0 0 0 -86.747838810359553 -82.371235350912229 0 -82.371235350912229 -187.58262910624217 0 0 0 0 -36.550997844561607 29.958627229992089 0 29.958627229992089 -8.9626771783878212 0 0 0 0 -16.614555592709621 136.91936591522972 0 136.91936591522972 20.807948184334577 0 0 0 0 -111.11005844840111 13.495861903837067 0 13.495861903837067 45.283318099506289 0 0 0 0 -79.494461272764966 -76.481769094960555 0 -76.481769094960555 -170.5082889784353 0 0 0 0 283.6585209819641 48.374574705834448 0 48.374574705834448 -211.00679650115001 0 0 0 0 -179.8221586908254 148.56067994765829 0 148.56067994765829 -58.771325453265263 0 0 0 0 -396.23688292981433 -178.49093272830845 0 -178.49093272830845 -485.4779279188657 0 0 0 0 -294.36204600081498 -316.00017059704726 0 -316.00017059704726 -333.85373629939204 0 0 0 0 -196.39749016664769 -39.575916015067378 0 -39.575916015067378 -157.67631469232606 0 0 0 0 -208.56291554054599 -282.39650396761022 0 -282.39650396761022 -474.614362505401 0 0 0 0 -426.05618827940748 -525.2142955895356 0 -525.2142955895356 -572.98342644460945 0 0 0 0 -173.27067244801458 -370.77642162942993 0 -370.77642162942993 -671.15548910406051 0 0 0 0 -102.22827667770548 -192.13874769570248 0 -192.13874769570248 -359.12280944426834 0 0 0 0 -200.70944249055273 -403.74170366158683 0 -403.74170366158683 -560.40979515852314 0 0 0 0 -262.18869993172677 -449.55020261204595 0 -449.55020261204595 -568.25505565793333 0 0 0 0 -264.25058130307946 -260.62478233868342 0 -260.62478233868342 -306.70897285907722 0 0 0 0 -217.55107546612498 -241.36664568375136 0 -241.36664568375136 -241.71621757731737 0 0 0 0 -5.7865780348820408 22.521386436686953 0 22.521386436686953 -193.86927016449044 0 0 0 0 -94.323746617314043 -41.34401721131934 0 -41.34401721131934 -66.391783148925242 0 0 0 0 -42.730531509595266 14.424562147775077 0 14.424562147775077 -7.5689365113439635 0 0 0 0 -0.53989541012943354 1.3356548660107546 0 1.3356548660107546 -1.9190808467591411 0 0 0 0 -171.34335451196466 -250.35779168867339 0 -250.35779168867339 -437.34330239506471 0 0 0 0 18.428906309173158 -155.30505998614467 0 -155.30505998614467 -508.98149311785801 0 0 0 0 -110.07175295619925 -141.94100331326445 0 -141.94100331326445 -192.43214613881355 0 0 0 0 -85.637982660132707 -77.820247973520054 0 -77.820247973520054 -26.783528274649143 0 0 0 0 -1.7853851548231887 10.565691910589521 0 10.565691910589521 -120.93022955836659 0 0 0 0 -67.567194094165416 40.716997210476165 0 40.716997210476165 21.490636226990318 0 0 0 0 -13.028372537547284 -21.435015896146979 0 -21.435015896146979 34.912551097018877 0 0 0 0 -3.238707055824058 -0.86900078280068982 0 -0.86900078280068982 1.1502598972038065 0 0 0 0 -395.19984646913053 -308.28193028603164 0 -308.28193028603164 223.55864539803224 0 0 0 0 -10.64282891271592 -4.499982760446386 0 -4.499982760446386 -3.7254928429779568 0 0 0 0 -13.917054298069587 -8.9168752674713687 0 -8.9168752674713687 8.4174921015364816 0 0 0 0 -16.437322378525892 23.95684140730873 0 23.95684140730873 -10.987296608869656 0 0 0 0 -34.442084854800441 16.134760673373421 0 16.134760673373421 -3.5983012119131672 0 0 0 0 -41.141825574660743 46.87228289302584 0 46.87228289302584 -29.30932558343784 0 0 0 0 -19.48020516841558 16.783566278716535 0 16.783566278716535 -15.291829433769635 0 0 0 0 22.368023820762346 3.1947839682429731 0 3.1947839682429731 -40.287824726743111 0 0 0 0 1.5798272547140944 1.0037876161877923 0 1.0037876161877923 -14.343592181084558 0 0 0 0 -13.898230710817188 -57.299932718671698 0 -57.299932718671698 112.2262387819992 0 0 0 0 -65.775190321941182 68.390951238338857 0 68.390951238338857 131.01941526559676 0 0 0 0 -44.760512091028886 76.683230465775068 0 76.683230465775068 28.979980576476009 0 0 0 0 -0.40537275286071428 1.6916471603404863 0 1.6916471603404863 -0.56667777601356129 0 0 0 0 -10.30869377111776 31.026123451264993 0 31.026123451264993 34.872567145692301 0 0 0 0 -12.798959744826334 -4.2272116406777513 0 -4.2272116406777513 -49.484837748008431 0 0 0 0 107.13518107692835 97.956385973846409 0 97.956385973846409 -10.609356903042681 0 0 0 0 -4.783874075617355 9.0169500875356494 0 9.0169500875356494 -6.1909235566347007 0 0 0 0 -0.76012494844736311 -0.91504783565602743 0 -0.91504783565602743 -45.328704727049043 0 0 0 0 12.495143039800496 45.796753163592257 0 45.796753163592257 44.392362588655942 0 0 0 0 -6.20671821087738 6.5448037053867711 0 6.5448037053867711 -16.346957420798503 0 0 0 0 -11.126949971856902 4.5097442213348415 0 4.5097442213348415 -12.704988031650188 0 0 0 0 -3.3377839486245193 4.0358401035849454 0 4.0358401035849454 -23.130541948140092 0 0 0 0 -10.98281238069012 26.359686705910008 0 26.359686705910008 9.6524949165923317 0 0 0 0 -33.075620663297741 27.696770582824684 0 27.696770582824684 34.908087155256908 0 0 0 0 -21.151649206962247 12.466145697486354 0 12.466145697486354 -5.6449506735261821 0 0 0 0 -48.443727897854842 12.842683080184543 0 12.842683080184543 21.055031613118445 0 0 0 0 -16.446479231824817 -12.456121540118499 0 -12.456121540118499 -11.154860232442978 0 0 0 0 -42.099563096880445 -57.394756197359428 0 -57.394756197359428 49.563478982336164 0 0 0 0 17.435887096607985 -19.141667204895384 0 -19.141667204895384 -36.92657905433316 0 0 0 0 -3.6071704800855935 -2.4213822948094972 0 -2.4213822948094972 -3.1818886551243617 0 0 0 0 -23.676967503074593 5.9325256251013343 0 5.9325256251013343 -11.198502695711795 0 0 0 0 -11.891839467500176 -10.831816466871715 0 -10.831816466871715 -34.701374531212423 0 0 0 0 10.55822991218065 13.763412515479558 0 13.763412515479558 -38.306936242039228 0 0 0 0 -12.617724320601837 -6.7459987308156997 0 -6.7459987308156997 -29.596447577933759 0 0 0 0 -11.613735181055063 -13.186536466223515 0 -13.186536466223515 -45.025591024241294 0 0 0 0 -12.431310158014185 -14.969833674864276 0 -14.969833674864276 -47.434395822663646 0 0 0 0 -15.580706894100331 -13.084013500447327 0 -13.084013500447327 -45.890513393112997 0 0 0 0 -10.480328665988509 0.82184137235526578 0 0.82184137235526578 -44.522562021556951 0 0 0 0 -26.274117488544903 -25.877079988308651 0 -25.877079988308651 -60.88036767970334 0 0 0 0 -3.9030701342546763 2.1783452098616181 0 2.1783452098616181 -87.802112628887699 0 0 0 0 -49.832373897992511 -42.862159491392958 0 -42.862159491392958 -12.733914723312409 0 0 0 0 -41.693667887524498 11.946287408694843 0 11.946287408694843 -44.494867384379177 0 0 0 0 -23.020154798339455 -9.1456118365337158 0 -9.1456118365337158 -17.321146216641708 0 0 0 0 -6.9143065679471718 -0.008278874795513147 0 -0.008278874795513147 5.8919953207038063 0 0 0 0 0.91124518023030143 2.0853632498988599 0 2.0853632498988599 -16.480444840356618 0 0 0 0 -85.932915876798461 -54.549074046343776 0 -54.549074046343776 20.837902395677702 0 0 0 0 -104.27500712725691 16.755278355944029 0 16.755278355944029 -9.3386975564981185 0 0 0 0 86.250215248380357 38.618427312003405 0 38.618427312003405 -132.25038675422365 0 0 0 0 -1.5907741367923016 -0.071645379486497518 0 -0.071645379486497518 0.10561792531751024 0 0 0 0 -59.674053461244966 25.805388647919244 0 25.805388647919244 -37.781107207673813 0 0 0 0 18.671143333857117 -20.546509599188084 0 -20.546509599188084 -124.61635705978188 0 0 0 0 -39.09230156681906 -29.115731689295899 0 -29.115731689295899 -14.596500215483502 0 0 0 0 -46.913855952651375 6.4444025222455821 0 6.4444025222455821 -34.668790044862362 0 0 0 0 -49.446461583970972 -11.045330312048407 0 -11.045330312048407 1.723337231142068 0 0 0 0 9.7300671861198111 -41.873953429371795 0 -41.873953429371795 -19.281457245868296 0 0 0 0 -37.419194859824302 -22.258845069040035 0 -22.258845069040035 -18.321916230293937 0 0 0 0 -44.845844923075219 -27.899057135274234 0 -27.899057135274234 -20.43219379506354 0 0 0 0 -20.494822087300008 -26.807247269122854 0 -26.807247269122854 -31.303835633489484 0 0 0 0 -34.402884261245163 -25.207919526570549 0 -25.207919526570549 -31.054915777513088 0 0 0 0 -27.952122756804329 -15.906944050570701 0 -15.906944050570701 -34.38345528642094 0 0 0 0 -36.639862487500523 -43.175443320480554 0 -43.175443320480554 -47.396613566406813 0 0 0 0 -10.461640482540815 -28.519486666083139 0 -28.519486666083139 -50.161258856626432 0 0 0 0 -4.4051026288705089 -9.3148096554464246 0 -9.3148096554464246 -40.635301471857872 0 0 0 0 -22.356929330240632 -10.71996058663035 0 -10.71996058663035 -40.43423970312142 0 0 0 0 -13.391047009671865 -15.84784890156061 0 -15.84784890156061 -45.825313810379697 0 0 0 0 -14.243517392760396 -16.446411057188016 0 -16.446411057188016 -40.960316801931185 0 0 0 0 -8.4796422428237292 -15.661063590860067 0 -15.661063590860067 -41.272816055734438 0 0 0 0 -11.209053356154527 -18.470191146132038 0 -18.470191146132038 -38.395004581041576 0 0 0 0 -3.7497053962381415 -19.235329469249336 0 -19.235329469249336 -46.704302444358746 0 0 0 0 -20.889758055412443 -24.607435261125943 0 -24.607435261125943 -42.079569684245143 0 0 0 0 -7.2811756258347486 -14.94189119625662 0 -14.94189119625662 -38.258766279348492 0 0 0 0 2.764050778557344 -3.0444673934445881 0 -3.0444673934445881 -39.780108012373127 0 0 0 0 -3.5639659703360849 -9.2434513484672607 0 -9.2434513484672607 -35.073312583150255 0 0 0 0 -9.2319069908741085 -15.263911677167016 0 -15.263911677167016 -40.523624186983398 0 0 0 0 -22.373454138660122 -2.2202233633694277 0 -2.2202233633694277 -31.191466644672801 0 0 0 0 9.1349429161512035 -3.6689421630935612 0 -3.6689421630935612 -39.416023126568689 0 0 0 0 2.3851657649224247 -4.9295214427325602 0 -4.9295214427325602 -29.588613187540908 0 0 0 0 5.2333126457574508 -7.0708006035974904 0 -7.0708006035974904 -36.988824350697541 0 0 0 0 3.8035322671366885 -3.137483021191656 0 -3.137483021191656 -36.112764022303509 0 0 0 0 1.8084152103316455 -10.493528985739431 0 -10.493528985739431 -43.818041158698179 0 0 0 0 16.126859783159489 3.3122452323523248 0 3.3122452323523248 -48.584724606368127 0 0 0 0 4.5744075402549242 -4.9918674131977241 0 -4.9918674131977241 -39.396618893581945 0 0 0 0 4.8934469054986245 -14.496519261043787 0 -14.496519261043787 -55.903976323883398 0 0 0 0 -224.80991784007983 -686.39394623441763 0 -686.39394623441763 -1561.5346181327277 0 0 0 0 0.36934851475267028 3.0975582921271432 0 3.0975582921271432 -6.5646810172884766 0 0 0 0 2.3206517195271772 2.1662384930750704 0 2.1662384930750704 -29.258838606648169 0 0 0 0 -479.82061636262915 -612.84934197753955 0 -612.84934197753955 -1588.5495645207511 0 0 0 0 -580.54888889750418 -905.63145186632755 0 -905.63145186632755 -1508.1965939904271 0 0 0 0 -767.82159404140475 -1082.1293381137148 0 -1082.1293381137148 -2795.253076812407 0 0 0 0 -402.06149750086433 -835.62816955720928 0 -835.62816955720928 -2682.7437014167863 0 0 0 0 -0.44308845254804319 0.34017686229202759 0 0.34017686229202759 -0.15508705757587649 0 0 0 0 253.1944488997724 -639.02942675035592 0 -639.02942675035592 -2836.7161937551718 0 0 0 0 -31.621687514236783 -38.404644483448465 0 -38.404644483448465 -46.007287518581734 0 0 0 0 -30.432900877733601 -43.90241043178338 0 -43.90241043178338 -61.953687021063161 0 0 0 0 -9.6467098016319142 -20.334264235337287 0 -20.334264235337287 -46.105672178029636 0 0 0 0 10.230657540317679 -17.411305480562078 0 -17.411305480562078 -76.347340464224089 0 0 0 0 -3.5803628750091177 1.7523558975509488 0 1.7523558975509488 -1.5302078609459606 0 0 0 0 15.288189863273601 43.862570364754902 0 43.862570364754902 -12.617301716895781 0 0 0 0 28.930516507607564 -271.99635572780198 0 -271.99635572780198 -1293.9736326181792 0 0 0 0 -296.50605656369038 -289.00120437818441 0 -289.00120437818441 -1098.9738421803295 0 0 0 0 -153.06999577129045 -404.85394052097536 0 -404.85394052097536 -1079.4521745396505 0 0 0 0 -567.67687521714254 -281.86652770773298 0 -281.86652770773298 -1106.133539341834 0 0 0 0 -58.516009025508623 -280.82025908756395 0 -280.82025908756395 -1291.8356276286167 0 0 0 0 -216.20443553010401 -99.038219313083573 0 -99.038219313083573 -1498.4111633596431 0 0 0 0 -574.88381818284665 -454.73308319278999 0 -454.73308319278999 -944.56780135588815 0 0 0 0 -292.75837154464324 -610.9246297782995 0 -610.9246297782995 -1257.3329655033212 0 0 0 0 -3.7384467590464578 4.1150860726045586 0 4.1150860726045586 -8.2849379172340605 0 0 0 0 -291.07009120114549 -793.75938375492433 0 -793.75938375492433 -1074.1054222236344 0 0 0 0 -211.67351255399808 -566.82944079844037 0 -566.82944079844037 -1525.4114244787113 0 0 0 0 -512.16402755745503 -894.45730434126313 0 -894.45730434126313 -1499.5329848313995 0 0 0 0 -491.40888081183522 -450.50038220825354 0 -450.50038220825354 -793.76361693474519 0 0 0 0 -2.1391624451129521 0.92059536136917508 0 0.92059536136917508 -4.8809999735186196 0 0 0 0 -384.55960332971199 -681.04896563809643 0 -681.04896563809643 -1159.4049147880423 0 0 0 0 -210.57208188456417 -697.12089336466067 0 -697.12089336466067 -1499.8093302298214 0 0 0 0 -145.26327149341222 -541.09120783332878 0 -541.09120783332878 -1307.2468263754008 0 0 0 0 -115.83484902619526 -471.20172402761102 0 -471.20172402761102 -1144.8135342376704 0 0 0 0 -264.83348044484495 -630.75265098931186 0 -630.75265098931186 -1050.4837698583251 0 0 0 0 -338.76850372266495 -614.13526187762659 0 -614.13526187762659 -1150.5636223364638 0 0 0 0 -299.9061184292712 -687.91674207457368 0 -687.91674207457368 -1141.7623589381353 0 0 0 0 -791.527674433166 -653.09860947065545 0 -653.09860947065545 -890.32690591580285 0 0 0 0 -638.29039735821971 -1465.6629184041274 0 -1465.6629184041274 -2166.0448678728412 0 0 0 0 -772.6831646325661 -1044.0014421550329 0 -1044.0014421550329 -1169.1415837863024 0 0 0 0 -4.625793190112871 -1.4578866018734571 0 -1.4578866018734571 -4.9740183893408059 0 0 0 0 -143.56309214076873 -1195.741820791055 0 -1195.741820791055 -3113.3553078475084 0 0 0 0 -523.93316799563468 -818.44758958035663 0 -818.44758958035663 -1667.8854481975161 0 0 0 0 -1.4782321735180446 2.308859155084539 0 2.308859155084539 -6.1305966121579658 0 0 0 0 -258.89690908403463 -328.21768389468201 0 -328.21768389468201 -837.53380202840424 0 0 0 0 -491.9696600353418 -389.50893068040273 0 -389.50893068040273 -751.2069997964677 0 0 0 0 -199.62954103295681 -352.28431164510152 0 -352.28431164510152 -1649.0593385583006 0 0 0 0 -345.81218875724562 -771.10368515237712 0 -771.10368515237712 -971.612900875023 0 0 0 0 -596.19535520050385 -521.55392113607684 0 -521.55392113607684 -133.88605496492281 0 0 0 0 -84.684919122679958 -420.4359083890771 0 -420.4359083890771 -981.35351909361839 0 0 0 0 -343.24136514992131 -665.49368855344153 0 -665.49368855344153 -941.16376233859307 0 0 0 0 -85.039612524025472 -408.41871616950237 0 -408.41871616950237 -1301.5197235133676 0 0 0 0 -258.01012942117336 -352.43005525289516 0 -352.43005525289516 -1150.7712383573958 0 0 0 0 -42.795411315788293 -320.19103897459144 0 -320.19103897459144 -1199.3033745255216 0 0 0 0 -41.972893715331928 -267.44311688203629 0 -267.44311688203629 -1150.8036186169836 0 0 0 0 -82.88457767655018 -489.24320567362076 0 -489.24320567362076 -1500.0977910714205 0 0 0 0 98.854632150553982 -172.18772067192106 0 -172.18772067192106 -1497.8248947510667 0 0 0 0 134.78658542234021 29.812976929374145 0 29.812976929374145 -1049.3020200359952 0 0 0 0 62.156828437100344 140.68861842620896 0 140.68861842620896 -495.37722809180764 0 0 0 0 110.79952937455789 -260.63314657808371 0 -260.63314657808371 -1026.2174288809981 0 0 0 0 2.5203688919870331 -334.9876765550739 0 -334.9876765550739 -987.58999842515777 0 0 0 0 -37.780086454716496 -256.60306288021059 0 -256.60306288021059 -1134.4489745184376 0 0 0 0 -213.2185436636687 -524.29685108365697 0 -524.29685108365697 -1069.9245163467049 0 0 0 0 153.32314405724867 -458.92386824128744 0 -458.92386824128744 -1499.742034937361 0 0 0 0 1.3364060549515859 0.83368658018145325 0 0.83368658018145325 -4.4502216680803759 0 0 0 0 -326.43800790271064 -764.9146565766996 0 -764.9146565766996 -1499.4538291441429 0 0 0 0 -19.506880517360742 -336.66559132515977 0 -336.66559132515977 -725.4542202851693 0 0 0 0 -17.8081913988255 -342.6964425328469 0 -342.6964425328469 -1050.7003199149149 0 0 0 0 11.330973543606547 -333.53192494349514 0 -333.53192494349514 -1028.9830025934634 0 0 0 0 2.5574246089535047 2.1999257512242121 0 2.1999257512242121 -6.6930347031424811 0 0 0 0 -65.581623620825667 -274.45908764334558 0 -274.45908764334558 -1003.2762860925179 0 0 0 0 20.034068137597103 -298.94640621447411 0 -298.94640621447411 -1047.5485580410209 0 0 0 0 -25.02299203270637 -392.86564461989121 0 -392.86564461989121 -1110.5047887653582 0 0 0 0 -0.053514187993471296 -315.17006361793631 0 -315.17006361793631 -1021.7338290959603 0 0 0 0 4.0330871776938295 -330.78568975048529 0 -330.78568975048529 -988.69293189371911 0 0 0 0 -88.161800470552507 -317.18099889978794 0 -317.18099889978794 -990.56978332761798 0 0 0 0 -75.262136677601745 -349.79357983497994 0 -349.79357983497994 -910.12108637500478 0 0 0 0 -166.85758801456745 -509.57532792013916 0 -509.57532792013916 -862.67309009241444 0 0 0 0 -0.028251699613785708 -0.13707371179961747 0 -0.13707371179961747 -1.750700745030505 0 0 0 0 -154.76452064880883 -309.56533611080044 0 -309.56533611080044 -696.03343956478147 0 0 0 0 -195.65133865492805 -332.08429265042741 0 -332.08429265042741 -621.57031127393907 0 0 0 0 -245.939983488243 -230.22434499867495 0 -230.22434499867495 -701.43996556010188 0 0 0 0 -197.76804888659126 -334.56932707207625 0 -334.56932707207625 -620.49770899538316 0 0 0 0 -22.420307444675643 -246.03990618098828 0 -246.03990618098828 -916.00678924893759 0 0 0 0 -0.38605622449884291 0.12636171493251602 0 0.12636171493251602 -2.1451262636115835 0 0 0 0 -10.236488650307308 -225.3244718378719 0 -225.3244718378719 -1053.0382996914195 0 0 0 0 -113.84423259030336 -149.49107349577616 0 -149.49107349577616 -764.35688985529578 0 0 0 0 -0.24209111405618122 0.22982778261816961 0 0.22982778261816961 -1.6275871856751234 0 0 0 0 -49.605937904914839 -219.96701784134106 0 -219.96701784134106 -854.66751967669552 0 0 0 0 -38.864529116369539 -141.84327298925155 0 -141.84327298925155 -685.41859070558394 0 0 0 0 -111.46856598688906 -128.8853489995588 0 -128.8853489995588 -494.26774279571691 0 0 0 0 -33.960494272341748 -76.387066925863564 0 -76.387066925863564 -723.07226992794745 0 0 0 0 42.179104814439768 -230.21393454814483 0 -230.21393454814483 -636.88277857876346 0 0 0 0 -48.288385614778576 -218.33222577078874 0 -218.33222577078874 -206.33023375941411 0 0 0 0 -21.433031669361242 -78.106373893791442 0 -78.106373893791442 -446.4077647443878 0 0 0 0 -45.668414772815979 -295.99329014321938 0 -295.99329014321938 -467.39394672404342 0 0 0 0 -58.247598162366501 -80.467218976456934 0 -80.467218976456934 -105.68324027350263 0 0 0 0 -169.10945725685497 -18.491045314506664 0 -18.491045314506664 -97.161253675495573 0 0 0 0 -551.24243971920123 -439.07864089656186 0 -439.07864089656186 -438.15573003989402 0 0 0 0 -170.79360891673514 233.51702129244495 0 233.51702129244495 39.014213859857591 0 0 0 0 -4.8692800486640513 -1.5558529020787901 0 -1.5558529020787901 -0.73393460960603818 0 0 0 0 -520.63037059074088 306.90338884698895 0 306.90338884698895 34.047423677764073 0 0 0 0 -17.326893060251457 -178.67256022759014 0 -178.67256022759014 -764.14693684212034 0 0 0 0 -9.7481151397569192 41.939622754884567 0 41.939622754884567 -215.96017011795811 0 0 0 0 -395.95982692091275 -49.687643450211453 0 -49.687643450211453 -704.90138975331911 0 0 0 0 -27.215340253913723 -129.84477221513475 0 -129.84477221513475 -845.34961500931604 0 0 0 0 -531.32459687432447 -365.51780655227049 0 -365.51780655227049 -554.3699827129085 0 0 0 0 -150.56135910749089 -198.90787756027385 0 -198.90787756027385 -722.78104701297434 0 0 0 0 -164.90463302253946 -221.78889270293973 0 -221.78889270293973 -610.78578022352394 0 0 0 0 -456.4001986232314 -224.14632317074984 0 -224.14632317074984 -593.12180805835055 0 0 0 0 -20.734318008565793 -36.015293654509151 0 -36.015293654509151 -473.09736180989876 0 0 0 0 39.241031708121284 -104.32502099688736 0 -104.32502099688736 -642.79245862688731 0 0 0 0 -33.804013153015603 -201.28017207873927 0 -201.28017207873927 -444.95473045665676 0 0 0 0 -25.624403450328828 -86.545500461767006 0 -86.545500461767006 -279.87656818346113 0 0 0 0 -14.359459375930101 -214.95129945660346 0 -214.95129945660346 -519.35026592010445 0 0 0 0 -58.663822092879286 -265.78557584629289 0 -265.78557584629289 -735.04335675875245 0 0 0 0 8.60709570895051 -121.43838792602173 0 -121.43838792602173 -608.32244079350767 0 0 0 0 -76.236660038655089 -270.49659319876446 0 -270.49659319876446 -653.83490877449049 0 0 0 0 -60.794975078058485 -152.80097989858177 0 -152.80097989858177 -829.92792675152668 0 0 0 0 -61.300708103666636 -245.79076996165782 0 -245.79076996165782 -957.0100569313654 0 0 0 0 -98.416328054109812 -140.71526715519758 0 -140.71526715519758 -877.58712748280232 0 0 0 0 -73.207460783482816 -230.17464900563266 0 -230.17464900563266 -743.90613697748086 0 0 0 0 -17.279979540876525 -89.815424782255832 0 -89.815424782255832 -863.25087364764818 0 0 0 0 -15.123789444888928 6.9092690587654033 0 6.9092690587654033 -1013.8898981075872 0 0 0 0 -29.595861396063071 -166.52060425039735 0 -166.52060425039735 -1046.2126314005618 0 0 0 0 132.42755558196836 -41.548744796263691 0 -41.548744796263691 -1181.0149043687643 0 0 0 0 115.50547179883375 37.05364887704809 0 37.05364887704809 -1032.9410411755207 0 0 0 0 -49.88873776118578 -94.236779026189652 0 -94.236779026189652 -1090.8514603861454 0 0 0 0 -130.15264458573313 -559.39181932465954 0 -559.39181932465954 -1608.3066887258942 0 0 0 0 1.3071021054328562 0.96981327445105769 0 0.96981327445105769 -3.733884482043683 0 0 0 0 207.77335897253971 185.48630673426669 0 185.48630673426669 -423.44257911561863 0 0 0 0 53.881343305270477 -409.54728047798119 0 -409.54728047798119 -1012.2229599380717 0 0 0 0 295.83732905690061 31.742932076478496 0 31.742932076478496 -1165.8239426226555 0 0 0 0 378.8006327324851 -185.25648290773302 0 -185.25648290773302 -1499.8033908369189 0 0 0 0 316.0126352933716 -191.81912591351556 0 -191.81912591351556 -1162.8350842786854 0 0 0 0 87.129886744603311 112.60238011205161 0 112.60238011205161 -1096.0807396485397 0 0 0 0 246.25675420188634 -43.171008072060431 0 -43.171008072060431 -1086.9827276092824 0 0 0 0 232.50832354767664 27.62418529243223 0 27.62418529243223 -1252.3820041186455 0 0 0 0 223.4461858187417 170.01587748629981 0 170.01587748629981 -1499.544995059211 0 0 0 0 201.36573549025826 203.45812703246315 0 203.45812703246315 -1158.1313199440992 0 0 0 0 163.87618650155488 339.54423914899644 0 339.54423914899644 -1500.5264136194101 0 0 0 0 77.628058194342458 144.5953259974217 0 144.5953259974217 -1134.4557030402084 0 0 0 0 43.43644574756015 393.82374133422445 0 393.82374133422445 -1032.2678789793417 0 0 0 0 -84.848137507952686 927.93976991333966 0 927.93976991333966 -1496.3011350823815 0 0 0 0 -1.2010846535093469 2.9521699250249185 0 2.9521699250249185 -7.1991298081144564 0 0 0 0 -285.21501021442685 793.04728395151369 0 793.04728395151369 -73.646795999764436 0 0 0 0 39.122126942258603 -124.86364053511215 0 -124.86364053511215 -8.167618514793503 0 0 0 0 -160.2244291494865 268.54386168757173 0 268.54386168757173 -766.79513045363547 0 0 0 0 16.840783761778511 397.44970634563106 0 397.44970634563106 -678.07701567601725 0 0 0 0 -8.9422946459938544 46.072792601047695 0 46.072792601047695 -595.87390084589606 0 0 0 0 -41.3872964055194 138.56147874791304 0 138.56147874791304 -829.34532016834055 0 0 0 0 231.26310237310861 27.591195657223579 0 27.591195657223579 -807.96687031308193 0 0 0 0 -41.305871204799963 51.541693989286614 0 51.541693989286614 -739.94550962449011 0 0 0 0 -49.345933096809496 71.653059336745173 0 71.653059336745173 -781.07846531495579 0 0 0 0 -17.387570174848101 38.683392202841191 0 38.683392202841191 -883.7783348745179 0 0 0 0 -16.694696978288604 185.68958661618626 0 185.68958661618626 -966.32605872109616 0 0 0 0 -9.2426236778487976 153.09304503987823 0 153.09304503987823 -826.07455414080187 0 0 0 0 370.22258327560303 -119.29322183985391 0 -119.29322183985391 -1499.4236424003921 0 0 0 0 35.766839380444246 273.85009497735064 0 273.85009497735064 -1049.0007798266879 0 0 0 0 155.85102474293387 394.39266667099309 0 394.39266667099309 -934.88391190186485 0 0 0 0 51.710399384918723 -681.05111756336555 0 -681.05111756336555 -1498.2396336256404 0 0 0 0 179.71152753282357 -154.25385353668298 0 -154.25385353668298 -239.86095176848903 0 0 0 0 496.80754188344008 31.770363740261018 0 31.770363740261018 -622.44324754942431 0 0 0 0 294.38795527284856 -129.43363638031565 0 -129.43363638031565 -630.57051935147319 0 0 0 0 -1.5723885433281826 6.9295926347063137 0 6.9295926347063137 -15.345784650112712 0 0 0 0 51.434485742217447 -351.70735208804854 0 -351.70735208804854 -479.2317093104075 0 0 0 0 378.44559031851509 251.33040745817198 0 251.33040745817198 -297.28567431745068 0 0 0 0 208.45058241878229 129.49468552479993 0 129.49468552479993 -1261.5894507771782 0 0 0 0 204.79345672453184 278.44504238416539 0 278.44504238416539 -953.72955941909822 0 0 0 0 31.373091469624683 838.57820006075417 0 838.57820006075417 -2436.3507774008795 0 0 0 0 109.67772871151288 -493.50165483400633 0 -493.50165483400633 -2061.305293669735 0 0 0 0 -533.83980298690153 612.7770699111752 0 612.7770699111752 147.12458447431709 0 0 0 0 -1.2388287717659858 3.6877646676426146 0 3.6877646676426146 -8.1332076345869453 0 0 0 0 -224.92418742572914 1168.3088626072094 0 1168.3088626072094 -445.38092982073795 0 0 0 0 -164.79956738491339 717.49612482957002 0 717.49612482957002 -1142.5128538392091 0 0 0 0 -185.35122107655886 528.47134571894355 0 528.47134571894355 -517.71281184242252 0 0 0 0 -514.31628738158599 1368.6853953966056 0 1368.6853953966056 -989.36972660370884 0 0 0 0 -1030.4188326843707 308.54599705361034 0 308.54599705361034 -2438.9529550157604 0 0 0 0 -198.52623394426968 937.55787948427496 0 937.55787948427496 -2256.8621834623773 0 0 0 0 581.6312026844214 -243.94339843243688 0 -243.94339843243688 -2073.0607223049883 0 0 0 0 283.89069416838618 -83.025593105197913 0 -83.025593105197913 -966.6977577804355 0 0 0 0 174.31156720876209 1062.128899376039 0 1062.128899376039 -2577.4429998299893 0 0 0 0 359.40131572006158 544.54551528575939 0 544.54551528575939 -1138.5869921585763 0 0 0 0 247.92927322232788 371.32226695468489 0 371.32226695468489 -1394.6551935224961 0 0 0 0 297.33040151683497 -137.23387885522789 0 -137.23387885522789 -1022.6545218468309 0 0 0 0 150.97288969852059 146.1023406841332 0 146.1023406841332 -932.56575605151738 0 0 0 0 273.59592340680018 248.71416200681188 0 248.71416200681188 -874.93763541482986 0 0 0 0 81.320919901449031 473.71901972155229 0 473.71901972155229 -933.28675218716307 0 0 0 0 162.0381458921789 456.73120175365511 0 456.73120175365511 -1064.1816284776578 0 0 0 0 -22.793441656322784 201.42849035055224 0 201.42849035055224 -49.816778088294086 0 0 0 0 19.248956982407293 176.84387985892567 0 176.84387985892567 58.191319469955488 0 0 0 0 1.3145351224171975 75.384105384435088 0 75.384105384435088 -166.49145268068605 0 0 0 0 8.4148188959779873 79.564370439807135 0 79.564370439807135 -172.14574642237494 0 0 0 0 145.4516150956955 -8.7433367025087136 0 -8.7433367025087136 -498.37646525448508 0 0 0 0 89.057533994438472 25.699981092308008 0 25.699981092308008 -497.17653457872802 0 0 0 0 39.479063987760583 -55.368305414349379 0 -55.368305414349379 -135.097103373766 0 0 0 0 104.33875113457054 121.99681525291271 0 121.99681525291271 271.80867453635256 0 0 0 0 0.22091516362881272 1.2946867351966329 0 1.2946867351966329 -10.313972685052285 0 0 0 0 510.77379889602497 -434.45652372540371 0 -434.45652372540371 -1003.4829235079778 0 0 0 0 197.80402623749421 -470.16860688563611 0 -470.16860688563611 -288.22939712404695 0 0 0 0 522.34408700610345 137.33042653307348 0 137.33042653307348 -92.187971303790619 0 0 0 0 206.41503039074519 174.34891562683515 0 174.34891562683515 -53.129136387775361 0 0 0 0 200.2266717504865 28.9718850227855 0 28.9718850227855 11.423438333869854 0 0 0 0 1.1582342810029091 1.9463069593380222 0 1.9463069593380222 -21.327502263652924 0 0 0 0 -111.53945598873247 44.504506831178105 0 44.504506831178105 43.953972736795549 0 0 0 0 133.9141625529976 9.7481961303874414 0 9.7481961303874414 -178.4638891760178 0 0 0 0 -379.3337894843304 170.48265690303197 0 170.48265690303197 219.8354919792273 0 0 0 0 -983.23389269858421 1182.7177831373958 0 1182.7177831373958 -979.28181172878612 0 0 0 0 -182.23206043366631 597.74102111781508 0 597.74102111781508 -973.4191658466334 0 0 0 0 -55.49776288495093 166.95395303975238 0 166.95395303975238 -398.01668550480645 0 0 0 0 -42.334649166675405 234.37499549133281 0 234.37499549133281 -338.37626881170763 0 0 0 0 -70.750728697278419 -70.947201601741654 0 -70.947201601741654 -62.821727148756509 0 0 0 0 -143.83926540508531 -185.7145889937201 0 -185.7145889937201 -463.34592328089252 0 0 0 0 -74.974662206928912 4.9401426640665704 0 4.9401426640665704 59.583435990326507 0 0 0 0 1.5571682199115131 -0.45068688348550623 0 -0.45068688348550623 -3.307267874294654 0 0 0 0 -79.462544162591357 -344.05828868055835 0 -344.05828868055835 -740.16875369154513 0 0 0 0 -70.949907828905282 281.00379693668219 0 281.00379693668219 -619.39969282312086 0 0 0 0 -0.41558574246351243 1.1733468047449978 0 1.1733468047449978 -2.5129824848860665 0 0 0 0 119.25762651007631 38.877001280538934 0 38.877001280538934 -21.148507518519182 0 0 0 0 1.2768783695101016 2.7993342512228581 0 2.7993342512228581 -21.447663001644585 0 0 0 0 113.26087769482768 -60.531564370297929 0 -60.531564370297929 -76.908322713934467 0 0 0 0 77.216134856345207 104.6290883997608 0 104.6290883997608 28.440407857367973 0 0 0 0 131.57306540718628 141.11376100209782 0 141.11376100209782 -92.576550603407668 0 0 0 0 103.13048004032055 192.37843823106687 0 192.37843823106687 -115.17264458735008 0 0 0 0 46.03583942952082 158.58389462754349 0 158.58389462754349 -28.849820511019061 0 0 0 0 -109.36861906909863 143.60498744109736 0 143.60498744109736 -340.4200543561019 0 0 0 0 103.07820095561055 172.32499718599593 0 172.32499718599593 238.40038642919535 0 0 0 0 -2.8842743550736936 5.5060826018115812 0 5.5060826018115812 -4.0764882717808497 0 0 0 0 55.605316147328168 -2.8845112008575597 0 -2.8845112008575597 -667.05287486728412 0 0 0 0 -1.1856309228408533 3.5234367385337748 0 3.5234367385337748 -0.87135942410165157 0 0 0 0 -68.104007485778595 66.358724291600083 0 66.358724291600083 452.9330607846241 0 0 0 0 -0.78097637396251685 0.52542904521212108 0 0.52542904521212108 0.20561780867009194 0 0 0 0 44.688422710937317 34.623564214687576 0 34.623564214687576 401.26533097914398 0 0 0 0 101.08229086954839 131.5565882998817 0 131.5565882998817 -171.89699955057904 0 0 0 0 9.3186633935989676 95.147528699259055 0 95.147528699259055 -68.92121557828068 0 0 0 0 34.661874619826392 161.45262182807619 0 161.45262182807619 -24.883323377576744 0 0 0 0 46.977175669617509 182.39269241148941 0 182.39269241148941 -29.266463166164613 0 0 0 0 -179.42792889494584 -19.439394979181998 0 -19.439394979181998 -655.00161946683534 0 0 0 0 -247.59289200664475 -137.20022183541641 0 -137.20022183541641 -695.92792999928315 0 0 0 0 -96.230101756306695 -93.289626986457506 0 -93.289626986457506 -687.10476989014023 0 0 0 0 -125.19687975765322 -40.302581172319151 0 -40.302581172319151 -779.86607979018117 0 0 0 0 -66.883631106110442 52.21976347626196 0 52.21976347626196 -636.25452511086496 0 0 0 0 23.378527620088121 52.652056880294822 0 52.652056880294822 -754.88743804587011 0 0 0 0 39.010531795695449 117.78610744646903 0 117.78610744646903 -850.2718832723358 0 0 0 0 -122.87158375776016 41.034815454971977 0 41.034815454971977 -422.03992960443611 0 0 0 0 -35.488556000796088 262.40490462785021 0 262.40490462785021 -640.30570043416992 0 0 0 0 -132.8249429607518 67.995476855700645 0 67.995476855700645 -492.24641016906571 0 0 0 0 -65.095754352722651 -4.8869134042106452 0 -4.8869134042106452 -490.1836479798103 0 0 0 0 -139.48868990438751 -52.810903246367161 0 -52.810903246367161 -358.16587783325122 0 0 0 0 -158.68114047716426 -117.10039527291246 0 -117.10039527291246 -572.99479349728244 0 0 0 0 -244.24364077381219 -114.42674160571187 0 -114.42674160571187 -606.00776001775557 0 0 0 0 -184.94749286401478 -66.129461495606392 0 -66.129461495606392 -671.87503844783078 0 0 0 0 -181.41007935329091 -37.504716222795196 0 -37.504716222795196 -590.80659877950075 0 0 0 0 -380.16248707046464 -0.68084027673012315 0 -0.68084027673012315 -693.47096748097647 0 0 0 0 -452.69153381599529 -307.40531945622354 0 -307.40531945622354 -614.76940433615346 0 0 0 0 -174.48528213878018 -144.80062529310635 0 -144.80062529310635 -886.28353891626466 0 0 0 0 -138.78065542078934 -73.690967706596894 0 -73.690967706596894 -460.51946715342729 0 0 0 0 -211.57846411488174 -234.88347759700173 0 -234.88347759700173 -539.77240526825335 0 0 0 0 -122.69162857988832 -228.47384028666056 0 -228.47384028666056 -654.52514581943069 0 0 0 0 -184.97398918538173 -192.47493358431802 0 -192.47493358431802 -596.41845424565145 0 0 0 0 -49.655149632251238 -222.45708650938604 0 -222.45708650938604 -596.46520229598127 0 0 0 0 -152.52544385844016 -163.66096124118167 0 -163.66096124118167 -630.04307492190492 0 0 0 0 -90.385632416067324 -146.34613459577122 0 -146.34613459577122 -625.23087002425837 0 0 0 0 -118.98343743845675 -212.71816806165134 0 -212.71816806165134 -595.86346523118846 0 0 0 0 -231.03083803194602 -202.87291719481436 0 -202.87291719481436 -569.69323213863299 0 0 0 0 -41.836535374408072 20.575966070467075 0 20.575966070467075 -503.59609710580662 0 0 0 0 -192.99558774498922 -86.189800886594867 0 -86.189800886594867 -645.80198347787336 0 0 0 0 -110.33955773449119 -249.68392456186893 0 -249.68392456186893 -671.83772684770156 0 0 0 0 -0.41700746154382529 0.84678267917113459 0 0.84678267917113459 -3.1799571984825903 0 0 0 0 -150.39830153162882 103.18243184726953 0 103.18243184726953 -72.701441917166449 0 0 0 0 103.4623803034076 -52.544285062476774 0 -52.544285062476774 -124.40142643387844 0 0 0 0 -139.45838916114099 -34.477534752351858 0 -34.477534752351858 -123.33032203696894 0 0 0 0 -104.11207024614157 104.63296851027781 0 104.63296851027781 69.579169218772222 0 0 0 0 -75.873443118589876 -87.338273519397262 0 -87.338273519397262 -23.871768921962939 0 0 0 0 50.762048832480446 7.5821720511930835 0 7.5821720511930835 -340.8276489992586 0 0 0 0 -88.724116550083863 -106.33502906469403 0 -106.33502906469403 -439.96114274202591 0 0 0 0 -150.63956974075745 -78.239801056016404 0 -78.239801056016404 -338.3834579492941 0 0 0 0 -9.5870150992354866 -91.767144242232462 0 -91.767144242232462 -477.24155765588512 0 0 0 0 -148.93151218871833 -242.93661029556279 0 -242.93661029556279 -562.35980104502596 0 0 0 0 48.136473891753646 -85.694630345089763 0 -85.694630345089763 -460.26302347192177 0 0 0 0 74.342592865580244 -31.474128342548283 0 -31.474128342548283 -559.30647409462017 0 0 0 0 50.816259245316481 -23.092230671642824 0 -23.092230671642824 -607.68757606434156 0 0 0 0 60.475686240942807 -27.574390841767126 0 -27.574390841767126 -622.03666163380149 0 0 0 0 47.022748133503235 13.581346609036814 0 13.581346609036814 -586.02176406308354 0 0 0 0 -149.88482003124435 -188.78534984425096 0 -188.78534984425096 -680.0708210239336 0 0 0 0 78.74727205773695 44.732519692178357 0 44.732519692178357 -839.23713449829302 0 0 0 0 44.024420955517471 -41.902226118594626 0 -41.902226118594626 -550.75233906693938 0 0 0 0 -210.0398404025 -99.654069370935986 0 -99.654069370935986 -183.98971403124597 0 0 0 0 23.172390658148764 13.488951010936034 0 13.488951010936034 -464.21426254177732 0 0 0 0 -204.51906659375814 -168.51075339970885 0 -168.51075339970885 -504.65712431770316 0 0 0 0 -273.26374193035844 -37.458797804472397 0 -37.458797804472397 -574.78557812806321 0 0 0 0 -173.44428373087999 -18.562853650556463 0 -18.562853650556463 -780.94906193155293 0 0 0 0 -57.115946960854842 -142.10614356802398 0 -142.10614356802398 -658.01747546407569 0 0 0 0 -79.975656796981937 -145.62666538945496 0 -145.62666538945496 -633.45122283854289 0 0 0 0 -202.41645349189793 -151.28017270214696 0 -151.28017270214696 -633.0813640188926 0 0 0 0 -90.460972760456215 -161.4752384060522 0 -161.4752384060522 -666.79616510557571 0 0 0 0 -107.29463002080949 -94.403347423551622 0 -94.403347423551622 -630.1082181859274 0 0 0 0 -144.51140606126521 -241.06674597398205 0 -241.06674597398205 -306.13737517659683 0 0 0 0 -33.455748624788157 -176.96426493990839 0 -176.96426493990839 -431.86663509330657 0 0 0 0 -241.87716825762024 -270.91470641712067 0 -270.91470641712067 -429.36237188703672 0 0 0 0 -2.1849745818242199 -0.94205436606188897 0 -0.94205436606188897 -0.68986890386563227 0 0 0 0 -42.158405822941802 -287.33217470092904 0 -287.33217470092904 -801.41745684321359 0 0 0 0 -102.32745168238398 -266.6491947832983 0 -266.6491947832983 -455.08338864571306 0 0 0 0 -44.990219143649711 -187.53154473939958 0 -187.53154473939958 -452.16440527403938 0 0 0 0 -58.772299020563651 137.58564811057477 0 137.58564811057477 -386.77517838764106 0 0 0 0 41.993198501369534 50.749617973657223 0 50.749617973657223 -31.893848078205338 0 0 0 0 -5.1332699345496167 -55.205389008913698 0 -55.205389008913698 -7.0437814929796332 0 0 0 0 -2.1313726445634673 -1.5749686195997796 0 -1.5749686195997796 -0.67487305084097216 0 0 0 0 -2.6253183562661153 -1.5343823431401162 0 -1.5343823431401162 -1.9372853515332125 0 0 0 0 -6.9701850386934439 -243.3624596814891 0 -243.3624596814891 -677.3880858610537 0 0 0 0 -207.38646812429693 -340.78729749086779 0 -340.78729749086779 -472.43998201899922 0 0 0 0 54.888285520653199 -70.290994167373356 0 -70.290994167373356 -354.95404699996288 0 0 0 0 -72.281468765048061 -130.84001515255824 0 -130.84001515255824 -303.22865811987867 0 0 0 0 -72.064449181301711 -272.94127799700254 0 -272.94127799700254 -472.23923076025312 0 0 0 0 -59.51058107003783 -36.990395627079124 0 -36.990395627079124 -139.2483868410236 0 0 0 0 -55.046250896268248 -154.3112216872978 0 -154.3112216872978 -285.40027682587788 0 0 0 0 -68.944049427079108 -51.129588001944285 0 -51.129588001944285 -64.329844874282571 0 0 0 0 -23.902692805931395 -28.252368081075929 0 -28.252368081075929 -141.51131437781805 0 0 0 0 17.600625217528432 -35.656914404695272 0 -35.656914404695272 -205.79643899138591 0 0 0 0 -44.037839507940134 -97.48609729409327 0 -97.48609729409327 -181.09999751470605 0 0 0 0 -39.353815916626672 -30.252127896263119 0 -30.252127896263119 -61.162764958422486 0 0 0 0 6.5714192054826981 -27.429911976509175 0 -27.429911976509175 -61.015698133616525 0 0 0 0 -0.32317206256353631 0.21673785036895232 0 0.21673785036895232 0.27568416546707653 0 0 0 0 -14.621928984566011 -2.1912141977818465 0 -2.1912141977818465 -18.640437816358826 0 0 0 0 -52.090919568456684 -71.665311273553925 0 -71.665311273553925 -113.51303421144075 0 0 0 0 -147.74931027173335 -191.39073952932176 0 -191.39073952932176 -252.04575113071769 0 0 0 0 -50.060772120006334 -44.530075022664022 0 -44.530075022664022 -146.88558081100564 0 0 0 0 -2.2756433461954657 -42.694402360833919 0 -42.694402360833919 -168.62069769783011 0 0 0 0 -102.43658501357976 -15.912840655737455 0 -15.912840655737455 -171.73763488403256 0 0 0 0 -18.354639654818243 27.848620682145338 0 27.848620682145338 -5.5186393199192025 0 0 0 0 -91.98381654199585 -22.8553819754693 0 -22.8553819754693 25.668002286689443 0 0 0 0 -10.850661430375794 -4.5825545083125689 0 -4.5825545083125689 1.9000399269243644 0 0 0 0 -6.9827411349896806 -3.3676826071398409 0 -3.3676826071398409 -15.084015937063668 0 0 0 0 -3.9695453944373735 1.1447784372889771 0 1.1447784372889771 -3.9245234465860044 0 0 0 0 -2.5078939874781732 2.3283787954647686 0 2.3283787954647686 -7.2738150832467809 0 0 0 0 -10.063380182230048 -51.181118109099771 0 -51.181118109099771 -44.49406502183956 0 0 0 0 -22.289456596317592 -0.9096463789164666 0 -0.9096463789164666 0.8602156264383467 0 0 0 0 348.47282587451991 -194.20566424497338 0 -194.20566424497338 -360.49874322390679 0 0 0 0 15.16633494691996 125.88762670752021 0 125.88762670752021 53.490786591456072 0 0 0 0 -36.441078884676585 -24.608486259480287 0 -24.608486259480287 -39.962970887178017 0 0 0 0 -5.1927758397171075 -4.1330864149460691 0 -4.1330864149460691 -13.809838009514127 0 0 0 0 -37.285286430512315 -24.958193049535112 0 -24.958193049535112 -32.685892901274201 0 0 0 0 -12.240125589120613 -4.2325958788235418 0 -4.2325958788235418 -5.7021424953816791 0 0 0 0 -10.202002954897544 -9.0801256400811088 0 -9.0801256400811088 -11.675709655585877 0 0 0 0 -5.5071485588123323 -5.0096897059847834 0 -5.0096897059847834 -3.879885093345365 0 0 0 0 -20.256295928487027 -11.040882148948985 0 -11.040882148948985 -6.4676154635674123 0 0 0 0 -10.150648256758359 -6.1526957141577441 0 -6.1526957141577441 -13.185122146576759 0 0 0 0 -12.326035408455937 -9.1477128190745134 0 -9.1477128190745134 -12.845505914201567 0 0 0 0 -12.512957937102328 -8.6334195758827263 0 -8.6334195758827263 -15.472150960864383 0 0 0 0 -12.51287880014479 -10.427960060822443 0 -10.427960060822443 -16.692751321592368 0 0 0 0 -13.17549855084917 -7.2793743675538281 0 -7.2793743675538281 -9.0875980789332971 0 0 0 0 -14.326118600540212 -12.964218748427811 0 -12.964218748427811 -13.907032498638728 0 0 0 0 -20.872964768331258 -3.5863045631776913 0 -3.5863045631776913 -4.6666721671208506 0 0 0 0 -12.301717378907183 -3.3825134645980945 0 -3.3825134645980945 -8.4372483058755066 0 0 0 0 -12.17926260205831 -1.8458092134087281 0 -1.8458092134087281 -4.9781911626211723 0 0 0 0 -13.94614841472503 -8.4555981540579523 0 -8.4555981540579523 -7.8227403879573103 0 0 0 0 -13.806190280607552 -8.7739218255592277 0 -8.7739218255592277 -12.316710206447169 0 0 0 0 -23.096068198473056 -11.385501790233889 0 -11.385501790233889 -0.48897969463723712 0 0 0 0 -24.723310443853165 -11.142360789295708 0 -11.142360789295708 1.1852624714174453 0 0 0 0 -5.7398829056628076 -2.3970865639748675 0 -2.3970865639748675 0.11670882661498183 0 0 0 0 -29.045324625626222 -14.290109539160767 0 -14.290109539160767 19.221149058468654 0 0 0 0 -40.051230839947152 4.7419795940841141 0 4.7419795940841141 6.8655114696903183 0 0 0 0 -9.834210643949163 -6.5957000992333406 0 -6.5957000992333406 -6.6177020665054442 0 0 0 0 -9.753200573214599 -10.931269737839102 0 -10.931269737839102 -7.6283968390089285 0 0 0 0 -11.362572949175771 -8.5470042771961374 0 -8.5470042771961374 -6.7632366398608781 0 0 0 0 -8.4760457019528985 -7.6542548570391773 0 -7.6542548570391773 -7.8220380030215892 0 0 0 0 -14.276086827867065 -9.5395652141348055 0 -9.5395652141348055 -4.8567371490204607 0 0 0 0 -6.3281846061618126 -5.7235068507434335 0 -5.7235068507434335 -0.78218186303274706 0 0 0 0 -13.945248412383974 -6.5780486109057286 0 -6.5780486109057286 -2.2648910512335689 0 0 0 0 -11.201661045782398 -8.0474711784304525 0 -8.0474711784304525 -8.7071607640414257 0 0 0 0 -15.439473467973585 -6.4779686190013308 0 -6.4779686190013308 -1.2582911623758264 0 0 0 0 -17.278234824087662 -11.790551455082021 0 -11.790551455082021 -7.7665808443846487 0 0 0 0 -12.879749094328872 -7.5454986925506091 0 -7.5454986925506091 -8.6486726580187678 0 0 0 0 -15.617591998510761 -10.806892634260294 0 -10.806892634260294 -7.1065601417649304 0 0 0 0 -16.032755302818259 -10.262211107707117 0 -10.262211107707117 -15.792269066048902 0 0 0 0 -15.428233082202496 -12.171627706484287 0 -12.171627706484287 -28.572887904600066 0 0 0 0 -9.6925725187584248 -13.840219052479597 0 -13.840219052479597 -21.700806847577041 0 0 0 0 -0.15747745273583291 -0.39853066679072313 0 -0.39853066679072313 -0.96043339871323496 0 0 0 0 -12.46648276851738 -9.4007192264907644 0 -9.4007192264907644 -16.378197905596608 0 0 0 0 -4.0321544773456983 -7.3513228226358605 0 -7.3513228226358605 -15.482918452718714 0 0 0 0 -7.3446498666317588 -4.778138325759528 0 -4.778138325759528 -9.5383340173026738 0 0 0 0 -6.5002111584082201 -5.029419054715845 0 -5.029419054715845 -3.5964965337484891 0 0 0 0 -9.7307699656885731 -5.3770057599323877 0 -5.3770057599323877 1.7564298042751751 0 0 0 0 -11.929740742330978 -10.931960291201904 0 -10.931960291201904 -9.377819368620294 0 0 0 0 -14.56092757691431 -7.7930346296498101 0 -7.7930346296498101 -7.8011808891351393 0 0 0 0 -14.486796238154398 -8.2617471866133201 0 -8.2617471866133201 -8.5654239329705888 0 0 0 0 -13.476771881738387 -8.6203151251720556 0 -8.6203151251720556 -7.4277603430527961 0 0 0 0 -14.116680072873351 -7.4740691350707493 0 -7.4740691350707493 -7.6115642815002502 0 0 0 0 -13.532205285523013 -3.606735171320846 0 -3.606735171320846 3.2713551256942175 0 0 0 0 -14.497567317999028 -7.1590079987945501 0 -7.1590079987945501 -6.5129244926683896 0 0 0 0 -14.968544119618855 -8.3332602456302993 0 -8.3332602456302993 -4.0766436078774859 0 0 0 0 -9.332019353656575 -7.0098273299663845 0 -7.0098273299663845 -5.4073871299189804 0 0 0 0 -4.1708975163777957 0.73216531179699018 0 0.73216531179699018 -0.27632642040671129 0 0 0 0 -15.278168276759288 -9.5494937918813321 0 -9.5494937918813321 -6.2592418356252892 0 0 0 0 38.443528286472144 4.0335408728358288 0 4.0335408728358288 -191.34065566993104 0 0 0 0 -443.44015439241321 113.45173038778921 0 113.45173038778921 25.627902289177655 0 0 0 0 -32.747922486309363 2.8493415951759591 0 2.8493415951759591 2.9416790260289147 0 0 0 0 -51.400432889600779 -10.493724528728308 0 -10.493724528728308 -12.509953222812328 0 0 0 0 -100.28706442782641 -7.3117613846352469 0 -7.3117613846352469 157.45422706277532 0 0 0 0 -3.6359916738036127 6.6888627163262679 0 6.6888627163262679 3.0124014721951706 0 0 0 0 54.250548061290829 -49.288680028887029 0 -49.288680028887029 -512.71177334814456 0 0 0 0 -0.26620559142611455 -13.417881601579211 0 -13.417881601579211 -88.048465052510437 0 0 0 0 1.6407694744375476 -30.073389184239204 0 -30.073389184239204 -133.43916483362409 0 0 0 0 -48.128362470909451 -44.76698077493802 0 -44.76698077493802 -85.164765235655068 0 0 0 0 -30.769705583263892 -9.4162309949177292 0 -9.4162309949177292 -2.0404726524031869 0 0 0 0 -67.77573759782581 16.240669571319813 0 16.240669571319813 -34.465932131422051 0 0 0 0 -75.473028992213585 -98.811504748995503 0 -98.811504748995503 -117.81175251251989 0 0 0 0 -4.9004549301477098 -4.1826316601807729 0 -4.1826316601807729 -0.97201960365804041 0 0 0 0 -44.063581493540369 -96.97961735903209 0 -96.97961735903209 -240.37094115444052 0 0 0 0 -45.806302491953375 89.467402657907314 0 89.467402657907314 -69.696367353697042 0 0 0 0 -7.3160796117437075 5.5436540895960462 0 5.5436540895960462 -3.8337177246163741 0 0 0 0 -89.360718652002106 -224.31623389773085 0 -224.31623389773085 38.068519910907128 0 0 0 0 100.53500217895578 178.33459202435949 0 178.33459202435949 33.302694869753395 0 0 0 0 -110.44719355536472 70.717829194213664 0 70.717829194213664 44.408484082099164 0 0 0 0 271.4961737572541 -243.87468736446317 0 -243.87468736446317 69.762527348695585 0 0 0 0 91.242224447132685 -215.21521823424109 0 -215.21521823424109 -261.94471364073979 0 0 0 0 -617.83943193395544 -209.20025140777761 0 -209.20025140777761 292.96848383600809 0 0 0 0 -230.44458010020026 -7.8925659712986089 0 -7.8925659712986089 -26.192004756230745 0 0 0 0 -134.95769791394241 -28.501003263854727 0 -28.501003263854727 -13.589852876679288 0 0 0 0 -228.94044826115078 3.8779091848371081 0 3.8779091848371081 63.741381937950791 0 0 0 0 -61.033560553360758 12.901847638027903 0 12.901847638027903 -46.262395730467688 0 0 0 0 -111.19031350595355 95.791588488818888 0 95.791588488818888 -96.311933687473356 0 0 0 0 -473.07011967551097 242.58603268999218 0 242.58603268999218 -54.375132896242576 0 0 0 0 -197.64176208870185 60.103622930619167 0 60.103622930619167 63.505089016063877 0 0 0 0 28.685119539004177 6.1079917395563825 0 6.1079917395563825 -28.874329450671212 0 0 0 0 -0.51697465429498646 2.4501358127092576 0 2.4501358127092576 -6.6951592822409012 0 0 0 0 16.166449966661503 -18.747394622451793 0 -18.747394622451793 -41.821382884712875 0 0 0 0 -4.0361177337678438 2.282542690254374 0 2.282542690254374 -1.1284318056505711 0 0 0 0 -3.0802200109754949 -14.497106193205582 0 -14.497106193205582 13.259218586790666 0 0 0 0 79.390025561619041 275.64662930167106 0 275.64662930167106 -345.27756686182693 0 0 0 0 3.640055807700719 -19.742968509435741 0 -19.742968509435741 -3.8242658262461191 0 0 0 0 13.386465108050288 -32.388495105715265 0 -32.388495105715265 11.996681741744396 0 0 0 0 -88.571239857018782 81.54468860068846 0 81.54468860068846 -82.475851270465 0 0 0 0 -4.3212438826126647 2.8118833145373969 0 2.8118833145373969 -1.9081980119778734 0 0 0 0 191.99259399953917 28.543294231731124 0 28.543294231731124 -226.18175879891533 0 0 0 0 -130.5015901168008 -193.34255500659856 0 -193.34255500659856 310.71418015537347 0 0 0 0 -2.3668565160793724 0.98061015944265506 0 0.98061015944265506 -0.34818885515864295 0 0 0 0 23.381120551829326 -43.221095793051063 0 -43.221095793051063 -45.577775913049152 0 0 0 0 -4.8265705391304436 21.474080930216587 0 21.474080930216587 -67.281761040150741 0 0 0 0 -44.312810037796226 -347.5885578395164 0 -347.5885578395164 77.087336245256665 0 0 0 0 342.62682587830022 -91.697010536789094 0 -91.697010536789094 -451.56514481552949 0 0 0 0 -326.31159233107383 0.5851890252706653 0 0.5851890252706653 126.8266858447505 0 0 0 0 -31.056828248774966 5.8572733584942025 0 5.8572733584942025 3.9697004808525165 0 0 0 0 -11.824698594275105 -65.249603192680297 0 -65.249603192680297 -77.318454818327154 0 0 0 0 -438.31291119346042 472.05057299315376 0 472.05057299315376 94.672563394162353 0 0 0 0 -369.90626721996387 -435.0270964841261 0 -435.0270964841261 -225.08347667950511 0 0 0 0 -716.53940338987013 323.65027486997496 0 323.65027486997496 121.04537878853034 0 0 0 0 186.19401513106186 -413.93973152554145 0 -413.93973152554145 -535.33881645959264 0 0 0 0 -120.00379784115285 -598.70875967247048 0 -598.70875967247048 -366.53826456837487 0 0 0 0 7.175318567231443 -368.83685778679683 0 -368.83685778679683 -159.62800920248446 0 0 0 0 40.127289055653819 212.86408011048843 0 212.86408011048843 -1252.9300329899643 0 0 0 0 -213.99818200862137 -47.895645367212637 0 -47.895645367212637 75.958341776522502 0 0 0 0 -585.20520371366729 -441.88569509063382 0 -441.88569509063382 -534.23548129484243 0 0 0 0 -5.6849952957171297 -3.1652520458832853 0 -3.1652520458832853 -2.4348921416391498 0 0 0 0 47.828563569079051 -35.957978298843045 0 -35.957978298843045 -455.54951656093544 0 0 0 0 9.6945005991116204 -3.9313208048262709 0 -3.9313208048262709 -391.71563251696898 0 0 0 0 34.411429069848964 -222.36378863933896 0 -222.36378863933896 -368.93631790724157 0 0 0 0 -23.328866712206946 -97.735782629737514 0 -97.735782629737514 -33.577380355600326 0 0 0 0 -17.796267547691969 -113.23396188289007 0 -113.23396188289007 -163.36029601187329 0 0 0 0 17.303859454495978 -45.841706323903054 0 -45.841706323903054 -266.06224091622244 0 0 0 0 20.827523458886844 -65.839291459148626 0 -65.839291459148626 -332.42325018898191 0 0 0 0 18.672328790898973 -60.418511327135093 0 -60.418511327135093 -353.97524452399557 0 0 0 0 51.198909613534966 -93.716532575376846 0 -93.716532575376846 -322.28952859105993 0 0 0 0 13.014259744533774 -128.02759607420012 0 -128.02759607420012 -482.94479318341928 0 0 0 0 -21.783435992445447 -88.869307849344295 0 -88.869307849344295 -318.28597382945145 0 0 0 0 -1.0567489596442599 2.2232741929237978 0 2.2232741929237978 -1.6225134737790636 0 0 0 0 -30.724844960248106 -49.275188458657055 0 -49.275188458657055 -342.65763040362981 0 0 0 0 -109.91912075398432 -56.731430229362559 0 -56.731430229362559 -259.12740143307565 0 0 0 0 -41.377425251955742 -190.58466737138482 0 -190.58466737138482 -710.54116313652958 0 0 0 0 -1.2406084682752407 28.651147819381549 0 28.651147819381549 -169.25780091795787 0 0 0 0 24.751675369165241 -29.627714838138672 0 -29.627714838138672 -367.0212719716219 0 0 0 0 29.787644628757334 -6.6026847936391277 0 -6.6026847936391277 -131.1790423075563 0 0 0 0 -26.621266135315491 -9.6115480358261074 0 -9.6115480358261074 -3.3209554164267088 0 0 0 0 -53.914398236985107 -38.104404897209861 0 -38.104404897209861 -13.769280696896203 0 0 0 0 -41.645991993383177 0.0030246323876781389 0 0.0030246323876781389 -48.375460230708995 0 0 0 0 -65.093862104463369 -20.670803383420662 0 -20.670803383420662 -66.390269465598976 0 0 0 0 -156.56576433983719 51.602491711198127 0 51.602491711198127 -100.04847022420472 0 0 0 0 74.951493754390867 -38.187267868639537 0 -38.187267868639537 -117.38484725958097 0 0 0 0 11.569555953600229 -43.622411004751939 0 -43.622411004751939 -95.674543587694643 0 0 0 0 58.168354189707316 -74.257112063236491 0 -74.257112063236491 -85.352597953230998 0 0 0 0 -58.862264476107157 92.49014724045378 0 92.49014724045378 -191.39204080102718 0 0 0 0 -81.564594721523463 63.827443165607292 0 63.827443165607292 -106.5537993802518 0 0 0 0 -129.15473475093495 48.039382687190937 0 48.039382687190937 -90.875185403419891 0 0 0 0 -81.395651280043239 93.604327583838312 0 93.604327583838312 -176.77223552518717 0 0 0 0 -49.517598884277049 65.246877223824413 0 65.246877223824413 -107.80893215180458 0 0 0 0 -11.59423661957544 -18.391487662137479 0 -18.391487662137479 -67.698380062569413 0 0 0 0 -69.196230308220493 27.375009549862625 0 27.375009549862625 -31.224601122307831 0 0 0 0 -20.733019244169448 -7.2386315819716103 0 -7.2386315819716103 -2.623491639580747 0 0 0 0 -53.792356657260825 43.625303085923861 0 43.625303085923861 -358.00803853477009 0 0 0 0 40.565522126547876 147.98641225810479 0 147.98641225810479 -457.44069597009002 0 0 0 0 35.4312283030049 189.53215935189201 0 189.53215935189201 81.272104148931248 0 0 0 0 -0.75582000599810328 0.24044938166039564 0 0.24044938166039564 -0.57544187169760441 0 0 0 0 -15.80209483809449 34.535628371878374 0 34.535628371878374 -357.03822843971011 0 0 0 0 26.699758917877261 97.72089895404315 0 97.72089895404315 -304.66965545244875 0 0 0 0 -19.373271122455662 -37.674382914216949 0 -37.674382914216949 -366.99792759257343 0 0 0 0 -18.908590385638206 -50.155720633424721 0 -50.155720633424721 -329.17097738967095 0 0 0 0 -62.099065286528003 65.744437535118777 0 65.744437535118777 -131.21122482968372 0 0 0 0 -37.522985191433918 83.209467738980038 0 83.209467738980038 -233.63943185553399 0 0 0 0 -19.101074030591917 63.203719938133872 0 63.203719938133872 -458.27808229690436 0 0 0 0 -12.815616279332168 -4.5435795275203184 0 -4.5435795275203184 -2.1028865607982121 0 0 0 0 -218.7684455325093 215.22579859413736 0 215.22579859413736 -419.92325691521728 0 0 0 0 -4.2935545016990453 -1.582239116171035 0 -1.582239116171035 -1.3282332054440733 0 0 0 0 -10.458333755979766 14.057616921427325 0 14.057616921427325 -697.67941599000073 0 0 0 0 -124.25566873769367 179.6571921646364 0 179.6571921646364 -303.6830860327841 0 0 0 0 -252.10583524136598 130.8467785713479 0 130.8467785713479 -208.09943077121534 0 0 0 0 -126.19298678712215 143.46534074673502 0 143.46534074673502 -197.87366217377348 0 0 0 0 -129.8818081744048 126.76723981095165 0 126.76723981095165 -216.8166868954404 0 0 0 0 -138.48409985188664 106.53738087103011 0 106.53738087103011 -149.42972472416386 0 0 0 0 -171.81910721252734 148.35729627084402 0 148.35729627084402 -178.40883193045283 0 0 0 0 -206.84329131747836 104.09776203291813 0 104.09776203291813 -123.87578157348617 0 0 0 0 -148.38036158126033 98.16124858902549 0 98.16124858902549 -133.88382398159547 0 0 0 0 -43.637042716329461 95.945162612857757 0 95.945162612857757 -188.90017804942363 0 0 0 0 -22.39540068051565 40.963840687784796 0 40.963840687784796 -142.69214883215318 0 0 0 0 -80.275444472555591 122.49212881823132 0 122.49212881823132 -200.3190640439625 0 0 0 0 -114.78157564418234 111.24285003710429 0 111.24285003710429 -203.75720323577752 0 0 0 0 -86.99118119349032 105.86510434663523 0 105.86510434663523 -170.00372906073017 0 0 0 0 -67.644439837823484 114.49461842494611 0 114.49461842494611 -228.28799713063199 0 0 0 0 -82.218951380194994 103.43548696391827 0 103.43548696391827 -160.97823557627453 0 0 0 0 -75.836757640179826 84.758938152539258 0 84.758938152539258 -280.91776343120364 0 0 0 0 -69.736139273298249 105.87998052044804 0 105.87998052044804 -228.52044351765812 0 0 0 0 -83.734163894425365 96.029134889941815 0 96.029134889941815 -197.42129881719393 0 0 0 0 -105.56029629431123 64.083213533875096 0 64.083213533875096 -240.56508647062583 0 0 0 0 -98.897385077840681 -9.91053676298543 0 -9.91053676298543 -226.17625539443907 0 0 0 0 -91.190209296187305 4.9280299748656944 0 4.9280299748656944 -285.59271538135181 0 0 0 0 -91.573878404149411 9.0299871904551878 0 9.0299871904551878 -199.22218610916752 0 0 0 0 -14.452440023272402 25.970931676705504 0 25.970931676705504 -417.95298210000328 0 0 0 0 -27.166569195015654 3.9683166449608507 0 3.9683166449608507 -346.26306969773668 0 0 0 0 -169.51453313822594 104.78590204456077 0 104.78590204456077 -101.8999127267125 0 0 0 0 -161.68537106225358 41.867225391559259 0 41.867225391559259 -102.64509659118156 0 0 0 0 -128.64904817209845 99.17109121216572 0 99.17109121216572 -175.19419863660914 0 0 0 0 -107.21205853872289 56.265799510661054 0 56.265799510661054 -163.84451556508066 0 0 0 0 -92.054834553860928 -38.649286841619869 0 -38.649286841619869 -131.35216634775747 0 0 0 0 -144.66576140262714 34.261239616985677 0 34.261239616985677 -154.83199108838744 0 0 0 0 -160.55103033956038 63.52024041106506 0 63.52024041106506 -31.727411042698805 0 0 0 0 -227.40881547023628 -18.483292204104146 0 -18.483292204104146 -41.248173997362755 0 0 0 0 -175.73276956867676 -70.007526225120955 0 -70.007526225120955 -109.14063909686047 0 0 0 0 -115.35454259021003 -61.269861309692033 0 -61.269861309692033 -65.236321494990989 0 0 0 0 -88.232078146691492 -95.064764912543069 0 -95.064764912543069 -103.46135941928856 0 0 0 0 -9.9263767108770615 2.3689635620996761 0 2.3689635620996761 0.0062200488881316573 0 0 0 0 4.2023433586873793 -170.62584893985115 0 -170.62584893985115 -11.05180856559673 0 0 0 0 -3.8412016761521262 1.5302053707586136 0 1.5302053707586136 -0.52482952586513321 0 0 0 0 -265.22550774709725 -235.83550903758351 0 -235.83550903758351 -215.01306721271885 0 0 0 0 -144.99501926705335 424.47663007250196 0 424.47663007250196 205.23269897191858 0 0 0 0 -12.127170746365239 0.93269744144686051 0 0.93269744144686051 -0.518987266409626 0 0 0 0 -47.604220495142727 15.793286743416502 0 15.793286743416502 -1.3294126325390607 0 0 0 0 -1.5065346849798527 0.96344493768903483 0 0.96344493768903483 -0.31192659499655306 0 0 0 0 -71.764347425109747 -23.335760165228749 0 -23.335760165228749 205.81614904541448 0 0 0 0 -44.056446196465004 -119.59539262709677 0 -119.59539262709677 -148.74286989763732 0 0 0 0 -132.87443295518963 87.530893791012204 0 87.530893791012204 397.25559002823775 0 0 0 0 23.783528584291361 -92.098052087387032 0 -92.098052087387032 -107.5797388465835 0 0 0 0 -8.0248459301274693 -3.2890665806348807 0 -3.2890665806348807 -115.9145048381215 0 0 0 0 27.945840849041929 9.0297762110985786 0 9.0297762110985786 -286.36135439102691 0 0 0 0 -12.99212857901645 -3.9883865377656385 0 -3.9883865377656385 -1.5608782125947833 0 0 0 0 -19.767485689335444 -18.513949704110928 0 -18.513949704110928 -5.525973778126172 0 0 0 0 -68.489187001735189 -91.478834806413829 0 -91.478834806413829 28.792119134257518 0 0 0 0 -1.0772077172154031 -0.66466175650066006 0 -0.66466175650066006 -1.481827662939688 0 0 0 0 -10.614112149659839 -4.1152820902594733 0 -4.1152820902594733 -1.8314501919258639 0 0 0 0 -202.67720141434347 45.717052575718299 0 45.717052575718299 -37.28646926127567 0 0 0 0 5.385383387389993 141.20715887234292 0 141.20715887234292 -289.29038871595185 0 0 0 0 17.445307873787737 -128.00678868530693 0 -128.00678868530693 -242.89595704866861 0 0 0 0 -73.752040204325368 -36.238539955290435 0 -36.238539955290435 -303.2580094252412 0 0 0 0 -423.88824672968155 139.84095798476366 0 139.84095798476366 -217.53508486834835 0 0 0 0 -88.034858197644724 -272.4575975401558 0 -272.4575975401558 -887.49195170148687 0 0 0 0 -4.4945981344581982 -1.4145162831846214 0 -1.4145162831846214 -1.1497551720621804 0 0 0 0 -75.122886945641994 220.93282689179159 0 220.93282689179159 -386.56337752266063 0 0 0 0 -19.500827141633181 121.130885934243 0 121.130885934243 -309.03093261965296 0 0 0 0 7.3778336494772248 164.86369102285153 0 164.86369102285153 -586.00848326412142 0 0 0 0 -253.46393842493694 289.95828279932164 0 289.95828279932164 -399.72425056207794 0 0 0 0 -141.94382721700339 162.87724173550464 0 162.87724173550464 -436.37391017049413 0 0 0 0 85.39331084922128 17.582070199455302 0 17.582070199455302 -347.68658328015681 0 0 0 0 -57.614492059929489 -82.031625545571842 0 -82.031625545571842 -6.2114592592897679 0 0 0 0 -3.0586952954552267 2.5746503633249134 0 2.5746503633249134 -2.2618357747570883 0 0 0 0 -204.27157743807129 69.038181016656381 0 69.038181016656381 -6.3529032260667009 0 0 0 0 -148.39679981412019 64.27047000264065 0 64.27047000264065 -85.49516193929594 0 0 0 0 -280.47549779646806 251.68696051396182 0 251.68696051396182 -250.26584463780091 0 0 0 0 -94.927211668181826 91.275025395309058 0 91.275025395309058 -177.167658000046 0 0 0 0 -153.22213920825598 203.2415881819191 0 203.2415881819191 -343.36882653000612 0 0 0 0 -60.729254704317896 102.41091291720863 0 102.41091291720863 -324.76863128688638 0 0 0 0 -101.03089907858794 140.68840720358821 0 140.68840720358821 -217.04395305022172 0 0 0 0 -51.705216488198857 97.079027976856196 0 97.079027976856196 -322.28441070862391 0 0 0 0 2.8391109108947603 35.987998843213063 0 35.987998843213063 -512.28966361216953 0 0 0 0 -39.230784430276572 107.88000016651904 0 107.88000016651904 -438.87012302046787 0 0 0 0 -73.179701980615846 195.18335350126517 0 195.18335350126517 -716.86116113241951 0 0 0 0 -55.034151794136505 106.21364550460203 0 106.21364550460203 -355.30337831584586 0 0 0 0 -238.62041889572833 -33.801924129678156 0 -33.801924129678156 -391.95865044381571 0 0 0 0 4.9721774262845884 9.4822092789472663 0 9.4822092789472663 -36.925910135088998 0 0 0 0 10.282692821903787 -16.710929554945324 0 -16.710929554945324 -115.68942842973047 0 0 0 0 -0.12729510499669569 25.675599950845935 0 25.675599950845935 -47.207465199880971 0 0 0 0 4.9551164447115568 -2.8931058746366034 0 -2.8931058746366034 -15.729268750979827 0 0 0 0 3.5557880056121718 25.487689332330774 0 25.487689332330774 6.9180920382023032 0 0 0 0 15.449175441434022 4.0876087355864001 0 4.0876087355864001 -34.555173942848342 0 0 0 0 -0.32498762203596243 -0.86212113242967803 0 -0.86212113242967803 -7.1443050865329951 0 0 0 0 22.107749390409197 -7.2540878823056119 0 -7.2540878823056119 -57.554816436204419 0 0 0 0 14.820862495739277 13.752856667571905 0 13.752856667571905 -24.518410997778119 0 0 0 0 47.288307688770089 13.682561309346056 0 13.682561309346056 -36.95618703654327 0 0 0 0 0.85013359576878222 4.5749575444727242 0 4.5749575444727242 -29.939133865719228 0 0 0 0 39.491780213836023 48.446894489512488 0 48.446894489512488 24.38089206294535 0 0 0 0 2.5235097883593633 -0.53791915423474279 0 -0.53791915423474279 -8.7314008891978148 0 0 0 0 8.0907212773156658 1.6976141000777716 0 1.6976141000777716 -34.95847880274232 0 0 0 0 0.79802656128061744 3.4524307177863029 0 3.4524307177863029 -31.056362441321738 0 0 0 0 37.656645247643382 10.191208408796228 0 10.191208408796228 -44.621691949811066 0 0 0 0 14.368804968987263 -0.67509575057556503 0 -0.67509575057556503 -34.155346265182743 0 0 0 0 14.227656094540791 -3.9748605895625246 0 -3.9748605895625246 -54.990227984708326 0 0 0 0 1.0746169123683558 -3.4353036253887694 0 -3.4353036253887694 -31.554718445418985 0 0 0 0 -3.6091447027543757 -3.537246092065871 0 -3.537246092065871 -3.5946793290354329 0 0 0 0 -15.458706290412579 -181.95648469114894 0 -181.95648469114894 -775.94127423195823 0 0 0 0 -96.788442647879037 -95.729865923280158 0 -95.729865923280158 -574.00865874585725 0 0 0 0 2.076082951728722 -52.784481392809539 0 -52.784481392809539 -604.6272478284809 0 0 0 0 19.584082122556168 -77.687580894888015 0 -77.687580894888015 -858.65826609937722 0 0 0 0 -8.0912912630806773 -164.06561185263854 0 -164.06561185263854 -1014.4479878948941 0 0 0 0 -29.433250293568094 -30.097281094122081 0 -30.097281094122081 9.2580147301705438 0 0 0 0 -1.4094902835748333 -1.6239804596807801 0 -1.6239804596807801 -0.5271114990050414 0 0 0 0 -105.63318146963374 -121.83163578754102 0 -121.83163578754102 -101.12961747667532 0 0 0 0 -0.013430457155364894 -60.923357235442381 0 -60.923357235442381 -652.29699818584777 0 0 0 0 -85.065476333905764 -172.26196768846785 0 -172.26196768846785 -795.80227875280616 0 0 0 0 -0.018423264956125479 -125.5865672788932 0 -125.5865672788932 -844.89431037137365 0 0 0 0 174.60781315855453 -219.41278635110802 0 -219.41278635110802 -1498.9867612925536 0 0 0 0 -47.107214789664255 -127.07252118901943 0 -127.07252118901943 -810.10824655829856 0 0 0 0 0.4926913162685605 -0.85452498429818036 0 -0.85452498429818036 -1.957494911273157 0 0 0 0 -2.3122143765954775 -59.613927880200208 0 -59.613927880200208 -1185.9862943218432 0 0 0 0 -0.33233731738156536 -60.64301133445224 0 -60.64301133445224 -1193.163869633443 0 0 0 0 1.4004953948769985 -1.518061200857943 0 -1.518061200857943 -2.2076387900997121 0 0 0 0 16.819125186970552 -198.40773148023982 0 -198.40773148023982 -1078.9958538450628 0 0 0 0 -36.907829608386805 -123.30839543343245 0 -123.30839543343245 -864.06232940193468 0 0 0 0 -81.301989524999271 -147.03295111067928 0 -147.03295111067928 -788.4363567608234 0 0 0 0 133.07322741057686 -107.86298038742098 0 -107.86298038742098 -1455.3438652294826 0 0 0 0 54.51448831814352 -348.94174409116704 0 -348.94174409116704 -704.08602181683091 0 0 0 0 64.996753620387921 -384.33818773162784 0 -384.33818773162784 -873.21480234387991 0 0 0 0 0.92239602973044699 -0.54724789532612306 0 -0.54724789532612306 -1.9663265250887703 0 0 0 0 76.604205717241342 -490.99057232383075 0 -490.99057232383075 -947.81372860504553 0 0 0 0 -64.302285388417076 -282.14424035794036 0 -282.14424035794036 -1175.716370776132 0 0 0 0 -87.540165003819411 -369.21386668142441 0 -369.21386668142441 -1482.528267717862 0 0 0 0 -320.74469081944881 -431.70737812620246 0 -431.70737812620246 -586.10147787060123 0 0 0 0 -675.90618118958514 -964.86722044679937 0 -964.86722044679937 -1386.350310943224 0 0 0 0 -150.68987543619096 -583.94383084089714 0 -583.94383084089714 -889.13403438774549 0 0 0 0 -34.567691606884765 -341.39513735751098 0 -341.39513735751098 -685.76852095994036 0 0 0 0 -204.34567388537346 -255.5405486988675 0 -255.5405486988675 -210.64492560136568 0 0 0 0 14.34817496317487 9.3080170731518592 0 9.3080170731518592 3.5737141884310404 0 0 0 0 1.2504189614359524 2.2115023207718387 0 2.2115023207718387 -14.192125866267077 0 0 0 0 -253.4546546604829 -394.7917974049451 0 -394.7917974049451 -595.36119139992752 0 0 0 0 2.4346219982089758 8.0485554792533733 0 8.0485554792533733 -5.6831482880901234 0 0 0 0 24.192783407401322 27.977165397845965 0 27.977165397845965 -1.9149246721535746 0 0 0 0 18.187285204396161 17.01455287409226 0 17.01455287409226 -2.3877423519297736 0 0 0 0 45.391094125554901 61.250955357671046 0 61.250955357671046 33.814083339035278 0 0 0 0 0.099162071912019201 32.707989868498771 0 32.707989868498771 18.228571373882005 0 0 0 0 -9.3379394642379339 10.050566464968142 0 10.050566464968142 50.22690932979458 0 0 0 0 -22.72665679485997 18.346464985699757 0 18.346464985699757 40.691218892146495 0 0 0 0 22.438319800881104 18.432170169201527 0 18.432170169201527 -8.2404263806831679 0 0 0 0 57.524505066518032 49.624703461544414 0 49.624703461544414 1.9207068323194108 0 0 0 0 52.934146393517949 72.595602736560977 0 72.595602736560977 39.54317556103706 0 0 0 0 67.112511005211672 69.702744956643073 0 69.702744956643073 21.309582685484202 0 0 0 0 3.3075075788244561 6.4145112857980848 0 6.4145112857980848 1.7196502158888975 0 0 0 0 2.9156116705612503 8.7706965911935875 0 8.7706965911935875 -14.055056361782249 0 0 0 0 -23.872770268242263 -29.449838934691797 0 -29.449838934691797 -321.96547913361428 0 0 0 0 2.1905734594079149 -183.12685741021414 0 -183.12685741021414 -397.59407294835546 0 0 0 0 70.458118682468466 -4.5065287924735458 0 -4.5065287924735458 -426.66109988860808 0 0 0 0 103.7292627800399 -132.19912625768484 0 -132.19912625768484 -889.74724884626448 0 0 0 0 -20.902980216527567 7.6779829536790203 0 7.6779829536790203 -527.74094057018374 0 0 0 0 0.8793637689981324 -147.35480102843576 0 -147.35480102843576 -370.3510347570591 0 0 0 0 -0.37767893771271854 9.896735259241396 0 9.896735259241396 -4.2029938811354155 0 0 0 0 3.1454409844296833 13.895088601595489 0 13.895088601595489 -25.85232014708663 0 0 0 0 -40.066229922044869 77.637380071790176 0 77.637380071790176 -159.30033210305555 0 0 0 0 -2.0052809928786965 0.90831383681400268 0 0.90831383681400268 0.82263374406340972 0 0 0 0 0.69477664086222957 5.2393999180396698 0 5.2393999180396698 -28.170769299387558 0 0 0 0 12.848520818400857 23.07530836713704 0 23.07530836713704 -25.708204276117613 0 0 0 0 -64.853129547858771 -81.556603691328746 0 -81.556603691328746 -96.746413726337778 0 0 0 0 2.6824047403599596 9.6852793043136245 0 9.6852793043136245 -7.9066475730827044 0 0 0 0 -11.00315897336327 5.4121783826976753 0 5.4121783826976753 -20.854964708352782 0 0 0 0 -62.316820439024013 102.88508534204811 0 102.88508534204811 146.30042011988007 0 0 0 0 7.6922332249082128 10.149929021423475 0 10.149929021423475 -31.299618969470075 0 0 0 0 -7.9526086061794246 20.050505286287716 0 20.050505286287716 -24.292812601146579 0 0 0 0 4.6935857511376753 17.502815570158418 0 17.502815570158418 -39.192977322716615 0 0 0 0 6.2934801233210464 12.293840282974998 0 12.293840282974998 -22.421901762647394 0 0 0 0 34.190634689296616 25.120118707186975 0 25.120118707186975 -33.515367824824352 0 0 0 0 4.7071425173373465 9.1292341734804054 0 9.1292341734804054 -41.149959747929984 0 0 0 0 -28.558437775369271 27.135098919461598 0 27.135098919461598 -11.080734834453324 0 0 0 0 -33.936592025094797 -17.320734883167461 0 -17.320734883167461 -33.775691558352719 0 0 0 0 9.5138739213152803 3.0474273237632588 0 3.0474273237632588 -23.485670635804127 0 0 0 0 65.727838613850054 102.53211861600721 0 102.53211861600721 -11.550679959549612 0 0 0 0 38.194886403006421 -65.574012244132973 0 -65.574012244132973 -43.498056639786228 0 0 0 0 123.76772954331875 147.89934665452802 0 147.89934665452802 65.307826308504445 0 0 0 0 -14.330966245022056 11.48093584045262 0 11.48093584045262 -2.0429257876310984 0 0 0 0 43.877843717459115 61.165708976712949 0 61.165708976712949 6.0987979477613408 0 0 0 0 40.884561284869051 31.792387419687657 0 31.792387419687657 3.7756717663196468 0 0 0 0 -3.3791656728482167 42.683483031237756 0 42.683483031237756 11.523467103350413 0 0 0 0 3.0862219624277714 22.811243301126524 0 22.811243301126524 -10.097218199800409 0 0 0 0 9.0535140834406036 34.57254949954222 0 34.57254949954222 3.9374910661354079 0 0 0 0 -20.206584428838823 43.203019484964898 0 43.203019484964898 7.6181048901617032 0 0 0 0 7.4611806412860062 42.417254344844196 0 42.417254344844196 33.908737591678801 0 0 0 0 29.832287981542692 61.756981055386859 0 61.756981055386859 17.451000332359399 0 0 0 0 -7.8144084551104243 41.398689097612078 0 41.398689097612078 19.534274868095963 0 0 0 0 27.356712169379051 40.536950118260847 0 40.536950118260847 8.3257212243552203 0 0 0 0 -14.030007694592909 14.927385219575683 0 14.927385219575683 -0.95614666597666798 0 0 0 0 76.379138169734688 111.05384310781483 0 111.05384310781483 100.70077953461441 0 0 0 0 60.364637832064545 67.282053176946647 0 67.282053176946647 1.5929448860988487 0 0 0 0 40.923444140329593 -50.975137423891283 0 -50.975137423891283 -10.215857361221424 0 0 0 0 -2.3486830714917062 0.016443912610057509 0 0.016443912610057509 1.5044361059338698 0 0 0 0 -1.7164866797014147 5.2994438425277917 0 5.2994438425277917 -3.794169392607408 0 0 0 0 -53.487098982846121 17.241352442551033 0 17.241352442551033 12.307041852754992 0 0 0 0 233.08706738599494 120.00717368493042 0 120.00717368493042 71.571589476622648 0 0 0 0 -11.547399283922687 40.664297022571191 0 40.664297022571191 14.229650628654781 0 0 0 0 -7.3528342254585226 25.100623069131615 0 25.100623069131615 -0.25905672463704832 0 0 0 0 -100.80380662252475 3.0428056677874338 0 3.0428056677874338 7.3015691267919465 0 0 0 0 -25.755569084807931 9.2863090713030942 0 9.2863090713030942 -16.880454772544908 0 0 0 0 -37.713564899624771 19.207945837073567 0 19.207945837073567 13.832524601331897 0 0 0 0 112.41997185962646 84.569383287103847 0 84.569383287103847 114.25384342752386 0 0 0 0 110.2358376414461 96.236935957791502 0 96.236935957791502 107.51286014416382 0 0 0 0 -1.3667729461359448 0.7600019511778946 0 0.7600019511778946 -0.04972708541498605 0 0 0 0 135.97486970755429 124.07102777858859 0 124.07102777858859 -142.80742948429543 0 0 0 0 73.627386006832694 84.923731744398538 0 84.923731744398538 119.83476139625873 0 0 0 0 61.729065436777773 62.246769112181937 0 62.246769112181937 76.87716362325591 0 0 0 0 171.91081226641268 47.584659309142808 0 47.584659309142808 34.028784545394956 0 0 0 0 100.07182331962588 43.860673215056977 0 43.860673215056977 44.730457155113982 0 0 0 0 24.931699344715128 72.165053874328805 0 72.165053874328805 83.659089960197889 0 0 0 0 98.242224779148728 30.800000379483208 0 30.800000379483208 -33.295956218618812 0 0 0 0 39.084412595540982 78.126678775243818 0 78.126678775243818 -88.209673941306391 0 0 0 0 43.24748656222414 97.780657993018394 0 97.780657993018394 -17.000465682249342 0 0 0 0 175.46643412142089 76.259364712578645 0 76.259364712578645 -33.660305966719534 0 0 0 0 117.09812920472336 29.107083322753169 0 29.107083322753169 -20.026156963016547 0 0 0 0 -2.4555297646879013 8.0123449059563043 0 8.0123449059563043 -1.4913698217789744 0 0 0 0 1.4825431895205594 11.96685019882856 0 11.96685019882856 -21.901399830817795 0 0 0 0 -5.9482862426220038 26.844497001557102 0 26.844497001557102 13.11141776277691 0 0 0 0 17.884970758314353 21.568520866074323 0 21.568520866074323 -6.5992051292560063 0 0 0 0 -25.069924867250734 6.5004640803563234 0 6.5004640803563234 2.8224185728358862 0 0 0 0 3.8902362090742599 50.801516475670724 0 50.801516475670724 19.342833836911609 0 0 0 0 1.6954328259830556 16.121587074404342 0 16.121587074404342 -17.426652669684152 0 0 0 0 15.586629353128728 34.198426144175755 0 34.198426144175755 80.556630789982592 0 0 0 0 61.930052648610911 34.768508943561756 0 34.768508943561756 -64.881383668707713 0 0 0 0 -1131.9003724540521 -89.84404330676989 0 -89.84404330676989 -1501.2742518978075 0 0 0 0 -295.95429529280148 -634.19996527543481 0 -634.19996527543481 -1645.875977388655 0 0 0 0 -0.86898493249103792 1.927372254353898 0 1.927372254353898 -7.5586672471904706 0 0 0 0 30.647646332051409 22.267604885679248 0 22.267604885679248 -10.504904299414193 0 0 0 0 -97.496432676923334 42.228163101821337 0 42.228163101821337 72.340072918566875 0 0 0 0 -24.189136952752051 105.83008583917763 0 105.83008583917763 82.361610645020846 0 0 0 0 -84.183570512377173 -11.136102780586953 0 -11.136102780586953 43.247778854434728 0 0 0 0 0.50552446473656509 0.25937647396076002 0 0.25937647396076002 -5.890234276697484 0 0 0 0 -42.752275232574107 56.369448471243231 0 56.369448471243231 -24.157972896999127 0 0 0 0 -294.56857573296122 -511.54091953325315 0 -511.54091953325315 -1569.0331140159396 0 0 0 0 -180.11317541324433 -642.95977597172805 0 -642.95977597172805 -1480.1502970166584 0 0 0 0 0.17856528138662187 0.16921996150515639 0 0.16921996150515639 -4.0482369844185371 0 0 0 0 -504.89446579536332 1096.1708372502144 0 1096.1708372502144 -2682.556509702008 0 0 0 0 -345.54099244521228 -584.19845282834831 0 -584.19845282834831 -1694.0700483732217 0 0 0 0 -1447.755295824355 763.31551987848525 0 763.31551987848525 -461.84639642060574 0 0 0 0 -298.77170044131572 -256.8536472528067 0 -256.8536472528067 318.25050178642414 0 0 0 0 -2.2513538433202926 3.3344402678657836 0 3.3344402678657836 -12.124990112361317 0 0 0 0 -314.2387196419669 554.21973881307076 0 554.21973881307076 -1226.5220693160954 0 0 0 0 -851.36126634175844 198.94098376565023 0 198.94098376565023 67.520368283418065 0 0 0 0 -751.19853045491391 1054.1439704753809 0 1054.1439704753809 -822.98637926314041 0 0 0 0 -270.83825511536224 472.00939467661465 0 472.00939467661465 -328.70751281848788 0 0 0 0 -432.44938564999995 484.91447893724217 0 484.91447893724217 -81.70800302248972 0 0 0 0 -0.43094995342486042 10.183131042142103 0 10.183131042142103 -28.726383343646191 0 0 0 0 189.73267548216694 133.99435904675374 0 133.99435904675374 -134.60898307866955 0 0 0 0 63.734167749360267 -0.2356186263878044 0 -0.2356186263878044 -48.622103812402202 0 0 0 0 -10.674231184788141 -79.163647853818475 0 -79.163647853818475 -89.207733429288055 0 0 0 0 78.19442793606504 182.35287349895225 0 182.35287349895225 47.848365187333911 0 0 0 0 3.7612002072138129 -0.64708419271554973 0 -0.64708419271554973 -4.2975509858542651 0 0 0 0 -221.60545662121365 291.79850573945714 0 291.79850573945714 -103.59815498150056 0 0 0 0 -4.8481935893371428 63.493599055405866 0 63.493599055405866 32.238141628841731 0 0 0 0 -209.39437967179003 415.02241939965461 0 415.02241939965461 -329.72096745873114 0 0 0 0 -112.97493400064262 331.6925209847077 0 331.6925209847077 -323.99966978216617 0 0 0 0 -67.799756279627488 475.95707695262718 0 475.95707695262718 -682.98091207930702 0 0 0 0 -22.088072119855497 468.37248921432365 0 468.37248921432365 -684.05685056397124 0 0 0 0 -379.13085785175923 667.29225549346484 0 667.29225549346484 -412.18055784302123 0 0 0 0 -240.99242769952482 770.01045041155021 0 770.01045041155021 -1050.744003654876 0 0 0 0 182.02262601504032 591.16431950386686 0 591.16431950386686 -1499.7820732198627 0 0 0 0 -29.413501246592759 632.21672517670959 0 632.21672517670959 -1026.0576892287045 0 0 0 0 158.16831862310403 403.75641149350122 0 403.75641149350122 -1106.544171652984 0 0 0 0 170.72011596932086 395.19846029972814 0 395.19846029972814 -861.31692121661035 0 0 0 0 -23.994740623972291 545.89941632856608 0 545.89941632856608 -789.81350989279599 0 0 0 0 107.01420324946628 548.96376805025466 0 548.96376805025466 -1015.891054919226 0 0 0 0 -35.024014605491914 349.10190454965323 0 349.10190454965323 -429.93546719557162 0 0 0 0 50.485544033339124 370.32824613605408 0 370.32824613605408 -703.98922723494252 0 0 0 0 52.186435947132281 188.87892923623804 0 188.87892923623804 -567.9742717061763 0 0 0 0 46.444181404489314 384.72815376345898 0 384.72815376345898 -737.08397091515144 0 0 0 0 25.421901562559697 88.981843151870635 0 88.981843151870635 -430.86452344606187 0 0 0 0 67.568544802955131 153.37114215218753 0 153.37114215218753 -490.32320125774277 0 0 0 0 -32.601397250987816 190.11532629494286 0 190.11532629494286 -169.90089084248461 0 0 0 0 -68.769066972199397 105.323388922493 0 105.323388922493 -175.52403238353872 0 0 0 0 -75.982515212775013 197.80798611946739 0 197.80798611946739 -348.36787300417927 0 0 0 0 -71.834160000075386 165.47016296550896 0 165.47016296550896 -206.33086281092437 0 0 0 0 -27.002562243780204 192.99780943609039 0 192.99780943609039 -240.33846203467783 0 0 0 0 -78.64465719814352 350.98549825280315 0 350.98549825280315 -425.29984832617811 0 0 0 0 -109.00936089969585 201.74719735326562 0 201.74719735326562 -106.44930029578609 0 0 0 0 70.673469936223455 51.325864452315727 0 51.325864452315727 -95.330464171080848 0 0 0 0 8.4847073863165861 65.903202373372551 0 65.903202373372551 128.71730885787838 0 0 0 0 19.082322344562499 24.222227018964077 0 24.222227018964077 -7.4996425285444275 0 0 0 0 36.62848018342595 78.230359739236519 0 78.230359739236519 -34.776725117046226 0 0 0 0 6.8507547904796979 213.1822275635086 0 213.1822275635086 -178.99742990684899 0 0 0 0 -1.5287188842585482 0.52817933774347736 0 0.52817933774347736 0.24104721676315677 0 0 0 0 41.065774455875044 100.02303060783106 0 100.02303060783106 298.54391256605777 0 0 0 0 -44.60884603509075 6.5181117302217899 0 6.5181117302217899 121.53812818817642 0 0 0 0 53.640950352075706 54.616429469821014 0 54.616429469821014 138.07742706311183 0 0 0 0 33.794569971287729 100.80563918924963 0 100.80563918924963 137.16765112587382 0 0 0 0 -2.6336060161313481 1.4121708979623619 0 1.4121708979623619 -0.0049767134475047214 0 0 0 0 -36.78534462588641 219.4317367296153 0 219.4317367296153 206.36044455549927 0 0 0 0 -39.838345662050642 114.68500027746268 0 114.68500027746268 -328.40909190851198 0 0 0 0 -39.264857456925924 101.39360279800599 0 101.39360279800599 -131.6617974156834 0 0 0 0 88.709857994414961 -48.749622299361363 0 -48.749622299361363 10.356910653849809 0 0 0 0 -36.464882648872056 48.475215848004154 0 48.475215848004154 402.98690798009739 0 0 0 0 -17.435660930249014 101.57590394034196 0 101.57590394034196 -351.87157515144372 0 0 0 0 -0.95790985771110226 0.45822317334125273 0 0.45822317334125273 0.051727604980535524 0 0 0 0 14.385546477205821 119.56715557017333 0 119.56715557017333 -391.09320354591182 0 0 0 0 7.474715491497828 132.29032267203468 0 132.29032267203468 432.21389794774041 0 0 0 0 12.187314546820161 58.710048903376446 0 58.710048903376446 390.14117614039515 0 0 0 0 -0.18912015389825632 1.0221361925736936 0 1.0221361925736936 -0.50872639172901657 0 0 0 0 -97.951833455250721 118.24218038405706 0 118.24218038405706 245.16958923232596 0 0 0 0 -1.6319608769337113 1.5125971338961008 0 1.5125971338961008 0.2944293927249344 0 0 0 0 -66.829461677760492 150.94477721438807 0 150.94477721438807 47.408773056187783 0 0 0 0 8.8919086059619268 55.941806041419667 0 55.941806041419667 66.374270553631504 0 0 0 0 54.691020828233739 62.494586313632681 0 62.494586313632681 144.3984101872411 0 0 0 0 -154.21310379342418 168.48275086758349 0 168.48275086758349 125.1353353896593 0 0 0 0 -10.344944974873442 -32.14737430981404 0 -32.14737430981404 305.19848105104393 0 0 0 0 18.753705897301757 -37.730012896185144 0 -37.730012896185144 -449.64948641963883 0 0 0 0 -55.512458455489167 -28.541060729438868 0 -28.541060729438868 -270.27526222982124 0 0 0 0 60.898396916564536 -36.196332101571898 0 -36.196332101571898 -870.06843036685495 0 0 0 0 18.986730155859576 4.411340096744425 0 4.411340096744425 -628.75798054409097 0 0 0 0 -17.386501547445327 23.772318133682347 0 23.772318133682347 -522.67608082049628 0 0 0 0 -25.917886588211569 9.7723874509210873 0 9.7723874509210873 -621.67722911534293 0 0 0 0 -48.99822191595095 -78.406076702661039 0 -78.406076702661039 -651.54715711332756 0 0 0 0 -71.312064347853408 -29.134232427879397 0 -29.134232427879397 -446.35276432380851 0 0 0 0 -32.440760613211467 103.63878443422163 0 103.63878443422163 -637.28937947662234 0 0 0 0 -20.05801184310792 44.331147209643404 0 44.331147209643404 -368.02871237340878 0 0 0 0 -24.28907825721933 40.813210185157004 0 40.813210185157004 -369.89393383689458 0 0 0 0 -25.876068087249905 17.736085284956062 0 17.736085284956062 -257.03926258114734 0 0 0 0 4.3017829628336131 22.028826103575739 0 22.028826103575739 -311.5130367570091 0 0 0 0 40.529851751957949 -38.84771467533028 0 -38.84771467533028 -225.64964617196529 0 0 0 0 -26.506627819417517 -44.777159522073021 0 -44.777159522073021 -292.5347431877999 0 0 0 0 40.739746856209194 -90.040616876113745 0 -90.040616876113745 -493.78695007233034 0 0 0 0 -32.421322716711956 -69.40911943420042 0 -69.40911943420042 -365.92617395771413 0 0 0 0 -23.700224499868341 -68.922318877562248 0 -68.922318877562248 -379.03645700851843 0 0 0 0 -4.0988914479514165 -1.848477467543681 0 -1.848477467543681 -0.33982220494168747 0 0 0 0 -61.731091208618068 -101.56640158107803 0 -101.56640158107803 21.193122245083941 0 0 0 0 -1.5173376657262718 -0.76526464245937476 0 -0.76526464245937476 -0.32082346712248544 0 0 0 0 43.439159182393752 -74.325694228401062 0 -74.325694228401062 -287.72144609779934 0 0 0 0 37.854515861559179 -99.145324925443219 0 -99.145324925443219 -330.77878212085125 0 0 0 0 -46.379758912045759 -60.806803033649885 0 -60.806803033649885 -159.85665966440865 0 0 0 0 -4.7657306216870365 -2.0110694101667654 0 -2.0110694101667654 -0.45704436963621742 0 0 0 0 -117.80451297683089 -152.87607167321676 0 -152.87607167321676 -340.42735474548419 0 0 0 0 -10.89608707336987 -112.59011067842334 0 -112.59011067842334 -391.49952981922615 0 0 0 0 -268.62878086286014 -119.52716613474786 0 -119.52716613474786 -371.89424481313017 0 0 0 0 0.7055980139557505 -128.33969907026039 0 -128.33969907026039 -591.12213431335476 0 0 0 0 -6.5958387449045404 -141.71811493789164 0 -141.71811493789164 -404.79104336551791 0 0 0 0 -59.075329312021722 -200.13070224272451 0 -200.13070224272451 -234.04224139514008 0 0 0 0 4.4921313546013835 -231.28446278387764 0 -231.28446278387764 -436.91111844541228 0 0 0 0 -129.11119286380199 -363.70190772099522 0 -363.70190772099522 -506.55296778623688 0 0 0 0 -363.97092247395335 -162.55046838564886 0 -162.55046838564886 -25.481079736982792 0 0 0 0 3.6089905810922573 15.856436559650319 0 15.856436559650319 -59.655130299802977 0 0 0 0 -177.24766156190208 -105.15487578696047 0 -105.15487578696047 -16.054585983725701 0 0 0 0 -68.471199519110996 -151.97826609927597 0 -151.97826609927597 -247.26721272353825 0 0 0 0 -50.81926447241392 -73.87063784991733 0 -73.87063784991733 -89.19167052503326 0 0 0 0 -21.382041160792451 -9.9191768387107437 0 -9.9191768387107437 -2.7700642910355757 0 0 0 0 -76.18008309605159 -78.62623975723136 0 -78.62623975723136 -78.032602376606519 0 0 0 0 -24.614206219497646 -18.364605883814875 0 -18.364605883814875 0.18743198962147289 0 0 0 0 -10.255361480374116 -6.2030516160611526 0 -6.2030516160611526 -0.25723643017526499 0 0 0 0 0.16396442363111419 23.34993826419668 0 23.34993826419668 -17.416459986091994 0 0 0 0 -17.03814730785416 -9.2039611819554921 0 -9.2039611819554921 -7.7878947724748286 0 0 0 0 -6.2513157559821639 -1.6225439059389828 0 -1.6225439059389828 -0.76904571256487486 0 0 0 0 -18.101333495897244 -8.2512309019768857 0 -8.2512309019768857 -2.7860336378605801 0 0 0 0 16.883022038735362 -11.422970001614885 0 -11.422970001614885 -19.21120335899468 0 0 0 0 -22.422567408126248 -9.5217428197416112 0 -9.5217428197416112 -3.8102249263266756 0 0 0 0 -46.499339276269893 -7.4933600250506061 0 -7.4933600250506061 26.422970120518585 0 0 0 0 12.703524963213567 -155.89468628059512 0 -155.89468628059512 114.21196101022906 0 0 0 0 -1.2442573225716842 -13.055413337865502 0 -13.055413337865502 -24.244615213363431 0 0 0 0 12.818688005331637 -80.982569292808876 0 -80.982569292808876 -341.51474579032947 0 0 0 0 25.610126495358827 -91.770525074507532 0 -91.770525074507532 -377.87735538357356 0 0 0 0 13.829619358170021 -88.042025314323382 0 -88.042025314323382 -376.58073551854068 0 0 0 0 30.228327296475868 -150.36078341447501 0 -150.36078341447501 -453.09316151221174 0 0 0 0 29.643771632481275 -170.7851060040548 0 -170.7851060040548 -318.16877460861633 0 0 0 0 0.59276839821473004 -172.29215633991407 0 -172.29215633991407 -349.65766143246219 0 0 0 0 6.3335714416161863 -232.35772215820634 0 -232.35772215820634 -378.91243333660532 0 0 0 0 12.345922012547874 -134.88148472315879 0 -134.88148472315879 -259.83955505112135 0 0 0 0 11.159211681138913 -174.02349732398852 0 -174.02349732398852 -393.54801093301739 0 0 0 0 -108.8869636500711 -257.90427529807778 0 -257.90427529807778 -183.99091781510651 0 0 0 0 -100.28785897931311 -112.50138097422496 0 -112.50138097422496 -15.459650888999022 0 0 0 0 -44.604114640306847 -131.55979703497474 0 -131.55979703497474 -666.63209341446418 0 0 0 0 -191.44039997652499 -411.6572654410611 0 -411.6572654410611 -951.0897673262366 0 0 0 0 -11.57153225634238 -281.12247309335817 0 -281.12247309335817 -498.98947536395008 0 0 0 0 -13.611520411692911 -6.7394377056971138 0 -6.7394377056971138 -3.8287644491127928 0 0 0 0 19.765964565585136 -29.693617065718172 0 -29.693617065718172 -726.12055760737894 0 0 0 0 34.732547984934058 -24.337283537635358 0 -24.337283537635358 -726.2178099042867 0 0 0 0 -91.687542712005552 184.89595458314034 0 184.89595458314034 -1067.4809275064508 0 0 0 0 79.272779340843385 -1.9404506624205169 0 -1.9404506624205169 42.658582529984415 0 0 0 0 -11.126957524225418 -181.70633404137561 0 -181.70633404137561 220.68478541379955 0 0 0 0 -12.652770827140984 -3.3513057963698998 0 -3.3513057963698998 0.2596232358951589 0 0 0 0 -39.758143491610099 0.13367982011186541 0 0.13367982011186541 33.284860346186179 0 0 0 0 69.253692555123052 -1.449765951723748 0 -1.449765951723748 -11.128753040547963 0 0 0 0 -211.05249485260219 -224.64802585142934 0 -224.64802585142934 65.223784369221448 0 0 0 0 -811.54350585727752 -469.18288745672726 0 -469.18288745672726 99.473164494186449 0 0 0 0 -245.03191456865216 -132.36897461209446 0 -132.36897461209446 5.2348787629598519 0 0 0 0 10.444936597180572 -26.815758016253312 0 -26.815758016253312 -1824.5247719417748 0 0 0 0 -403.04311541944298 -34.10531380138309 0 -34.10531380138309 381.3723392631091 0 0 0 0 -9.2016267179378666 -1.2063923199289448 0 -1.2063923199289448 -0.62966062271229717 0 0 0 0 -139.73350821715303 -421.50178124342528 0 -421.50178124342528 -1584.5471836549186 0 0 0 0 -62.041029046903532 -580.6522738105532 0 -580.6522738105532 -717.82860904265544 0 0 0 0 -234.54731259443656 308.99548643460275 0 308.99548643460275 -494.68616918896805 0 0 0 0 -897.21201238874573 -344.33654504422429 0 -344.33654504422429 -451.21315528258856 0 0 0 0 -157.94955523913745 165.62982118092714 0 165.62982118092714 -321.69233969952916 0 0 0 0 -171.73673752456421 -396.45406145306788 0 -396.45406145306788 -334.52851524688595 0 0 0 0 -223.92665333550815 83.866580117926787 0 83.866580117926787 -113.51319137725113 0 0 0 0 3.0517000558087735 1.6805157305998506 0 1.6805157305998506 0.66026945753536026 0 0 0 0 -59.278998793622577 -164.3273583546852 0 -164.3273583546852 193.63209393601574 0 0 0 0 -191.58217762522713 310.14257838868434 0 310.14257838868434 -153.61717767757182 0 0 0 0 89.379759358575484 125.0784940450385 0 125.0784940450385 -184.32505797515114 0 0 0 0 205.06351685383697 39.521505950506253 0 39.521505950506253 -91.605505008519685 0 0 0 0 185.88230625640131 -39.277589719093157 0 -39.277589719093157 -129.050271651402 0 0 0 0 157.07206132267311 -6.248700957984056 0 -6.248700957984056 -98.166438066073169 0 0 0 0 -33.055104288896473 -110.93838498841706 0 -110.93838498841706 -115.16410843184713 0 0 0 0 -29.228589647110994 -109.61617652460882 0 -109.61617652460882 -156.50149911096901 0 0 0 0 189.99645976500713 -84.296315206742747 0 -84.296315206742747 -209.05711455506207 0 0 0 0 67.108123634044659 44.38380040759148 0 44.38380040759148 -127.00927772242721 0 0 0 0 -71.486599039125394 -84.325400923864436 0 -84.325400923864436 -129.28899557976729 0 0 0 0 47.155240824301316 94.182425835329099 0 94.182425835329099 -137.51839134739748 0 0 0 0 99.119007712635721 60.054834440711602 0 60.054834440711602 -194.45305535495208 0 0 0 0 109.51572457848761 113.31464398543926 0 113.31464398543926 64.092806700533401 0 0 0 0 455.1788680098532 173.99209988982921 0 173.99209988982921 -154.08529435537821 0 0 0 0 -1.1445028404096989 4.3836981666864325 0 4.3836981666864325 -4.2420214615432741 0 0 0 0 -41.621103899940294 31.742551735916095 0 31.742551735916095 -24.032506897292478 0 0 0 0 -46.111043407138368 5.9656277476296964 0 5.9656277476296964 -29.111096493423247 0 0 0 0 -244.40322860705095 57.719240497824558 0 57.719240497824558 1.1559791736872285 0 0 0 0 -0.31548311988805189 1.5644419751665817 0 1.5644419751665817 -2.1407812266998931 0 0 0 0 243.86759218252746 -90.852271589328666 0 -90.852271589328666 -42.239543129251615 0 0 0 0 454.86793029679939 16.910138333176292 0 16.910138333176292 -169.30629974143449 0 0 0 0 38.493714319112314 11.277951355054029 0 11.277951355054029 -29.249024700482551 0 0 0 0 -47.457201615446593 33.751465880663091 0 33.751465880663091 -16.781874906575467 0 0 0 0 15.062663473348266 37.485317687653151 0 37.485317687653151 -49.894595251182182 0 0 0 0 -40.576503906257926 26.355441942774178 0 26.355441942774178 -0.79882647321574041 0 0 0 0 7.3731838313537992 26.585967551078284 0 26.585967551078284 -22.442149135116779 0 0 0 0 3.7418582131608673 39.895738684113894 0 39.895738684113894 -15.197703908022959 0 0 0 0 31.520843846840762 31.576513686948601 0 31.576513686948601 -16.694368355652841 0 0 0 0 28.7821791571223 28.016002216379093 0 28.016002216379093 19.748992571272538 0 0 0 0 82.934909274360962 -19.872517908176633 0 -19.872517908176633 94.329361321786791 0 0 0 0 -11.706386065679915 10.86221918447445 0 10.86221918447445 0.11688666532693048 0 0 0 0 36.617658413903882 27.784658318603306 0 27.784658318603306 -12.388751057531408 0 0 0 0 185.19859478652961 101.36219596011506 0 101.36219596011506 -52.891490477864863 0 0 0 0 26.002697342028455 48.065689061506419 0 48.065689061506419 -64.676653470312885 0 0 0 0 165.17336836671984 402.83815286001027 0 402.83815286001027 9.8420783845213009 0 0 0 0 -29.662734776238722 143.90958189837238 0 143.90958189837238 -362.96366997523364 0 0 0 0 228.65695572671939 270.34903267022582 0 270.34903267022582 -74.155716627516085 0 0 0 0 4.4650683660139103 11.322667912026343 0 11.322667912026343 -44.950255384188701 0 0 0 0 -128.69715064628872 22.584604276351456 0 22.584604276351456 -6.5389793157301028 0 0 0 0 -92.69160194851105 338.10378169434171 0 338.10378169434171 -29.049460703630757 0 0 0 0 -3.3719446465464955 2.2367086804024225 0 2.2367086804024225 2.0019376474177335 0 0 0 0 -370.84568318471793 48.79684998436278 0 48.79684998436278 3.1479925024468685 0 0 0 0 2.9384513765325595 1.3507868338244471 0 1.3507868338244471 -0.88366717609982715 0 0 0 0 -304.91748238803166 325.65255887092871 0 325.65255887092871 -28.110592787546921 0 0 0 0 28.52237001483536 104.8069555128568 0 104.8069555128568 -380.62344176436454 0 0 0 0 23.357574016004833 89.019191689662875 0 89.019191689662875 209.51171414589044 0 0 0 0 15.258599806721138 6.4347108153651469 0 6.4347108153651469 -0.047782580890213922 0 0 0 0 37.595411151497274 12.177498242378533 0 12.177498242378533 -3.7212795432733401 0 0 0 0 -33.585288362236753 126.07291971955226 0 126.07291971955226 -276.74874685134819 0 0 0 0 -23.663473850218679 -5.1945845616282895 0 -5.1945845616282895 -236.80466363081177 0 0 0 0 -190.62860705825233 16.876140218778346 0 16.876140218778346 -76.539428511983715 0 0 0 0 81.885620547341659 43.818524528192938 0 43.818524528192938 -136.41401041904646 0 0 0 0 99.2603341186541 -11.284622021878022 0 -11.284622021878022 -107.37139128236777 0 0 0 0 -18.47723487915755 -45.208816364869563 0 -45.208816364869563 -50.900493802664641 0 0 0 0 -69.539440732439289 -57.565052590674895 0 -57.565052590674895 -90.711662633613741 0 0 0 0 -27.601047757081034 24.095999161223062 0 24.095999161223062 -168.96842772352829 0 0 0 0 -74.597644683622093 -92.421213693478421 0 -92.421213693478421 -238.10906941288704 0 0 0 0 -14.990082530021027 -26.691781803251615 0 -26.691781803251615 -189.23175918934885 0 0 0 0 10.86065947439428 3.5643830214684726 0 3.5643830214684726 0.11987168027041051 0 0 0 0 54.748828228906774 -54.674898814541507 0 -54.674898814541507 1.3165884849240683 0 0 0 0 111.43521876312889 291.40874307915055 0 291.40874307915055 -425.34391232255621 0 0 0 0 -84.535366639372114 66.895400283332492 0 66.895400283332492 -158.65343754705827 0 0 0 0 892.28837099471161 154.92588121633162 0 154.92588121633162 -262.75275895135837 0 0 0 0 -248.57928957500076 -133.61231062353795 0 -133.61231062353795 -55.119987374808261 0 0 0 0 1.2194569415485974 -2.7942561053018906 0 -2.7942561053018906 0.96198905119233302 0 0 0 0 151.29026853989853 -129.13428868524534 0 -129.13428868524534 -21.779541394653279 0 0 0 0 110.23630251566374 406.21922832475457 0 406.21922832475457 -84.814583752613544 0 0 0 0 160.25155186253005 -159.36132453803611 0 -159.36132453803611 23.392896415803989 0 0 0 0 2.4101777557606381 -5.9937157666143293 0 -5.9937157666143293 7.7191727863309154 0 0 0 0 965.89242005193864 -16.304222041104367 0 -16.304222041104367 -367.19568438550778 0 0 0 0 -45.474733776463836 -38.059031335165855 0 -38.059031335165855 46.680817298147304 0 0 0 0 500.38378427698171 -124.98997097188476 0 -124.98997097188476 -42.033290434697847 0 0 0 0 2.4003874196429509 -15.870033370261783 0 -15.870033370261783 19.153215659386944 0 0 0 0 -207.57170175040073 -384.94697403015562 0 -384.94697403015562 73.591374500490929 0 0 0 0 145.29016246159426 -395.35803800813483 0 -395.35803800813483 -90.44863388390695 0 0 0 0 19.737861764573609 -24.300390640510159 0 -24.300390640510159 -35.469112747661711 0 0 0 0 -15.567119847376034 -22.064244096511175 0 -22.064244096511175 -1.8411712991292006 0 0 0 0 11.684385095526522 -101.08770082638421 0 -101.08770082638421 21.58122818142067 0 0 0 0 -0.1536889763825604 -16.546837968550115 0 -16.546837968550115 -24.395944914222405 0 0 0 0 -3.207260904992836 -13.972924240098109 0 -13.972924240098109 14.945598760429391 0 0 0 0 -2.2599052726202249 -13.934557808079404 0 -13.934557808079404 -31.108000696278282 0 0 0 0 52.776316196685571 -137.68010958921309 0 -137.68010958921309 5.4439794124409673 0 0 0 0 14.318045114353481 -42.702142223162809 0 -42.702142223162809 -17.398247325087141 0 0 0 0 93.317750671203157 -38.988658263108846 0 -38.988658263108846 -50.294323925658318 0 0 0 0 -82.96290118262425 -72.526500540095981 0 -72.526500540095981 -4.2275786118752876 0 0 0 0 -153.95199576084633 -48.362576588544471 0 -48.362576588544471 0.24156410811497153 0 0 0 0 20.370983906744499 -47.831708294624377 0 -47.831708294624377 -126.72167044368689 0 0 0 0 15.094479761684454 -81.489449639947793 0 -81.489449639947793 -65.293354383145925 0 0 0 0 98.101244748917907 -63.570733243953327 0 -63.570733243953327 -43.51541945316103 0 0 0 0 1.1945854599353529 -7.2620460143715739 0 -7.2620460143715739 -13.299643086661263 0 0 0 0 1.692897635857662 -8.1468627646481764 0 -8.1468627646481764 -29.786293122146162 0 0 0 0 2.7508384239624273 -3.3091012273589335 0 -3.3091012273589335 -20.6248471333071 0 0 0 0 11.000867509050295 8.5027508013081388 0 8.5027508013081388 -20.583987164696737 0 0 0 0 23.331741838761886 5.373439920441399 0 5.373439920441399 -20.691047616768628 0 0 0 0 4.3728156345000038 3.2954214308985712 0 3.2954214308985712 -26.106513015086833 0 0 0 0 -5.1671284805547657 -42.803512313559622 0 -42.803512313559622 -26.474621261033462 0 0 0 0 -1.7418260334563671 -13.304693450406912 0 -13.304693450406912 -33.502320503765034 0 0 0 0 13.214252162746561 -18.352800424760972 0 -18.352800424760972 -4.3952564348110172 0 0 0 0 -0.420414469492707 -1.3903564887880506 0 -1.3903564887880506 -5.5228941762951891 0 0 0 0 -15.009744727689394 -26.597663843843293 0 -26.597663843843293 -53.718130651235697 0 0 0 0 -19.088590167487837 -25.411647399632784 0 -25.411647399632784 -0.43781515571754426 0 0 0 0 15.184400271605 -6.9065129993377923 0 -6.9065129993377923 -31.934484280420293 0 0 0 0 24.657943463457968 -28.16611874397131 0 -28.16611874397131 -32.66852670530352 0 0 0 0 -13.000028800856398 -22.581172225176488 0 -22.581172225176488 -38.235479635510274 0 0 0 0 -25.905395018507988 -9.1523403467899698 0 -9.1523403467899698 -36.926365807361435 0 0 0 0 -17.446352652666974 -17.239426483920397 0 -17.239426483920397 -32.555691788822514 0 0 0 0 96.797741307625586 39.561558182882436 0 39.561558182882436 2.4033923090028111 0 0 0 0 30.240971920675975 -149.7507730651414 0 -149.7507730651414 338.12379173722002 0 0 0 0 -48.386604961440987 -79.309554934705375 0 -79.309554934705375 367.51931517538105 0 0 0 0 -4.5126386483837324 1.7616026459935341 0 1.7616026459935341 10.56372474495592 0 0 0 0 -239.6205198889628 -229.9498226781725 0 -229.9498226781725 314.81021831278485 0 0 0 0 -6.687330055213125 -20.328264242535923 0 -20.328264242535923 -15.071260756504529 0 0 0 0 3.0582712973546222 -3.171680988436492 0 -3.171680988436492 -49.799786705356382 0 0 0 0 -9.6500033328979953 -3.9153812071690481 0 -3.9153812071690481 -28.59697752376087 0 0 0 0 -35.137421419813258 -2.1355869020699174 0 -2.1355869020699174 -29.336318207584554 0 0 0 0 -0.028567011519349692 7.8859353579318849 0 7.8859353579318849 -7.0023086600212991 0 0 0 0 -1.6621483627791609 -2.4061474439987691 0 -2.4061474439987691 -3.5319998649914623 0 0 0 0 2.8848825940537921 -19.210443462288822 0 -19.210443462288822 -18.652310248362483 0 0 0 0 -92.399399194754977 27.465315267515507 0 27.465315267515507 187.15267834969563 0 0 0 0 49.647516541277525 82.446235744046135 0 82.446235744046135 16.027103819033073 0 0 0 0 -1.8697914295354019 -1.56663615892937 0 -1.56663615892937 -3.8024599079297445 0 0 0 0 1.5408451990763545 -2.4918161185944925 0 -2.4918161185944925 -21.019846096922564 0 0 0 0 -24.898540624286369 -18.583861584913393 0 -18.583861584913393 -5.2644886972993845 0 0 0 0 -5.2069696569201369 -6.6136342267054715 0 -6.6136342267054715 -13.9505102066978 0 0 0 0 2.8612904367023475 -8.2107597861249815 0 -8.2107597861249815 -14.25958214365528 0 0 0 0 -0.029910782635722555 -2.5269948939914499 0 -2.5269948939914499 -16.697966298008559 0 0 0 0 3.774886493725262 -7.5065675517253112 0 -7.5065675517253112 -14.158268429979216 0 0 0 0 -9.9658764227563292 -26.945788581043615 0 -26.945788581043615 -22.691890827066118 0 0 0 0 -3.1325492189024811 -8.1000689008983855 0 -8.1000689008983855 -11.008431540550028 0 0 0 0 4.263172934288832 -7.0798173170769587 0 -7.0798173170769587 -13.855452577132382 0 0 0 0 3.5944383973941854 -7.6308683446986834 0 -7.6308683446986834 -13.821059281326598 0 0 0 0 -3.2770526893935612 -9.5385658133531699 0 -9.5385658133531699 -12.626156093887943 0 0 0 0 -6.07116985679174 -14.003520774990633 0 -14.003520774990633 -10.118333763763786 0 0 0 0 -0.61131225883036677 -4.3361402956943493 0 -4.3361402956943493 -4.619204169663135 0 0 0 0 -4.6130533497239616 -6.8576289135566029 0 -6.8576289135566029 -9.6002646880004434 0 0 0 0 0.14171655335778466 -3.4362802447923748 0 -3.4362802447923748 -11.650551765862872 0 0 0 0 -0.0019634036587513489 -1.3423415717552416 0 -1.3423415717552416 -6.2691870145208668 0 0 0 0 -2.7019934104152981 -4.7944212970978697 0 -4.7944212970978697 -12.045895014376583 0 0 0 0 0.57499606179513285 -2.8217609509411545 0 -2.8217609509411545 -12.516172814812165 0 0 0 0 -1.084556540037654 -4.8946026319448066 0 -4.8946026319448066 -8.2488788566980702 0 0 0 0 1.8913964925107223 -3.4710333796610939 0 -3.4710333796610939 -11.221893432666548 0 0 0 0 2.5520274692198939 -3.0042531703657005 0 -3.0042531703657005 -10.996033208473818 0 0 0 0 0.071056533077870299 -2.1104052449290265 0 -2.1104052449290265 -10.796948403383468 0 0 0 0 -7.8073637797978286 -5.0741430878915708 0 -5.0741430878915708 -8.6427568111321307 0 0 0 0 7.6422291759978922 -6.1046656497492222 0 -6.1046656497492222 -16.844529516849434 0 0 0 0 -0.53259331272423838 -1.0572840478205237 0 -1.0572840478205237 -1.2635406410653616 0 0 0 0 -11.289951086148994 -20.348590524852625 0 -20.348590524852625 -12.680919365535374 0 0 0 0 0.59473732788839162 0.23305457928815088 0 0.23305457928815088 -3.4910451815856192 0 0 0 0 -50.157792737122065 -31.844306187253096 0 -31.844306187253096 -29.257278947903615 0 0 0 0 3.8094633820209745 5.99112914244688 0 5.99112914244688 -27.752793465697323 0 0 0 0 -0.49344141053501273 -3.8174813182545506 0 -3.8174813182545506 -5.8094211965357943 0 0 0 0 -1.4063614382173297 19.055835154455053 0 19.055835154455053 -11.384401820680068 0 0 0 0 -0.83117417024595852 -2.4655619222066889 0 -2.4655619222066889 -6.6033069229088142 0 0 0 0 0.69190397186325603 2.2623646457023483 0 2.2623646457023483 -4.882598879353516 0 0 0 0 -0.27581788645974115 15.072634097152331 0 15.072634097152331 -1.6608216225649812 0 0 0 0 -0.010340719288834954 -1.3690384242528992 0 -1.3690384242528992 -7.1899399291745709 0 0 0 0 11.515816492095638 10.774970521160867 0 10.774970521160867 -10.217916177287407 0 0 0 0 1.4816682821744962 -5.2488698463421315 0 -5.2488698463421315 -21.91629743840258 0 0 0 0 -5.1978903341087559 -6.9513658171398447 0 -6.9513658171398447 -15.101367757466505 0 0 0 0 -4.0993220325639568 -5.3288763250130557 0 -5.3288763250130557 -15.714226630013783 0 0 0 0 -2.5671479092627578 -4.1563716854288941 0 -4.1563716854288941 -13.742838654041407 0 0 0 0 -0.67631038203316107 -3.8316805824062072 0 -3.8316805824062072 -19.219370966708389 0 0 0 0 13.78242837334124 13.308803503212403 0 13.308803503212403 -25.394225563199143 0 0 0 0 2.5781562617594318 3.1704825056913251 0 3.1704825056913251 -7.3330322046640504 0 0 0 0 1.133205599626292 1.7024996820958052 0 1.7024996820958052 -13.033319490787235 0 0 0 0 1.2539869936851704 3.510028270705984 0 3.510028270705984 -5.6718870178817724 0 0 0 0 17.043603612388235 3.2952507919690106 0 3.2952507919690106 -24.027640301181236 0 0 0 0 19.442047096111086 4.7018903574171418 0 4.7018903574171418 -24.280468534314423 0 0 0 0 32.099470304523265 12.989838522371429 0 12.989838522371429 -8.1274729102151468 0 0 0 0 2.1669533610472316 -0.60310230758508254 0 -0.60310230758508254 -14.33448468744605 0 0 0 0 4.7516568034463047 1.632470446710478 0 1.632470446710478 -21.417701339777153 0 0 0 0 23.330511502531863 5.688967751164455 0 5.688967751164455 -13.79406313013169 0 0 0 0 1.2790222235457644 -7.2516638101744491 0 -7.2516638101744491 -16.092905553752047 0 0 0 0 18.877278990767017 9.5998245204100385 0 9.5998245204100385 -46.439514801866608 0 0 0 0 4.6420175137804636 22.403934900514287 0 22.403934900514287 -29.164198088597914 0 0 0 0 28.163992805365965 13.292501067962803 0 13.292501067962803 -33.152187730236619 0 0 0 0 0.039157520904918953 2.282562352671448 0 2.282562352671448 -27.601895945357683 0 0 0 0 -0.1222025508759491 18.840630837064964 0 18.840630837064964 -34.235463212363356 0 0 0 0 -3.3116977322144976 13.729647721545916 0 13.729647721545916 -19.49029907014301 0 0 0 0 9.2664340565386425 37.452094539865357 0 37.452094539865357 -30.315604994171736 0 0 0 0 31.39056576171302 -11.934782771467553 0 -11.934782771467553 -27.924664756275888 0 0 0 0 0.39069923740124651 3.2793149076512123 0 3.2793149076512123 -5.3837642784741035 0 0 0 0 2.2846656093486786 -1.0179870353204024 0 -1.0179870353204024 -5.4115403208343196 0 0 0 0 25.782908525342748 15.422212830861099 0 15.422212830861099 -14.500112056659418 0 0 0 0 11.174031713398564 21.148693915389515 0 21.148693915389515 -47.812920459678864 0 0 0 0 3.928730067571415 0.78415967086775851 0 0.78415967086775851 -35.148930787380408 0 0 0 0 10.709264745822566 0.63392419222873286 0 0.63392419222873286 -30.692825560046913 0 0 0 0 4.3664173035582143 0.35795872031452092 0 0.35795872031452092 -19.916737697613911 0 0 0 0 22.056221486943286 4.4341998585805413 0 4.4341998585805413 -48.98162185032561 0 0 0 0 0.40407289080446601 2.0914883966542241 0 2.0914883966542241 -4.17566634024503 0 0 0 0 0.3174618475411991 3.4935178262118285 0 3.4935178262118285 -29.680812478591662 0 0 0 0 151.17413790239652 -11.003922391183551 0 -11.003922391183551 -64.267546684004174 0 0 0 0 110.18138987318162 -37.880380647368838 0 -37.880380647368838 -46.830893348684185 0 0 0 0 344.5667771938929 93.887472189006075 0 93.887472189006075 -77.124352755943846 0 0 0 0 4.1694672338833501 5.9393697680279924 0 5.9393697680279924 -24.059723409300936 0 0 0 0 37.884142910821083 31.311486030239394 0 31.311486030239394 3.1492917058385501 0 0 0 0 162.34186558246392 -128.3047913153232 0 -128.3047913153232 -93.487254824245611 0 0 0 0 1.4222215630914725 2.3827243216668741 0 2.3827243216668741 -26.983137513931936 0 0 0 0 -0.39486609812331608 11.930102791223362 0 11.930102791223362 1.4706267564051814 0 0 0 0 13.10254874487191 18.664854136230133 0 18.664854136230133 -121.99466870297329 0 0 0 0 -24.366932174720105 -36.59998405639908 0 -36.59998405639908 182.51260174544586 0 0 0 0 73.485308311911922 44.681371111550106 0 44.681371111550106 -327.18813748436514 0 0 0 0 50.256093986423636 29.086756856957436 0 29.086756856957436 -50.805987516447203 0 0 0 0 29.487568270612108 -6.2533246785678784 0 -6.2533246785678784 -60.040102987622959 0 0 0 0 -0.17389136416193851 0.35994969490518969 0 0.35994969490518969 -1.4614158253149014 0 0 0 0 1.1973913633892708 3.845137922133322 0 3.845137922133322 -31.508177033411044 0 0 0 0 44.274548432175152 -125.19825809990289 0 -125.19825809990289 -338.75157069449779 0 0 0 0 -53.475751275385903 67.657061073756267 0 67.657061073756267 13.235529631208919 0 0 0 0 55.377651549867039 38.445296542122378 0 38.445296542122378 -56.53343730555207 0 0 0 0 11.581531858573669 -44.349472965186578 0 -44.349472965186578 60.314347843239375 0 0 0 0 13.626153590535182 -48.31730270045955 0 -48.31730270045955 -59.612055304234673 0 0 0 0 -13.9040536496383 -13.820834116415426 0 -13.820834116415426 -16.174642402867903 0 0 0 0 1.8527127288023841 -40.985590746615344 0 -40.985590746615344 -91.045712000101048 0 0 0 0 -0.14722363197457766 0.64485493474192879 0 0.64485493474192879 -0.26021164788710394 0 0 0 0 0.093843901440459176 0.21087043471648315 0 0.21087043471648315 -0.4619333144659663 0 0 0 0 0.038077644256632813 22.359067543953643 0 22.359067543953643 25.859024480669177 0 0 0 0 21.828334995175652 11.346266335121982 0 11.346266335121982 -93.593232771119801 0 0 0 0 -22.488848140436211 -57.730282608164998 0 -57.730282608164998 -119.93826752792666 0 0 0 0 8.3750957658632643 1.1769308468647068 0 1.1769308468647068 -54.348213999724976 0 0 0 0 -2.5292505489165134 -2.1153080619886957 0 -2.1153080619886957 -4.0715220745242675 0 0 0 0 -32.089854142645322 -27.514340768018883 0 -27.514340768018883 39.007894709055108 0 0 0 0 -0.024252890251761177 -7.8419019504726748 0 -7.8419019504726748 -33.263836653932231 0 0 0 0 -4.7870728924430548 -9.5005037482787884 0 -9.5005037482787884 -29.140025340611828 0 0 0 0 -0.026311480437148857 -0.026800147756404158 0 -0.026800147756404158 0.36741878048276533 0 0 0 0 0.0032505195742393526 -20.064345063945439 0 -20.064345063945439 38.491217918439361 0 0 0 0 -50.080034467816404 49.446301872034383 0 49.446301872034383 -28.783814892674854 0 0 0 0 0.97285376828049119 1.0558005516629692 0 1.0558005516629692 -1.7661814277373225 0 0 0 0 -52.800825515643567 38.660534305316105 0 38.660534305316105 223.45618987712805 0 0 0 0 -273.75392815573161 126.55227489070239 0 126.55227489070239 282.33566299986524 0 0 0 0 38.783919228889545 -6.0719122315467757 0 -6.0719122315467757 -54.243419069171068 0 0 0 0 44.180155140811614 -169.90227471875551 0 -169.90227471875551 176.52102782077873 0 0 0 0 27.623597676612917 -10.809450772036143 0 -10.809450772036143 -53.520474323660892 0 0 0 0 -3.0106546567293129 -15.51646166964357 0 -15.51646166964357 -44.893453303220113 0 0 0 0 -1.2929945790735502 -53.133136884802298 0 -53.133136884802298 32.131157194948173 0 0 0 0 -19.325345756697118 -22.124498189919905 0 -22.124498189919905 -13.358187286710745 0 0 0 0 -14.087358654122429 -26.555949495119478 0 -26.555949495119478 -12.586022755190347 0 0 0 0 -11.782870185554202 -22.345909337003832 0 -22.345909337003832 -82.604455128777772 0 0 0 0 -23.05325143399034 -45.140349385573245 0 -45.140349385573245 -74.399971875391202 0 0 0 0 -16.834712323203348 -47.759415611526492 0 -47.759415611526492 -89.249782540244269 0 0 0 0 -2.0993795778074915 -1.2646351444016375 0 -1.2646351444016375 -6.983260695005896 0 0 0 0 3.1427448821954815 -0.4374986566286907 0 -0.4374986566286907 -8.0831429067180558 0 0 0 0 -26.226550411181506 -21.935493467623019 0 -21.935493467623019 -27.590828328007774 0 0 0 0 25.309719049346313 0.6065530588675756 0 0.6065530588675756 -80.072386974388792 0 0 0 0 -5.2216652895513516 -9.2182545973252239 0 -9.2182545973252239 4.7642763111625612 0 0 0 0 -38.411554906033416 -32.022418466436648 0 -32.022418466436648 -72.151358030761003 0 0 0 0 -7.7035800195851607 -9.2561947418380441 0 -9.2561947418380441 -95.659449313388905 0 0 0 0 2.4946758374301226 -31.015909959377495 0 -31.015909959377495 -76.665727463549047 0 0 0 0 6.4295371878983243 10.454230213360646 0 10.454230213360646 -11.4957161600144 0 0 0 0 44.418073406983922 3.1891994400284602 0 3.1891994400284602 -143.09177390420882 0 0 0 0 -13.413933767587878 -14.24887818640309 0 -14.24887818640309 -44.130065926781754 0 0 0 0 7.8761112126148305 -4.1729551228236232 0 -4.1729551228236232 -28.696980692759098 0 0 0 0 9.208344949400125 -0.30151640792547951 0 -0.30151640792547951 -24.480923791480791 0 0 0 0 4.1298273259343681 -4.0218374455850281 0 -4.0218374455850281 -3.1487127133705215 0 0 0 0 48.417373188509828 45.753691507510666 0 45.753691507510666 -81.752724505426158 0 0 0 0 16.584375404038383 -12.143634314299561 0 -12.143634314299561 -39.784813461148588 0 0 0 0 12.991394406247 -4.6518107780509723 0 -4.6518107780509723 -7.9825168546138983 0 0 0 0 14.146334284836485 -8.728287746955175 0 -8.728287746955175 -29.940660620519338 0 0 0 0 5.3856202977509611 -7.6303237829524733 0 -7.6303237829524733 -32.817246429745865 0 0 0 0 20.761335851108925 5.1782530135533307 0 5.1782530135533307 -24.494690983170585 0 0 0 0 -19.988984216205949 -19.214223270777438 0 -19.214223270777438 -32.655846815723635 0 0 0 0 -1.2954943731042565 -3.2914899788695351 0 -3.2914899788695351 -7.7278319917421285 0 0 0 0 2.1529289760028236 -17.948501746189415 0 -17.948501746189415 -39.954991436007731 0 0 0 0 5.4933278912615151 -12.048987155714713 0 -12.048987155714713 -29.890565121397231 0 0 0 0 -3.080739125844957 -6.0155427800054895 0 -6.0155427800054895 -33.781532815752144 0 0 0 0 -2.9827365524378382 -13.20856420145293 0 -13.20856420145293 -3.5285487411514929 0 0 0 0 0.78521489909132647 -1.0951863349339845 0 -1.0951863349339845 -15.284016775091857 0 0 0 0 0.071821782225512401 17.379377373054091 0 17.379377373054091 -46.883246014724136 0 0 0 0 5.4111527459352553 6.6446231747544147 0 6.6446231747544147 -22.068128880760355 0 0 0 0 -5.1460920024063315 13.534729512291399 0 13.534729512291399 -24.086948006982396 0 0 0 0 -5.1132409854711369 -5.4945933103263087 0 -5.4945933103263087 18.150942450869479 0 0 0 0 -5.1543466038967845 51.438202706098004 0 51.438202706098004 -75.064148311510507 0 0 0 0 0.12458596619813801 23.706982139983666 0 23.706982139983666 -99.335981063282816 0 0 0 0 1.1921814829294832 -32.539378696325002 0 -32.539378696325002 -224.82306335874455 0 0 0 0 -27.092672583266115 -148.18243563277429 0 -148.18243563277429 -237.98222890019997 0 0 0 0 -42.528192093985908 4.8546682207961567 0 4.8546682207961567 -33.523932693118695 0 0 0 0 -4.7286371397977591 9.1557018074826004 0 9.1557018074826004 -17.046429293810633 0 0 0 0 147.29388976666178 114.43884699132832 0 114.43884699132832 -61.581770247968961 0 0 0 0 -75.451114010818344 -108.44919433279938 0 -108.44919433279938 -125.09669535720604 0 0 0 0 10.630427698019957 -21.01736876072755 0 -21.01736876072755 41.197056032993714 0 0 0 0 -42.797997071268043 -91.217655890661263 0 -91.217655890661263 -403.8665330146323 0 0 0 0 6.9900354798855489 -147.15903014321793 0 -147.15903014321793 -399.26447852035926 0 0 0 0 -231.26688699487414 -504.67650777687595 0 -504.67650777687595 -910.8932920842858 0 0 0 0 -0.59763301526170687 12.369516485858185 0 12.369516485858185 -481.20451178821531 0 0 0 0 66.011398483242374 -184.55098923938203 0 -184.55098923938203 -834.49959323839721 0 0 0 0 0.88171079476153258 32.942552159148114 0 32.942552159148114 -249.3672768651013 0 0 0 0 83.094342229102196 -249.82048385442795 0 -249.82048385442795 -818.57082836378868 0 0 0 0 0.20014009288466866 0.39671803774188419 0 0.39671803774188419 -2.0192777510276585 0 0 0 0 0.027340872923312432 -0.045171136923816135 0 -0.045171136923816135 -0.27609286218734042 0 0 0 0 64.076756018409625 8.2988831133661733 0 8.2988831133661733 -918.87002630918869 0 0 0 0 52.600758981797071 -190.15484568102693 0 -190.15484568102693 -425.66975654909766 0 0 0 0 -145.06480626807988 206.20611151490812 0 206.20611151490812 -51.134708709112601 0 0 0 0 -45.868981647747731 25.99815298050089 0 25.99815298050089 -51.750064337422373 0 0 0 0 -28.215621074615491 -80.127730136038281 0 -80.127730136038281 98.514277282258263 0 0 0 0 0.012153541816664372 2.936362992756286 0 2.936362992756286 0.35681630412000231 0 0 0 0 6.2831615732984414 1.2427907781020622 0 1.2427907781020622 -0.65103436910430901 0 0 0 0 -0.28825575804106368 0.15803513807863823 0 0.15803513807863823 -0.83900613336629704 0 0 0 0 129.53110345144819 92.914997645199037 0 92.914997645199037 -96.137494758109824 0 0 0 0 -243.45030677559609 -338.14068869310586 0 -338.14068869310586 -539.5439888042165 0 0 0 0 -314.40020331688106 254.62573239630001 0 254.62573239630001 -573.74614860453585 0 0 0 0 -137.14934792353955 -144.55076434038347 0 -144.55076434038347 -111.9604020094157 0 0 0 0 -244.00174119142559 -693.33129000611734 0 -693.33129000611734 -1276.7519963330142 0 0 0 0 19.393281939731839 -225.12331842664071 0 -225.12331842664071 -1450.3179561950019 0 0 0 0 291.8550482707019 -69.556728843133897 0 -69.556728843133897 -1104.3105390392575 0 0 0 0 79.449660210264256 305.99311957620466 0 305.99311957620466 -886.99688326717296 0 0 0 0 48.646947049570713 357.08328113764946 0 357.08328113764946 -115.3717738225605 0 0 0 0 -2.2423579431519753 3.2989744759174329 0 3.2989744759174329 -6.4641132369123255 0 0 0 0 144.26550586686903 -163.58939626919891 0 -163.58939626919891 -107.4206895949514 0 0 0 0 -119.3968128688856 -130.49670986721685 0 -130.49670986721685 0.38710457963316003 0 0 0 0 -0.061621768153750034 3.0864434556203584 0 3.0864434556203584 1.2603777455244085 0 0 0 0 12.612884716961162 0.58202741152672388 0 0.58202741152672388 17.039703889149678 0 0 0 0 135.57697878830186 -100.54840192620759 0 -100.54840192620759 -371.73069725513778 0 0 0 0 -9.7323647922651908 18.717015558912067 0 18.717015558912067 -9.7514019220263606 0 0 0 0 22.675274717858201 -27.642421975804609 0 -27.642421975804609 -136.30305025301095 0 0 0 0 -41.888845489354821 -17.534118891288017 0 -17.534118891288017 -64.097376878406067 0 0 0 0 -213.42009201162546 -12.294697775687382 0 -12.294697775687382 464.99404014530592 0 0 0 0 -298.28775045868178 -939.96969798448504 0 -939.96969798448504 -455.65034689876484 0 0 0 0 375.0907407241757 -78.01736040013202 0 -78.01736040013202 -1598.2435808189839 0 0 0 0 132.24258750954868 9.663196628462174 0 9.663196628462174 -369.87308790753065 0 0 0 0 365.266631559708 -142.68463087106284 0 -142.68463087106284 -1001.4890155379326 0 0 0 0 309.18101797215604 17.81412659230773 0 17.81412659230773 -741.6515091229885 0 0 0 0 130.41051737349153 152.12686199013115 0 152.12686199013115 -474.9820992488967 0 0 0 0 275.81404286488942 184.07663182618853 0 184.07663182618853 -980.01554532034788 0 0 0 0 -294.51193809241522 341.53083319441612 0 341.53083319441612 -481.35959285405261 0 0 0 0 152.57305992884449 197.80213350749182 0 197.80213350749182 -699.05181118971814 0 0 0 0 89.339802287913699 493.82309450251705 0 493.82309450251705 -1340.09898643819 0 0 0 0 137.71416197272538 175.10638880669285 0 175.10638880669285 -693.36888092243316 0 0 0 0 -175.74625935315828 341.04944555805832 0 341.04944555805832 -161.49406212529721 0 0 0 0 22.144264784947609 131.7548114310157 0 131.7548114310157 -124.82779567450052 0 0 0 0 -68.320150507943708 -17.990695684869024 0 -17.990695684869024 67.332590734251426 0 0 0 0 331.18436036326966 -329.34459629961202 0 -329.34459629961202 220.7050058390887 0 0 0 0 13.328713510343091 -31.835356820635521 0 -31.835356820635521 -28.401849856143123 0 0 0 0 4.7915560670122783 -16.310982948438671 0 -16.310982948438671 -20.764455631674721 0 0 0 0 136.26379984421277 -220.85277193886384 0 -220.85277193886384 -357.08348658852628 0 0 0 0 -96.044547211266945 -135.62851010837039 0 -135.62851010837039 133.70700785988447 0 0 0 0 -9.2503535325392932 -388.02168932951099 0 -388.02168932951099 -641.13718098551544 0 0 0 0 -197.37203602523954 -600.58179349804232 0 -600.58179349804232 -104.81207765532599 0 0 0 0 -1.8701471757675492 -1.2358408318221663 0 -1.2358408318221663 -0.0060236887378621873 0 0 0 0 -59.423028792468813 -301.06827690543287 0 -301.06827690543287 234.75582937876607 0 0 0 0 -324.25955596849212 -485.91638999915631 0 -485.91638999915631 -774.02521912759403 0 0 0 0 3.2269468449956902 -3.8816447846107529 0 -3.8816447846107529 -20.156378594248594 0 0 0 0 -580.49249519066723 -774.16516786853026 0 -774.16516786853026 -929.50262694229605 0 0 0 0 24.32506708551864 -465.96259133509739 0 -465.96259133509739 -1673.7682026786642 0 0 0 0 19.509122044498326 -159.33782573487406 0 -159.33782573487406 -630.64143588631487 0 0 0 0 43.870436792626151 -510.77754692451708 0 -510.77754692451708 -968.36825080147901 0 0 0 0 23.566869960147258 -204.58164063408935 0 -204.58164063408935 -463.14109226910659 0 0 0 0 383.08636488764944 -105.75215435169775 0 -105.75215435169775 -673.90004776832939 0 0 0 0 174.86494070375193 -335.79936739975346 0 -335.79936739975346 -479.26889939881949 0 0 0 0 -241.16997031353031 965.74001828531414 0 965.74001828531414 -928.62448516526638 0 0 0 0 -467.35336349158752 605.44437745440518 0 605.44437745440518 493.97624463745342 0 0 0 0 -14.509839965432176 23.827749249464745 0 23.827749249464745 -12.805219979265068 0 0 0 0 -0.49423696800477046 31.77397253504023 0 31.77397253504023 -140.42688630457997 0 0 0 0 -1.1396311842765954 -15.18106036836798 0 -15.18106036836798 -149.49814590511596 0 0 0 0 0.67973776639092787 1.3842572009081664 0 1.3842572009081664 -1.1350395947172771 0 0 0 0 25.460347799839838 -1.0729448346355639 0 -1.0729448346355639 -213.32031471891969 0 0 0 0 7.1883752294802434 76.653571445527632 0 76.653571445527632 21.175860379929873 0 0 0 0 30.555079891056437 49.980129380438484 0 49.980129380438484 -201.21093930476127 0 0 0 0 9.6270357775422326 26.889756234795641 0 26.889756234795641 -65.714198814992415 0 0 0 0 23.127069179477985 79.015792722128026 0 79.015792722128026 -56.118239557989 0 0 0 0 24.440485814291151 10.887707819985735 0 10.887707819985735 -80.857290066156565 0 0 0 0 25.974752209538821 51.20709457169778 0 51.20709457169778 -58.364125603631692 0 0 0 0 42.381845631377928 47.76699640546758 0 47.76699640546758 -7.5412102163536474 0 0 0 0 32.945779217867937 29.723273846595475 0 29.723273846595475 -31.025587019257728 0 0 0 0 31.114098312233338 2.5163020663669613 0 2.5163020663669613 -86.328791416162858 0 0 0 0 46.210018381571672 1.1027086281610536 0 1.1027086281610536 -105.25911926581102 0 0 0 0 0.44295119095445701 1.7470824429179714 0 1.7470824429179714 -1.5161467955552794 0 0 0 0 51.383707114456001 14.281971711898223 0 14.281971711898223 -98.524183323572288 0 0 0 0 0.13603382501087413 2.0089931395913894 0 2.0089931395913894 -0.80959450324021631 0 0 0 0 -42.097230781037865 -8.8615109509901231 0 -8.8615109509901231 -36.260366370712291 0 0 0 0 11.835470011305006 -56.194428900340426 0 -56.194428900340426 -124.95602081427205 0 0 0 0 -37.001249222591582 -43.717998115724185 0 -43.717998115724185 -50.468590174092242 0 0 0 0 19.059434195144604 2.3699122945145064 0 2.3699122945145064 -51.440169279660608 0 0 0 0 9.2375608112565715 -42.183943151398125 0 -42.183943151398125 -68.433466808470257 0 0 0 0 36.542635329720724 15.045674452980165 0 15.045674452980165 -72.108606361314742 0 0 0 0 30.699641709519483 -45.423195357339864 0 -45.423195357339864 22.773651883551793 0 0 0 0 109.73366395931276 16.318241083721659 0 16.318241083721659 -73.259605136531718 0 0 0 0 95.792885068257149 -8.4373163091495371 0 -8.4373163091495371 -102.96947915774217 0 0 0 0 56.722518690451125 42.028717488745315 0 42.028717488745315 -47.645531171948278 0 0 0 0 0.78162798788643784 1.7618285666126781 0 1.7618285666126781 0.66066854877951542 0 0 0 0 11.517971783039911 -4.1891830759705044 0 -4.1891830759705044 -44.049325057454553 0 0 0 0 13.891390780232783 13.836520464747309 0 13.836520464747309 -60.452091845741961 0 0 0 0 27.099732780767681 -20.037638396079274 0 -20.037638396079274 -28.149554489520597 0 0 0 0 26.920018006151167 3.864185381846255 0 3.864185381846255 -42.845898260326067 0 0 0 0 26.360182158169664 -14.195375310038798 0 -14.195375310038798 -71.081010773916205 0 0 0 0 52.650528556080289 -38.398505301680871 0 -38.398505301680871 -119.49721495761332 0 0 0 0 37.308272921507523 -0.68259242199565051 0 -0.68259242199565051 -55.470015440469069 0 0 0 0 25.774426291751411 -19.010257223017106 0 -19.010257223017106 -111.94966474810462 0 0 0 0 8.5959009135884799 -56.853461727778267 0 -56.853461727778267 -130.63130305937375 0 0 0 0 14.766902101297319 22.780345811670486 0 22.780345811670486 -95.477929993070575 0 0 0 0 49.053012429762248 -51.819019929109345 0 -51.819019929109345 -66.207560425533302 0 0 0 0 -31.821721248443737 -27.545303878438972 0 -27.545303878438972 -171.67399384862802 0 0 0 0 -1.2514069695744183 4.5038368008390535 0 4.5038368008390535 -172.0530411880377 0 0 0 0 8.3783387842786397 -38.128443033574513 0 -38.128443033574513 -180.62904386921582 0 0 0 0 -25.64518342555948 -75.441336386640614 0 -75.441336386640614 -193.84086517224932 0 0 0 0 -21.751656265418205 -63.214163846516385 0 -63.214163846516385 -225.47687736250009 0 0 0 0 -38.774128419218869 -102.82027112542528 0 -102.82027112542528 -294.55443420190386 0 0 0 0 -46.523309663043619 -44.588752837647917 0 -44.588752837647917 -226.68412287937099 0 0 0 0 -59.907674774446605 -39.403383488046529 0 -39.403383488046529 -344.39269182071439 0 0 0 0 -56.677184290578225 -73.305843384805485 0 -73.305843384805485 -280.89356334643162 0 0 0 0 -80.347274041094352 7.1739036479975766 0 7.1739036479975766 -201.49796893359598 0 0 0 0 -26.557788357115896 -27.64458219395965 0 -27.64458219395965 -284.10918424613419 0 0 0 0 -22.378784193675529 -4.5522657652036287 0 -4.5522657652036287 -241.87636240166103 0 0 0 0 -39.657860167961871 16.60201739668446 0 16.60201739668446 -120.34399770869277 0 0 0 0 -25.235934291470585 0.041392810113393352 0 0.041392810113393352 -201.62206771398724 0 0 0 0 -8.0695394158410636 17.060432215776018 0 17.060432215776018 -132.93663214691696 0 0 0 0 -67.474600532610566 0.50034644563857 0 0.50034644563857 -131.19543903086742 0 0 0 0 -1.9047223602992744 35.479676775357802 0 35.479676775357802 -120.92355275926775 0 0 0 0 16.697877581230841 52.451355455697922 0 52.451355455697922 -96.626920841662923 0 0 0 0 -16.71090153948262 19.37591262868591 0 19.37591262868591 -96.241780619198835 0 0 0 0 -5.6632335877598052 31.857185582906823 0 31.857185582906823 -162.52677625270735 0 0 0 0 9.2149973465607218 44.056479705406673 0 44.056479705406673 -104.94662028850325 0 0 0 0 -6.1825609784605149 -12.430714435140544 0 -12.430714435140544 -125.52542954436285 0 0 0 0 13.493283827644518 74.801674496833584 0 74.801674496833584 -48.908891129936819 0 0 0 0 3.4863182969356785 66.959708426447833 0 66.959708426447833 -53.665018178478931 0 0 0 0 18.861505431509954 69.655043379448671 0 69.655043379448671 -64.077115504805988 0 0 0 0 -5.2662294596154879 16.765619501257788 0 16.765619501257788 -76.006504027998744 0 0 0 0 32.223812088568138 47.757605732082993 0 47.757605732082993 -64.871786989766406 0 0 0 0 -10.865108077306104 49.739324908487106 0 49.739324908487106 -64.023928751739732 0 0 0 0 -5.5378257925371654 22.841034579348197 0 22.841034579348197 -13.552640830890631 0 0 0 0 149.33455150793489 79.005531064158276 0 79.005531064158276 -158.52401920869124 0 0 0 0 8.2196841075510747 71.003454352181507 0 71.003454352181507 -6.8448303455370478 0 0 0 0 -28.673237118999168 -111.18239948042174 0 -111.18239948042174 -329.907230792478 0 0 0 0 -21.172264937746149 -65.725336344269181 0 -65.725336344269181 -175.68488295984571 0 0 0 0 -18.809456660897013 -6.0068347003070812 0 -6.0068347003070812 -70.9616776483781 0 0 0 0 34.693976966780042 -229.65252074260025 0 -229.65252074260025 -144.57676830897253 0 0 0 0 -214.5898742494918 -337.17723773747639 0 -337.17723773747639 -116.69864286336451 0 0 0 0 -43.857256711034097 -65.953541809407398 0 -65.953541809407398 -40.829138666536892 0 0 0 0 10.318755277170112 -20.999490631998924 0 -20.999490631998924 -198.98166695860709 0 0 0 0 7.203045098389989 17.980612330957022 0 17.980612330957022 -12.045934090172715 0 0 0 0 22.066716495720357 -73.511394557182939 0 -73.511394557182939 -261.46853844360521 0 0 0 0 68.767639665174102 -103.812593704336 0 -103.812593704336 -243.53053444705802 0 0 0 0 19.801021209840624 13.392367651014816 0 13.392367651014816 -9.9873736887719033 0 0 0 0 9.0343093087122845 7.7832278724535406 0 7.7832278724535406 -43.330629118179786 0 0 0 0 8.7250798165546257 73.789453649081224 0 73.789453649081224 41.273076718049197 0 0 0 0 0.4135611356332447 15.52555214786662 0 15.52555214786662 -35.950053453554574 0 0 0 0 -24.003659827522824 53.193494250188451 0 53.193494250188451 -54.977819326159079 0 0 0 0 -39.709719986839445 29.283558138542503 0 29.283558138542503 -47.490990293540108 0 0 0 0 -50.165472365832102 5.088285245010411 0 5.088285245010411 -64.842492824641226 0 0 0 0 -28.708404430088194 -51.841076667727975 0 -51.841076667727975 -140.18734151340868 0 0 0 0 2.0380621877811791 4.6530408775925025 0 4.6530408775925025 -82.815661805212585 0 0 0 0 43.948400849772952 43.297755999294168 0 43.297755999294168 22.546403761632973 0 0 0 0 -22.902833838398692 -18.826907449043574 0 -18.826907449043574 -18.594794657114107 0 0 0 0 96.11459515254046 -92.624394918722828 0 -92.624394918722828 -8.597216536734777 0 0 0 0 -29.843011630384353 8.9245114978748461 0 8.9245114978748461 46.312791187821858 0 0 0 0 7.9834887103934307 16.560991796159215 0 16.560991796159215 -64.135927331451057 0 0 0 0 -4.2093780856839658 46.079371847157745 0 46.079371847157745 72.260378981429312 0 0 0 0 -1.2126308637585339 -8.9648762632176613 0 -8.9648762632176613 64.29702708136756 0 0 0 0 43.087981528407909 -12.582575795800949 0 -12.582575795800949 30.304302349704813 0 0 0 0 29.582834125355909 6.601542848209867 0 6.601542848209867 -9.7616790205230188 0 0 0 0 23.177728075714185 -114.07151849110642 0 -114.07151849110642 -72.264313609553938 0 0 0 0 -30.446103993416077 -15.683972701145592 0 -15.683972701145592 -8.109223788721323 0 0 0 0 -42.731160700463079 20.693675331569466 0 20.693675331569466 -4.6727037484033644 0 0 0 0 -10.171551702591387 -6.9404009495974606 0 -6.9404009495974606 -6.0262468722021367 0 0 0 0 -7.0069413906831528 -3.3686474333614562 0 -3.3686474333614562 -0.90289618029665064 0 0 0 0 -31.78993525918122 -26.723346422491886 0 -26.723346422491886 -16.471205107225614 0 0 0 0 -24.445284866073052 -12.413969312125118 0 -12.413969312125118 -22.749030103252153 0 0 0 0 -1.4533246109303946 -2.907225158401161 0 -2.907225158401161 1.7087144567412906 0 0 0 0 0.63238551057667536 -0.70832057201316445 0 -0.70832057201316445 -0.33885764820011843 0 0 0 0 -4.9026475909503713 -7.2169154401996867 0 -7.2169154401996867 -6.1129128280219334 0 0 0 0 -23.962998460225208 -21.507722228830971 0 -21.507722228830971 -6.7003212439740309 0 0 0 0 -11.055731535459529 -14.0597468636591 0 -14.0597468636591 -8.7980230977876772 0 0 0 0 -0.99858225193909433 -2.4350392564423942 0 -2.4350392564423942 -2.5123780159488973 0 0 0 0 -0.1777811206120532 -11.96154038302484 0 -11.96154038302484 -11.950586366059724 0 0 0 0 14.035611249080283 -7.7962564906542156 0 -7.7962564906542156 -12.195063057344438 0 0 0 0 23.490705464941129 12.929478478632518 0 12.929478478632518 8.0485766603960656 0 0 0 0 -39.336335314645112 74.702835937421696 0 74.702835937421696 35.671687273927091 0 0 0 0 1.7526594300789071 -0.27091463993687093 0 -0.27091463993687093 0.96601671254546773 0 0 0 0 -0.2681787687454289 -70.657001187275455 0 -70.657001187275455 -46.349456390118576 0 0 0 0 -6.6709503487873008 -63.702087031000701 0 -63.702087031000701 -52.658227207459277 0 0 0 0 -0.13116013917657909 0.48874506096710135 0 0.48874506096710135 0.11926476228796901 0 0 0 0 -46.688388422515345 42.593449866461015 0 42.593449866461015 63.767249495669716 0 0 0 0 -69.827954766809853 -33.226177682270645 0 -33.226177682270645 62.122302323885776 0 0 0 0 11.842796746670501 23.148782247602867 0 23.148782247602867 -4.1187103902385047 0 0 0 0 -54.358422468141725 -16.574048013195352 0 -16.574048013195352 -3.8936927913600812 0 0 0 0 -31.040638267850227 -8.1866992762716109 0 -8.1866992762716109 -45.618077651863132 0 0 0 0 -59.61408721702719 -63.880809993701405 0 -63.880809993701405 -38.321739566982615 0 0 0 0 -26.722948925707897 -55.75724183429702 0 -55.75724183429702 -103.9621826949442 0 0 0 0 -10.376005297014672 -58.111526862574465 0 -58.111526862574465 -212.53371040499405 0 0 0 0 -35.491313643047761 -63.116210816053353 0 -63.116210816053353 117.61037466922244 0 0 0 0 -41.260139323381736 -36.539751247393724 0 -36.539751247393724 12.597003393057093 0 0 0 0 -44.324995487571869 -90.561605422280991 0 -90.561605422280991 6.9110659769003178 0 0 0 0 7.4976938590825739 -29.229679568114079 0 -29.229679568114079 -53.629324523448304 0 0 0 0 -35.185907900292477 -84.342121807577769 0 -84.342121807577769 -79.007574565075629 0 0 0 0 -76.095468206799524 -135.58781207760876 0 -135.58781207760876 -122.52306862541809 0 0 0 0 -25.819436582110939 -65.234048011336199 0 -65.234048011336199 -145.65485353191616 0 0 0 0 -38.258650952400785 -133.74980325202159 0 -133.74980325202159 -179.95936977891688 0 0 0 0 -96.694610966149412 -195.67913418648459 0 -195.67913418648459 -225.94150854990221 0 0 0 0 -88.479496274940175 -215.04366126554305 0 -215.04366126554305 -237.97413885286005 0 0 0 0 -156.10304258707583 -190.6244674598347 0 -190.6244674598347 -192.11326312445271 0 0 0 0 -64.055750198480382 35.942900115293014 0 35.942900115293014 -55.411389743282598 0 0 0 0 -206.50764957529213 -257.88692177775238 0 -257.88692177775238 -244.92071191936702 0 0 0 0 -2.1754624016217861 0.36877549609098281 0 0.36877549609098281 -0.36361193482936915 0 0 0 0 -245.28023361531314 -152.4415954013557 0 -152.4415954013557 -208.18925104275331 0 0 0 0 -146.24432794165295 -98.542725181045171 0 -98.542725181045171 -293.1801250295066 0 0 0 0 -150.59197426035735 -112.29076197286031 0 -112.29076197286031 -207.29531776389194 0 0 0 0 -82.577298089563556 -147.45921760983038 0 -147.45921760983038 -211.99906755419943 0 0 0 0 -114.88232740612511 -104.25580744522085 0 -104.25580744522085 -146.11894175065973 0 0 0 0 -59.814777795781083 -84.011198935555512 0 -84.011198935555512 -208.57611757804261 0 0 0 0 -84.529773538064774 -29.936713009784853 0 -29.936713009784853 -147.61662295321366 0 0 0 0 -93.942800848549268 -84.617694717366248 0 -84.617694717366248 -203.54600028754248 0 0 0 0 -99.761840286671941 -10.025830662912995 0 -10.025830662912995 -144.54025357676528 0 0 0 0 -28.227518927309575 -10.663638340538455 0 -10.663638340538455 -149.56263478114852 0 0 0 0 -89.00230566219517 -55.197765736825659 0 -55.197765736825659 -227.62442883355106 0 0 0 0 -47.194534964738978 -7.1442888360697907 0 -7.1442888360697907 -220.49538042483618 0 0 0 0 -168.36854319977283 -117.43456246190544 0 -117.43456246190544 -239.71957884373478 0 0 0 0 -93.078161995250412 -65.899286591315104 0 -65.899286591315104 -246.19545538902094 0 0 0 0 -157.39177406692443 -120.48589890321347 0 -120.48589890321347 -252.8678716338145 0 0 0 0 -168.5516555999784 15.943150771643559 0 15.943150771643559 -291.22364966870373 0 0 0 0 -144.70114997766086 12.575859406168092 0 12.575859406168092 -494.39979558654886 0 0 0 0 -94.354506588342701 -78.26814054778697 0 -78.26814054778697 -333.20638911016886 0 0 0 0 -405.42935150251378 -54.337654491944704 0 -54.337654491944704 -269.08409637491059 0 0 0 0 -1.8251463627754276 1.4354612492262362 0 1.4354612492262362 -1.1006689118549389 0 0 0 0 -223.47211681712724 -207.6505344405814 0 -207.6505344405814 -236.03086647190048 0 0 0 0 -10.167050529562403 135.2015050291684 0 135.2015050291684 -504.35741583114486 0 0 0 0 -123.75090600132964 3.3924537075765784 0 3.3924537075765784 -68.754779085473274 0 0 0 0 -118.39983152168001 -220.26706886474787 0 -220.26706886474787 -288.23561069673451 0 0 0 0 -161.96505356788475 -180.44802928941681 0 -180.44802928941681 -324.32483757203772 0 0 0 0 -1.3850798513482054 -1.5903745529306619 0 -1.5903745529306619 -2.5776694828497284 0 0 0 0 13.805178982028679 -329.72579384981577 0 -329.72579384981577 45.082102603755629 0 0 0 0 -54.987781413732591 365.60164337744936 0 365.60164337744936 -837.34760373986046 0 0 0 0 -37.295390221510388 184.44196838750747 0 184.44196838750747 -370.65636613810057 0 0 0 0 69.004344638578914 126.06275107192778 0 126.06275107192778 -579.87932582143912 0 0 0 0 25.435895463965721 -83.954767941600153 0 -83.954767941600153 -521.60835041621249 0 0 0 0 -323.18300883344637 -117.94685888323511 0 -117.94685888323511 -686.70648044815971 0 0 0 0 -268.40914073190652 -14.060239772051318 0 -14.060239772051318 -529.51071171220974 0 0 0 0 -89.198415897812083 -85.948860565011273 0 -85.948860565011273 -598.3531347198641 0 0 0 0 -48.944796698114942 -179.84414435204508 0 -179.84414435204508 -346.0810414969892 0 0 0 0 -25.027200523792089 -157.61447467599828 0 -157.61447467599828 -565.96491416459321 0 0 0 0 -163.6870552837554 -123.11591623985805 0 -123.11591623985805 -446.26986493930599 0 0 0 0 12.180833675176473 -356.63047128590733 0 -356.63047128590733 -386.41536438627372 0 0 0 0 39.627643241058649 -70.234791464481532 0 -70.234791464481532 -231.27841624474604 0 0 0 0 -41.497238238609953 -110.0299502857788 0 -110.0299502857788 -126.56725187039774 0 0 0 0 -104.26465216447423 -226.18412018248273 0 -226.18412018248273 -309.3866021042013 0 0 0 0 -28.37982980785182 -83.359119412667496 0 -83.359119412667496 -211.40980338423833 0 0 0 0 4.4460287727060859 -37.841025480473036 0 -37.841025480473036 -291.94724126320943 0 0 0 0 -40.344003401018199 69.941095444757593 0 69.941095444757593 -44.909202705177449 0 0 0 0 7.3029155781605368 -0.19984267282234214 0 -0.19984267282234214 -83.575199053939286 0 0 0 0 151.25319338072768 4.437928476898378 0 4.437928476898378 -114.36093556426567 0 0 0 0 184.14283959815839 28.426721610907407 0 28.426721610907407 24.521806465912846 0 0 0 0 39.18598491511284 -62.444395695165895 0 -62.444395695165895 -27.081727880547987 0 0 0 0 -29.19958668291838 -33.602859331129366 0 -33.602859331129366 -295.24423799529268 0 0 0 0 151.71821186223247 -104.81439308617428 0 -104.81439308617428 -31.033189066234627 0 0 0 0 -1.7184159300766666 -4.3683514151574343 0 -4.3683514151574343 -6.0262895808226347 0 0 0 0 41.503567277224647 12.951583609486988 0 12.951583609486988 -5.7139081161076319 0 0 0 0 139.10638879703038 -33.549379164920083 0 -33.549379164920083 -7.7674409712635679 0 0 0 0 144.56338485163155 8.5679720786997677 0 8.5679720786997677 -51.487460690826993 0 0 0 0 72.035102765075862 -17.998351347079733 0 -17.998351347079733 -19.307932133546274 0 0 0 0 28.335113483942223 -36.392123573628851 0 -36.392123573628851 -126.62088820077042 0 0 0 0 123.08816699534873 103.32935567649838 0 103.32935567649838 53.846351318214147 0 0 0 0 1.809082646741814 0.41657655365008139 0 0.41657655365008139 -1.1856171267793485 0 0 0 0 65.489051756679402 31.558357514522186 0 31.558357514522186 -17.11449204415112 0 0 0 0 59.789628657581488 13.730086299940012 0 13.730086299940012 -27.390375996343209 0 0 0 0 54.82329654437217 -15.22134291338989 0 -15.22134291338989 -44.823061040791799 0 0 0 0 84.329594276628086 12.703855637650122 0 12.703855637650122 -61.068665650527691 0 0 0 0 42.408323939354887 0.96716331253628596 0 0.96716331253628596 -63.659098242425898 0 0 0 0 62.63511592238865 27.560562134825886 0 27.560562134825886 -14.049901061178389 0 0 0 0 93.33970642616714 9.2788325520650687 0 9.2788325520650687 -72.399619426516438 0 0 0 0 70.260360390989717 45.129459712607058 0 45.129459712607058 -114.00115598161938 0 0 0 0 33.261351391442076 44.377546323892602 0 44.377546323892602 -111.09430579534273 0 0 0 0 4.1260302201826562 17.496922229362099 0 17.496922229362099 -88.681179272327427 0 0 0 0 46.772062972913773 10.789857620018665 0 10.789857620018665 -94.17265993791807 0 0 0 0 26.979513612061055 49.881576657597179 0 49.881576657597179 -152.16883838580497 0 0 0 0 67.981519544318871 18.586953803414872 0 18.586953803414872 -158.15661179564268 0 0 0 0 49.927964558051826 59.420139770862079 0 59.420139770862079 -123.3453214078836 0 0 0 0 46.309582339004919 70.149325640089955 0 70.149325640089955 -142.48468092194162 0 0 0 0 -0.3733084516240659 -0.29463445545527378 0 -0.29463445545527378 0.43550152357370564 0 0 0 0 -11.96343525147222 63.853963887933787 0 63.853963887933787 -142.81483853237569 0 0 0 0 98.283083330500403 -13.435956657206589 0 -13.435956657206589 -12.458739238078124 0 0 0 0 4.7484519574899196 11.083802196893885 0 11.083802196893885 -157.58222205529455 0 0 0 0 5.7936851095033042 1.243282732316132 0 1.243282732316132 -5.3607219994839284 0 0 0 0 -1.501973193376406 -3.0965862109183888 0 -3.0965862109183888 -3.9721910681762438 0 0 0 0 80.622202983400712 34.130709234064852 0 34.130709234064852 1.4578191040263846 0 0 0 0 80.107951668799615 -15.425933582877406 0 -15.425933582877406 -14.972741708101239 0 0 0 0 65.651502078623807 23.476657878002271 0 23.476657878002271 5.4142579479957931 0 0 0 0 3.062986668116686 -0.2487676788949571 0 -0.2487676788949571 -2.3601462499072028 0 0 0 0 29.539456629946386 -3.1307338329841627 0 -3.1307338329841627 -91.181684604627662 0 0 0 0 -13.438199546601027 24.835172436596622 0 24.835172436596622 -33.656276861747756 0 0 0 0 -2.0437531773914088 -10.663444530174274 0 -10.663444530174274 -22.821362623013556 0 0 0 0 48.716539739116342 -26.274736209237744 0 -26.274736209237744 -49.000517316145306 0 0 0 0 86.701073670473306 26.362774016117328 0 26.362774016117328 -53.132348778571213 0 0 0 0 85.561320651515416 -23.828710390040214 0 -23.828710390040214 -70.169916495466168 0 0 0 0 165.88630434095239 134.67824637631384 0 134.67824637631384 21.996841378157114 0 0 0 0 35.877833695019945 -3.2884659877072409 0 -3.2884659877072409 -27.348419917590945 0 0 0 0 4.6667605175602578 1.3216471172169619 0 1.3216471172169619 -3.959283900258896 0 0 0 0 65.441049699527866 -158.35290249599348 0 -158.35290249599348 -336.32588046000092 0 0 0 0 1.4796481114231028 -54.445376204394051 0 -54.445376204394051 -188.57977304141968 0 0 0 0 93.965954368403118 105.20562227503615 0 105.20562227503615 -220.38030272626565 0 0 0 0 12.908001013705871 118.7197621944797 0 118.7197621944797 -170.24839916028941 0 0 0 0 2.1404296798286815 0.6464874004145571 0 0.6464874004145571 -1.9997463868924683 0 0 0 0 115.34455344757089 268.32759029037879 0 268.32759029037879 149.71635848652659 0 0 0 0 102.75532276999468 -10.127974418335725 0 -10.127974418335725 -104.54623600764899 0 0 0 0 23.35689734240259 -17.356400992246563 0 -17.356400992246563 -79.711110166937942 0 0 0 0 53.71801515923562 -87.124292010716545 0 -87.124292010716545 -331.4294186755651 0 0 0 0 -50.340239288287648 -134.15206407473124 0 -134.15206407473124 -252.64941203388298 0 0 0 0 107.99617111939756 8.8304610711929854 0 8.8304610711929854 -155.63220469697262 0 0 0 0 23.632594744548442 -132.73090643872638 0 -132.73090643872638 -286.97872273218672 0 0 0 0 -37.373854162265047 -158.8069612289155 0 -158.8069612289155 -193.62917571167054 0 0 0 0 -2.9092337894762181 -208.4837052586563 0 -208.4837052586563 -353.91982821993588 0 0 0 0 -26.233119259516116 -195.51488079502451 0 -195.51488079502451 -366.4082232996152 0 0 0 0 -34.262314453072349 -219.11436249958388 0 -219.11436249958388 -360.16260331876765 0 0 0 0 -16.040195624292664 -218.37836645551943 0 -218.37836645551943 -315.90921177110704 0 0 0 0 48.073799080958906 -192.55110279569726 0 -192.55110279569726 -416.26065176772317 0 0 0 0 -1.857476045811481 -1.4993395925007036 0 -1.4993395925007036 -0.79314407353663796 0 0 0 0 -80.127534100540288 -265.81886285286964 0 -265.81886285286964 -130.75134161674305 0 0 0 0 -29.655219235990899 65.273677146949467 0 65.273677146949467 -389.73467029335006 0 0 0 0 -167.96993570317863 -198.78653763160401 0 -198.78653763160401 -326.78295321474434 0 0 0 0 -79.078344414188905 -203.18354441444899 0 -203.18354441444899 -486.13275272530245 0 0 0 0 -80.126343780908428 -126.42059317007443 0 -126.42059317007443 -372.12540228730177 0 0 0 0 -74.217080848942715 -174.5074658452686 0 -174.5074658452686 -320.54043619160711 0 0 0 0 -91.95191933174965 -207.11850856053388 0 -207.11850856053388 -361.64180152452536 0 0 0 0 -50.700433052345943 -147.92868040520989 0 -147.92868040520989 -402.50554093378378 0 0 0 0 -35.633258802469982 -106.71569039840597 0 -106.71569039840597 -289.80009296658318 0 0 0 0 -71.799862707861848 -171.36582242595978 0 -171.36582242595978 -330.55282861096566 0 0 0 0 -36.240649831421251 -129.6111636617461 0 -129.6111636617461 -277.62379455071641 0 0 0 0 -16.576277214343463 -91.871076116591212 0 -91.871076116591212 -227.30322207899735 0 0 0 0 -31.584148507767168 -99.614845772481203 0 -99.614845772481203 -177.59698098069214 0 0 0 0 -54.123780442842559 -168.09472235135649 0 -168.09472235135649 -263.90890020840743 0 0 0 0 -25.867677008255214 -167.0853425330024 0 -167.0853425330024 -282.67443678805284 0 0 0 0 -54.110860551454152 -124.14783739876839 0 -124.14783739876839 -275.90186440343678 0 0 0 0 -25.579941148400394 -166.41264329869773 0 -166.41264329869773 -343.01981116933348 0 0 0 0 91.105095952921175 -78.130695991911125 0 -78.130695991911125 -200.17687392815787 0 0 0 0 -47.194134572191331 -108.24115718866642 0 -108.24115718866642 -164.65136022526713 0 0 0 0 10.465670335956702 -90.883730713769182 0 -90.883730713769182 -210.0743610000718 0 0 0 0 1.4887947127292449 -61.728926355489875 0 -61.728926355489875 -156.85527586695389 0 0 0 0 45.82162728047274 -68.968155548784125 0 -68.968155548784125 -169.44174293624019 0 0 0 0 25.136115506253645 -70.51081254327255 0 -70.51081254327255 -130.72969718774766 0 0 0 0 34.425733026755921 -51.814202357076283 0 -51.814202357076283 -99.863690137066442 0 0 0 0 62.920914471699689 -33.151268641931892 0 -33.151268641931892 -62.550523443442216 0 0 0 0 -9.0691191573739616 -42.246901636101029 0 -42.246901636101029 -54.762875470820291 0 0 0 0 33.299843228870941 -7.722011727411882 0 -7.722011727411882 -49.498970313990867 0 0 0 0 -0.76981737379464166 -2.7034825136744693 0 -2.7034825136744693 -13.150743639783101 0 0 0 0 -330.61200350855211 -167.10582674678517 0 -167.10582674678517 -43.591358721885626 0 0 0 0 -109.00402657350287 -62.935389846650651 0 -62.935389846650651 -12.178448396112799 0 0 0 0 84.275781290251814 -144.05216554702929 0 -144.05216554702929 -194.31398922589869 0 0 0 0 7.712523607165167 -128.55585725606215 0 -128.55585725606215 -118.23818206316992 0 0 0 0 -45.635795301850862 -188.93648738130651 0 -188.93648738130651 -159.69799119074014 0 0 0 0 41.813421588577057 -190.23517395447925 0 -190.23517395447925 -162.47261093192719 0 0 0 0 297.61708018482682 -126.7810356060927 0 -126.7810356060927 -280.9456062044992 0 0 0 0 90.089157876797117 -300.94850319399848 0 -300.94850319399848 -310.29906711525109 0 0 0 0 41.822998741290021 -182.94696068494341 0 -182.94696068494341 -223.10186166439962 0 0 0 0 885.34614769008363 -90.896298184234183 0 -90.896298184234183 -1457.5006680071237 0 0 0 0 -165.21075287549002 -339.62436524990335 0 -339.62436524990335 -197.36260310283978 0 0 0 0 -116.22581745152044 265.29736889255764 0 265.29736889255764 135.0296625844785 0 0 0 0 14.664145848202679 -81.936582974594785 0 -81.936582974594785 -120.00376875312577 0 0 0 0 -111.36210470762146 -59.958126606405131 0 -59.958126606405131 -73.510093857486936 0 0 0 0 -693.17483058122889 773.01542997738761 0 773.01542997738761 299.84039375142675 0 0 0 0 -1.5915343009300327 -5.6107910220721351 0 -5.6107910220721351 -14.696053359580276 0 0 0 0 -2.2019000088648526 -2.0087871749735129 0 -2.0087871749735129 -4.3155109404825787 0 0 0 0 -178.98062169874959 -30.483776244178443 0 -30.483776244178443 -73.222527606747462 0 0 0 0 -95.399100225323082 -258.67324287188603 0 -258.67324287188603 -401.08571323332581 0 0 0 0 -118.11062524661827 -301.79460858298989 0 -301.79460858298989 -462.04460501478752 0 0 0 0 -1.7107051706158056 1.039907749691281 0 1.039907749691281 0.11646245725346205 0 0 0 0 -78.962074459673431 -86.506808272864873 0 -86.506808272864873 -108.49639993139499 0 0 0 0 107.98792009517246 52.914389120705891 0 52.914389120705891 -6.2171022572692891 0 0 0 0 -116.71280521930112 -207.51712568988842 0 -207.51712568988842 -231.78816329323308 0 0 0 0 -132.97871448742876 -203.42125727502207 0 -203.42125727502207 -319.22527070827709 0 0 0 0 -164.5342021047959 -305.90951530974417 0 -305.90951530974417 -378.35097078625768 0 0 0 0 -146.99949798332273 -261.2667078500599 0 -261.2667078500599 -344.73286204577744 0 0 0 0 -146.5091363463643 -271.69302831401694 0 -271.69302831401694 -379.63052272253844 0 0 0 0 -61.459561218498521 -187.95530081335573 0 -187.95530081335573 -719.48825018262141 0 0 0 0 -61.919433088486869 -202.54145188357234 0 -202.54145188357234 -417.96747080019122 0 0 0 0 -40.964352774243252 -196.52123945010499 0 -196.52123945010499 -425.20957612994789 0 0 0 0 -20.935625188911217 -27.665334324017749 0 -27.665334324017749 -155.0716326769616 0 0 0 0 -28.488398054456979 -70.893437980257204 0 -70.893437980257204 -319.19168866815744 0 0 0 0 -177.37186111744154 81.845195995487302 0 81.845195995487302 -329.15670437379958 0 0 0 0 -114.54231672452357 -75.262570004826557 0 -75.262570004826557 -428.88133677580481 0 0 0 0 -56.412440111239675 -7.6337663303456793 0 -7.6337663303456793 -436.85781858645896 0 0 0 0 -74.942485111498627 46.549992595490039 0 46.549992595490039 -329.95306046713449 0 0 0 0 -94.064344700747824 69.776026342646219 0 69.776026342646219 -192.76884755637366 0 0 0 0 11.944624545242732 86.732982556968636 0 86.732982556968636 -285.52788806806257 0 0 0 0 -388.82443098436931 -52.537827075648238 0 -52.537827075648238 -297.92146565579242 0 0 0 0 -252.65698036094761 -63.854888636575197 0 -63.854888636575197 -300.1413777947273 0 0 0 0 -208.98629106202952 -32.631931413026905 0 -32.631931413026905 -346.43255097697329 0 0 0 0 -189.98840505835062 69.484979269775067 0 69.484979269775067 -305.57736121502239 0 0 0 0 -242.08447582722152 -87.030130633596855 0 -87.030130633596855 -523.8888424069055 0 0 0 0 -281.75227532622262 73.106095120183454 0 73.106095120183454 -494.48007799066545 0 0 0 0 -175.27931068385126 -170.55098952595836 0 -170.55098952595836 -533.40378099243389 0 0 0 0 -563.61808751718922 -303.75066429192964 0 -303.75066429192964 -558.68597543823125 0 0 0 0 -136.46624898911688 -363.86285151024276 0 -363.86285151024276 -998.58445021846637 0 0 0 0 -211.7228366373725 29.453419568097161 0 29.453419568097161 -534.44119422687072 0 0 0 0 -556.32919650406438 203.43769232181029 0 203.43769232181029 -791.98108526330907 0 0 0 0 -136.88260612049555 -345.86283564288533 0 -345.86283564288533 -450.3937008340763 0 0 0 0 -1.1578574826489756 -2.1379235791977607 0 -2.1379235791977607 -5.7204409671891199 0 0 0 0 -83.85220787087701 -18.246244915175339 0 -18.246244915175339 -148.33398439593293 0 0 0 0 -116.08259096207016 406.01962743728836 0 406.01962743728836 -768.4758686103014 0 0 0 0 -604.54275605866223 -421.29159111073932 0 -421.29159111073932 -145.39155251186457 0 0 0 0 -50.484195085229686 182.29213011212778 0 182.29213011212778 -428.03612804373552 0 0 0 0 28.602264635575281 4.9487171352866426 0 4.9487171352866426 -174.86287865160557 0 0 0 0 -87.689941850865097 43.239810937568109 0 43.239810937568109 -159.45512982373657 0 0 0 0 -3.0238513089331676 65.874058655885165 0 65.874058655885165 -274.02496158165377 0 0 0 0 26.33647405512297 -19.523711858822935 0 -19.523711858822935 -246.7495766583088 0 0 0 0 54.624263503925953 40.493067015353091 0 40.493067015353091 -449.14457187891094 0 0 0 0 55.213746130449699 -7.7013588233140524 0 -7.7013588233140524 -599.85017242770118 0 0 0 0 -21.114304914238602 -210.20154629448371 0 -210.20154629448371 -1063.6232544733302 0 0 0 0 19.353405006689144 -14.213787600630894 0 -14.213787600630894 -571.89968625941037 0 0 0 0 -172.7542358800755 -150.9197918946038 0 -150.9197918946038 -430.78701359662955 0 0 0 0 16.154214687136459 -111.98335329268593 0 -111.98335329268593 -631.49697215227934 0 0 0 0 30.243077606863807 -60.840628328575349 0 -60.840628328575349 -469.6998869585077 0 0 0 0 -67.355427944604472 -109.64232020925556 0 -109.64232020925556 -369.95061504399564 0 0 0 0 -41.550981901718991 -76.453710762718401 0 -76.453710762718401 -394.43910221611441 0 0 0 0 12.550392541385044 -64.964194091331592 0 -64.964194091331592 -391.48111578511543 0 0 0 0 22.19994848601408 -69.393119200833098 0 -69.393119200833098 -474.20816587718582 0 0 0 0 0.062479049497776391 -27.636969408174991 0 -27.636969408174991 -441.99686318704698 0 0 0 0 40.137617131116627 -13.493513454730419 0 -13.493513454730419 -440.58420482846122 0 0 0 0 40.483640033052936 -19.999227636530122 0 -19.999227636530122 -517.68532996220893 0 0 0 0 25.536813142441016 -10.971015667724714 0 -10.971015667724714 -410.92818894039556 0 0 0 0 23.097975584676675 8.4038197516092623 0 8.4038197516092623 -434.85956347396495 0 0 0 0 0.016065287096783176 -4.3372707096477825 0 -4.3372707096477825 -439.42854862307468 0 0 0 0 0.10443548501826581 0.48274536880059316 0 0.48274536880059316 -0.55681439209645944 0 0 0 0 -0.074535045666119154 13.319275829368053 0 13.319275829368053 -69.828507539736165 0 0 0 0 -29.556839336393697 -11.002914182412496 0 -11.002914182412496 35.277908129806747 0 0 0 0 3.1642457407886937 -54.530819743631582 0 -54.530819743631582 -177.16883309125842 0 0 0 0 -21.169023315312664 -6.7766472398989208 0 -6.7766472398989208 -80.764218593787518 0 0 0 0 1.8773113834492676 -47.136753675433283 0 -47.136753675433283 -209.28068996149523 0 0 0 0 -25.273465024143846 23.890525246363723 0 23.890525246363723 26.374681981484173 0 0 0 0 18.504271677489527 -11.511952061373449 0 -11.511952061373449 -80.434784476110508 0 0 0 0 0.86962664588014449 1.3922169361123053 0 1.3922169361123053 -0.25479760234110316 0 0 0 0 -3.7151089464465485 38.106161722371326 0 38.106161722371326 -16.344709364420851 0 0 0 0 -6.0595735328204796 -17.122186352509743 0 -17.122186352509743 -52.56976989445684 0 0 0 0 -84.154806997438641 40.583229000341817 0 40.583229000341817 -56.446024187047442 0 0 0 0 2.4384220358638933 -0.44421409865302053 0 -0.44421409865302053 -6.4216682552855815 0 0 0 0 25.770492674488082 15.326026883340091 0 15.326026883340091 -6.4185130957685033 0 0 0 0 69.061411246511284 6.1519000180633157 0 6.1519000180633157 -35.549029524107027 0 0 0 0 -0.4037162294747747 -6.5256890741519946 0 -6.5256890741519946 -22.288793445838536 0 0 0 0 52.047454398106964 29.990295705840254 0 29.990295705840254 -45.935408913792344 0 0 0 0 -67.53964977881509 5.286156208232569 0 5.286156208232569 21.676593214113382 0 0 0 0 -54.64786613406703 -106.48726083542056 0 -106.48726083542056 -188.18322268034535 0 0 0 0 -24.32295004176342 -19.369152440467587 0 -19.369152440467587 -49.656166816608675 0 0 0 0 12.80740435308158 -116.9973843297812 0 -116.9973843297812 -189.24155857931328 0 0 0 0 -43.866409777034875 -263.61605985640563 0 -263.61605985640563 -465.77163108376408 0 0 0 0 -164.29925289833881 -190.48014883415817 0 -190.48014883415817 -137.25635914495433 0 0 0 0 -289.27447266105696 421.67153851936928 0 421.67153851936928 225.35040202569508 0 0 0 0 -0.22720467313061024 -1.3212740138126904 0 -1.3212740138126904 -8.9348069482068695 0 0 0 0 -1.8431338182830939 -8.4144790688743889 0 -8.4144790688743889 -34.211009134940241 0 0 0 0 391.24737517324104 -362.67557203809338 0 -362.67557203809338 -988.81472715816199 0 0 0 0 -197.46324318995019 264.08622175812525 0 264.08622175812525 -82.090706315422722 0 0 0 0 124.98640316319032 58.829299729406557 0 58.829299729406557 -317.80887187663757 0 0 0 0 136.38489435826435 30.36904811863451 0 30.36904811863451 -740.20393649307516 0 0 0 0 -32.278954610145149 -42.464174305670895 0 -42.464174305670895 -50.098784039011662 0 0 0 0 0.12334896039688582 0.83055832049040745 0 0.83055832049040745 -1.3373790687818428 0 0 0 0 48.482244580160739 38.145756591598911 0 38.145756591598911 -147.98584350516467 0 0 0 0 -53.655957589749228 -113.8033826246301 0 -113.8033826246301 -278.57866412409203 0 0 0 0 0.042580610648211503 -84.160314528058237 0 -84.160314528058237 -409.15749446020345 0 0 0 0 -63.913737733152757 -2.7239779383271525 0 -2.7239779383271525 -205.56802049859107 0 0 0 0 53.614419454619906 -39.907957307492325 0 -39.907957307492325 -367.95191692285152 0 0 0 0 39.136762854563372 -15.870226755119802 0 -15.870226755119802 -361.16768212227907 0 0 0 0 39.05855923418008 -27.312642632699863 0 -27.312642632699863 -342.3557829202764 0 0 0 0 16.985198397286752 -72.142207789009262 0 -72.142207789009262 -203.83940650336626 0 0 0 0 76.874654116919885 -66.987523199364659 0 -66.987523199364659 -403.9941634338611 0 0 0 0 23.322474993992884 -110.60919722548715 0 -110.60919722548715 -356.0390941418882 0 0 0 0 71.035984431605755 -62.651795554033015 0 -62.651795554033015 -339.04522533567797 0 0 0 0 -3.3235394425205413 -7.0190243796894265 0 -7.0190243796894265 -97.710812031633395 0 0 0 0 -4.5434231495310087 -4.9277053671444264 0 -4.9277053671444264 -94.087351875557943 0 0 0 0 -5.1187695462649572 -3.3557269229131634 0 -3.3557269229131634 -90.802646493861175 0 0 0 0 -2.0872133469238179 -10.963120389946653 0 -10.963120389946653 -88.498121170980539 0 0 0 0 -7.4720930798339396 -4.2291716966524291 0 -4.2291716966524291 -93.049243846500758 0 0 0 0 -8.0421426548853105 -9.6663795015489598 0 -9.6663795015489598 -98.425736013638925 0 0 0 0 1.7693430882263783 -9.3548355615157561 0 -9.3548355615157561 41.344745469985355 0 0 0 0 -7.6601781630779442 23.34103190016458 0 23.34103190016458 68.158298351914254 0 0 0 0 -3.7577876600151185 -1.1760771585240928 0 -1.1760771585240928 1.0603609218054715 0 0 0 0 14.309223880132777 -2.9817051165755402 0 -2.9817051165755402 30.67667384144832 0 0 0 0 -1.2165653090560227 -0.6893181319454893 0 -0.6893181319454893 0.34999533671414795 0 0 0 0 -8.8838149673374573 33.052761315483622 0 33.052761315483622 103.96402944448664 0 0 0 0 -6.6392156667558098 -1.8592433662236552 0 -1.8592433662236552 -9.0946644421706644 0 0 0 0 0.63331853462841536 28.375501986426571 0 28.375501986426571 -113.70180974302093 0 0 0 0 14.387777111849573 -0.080789546925643663 0 -0.080789546925643663 -65.285403337889875 0 0 0 0 -32.309410537178337 -6.2917535532151305 0 -6.2917535532151305 83.797933486310285 0 0 0 0 2.4351627493927825 -1.7409330933165634 0 -1.7409330933165634 -56.899313123340555 0 0 0 0 -6.048743962921435 -3.9764935811199393 0 -3.9764935811199393 -81.690615155053536 0 0 0 0 -1.2007561953848302 -2.2903268519698479 0 -2.2903268519698479 -38.637015324546411 0 0 0 0 -10.296307373666423 -3.8509520954321488 0 -3.8509520954321488 -75.205046363989823 0 0 0 0 -8.3320658572192769 -2.9616161574504076 0 -2.9616161574504076 -79.257218720931633 0 0 0 0 -7.8654077001629048 -8.0852906652116872 0 -8.0852906652116872 -77.156471586568387 0 0 0 0 -10.107975394539608 -8.0624200515262601 0 -8.0624200515262601 -70.437771834627711 0 0 0 0 -5.0971049111940374 -4.773179390615951 0 -4.773179390615951 -81.033237885631024 0 0 0 0 -6.9913756722889957 -9.6826388407066588 0 -9.6826388407066588 -75.791167025165123 0 0 0 0 -5.0129257488842995 -10.048271448810738 0 -10.048271448810738 -84.222939604155272 0 0 0 0 -7.4563620053322666 -15.276212040948394 0 -15.276212040948394 -73.212586061769798 0 0 0 0 -4.7359993482623395 -10.330603260641055 0 -10.330603260641055 -84.187129050212206 0 0 0 0 -7.6812825367615005 -13.773702210284682 0 -13.773702210284682 -79.10301719672816 0 0 0 0 -4.1134420143662282 -17.964709138737817 0 -17.964709138737817 -84.55153798617448 0 0 0 0 -7.6764939288359528 -13.279590425857691 0 -13.279590425857691 -74.285409932273978 0 0 0 0 -1.9392963629207927 -19.592365518462238 0 -19.592365518462238 -57.807216495028044 0 0 0 0 -53.303172879937847 -123.40396432083708 0 -123.40396432083708 -61.274088856764138 0 0 0 0 5.8452721517569444 -41.946721380892996 0 -41.946721380892996 -87.029315150623006 0 0 0 0 34.030078254007094 -12.61943223801245 0 -12.61943223801245 -85.571117133302323 0 0 0 0 70.756909511781146 -17.765517675230512 0 -17.765517675230512 -175.68475411284453 0 0 0 0 4.3426215116851097 3.976666683205309 0 3.976666683205309 -18.235298481346 0 0 0 0 72.552338488349051 -70.093078173284425 0 -70.093078173284425 -40.630623938617646 0 0 0 0 -3.3923324651641451 -21.769351497590378 0 -21.769351497590378 -70.180764584277313 0 0 0 0 0.77546749196319809 -7.2520622948312834 0 -7.2520622948312834 -34.839269940877884 0 0 0 0 1.9363354806409916 8.5254755823261803 0 8.5254755823261803 -38.291167435218085 0 0 0 0 4.3830697667454572 -14.422359368030826 0 -14.422359368030826 -39.878494618220707 0 0 0 0 -6.4555104801027028 -13.954810239124356 0 -13.954810239124356 -71.114886146209301 0 0 0 0 0.58568056156582315 4.9602964134758167 0 4.9602964134758167 -15.626239391447371 0 0 0 0 -2.3620474537136147 -0.76090512437483548 0 -0.76090512437483548 -3.8934673155910655 0 0 0 0 -9.139699996377658 -16.280642262396782 0 -16.280642262396782 -71.991546310746344 0 0 0 0 -8.8033016544250131 -24.88610023268825 0 -24.88610023268825 -88.583643114149936 0 0 0 0 3.2450224664135021 2.8382337033249314 0 2.8382337033249314 -4.7412457061727764 0 0 0 0 -1.2447958533597117 -0.42557793031837532 0 -0.42557793031837532 0.99675650021039175 0 0 0 0 -18.702113425109928 3.2597646356816767 0 3.2597646356816767 -0.7747896505609333 0 0 0 0 -39.739029117681639 37.275561909220869 0 37.275561909220869 -14.260064376878631 0 0 0 0 8.9423758792590888 45.793490299222412 0 45.793490299222412 -83.040218328806986 0 0 0 0 -50.480950335386751 24.26522314140766 0 24.26522314140766 -41.032852360393008 0 0 0 0 8.994760547653641 -14.793872746215129 0 -14.793872746215129 -63.527851291571096 0 0 0 0 -9.0037660466578302 -10.46909060572921 0 -10.46909060572921 -121.26407783220884 0 0 0 0 -58.426105293292494 2.2415802531982081 0 2.2415802531982081 -99.723083863731517 0 0 0 0 12.30507699062855 10.28611938996778 0 10.28611938996778 -35.444183329442581 0 0 0 0 19.777096757279651 5.0171412857507676 0 5.0171412857507676 -37.285968615145066 0 0 0 0 2.7590267881200923 -5.2679436582712 0 -5.2679436582712 -24.258389965060836 0 0 0 0 22.347926596634352 19.689183788163064 0 19.689183788163064 -33.506184435583236 0 0 0 0 37.87482809393623 26.191596167877606 0 26.191596167877606 -50.756805772920416 0 0 0 0 14.577999361117691 5.1569382892739668 0 5.1569382892739668 -12.783168596106862 0 0 0 0 55.111964913131033 -9.9598748788213243 0 -9.9598748788213243 -33.095081084093181 0 0 0 0 3.1425696073437379 -4.9230529902523639 0 -4.9230529902523639 -23.536382352166633 0 0 0 0 -8.8298493793299713 16.010022895160773 0 16.010022895160773 -38.771262726437953 0 0 0 0 -24.110251795967088 18.119051912060428 0 18.119051912060428 -26.277563132065723 0 0 0 0 -15.765662938692913 8.7889002524054547 0 8.7889002524054547 -37.49654062446325 0 0 0 0 104.04753910680301 -55.80543013835063 0 -55.80543013835063 -47.092861695058673 0 0 0 0 3.6698173796711622 -4.4683667925118105 0 -4.4683667925118105 -21.944667212811368 0 0 0 0 -17.802082807275838 12.583024722788025 0 12.583024722788025 -16.584605035819663 0 0 0 0 -16.915615809257361 10.831037545538152 0 10.831037545538152 -32.176240536776902 0 0 0 0 -46.984448384997449 -41.547121038124715 0 -41.547121038124715 -124.23484638093669 0 0 0 0 -83.611910745496061 -30.705905166814773 0 -30.705905166814773 -50.389319566123049 0 0 0 0 -110.68188246991485 -89.480965457186358 0 -89.480965457186358 19.048924236019502 0 0 0 0 32.328172490475481 53.076348453736728 0 53.076348453736728 -40.942550559761912 0 0 0 0 -1.2333259775422789 -0.94204484041918057 0 -0.94204484041918057 -0.1929046053020339 0 0 0 0 3.0270059054200829 10.254933810846524 0 10.254933810846524 8.5403738032888157 0 0 0 0 -5.0643033596646099 -0.93334968949944486 0 -0.93334968949944486 -1.8140268338543022 0 0 0 0 -49.572603447210895 1.1005106671486828 0 1.1005106671486828 55.591952500840307 0 0 0 0 2.247416799859284 -2.1729227212769295 0 -2.1729227212769295 -19.468796413332015 0 0 0 0 43.998443690186832 -47.651749500301776 0 -47.651749500301776 26.139474882565537 0 0 0 0 27.559311706867902 -45.546144754443958 0 -45.546144754443958 -36.834462318548503 0 0 0 0 -43.547612341646527 2.9210016667821037 0 2.9210016667821037 -13.180804592309414 0 0 0 0 -3.0365483664202841 0.21655587802457532 0 0.21655587802457532 -4.6607860027311077 0 0 0 0 -14.637826259546273 -12.153289878795931 0 -12.153289878795931 -28.614269602025161 0 0 0 0 -18.245725846325513 1.199485600834123 0 1.199485600834123 -16.0440067583163 0 0 0 0 -22.089493939518434 6.4796930312940049 0 6.4796930312940049 -20.859416720644276 0 0 0 0 -23.744245951741505 8.87589338528403 0 8.87589338528403 -22.367292837199784 0 0 0 0 -16.064376248386907 8.5245939523549623 0 8.5245939523549623 -23.753632375056441 0 0 0 0 -76.427188513230249 11.433822025069276 0 11.433822025069276 81.261096485203325 0 0 0 0 -14.122782079238377 7.5646346682693082 0 7.5646346682693082 -5.0548528647652731 0 0 0 0 -10.99028279600488 7.2244791885531914 0 7.2244791885531914 -3.0811557836447649 0 0 0 0 -25.877990155852785 -5.8647312401622003 0 -5.8647312401622003 -21.763396812115388 0 0 0 0 -133.53847221597698 86.863286191156021 0 86.863286191156021 80.161402661935426 0 0 0 0 -53.894389039422094 57.324381194383477 0 57.324381194383477 -207.42588480516497 0 0 0 0 -1.372589038584465 -83.012850162715495 0 -83.012850162715495 -61.744342687949938 0 0 0 0 -214.43355797935939 -141.63630282165681 0 -141.63630282165681 -300.49061318770146 0 0 0 0 0.26961625575675363 -0.47572282675486477 0 -0.47572282675486477 -1.8868112385989377 0 0 0 0 -197.50318214847994 -14.887097446960979 0 -14.887097446960979 15.997190954571124 0 0 0 0 65.33206926415869 -104.70494322851141 0 -104.70494322851141 -321.62634951976543 0 0 0 0 -55.087748704405385 -68.004733974792089 0 -68.004733974792089 -32.831918469564471 0 0 0 0 35.224953578251188 7.9581359310968764 0 7.9581359310968764 -312.63382208140501 0 0 0 0 -121.13728720083964 -53.741459874856901 0 -53.741459874856901 -307.42757468834407 0 0 0 0 -130.11129364872772 14.387089056980074 0 14.387089056980074 -182.56937529916286 0 0 0 0 14.231106590032141 -20.591719386484328 0 -20.591719386484328 -287.77413150468965 0 0 0 0 16.61991143567468 6.9959114318723437 0 6.9959114318723437 -105.53035620125775 0 0 0 0 69.951246176260611 -1.9356326158977026 0 -1.9356326158977026 -118.56477803843882 0 0 0 0 -48.002737932265518 -100.06169743678765 0 -100.06169743678765 -72.231284228077129 0 0 0 0 56.282859520721104 -30.913284474423563 0 -30.913284474423563 -145.98618628234181 0 0 0 0 -138.62976098466152 -165.04489608368476 0 -165.04489608368476 -151.9804441298279 0 0 0 0 -63.355067027887344 -75.920770548538258 0 -75.920770548538258 -48.275350196008731 0 0 0 0 -42.17452532383686 -74.737433268110181 0 -74.737433268110181 -48.321499475748624 0 0 0 0 -34.32363564474872 -61.787042295969059 0 -61.787042295969059 -67.998910936003995 0 0 0 0 -40.438415011677762 -66.944286255084364 0 -66.944286255084364 -61.276793993289175 0 0 0 0 12.141497960912602 -80.137667032488025 0 -80.137667032488025 -70.045506696439588 0 0 0 0 -33.848200691282727 -79.881349232805405 0 -79.881349232805405 -86.199100515730606 0 0 0 0 -51.022134764947623 -78.942176703100358 0 -78.942176703100358 -62.226569078628017 0 0 0 0 -3.4974458833412712 -1.0468104510149905 0 -1.0468104510149905 1.1814315035986933 0 0 0 0 -18.442662669423271 -99.367667427836352 0 -99.367667427836352 -102.59478011230749 0 0 0 0 31.431685399540584 9.7583833641929232 0 9.7583833641929232 -39.127184431066325 0 0 0 0 38.987194759509293 -93.52296479981942 0 -93.52296479981942 -214.02713057686606 0 0 0 0 -5.7480746061464743 -19.429254952529845 0 -19.429254952529845 -141.48766783810424 0 0 0 0 11.502844846931112 -56.408788500814808 0 -56.408788500814808 -91.251412082545357 0 0 0 0 95.493539188693831 -22.58714546761621 0 -22.58714546761621 -80.374152437430894 0 0 0 0 4.1984879777028254 -56.041412959751597 0 -56.041412959751597 4.5058864483635261 0 0 0 0 47.764958000821935 16.406744950842949 0 16.406744950842949 -57.706490377460796 0 0 0 0 -16.149509857174962 -21.959664904272358 0 -21.959664904272358 -38.300800361495931 0 0 0 0 1.3243062639421641 -6.6394545474708302 0 -6.6394545474708302 -48.730797417954037 0 0 0 0 51.750145944828546 22.380956119471193 0 22.380956119471193 -51.189442442804648 0 0 0 0 -0.62356215458556541 -8.2600751884934276 0 -8.2600751884934276 -1.9324825267636214 0 0 0 0 67.444901509195461 -14.67041082745277 0 -14.67041082745277 -17.523773817061738 0 0 0 0 5.4653050677523467 0.62314911189545086 0 0.62314911189545086 -10.830397988812923 0 0 0 0 111.77108490406317 -99.803143654929954 0 -99.803143654929954 -1.7624690407501475 0 0 0 0 83.877270807297464 -48.499835827017705 0 -48.499835827017705 -42.34440540063315 0 0 0 0 141.83860371513219 -44.085659173580098 0 -44.085659173580098 -73.15401466450021 0 0 0 0 90.845560476047467 -13.795520201654654 0 -13.795520201654654 -97.061713030403553 0 0 0 0 55.152936168089582 -15.418231032681433 0 -15.418231032681433 -64.257128013794045 0 0 0 0 85.476963378333494 29.740258445261588 0 29.740258445261588 -87.561982210783754 0 0 0 0 61.164438531526685 42.188114622332705 0 42.188114622332705 -17.370145941738883 0 0 0 0 5.6729277134909353 -0.95227313454415707 0 -0.95227313454415707 -49.166581691496731 0 0 0 0 30.883320686512889 -6.8500475675778034 0 -6.8500475675778034 -49.987442807294428 0 0 0 0 15.256336760157865 -21.368422951711636 0 -21.368422951711636 -40.496410545227263 0 0 0 0 8.9567814453077972 -17.716669070954538 0 -17.716669070954538 -39.670696400844463 0 0 0 0 -4.3521403075719718 -21.060738874957678 0 -21.060738874957678 -323.19093131413774 0 0 0 0 -3.3193195937304409 1.0828955118282853 0 1.0828955118282853 -9.0542901112339997 0 0 0 0 5.3047968197861337 -8.57636279702092 0 -8.57636279702092 -51.168796153354208 0 0 0 0 -7.8443042781796066 -18.530846161619934 0 -18.530846161619934 -30.329490832524243 0 0 0 0 -6.5021021270203931 -18.649378240649078 0 -18.649378240649078 -24.803887699788717 0 0 0 0 -3.5496269288487383 -9.6011172951857588 0 -9.6011172951857588 -30.551226052268248 0 0 0 0 10.277872848491825 -21.061504799641625 0 -21.061504799641625 -45.927391268334759 0 0 0 0 12.403089075254684 -30.068135056219035 0 -30.068135056219035 -35.540373913987423 0 0 0 0 2.4600917450770794 -26.985353900479822 0 -26.985353900479822 -52.047593038578839 0 0 0 0 -5.0468992400722072 -34.183335445944238 0 -34.183335445944238 -31.932423668855336 0 0 0 0 23.217453641054817 -29.766012468897316 0 -29.766012468897316 -31.887628934267923 0 0 0 0 -2.4511372146262147 -34.209274363029181 0 -34.209274363029181 4.7485655811797187 0 0 0 0 2.8871950876673509 -32.939961064726958 0 -32.939961064726958 -13.910246156854555 0 0 0 0 45.340775965290959 -35.84296725702734 0 -35.84296725702734 -29.895719959849885 0 0 0 0 10.019738210355982 -6.0700221586847682 0 -6.0700221586847682 -7.503049471903779 0 0 0 0 -4.9713597903628397 16.229431769731491 0 16.229431769731491 -404.78006776432085 0 0 0 0 -12.390975446771577 -11.138297083035017 0 -11.138297083035017 -9.3098631897026607 0 0 0 0 53.554139042656971 52.361481202123286 0 52.361481202123286 16.785884877033823 0 0 0 0 39.327915393958392 -7.7890989636689483 0 -7.7890989636689483 -106.54635141124527 0 0 0 0 109.3849313041942 -482.78823265500023 0 -482.78823265500023 -446.27213142971959 0 0 0 0 266.45143838439617 -123.15697966608786 0 -123.15697966608786 -128.7544027713443 0 0 0 0 -332.45397620636504 41.867279810161563 0 41.867279810161563 150.85836566079706 0 0 0 0 231.56464313810102 -200.53258519582596 0 -200.53258519582596 2.7678750292852783 0 0 0 0 4.7451098004397281 -0.10947767092012839 0 -0.10947767092012839 -0.58422137561200316 0 0 0 0 16.749585087098239 -107.87602857835191 0 -107.87602857835191 176.90014395392973 0 0 0 0 107.89887153772952 -116.30999785686754 0 -116.30999785686754 -52.577526835255412 0 0 0 0 102.36569277845001 -96.107285253006921 0 -96.107285253006921 -78.241022809706919 0 0 0 0 88.947352996812697 -85.092554363336603 0 -85.092554363336603 -74.867965584648118 0 0 0 0 263.10844312375605 23.238552016917197 0 23.238552016917197 -104.89758989473921 0 0 0 0 -69.377709696893362 11.067200100256741 0 11.067200100256741 -69.462512860317474 0 0 0 0 116.10140786803822 -45.40078434212046 0 -45.40078434212046 -111.8008998677069 0 0 0 0 18.064848731057282 18.978386764301831 0 18.978386764301831 -112.75354323414277 0 0 0 0 98.651087265281603 -91.618137434477831 0 -91.618137434477831 -80.829096327590378 0 0 0 0 97.223774590467656 -84.552979270662036 0 -84.552979270662036 -85.97630472668061 0 0 0 0 37.90128501574145 -77.338719924879115 0 -77.338719924879115 -61.415106279095198 0 0 0 0 150.30357810063288 -98.366647903319972 0 -98.366647903319972 -90.097098465626914 0 0 0 0 113.66207841972209 -91.907089017789986 0 -91.907089017789986 -88.711087229887198 0 0 0 0 96.889121790936088 -87.090249527998139 0 -87.090249527998139 -79.156779856210051 0 0 0 0 85.023072283955116 -55.588643618844799 0 -55.588643618844799 -81.602177182710875 0 0 0 0 127.77139047823584 -58.147553244125447 0 -58.147553244125447 -96.061442018068192 0 0 0 0 112.87855158928869 -45.364234054035478 0 -45.364234054035478 -106.92961493135954 0 0 0 0 118.64765834510399 -20.51697174175797 0 -20.51697174175797 -86.701998035612633 0 0 0 0 97.099409065995133 -11.639236489943869 0 -11.639236489943869 -90.359414404534618 0 0 0 0 26.256771636883059 -10.143576960308565 0 -10.143576960308565 -62.209537563354388 0 0 0 0 52.069644733568566 -14.883278101086034 0 -14.883278101086034 -64.793720482120989 0 0 0 0 84.237685905183071 -42.243485592117281 0 -42.243485592117281 -69.091106116757146 0 0 0 0 54.580605160241248 -25.418796263209515 0 -25.418796263209515 -76.196468909292889 0 0 0 0 35.407566296875302 -33.075677643184463 0 -33.075677643184463 -65.849371684958896 0 0 0 0 35.380869798307685 -30.958499863030738 0 -30.958499863030738 -50.801956394607259 0 0 0 0 7.2304074762032542 -4.9972123194966116 0 -4.9972123194966116 -59.977677523391321 0 0 0 0 6.8518283947050804 -18.956151583954124 0 -18.956151583954124 -40.997103181376588 0 0 0 0 24.837435543216998 -23.506532701481774 0 -23.506532701481774 -54.092445018653962 0 0 0 0 33.738129215849767 -35.797565777402269 0 -35.797565777402269 -46.670530626288382 0 0 0 0 36.235604269517353 -56.543389019168899 0 -56.543389019168899 -31.977433228979862 0 0 0 0 26.672845212824541 -46.181374347892415 0 -46.181374347892415 -42.725445503921947 0 0 0 0 33.139480895304587 -91.110237342712935 0 -91.110237342712935 33.569234822456565 0 0 0 0 82.750171511084773 -81.722235154091322 0 -81.722235154091322 -72.270389433904711 0 0 0 0 88.03289006610612 -91.998868448577923 0 -91.998868448577923 -56.134739848923346 0 0 0 0 83.161903381544107 -64.156900133510135 0 -64.156900133510135 -71.537565581413219 0 0 0 0 64.542298597601985 -60.673877063010877 0 -60.673877063010877 -44.157611188278679 0 0 0 0 -5.1007839464964491 -37.031388670904562 0 -37.031388670904562 4.4025410768481379 0 0 0 0 -24.343356107230647 -54.276416467808303 0 -54.276416467808303 -0.37860352352072368 0 0 0 0 -40.811195783768198 -3.2851066867333429 0 -3.2851066867333429 -19.467586113094512 0 0 0 0 1.8211115368740138 -36.388006613116886 0 -36.388006613116886 -1.1383065540449024 0 0 0 0 -17.289612215121451 -30.881431024779886 0 -30.881431024779886 -22.72016713533958 0 0 0 0 -2.1061494328277064 -1.152809507950959 0 -1.152809507950959 -2.351984153910557 0 0 0 0 -14.479391197674886 -27.581523644270419 0 -27.581523644270419 -36.697039555325318 0 0 0 0 -28.300220037941472 0.30898002641697531 0 0.30898002641697531 -87.55291334766298 0 0 0 0 -1.9869451308248856 -2.8944366411233844 0 -2.8944366411233844 -3.8412715009606018 0 0 0 0 10.112474833636952 -17.003521431339323 0 -17.003521431339323 -38.924562024403713 0 0 0 0 -5.4822077537396012 -0.93069131708278974 0 -0.93069131708278974 -4.9987403783564872 0 0 0 0 -3.2471045131096616 -25.554810777131934 0 -25.554810777131934 7.0781854872443546 0 0 0 0 -8.8706012091533921 -10.888602402166725 0 -10.888602402166725 6.6396095431337017 0 0 0 0 -11.031040011777804 -7.5564739680885396 0 -7.5564739680885396 -10.47421092651166 0 0 0 0 -1.1979951786747458 -3.7786709815480588 0 -3.7786709815480588 -9.220139955071545 0 0 0 0 0.37138817493146092 -1.551061409900429 0 -1.551061409900429 -1.9153506493578618 0 0 0 0 -79.720417905501108 -143.70281715320198 0 -143.70281715320198 -135.17639139394305 0 0 0 0 42.060782027565438 0.11040192494692747 0 0.11040192494692747 -12.520696617662907 0 0 0 0 -0.71415052844774074 -1.2830666782317692 0 -1.2830666782317692 -8.3346484769402736 0 0 0 0 47.865361768534058 -42.860848209460528 0 -42.860848209460528 -11.098748803062335 0 0 0 0 -237.0239780882257 -167.29788750573061 0 -167.29788750573061 -52.95781902822273 0 0 0 0 -224.4388515716455 -309.38013935795607 0 -309.38013935795607 -170.59233266993033 0 0 0 0 -233.46272492451862 -315.18095516743597 0 -315.18095516743597 -173.28712026494577 0 0 0 0 -92.76295609085355 -206.38138630778485 0 -206.38138630778485 -243.93938638217878 0 0 0 0 -124.42492806186601 -128.37131743306418 0 -128.37131743306418 -34.292147810141614 0 0 0 0 12.877592428189701 -29.866673019561745 0 -29.866673019561745 -253.03112069538474 0 0 0 0 18.55652630923214 75.840331600393256 0 75.840331600393256 -51.962793755476014 0 0 0 0 -46.175783269891326 -17.814489737729673 0 -17.814489737729673 -288.93176729477636 0 0 0 0 -37.637264402015717 54.893377011043412 0 54.893377011043412 132.89582298494861 0 0 0 0 -52.296283153627883 -98.19188594406296 0 -98.19188594406296 -102.39931072014951 0 0 0 0 -326.69735921026768 -463.10839765792662 0 -463.10839765792662 -180.42993590228616 0 0 0 0 -8.0277894680957296 -2.9535700259508033 0 -2.9535700259508033 -0.50006606211940863 0 0 0 0 -250.87236293249225 -70.028356705784972 0 -70.028356705784972 0.17859284859014224 0 0 0 0 -94.272660105450541 -229.17588106916492 0 -229.17588106916492 -450.30989129067166 0 0 0 0 -251.26521587834395 -254.0603254546113 0 -254.0603254546113 -70.700700294048147 0 0 0 0 -443.81616535789908 -407.55759783034773 0 -407.55759783034773 -193.05922608736546 0 0 0 0 -130.71813979796207 -130.35323991342739 0 -130.35323991342739 -74.903047505438735 0 0 0 0 -70.159352550321273 -104.53451904420945 0 -104.53451904420945 -185.79262739713886 0 0 0 0 -113.015433571637 -72.338062740756868 0 -72.338062740756868 -102.29320237845786 0 0 0 0 -88.350749328132224 -49.245368288635291 0 -49.245368288635291 -253.33159530400144 0 0 0 0 -106.66484183074863 -151.46432184905279 0 -151.46432184905279 -428.54820454748005 0 0 0 0 -200.87340694874001 -225.66617615089126 0 -225.66617615089126 -195.41679732362627 0 0 0 0 -196.25556396701722 -229.69464911336036 0 -229.69464911336036 -197.2076824693504 0 0 0 0 71.106249710629072 66.065534793756342 0 66.065534793756342 -114.7188212994879 0 0 0 0 0.052302141374019229 -0.9859149477336846 0 -0.9859149477336846 -3.2558376134421678 0 0 0 0 -608.91364567034725 -349.29028592918257 0 -349.29028592918257 -141.48474790297951 0 0 0 0 -261.06906503873279 -359.5265629527039 0 -359.5265629527039 -405.74833370123815 0 0 0 0 -295.29828653640402 -85.406994827266317 0 -85.406994827266317 -175.76587346596716 0 0 0 0 -85.059353271448344 -206.13087683613503 0 -206.13087683613503 -228.22950381055853 0 0 0 0 -218.70934670151655 -341.57149645926438 0 -341.57149645926438 -353.82432993887915 0 0 0 0 -27.054206421604249 -31.350573465844718 0 -31.350573465844718 -95.858379733141192 0 0 0 0 40.911270740072723 -82.27235404334715 0 -82.27235404334715 -420.56847475174163 0 0 0 0 -9.6143640765512828 -22.129386722497657 0 -22.129386722497657 -96.964823281297868 0 0 0 0 -2.926290705836891 -74.126104756041059 0 -74.126104756041059 -135.13979522791851 0 0 0 0 -71.291416044779908 -226.26528385253187 0 -226.26528385253187 -409.78159493407111 0 0 0 0 -100.96586831120203 -223.63926991740391 0 -223.63926991740391 -232.67686113579475 0 0 0 0 -72.814681950671456 -65.826042154067181 0 -65.826042154067181 -178.52057755494388 0 0 0 0 -173.18598021457547 -213.39729971848647 0 -213.39729971848647 -194.88882840544647 0 0 0 0 -128.27722992168765 -73.551814847960486 0 -73.551814847960486 -2.4372304763637658 0 0 0 0 -37.575149009775487 34.770665850137448 0 34.770665850137448 14.283836173110103 0 0 0 0 -5.3393131538196243 0.22530366184842165 0 0.22530366184842165 -0.062926626186307288 0 0 0 0 -67.147159682700476 36.771872135398098 0 36.771872135398098 -12.841376953794679 0 0 0 0 -25.6833293580994 -119.07706353152116 0 -119.07706353152116 -120.54600729588674 0 0 0 0 -30.425590646620549 -10.990893680807858 0 -10.990893680807858 -55.176628171357152 0 0 0 0 4.3598334040761983 -11.982888624321276 0 -11.982888624321276 -177.11770046217134 0 0 0 0 36.348080754391958 3.3529134435411834 0 3.3529134435411834 -64.88060984873664 0 0 0 0 -5.0153229877628718 0.26175848471640251 0 0.26175848471640251 -0.039816446654034721 0 0 0 0 -67.913546384354049 -2.6399016770901653 0 -2.6399016770901653 60.827565329986101 0 0 0 0 -66.290719444776187 -62.868934374717355 0 -62.868934374717355 -45.411627840727306 0 0 0 0 32.88479677511441 -75.185538142867472 0 -75.185538142867472 -202.42577009183515 0 0 0 0 25.901108853137885 -99.127217538471541 0 -99.127217538471541 -239.69503144209011 0 0 0 0 -8.5541423526901781 -87.338404325791089 0 -87.338404325791089 -204.48088714119513 0 0 0 0 34.084482509104419 -104.44136784504371 0 -104.44136784504371 -243.40395380518748 0 0 0 0 -135.25663995205832 -133.1460167924597 0 -133.1460167924597 -189.9871151721909 0 0 0 0 9.2219866936266044 84.04974701935862 0 84.04974701935862 -142.02983329669223 0 0 0 0 -173.82464511891158 -167.04479088561857 0 -167.04479088561857 -134.6210324457752 0 0 0 0 -1.4271821642801754 1.0053781788523821 0 1.0053781788523821 -0.63128323523145369 0 0 0 0 50.578452510913849 -11.416619618537879 0 -11.416619618537879 -226.73131728286717 0 0 0 0 -0.086329488765841234 -45.747747843191974 0 -45.747747843191974 -93.656224475818817 0 0 0 0 -201.28430872439958 -69.918699570232093 0 -69.918699570232093 -90.212243436733843 0 0 0 0 10.859403207648938 -79.076347165722837 0 -79.076347165722837 -253.01556813275238 0 0 0 0 -3.4928391846710056 1.9529561935289337 0 1.9529561935289337 -1.0135592276402541 0 0 0 0 -107.26130373874003 78.552961779112593 0 78.552961779112593 -146.94194049559246 0 0 0 0 -50.473913772282685 -11.850379139850702 0 -11.850379139850702 -123.38618364985632 0 0 0 0 18.115858248793074 17.899945049039616 0 17.899945049039616 -112.14423335755419 0 0 0 0 393.77819562178047 -75.161741515214089 0 -75.161741515214089 -79.919270408977354 0 0 0 0 173.31189465959687 3.0278822170694184 0 3.0278822170694184 -160.73943130405314 0 0 0 0 162.24901329848944 -21.199280810305936 0 -21.199280810305936 -79.580916511935357 0 0 0 0 193.03423638976892 -15.028800954412873 0 -15.028800954412873 -85.281179853292997 0 0 0 0 213.54911453396198 -91.966683942137024 0 -91.966683942137024 -29.723601069552842 0 0 0 0 161.56856917029654 -33.948602849792223 0 -33.948602849792223 -35.663218547495489 0 0 0 0 106.72057856207539 -79.060796099802246 0 -79.060796099802246 14.291598309024266 0 0 0 0 5.1394479119353491 -7.2067081521338423 0 -7.2067081521338423 -24.732351182541606 0 0 0 0 1.4538906244837584 -5.0656777731875735 0 -5.0656777731875735 -25.93980883705833 0 0 0 0 196.29661210913764 -211.0948065190023 0 -211.0948065190023 158.92957509069674 0 0 0 0 1.2494328003387736 1.6640698648271055 0 1.6640698648271055 -5.2825629768899329 0 0 0 0 41.117128652669635 63.018823121703463 0 63.018823121703463 51.024316121860466 0 0 0 0 1.9538331775322177 2.384401558619281 0 2.384401558619281 -4.3172790335350442 0 0 0 0 -12.60080252971602 67.513336937656277 0 67.513336937656277 -142.78064212073514 0 0 0 0 425.6974377243605 81.344429274417053 0 81.344429274417053 -160.96348963561104 0 0 0 0 21.931459107072442 11.696701065411617 0 11.696701065411617 -88.26822914045124 0 0 0 0 5.007658507595302 8.255923802698824 0 8.255923802698824 -27.41138616419671 0 0 0 0 34.256487326641945 8.6297977384638216 0 8.6297977384638216 -95.744839862061781 0 0 0 0 79.448099268945953 11.255312480388966 0 11.255312480388966 -74.694304529039073 0 0 0 0 29.088767086443113 6.4195745073120634 0 6.4195745073120634 -72.365730141049426 0 0 0 0 82.029459009522725 108.22514161881418 0 108.22514161881418 -118.69353681871144 0 0 0 0 67.715088939883572 7.3985868902855145 0 7.3985868902855145 -103.08851831520951 0 0 0 0 202.03415057613165 -53.529311671147298 0 -53.529311671147298 -110.91549597949052 0 0 0 0 143.43630811755429 -1.8495087131304899 0 -1.8495087131304899 -124.86034220669535 0 0 0 0 153.59227778993954 -99.187948833819974 0 -99.187948833819974 -97.319609311030945 0 0 0 0 220.83121741552532 -99.025276111446146 0 -99.025276111446146 -97.363410072925035 0 0 0 0 204.95051916732336 -86.462029652902856 0 -86.462029652902856 -95.051386104722042 0 0 0 0 300.28565751160204 -23.273588791933435 0 -23.273588791933435 -121.94341201489078 0 0 0 0 149.73073847818523 -63.447762595264066 0 -63.447762595264066 156.12912802842766 0 0 0 0 468.45476693102682 -218.46750781503943 0 -218.46750781503943 -37.574261300043872 0 0 0 0 144.86794076708111 -34.190674728726663 0 -34.190674728726663 -16.491640298925631 0 0 0 0 159.84201476763155 -168.90774154120845 0 -168.90774154120845 -41.698378595683607 0 0 0 0 74.162348337500589 -123.85744568451992 0 -123.85744568451992 -51.602391996137158 0 0 0 0 -47.478727731178878 -12.244233166904451 0 -12.244233166904451 -47.086288183760189 0 0 0 0 -43.859180952093084 -110.14560602706479 0 -110.14560602706479 -23.56760216276416 0 0 0 0 73.03727035864722 -98.702886841852887 0 -98.702886841852887 -48.624845640657441 0 0 0 0 56.107781230017736 -32.505704418816094 0 -32.505704418816094 -43.143692438487051 0 0 0 0 -1.8368953191943547 0.5001326039453815 0 0.5001326039453815 -0.25476656274218357 0 0 0 0 -22.653527817605209 28.342162370449842 0 28.342162370449842 7.8718112850401667 0 0 0 0 20.029063248763123 -109.26536659102021 0 -109.26536659102021 -285.39889910182046 0 0 0 0 50.359658870424028 69.678302681975765 0 69.678302681975765 -143.87032600670955 0 0 0 0 93.514750179245311 -120.60096705386422 0 -120.60096705386422 -161.79868610376798 0 0 0 0 -95.365332762704384 -51.58439730603186 0 -51.58439730603186 -130.12987915730628 0 0 0 0 62.078984580944052 17.712072747853426 0 17.712072747853426 -136.81762593503663 0 0 0 0 70.68858934085074 -7.1778549207610922 0 -7.1778549207610922 -167.54444371645877 0 0 0 0 157.06814714866232 8.0233102133333887 0 8.0233102133333887 -184.7047718610138 0 0 0 0 46.316686808337181 -80.408871466237542 0 -80.408871466237542 -203.3570434921894 0 0 0 0 103.36361254525764 58.905733874937141 0 58.905733874937141 -89.362518449768686 0 0 0 0 123.03766371519851 20.30955110744253 0 20.30955110744253 -152.1773200757525 0 0 0 0 107.07253047223821 43.411971450475903 0 43.411971450475903 -137.64234135944207 0 0 0 0 114.74378598285148 22.08988695640619 0 22.08988695640619 -87.382097096578946 0 0 0 0 138.08262749794085 27.677095920680586 0 27.677095920680586 -139.00132674284328 0 0 0 0 130.70562667356899 21.571863916207803 0 21.571863916207803 -121.93646145306411 0 0 0 0 195.72782847491544 -5.4923434739284858 0 -5.4923434739284858 -133.63104887479494 0 0 0 0 73.849470739669243 57.646815688248239 0 57.646815688248239 -134.18660607348284 0 0 0 0 165.37406660019406 -0.85653928375177202 0 -0.85653928375177202 -99.662043253742013 0 0 0 0 -0.4935398156247901 -9.0810972887302785 0 -9.0810972887302785 -3.0213150330888823 0 0 0 0 174.56315041406015 -9.9163956032934948 0 -9.9163956032934948 -138.52540375066746 0 0 0 0 13.652550885119126 -1.7632387622215902 0 -1.7632387622215902 -78.755389647511038 0 0 0 0 72.945731674422859 -30.810739845921489 0 -30.810739845921489 -138.85162361908817 0 0 0 0 48.261962062455495 18.866821662300936 0 18.866821662300936 -34.504782302979947 0 0 0 0 26.624530451561441 -11.44732948629462 0 -11.44732948629462 -74.546234401605034 0 0 0 0 19.490810323666079 -2.578437472276363 0 -2.578437472276363 1.0667138808086136 0 0 0 0 28.492471787038085 2.1213609111837286 0 2.1213609111837286 -229.96471356680922 0 0 0 0 28.484386945237929 -16.210512206310341 0 -16.210512206310341 -172.26961905073404 0 0 0 0 35.368479820434004 -108.92982970617231 0 -108.92982970617231 -328.31077695581553 0 0 0 0 74.763826424479703 18.009967689913537 0 18.009967689913537 -87.652371530666301 0 0 0 0 75.689748332248996 31.068619272342858 0 31.068619272342858 -50.910604771292128 0 0 0 0 163.27268564321093 86.515759246260131 0 86.515759246260131 -111.69119370490716 0 0 0 0 86.418130037481205 28.902398982239902 0 28.902398982239902 -83.769415196638874 0 0 0 0 180.51109434728824 318.48297395018744 0 318.48297395018744 360.784499492549 0 0 0 0 3.7070109835352341 -0.035499829203168076 0 -0.035499829203168076 -0.61377855321363484 0 0 0 0 88.014833761828413 128.05473575653195 0 128.05473575653195 100.2407990333395 0 0 0 0 -31.979903359030232 -23.765554613632048 0 -23.765554613632048 -361.5320242263515 0 0 0 0 11.763119914798793 -0.29519986574993595 0 -0.29519986574993595 -1.6200629525819714 0 0 0 0 -220.1064553556389 -68.406428977272299 0 -68.406428977272299 -371.75178373725248 0 0 0 0 4.7944377199182782 190.91473125527773 0 190.91473125527773 -243.20009734277846 0 0 0 0 -15.749839358105419 -41.306452060753145 0 -41.306452060753145 -538.29717264968349 0 0 0 0 140.86234463892106 -64.774698200966668 0 -64.774698200966668 -539.42175976699036 0 0 0 0 219.48128655780692 -152.47100614125793 0 -152.47100614125793 -811.58277922795969 0 0 0 0 113.94268723062919 -145.82255103311195 0 -145.82255103311195 -193.07586824807004 0 0 0 0 4.4610002655590506 148.00955208594678 0 148.00955208594678 -12.141742509538744 0 0 0 0 -1.6517046228802528 1.8927555677987513 0 1.8927555677987513 -1.7165344910409743 0 0 0 0 -10.849832244033678 24.510835756860615 0 24.510835756860615 85.28648018574313 0 0 0 0 -17.321248357371587 123.75022238294514 0 123.75022238294514 -32.438183534432028 0 0 0 0 15.222481386361324 65.245199553224666 0 65.245199553224666 -33.480031583870129 0 0 0 0 -15.360948337987793 54.445031156938057 0 54.445031156938057 41.704105740325758 0 0 0 0 31.01748263706304 114.0098749820263 0 114.0098749820263 -268.97261366595194 0 0 0 0 27.96961721763364 99.322957748641784 0 99.322957748641784 -149.61748540790177 0 0 0 0 -2.9956518854914975 11.626777019995643 0 11.626777019995643 52.88434538536967 0 0 0 0 9.7442818097406416 62.005278573455143 0 62.005278573455143 -128.13853659331107 0 0 0 0 38.760331813131415 -0.76223785657930421 0 -0.76223785657930421 -199.67957687388662 0 0 0 0 -0.6191970997642251 0.079279993903099921 0 0.079279993903099921 -0.12944565841149114 0 0 0 0 76.372182342007363 77.285194508805944 0 77.285194508805944 -274.87214806789416 0 0 0 0 59.419679381492642 31.720084739696176 0 31.720084739696176 -221.62437641040015 0 0 0 0 32.531872681815003 68.350463054464853 0 68.350463054464853 -262.64523090960574 0 0 0 0 66.736708365705908 41.103701409183032 0 41.103701409183032 -302.56976092968034 0 0 0 0 104.82747319617374 47.644771284769377 0 47.644771284769377 -364.12131677685011 0 0 0 0 71.844383102728898 -31.739945706003709 0 -31.739945706003709 -550.8788940179802 0 0 0 0 66.037808090452927 197.70172379739597 0 197.70172379739597 -394.23258621907735 0 0 0 0 87.764099571132647 75.702361956316963 0 75.702361956316963 -310.05200864488506 0 0 0 0 57.60733203752784 190.16140860658015 0 190.16140860658015 -641.49926517853964 0 0 0 0 -464.89510606820295 138.73150448443994 0 138.73150448443994 -334.99910393705795 0 0 0 0 -166.84049706169208 358.14562668516919 0 358.14562668516919 -731.83346748572785 0 0 0 0 -17.77505456081235 -14.153461113335652 0 -14.153461113335652 -68.7289793952732 0 0 0 0 -32.776304590321161 -48.533445158805989 0 -48.533445158805989 -203.52094805805973 0 0 0 0 -195.50105903091207 -272.66868309714573 0 -272.66868309714573 -471.56601228352883 0 0 0 0 -9.5864352874014003 -90.356114136873657 0 -90.356114136873657 -140.23350185722302 0 0 0 0 57.009327029802989 -140.47126748687697 0 -140.47126748687697 -195.54464490666578 0 0 0 0 421.15917565166819 160.71446148315044 0 160.71446148315044 -462.89497252288311 0 0 0 0 273.83846735814041 94.420821240484656 0 94.420821240484656 -560.95772125658368 0 0 0 0 208.40052166223313 283.37958017449455 0 283.37958017449455 -288.85045340224315 0 0 0 0 46.084191414045563 160.42453487252533 0 160.42453487252533 76.094756202746794 0 0 0 0 -232.23333931735215 93.954666872568851 0 93.954666872568851 -80.729949398257304 0 0 0 0 -246.39960367456661 127.66884323455088 0 127.66884323455088 -122.87213814335882 0 0 0 0 -27.216381145735795 72.812618682670291 0 72.812618682670291 -113.62481775273955 0 0 0 0 15.534294772061912 -150.5836381500867 0 -150.5836381500867 -483.99030271981246 0 0 0 0 -0.85373373661968088 1.9689581424121059 0 1.9689581424121059 -6.6609943919386012 0 0 0 0 -855.89181978381384 184.41639263525576 0 184.41639263525576 -32.909447542155249 0 0 0 0 -1.3604141902673836 2.8440250844902515 0 2.8440250844902515 -19.845707138524602 0 0 0 0 -5.9139061078240047 11.497099166314001 0 11.497099166314001 -32.354222125173692 0 0 0 0 -387.29811097692436 12.986805636777717 0 12.986805636777717 -16.921997148390801 0 0 0 0 -3.1225610557386716 -2.3218295200018559 0 -2.3218295200018559 -11.964665309798022 0 0 0 0 43.54448512440058 17.728456836918213 0 17.728456836918213 -40.821659952402115 0 0 0 0 -44.86117218106665 43.009195779117363 0 43.009195779117363 -43.452970155252842 0 0 0 0 18.983866577431399 13.504063086355018 0 13.504063086355018 -59.47792718996061 0 0 0 0 15.184653984444594 -0.64680683280312223 0 -0.64680683280312223 -23.387615510066098 0 0 0 0 51.275915899232132 -12.371702467764408 0 -12.371702467764408 -45.131614774982154 0 0 0 0 56.441639692446188 9.0692373190013313 0 9.0692373190013313 -37.564885013183812 0 0 0 0 30.562877527039745 -15.140708839331637 0 -15.140708839331637 -48.738981770868122 0 0 0 0 6.4651236054887704 -24.037864172501941 0 -24.037864172501941 -32.52745293591579 0 0 0 0 3.5929561758599746 3.4090174990362101 0 3.4090174990362101 -10.534670004000318 0 0 0 0 -251.38870357763153 -8.7704147451659082 0 -8.7704147451659082 -69.02310708360892 0 0 0 0 -277.0956413666936 -124.95480577654962 0 -124.95480577654962 -79.979310538212303 0 0 0 0 -163.80179393219441 42.075401246598631 0 42.075401246598631 -162.22193029232221 0 0 0 0 -184.64472447150547 125.27416277217344 0 125.27416277217344 -37.164231737617229 0 0 0 0 -510.91262244958489 -27.183236402226612 0 -27.183236402226612 -69.722185576603806 0 0 0 0 -143.17568537042644 70.476879919343446 0 70.476879919343446 34.524938217840827 0 0 0 0 -1.1769241163651234 6.6414642399637103 0 6.6414642399637103 -47.067316662377763 0 0 0 0 -209.45394746773127 135.43779440645812 0 135.43779440645812 56.95682698530436 0 0 0 0 -20.551946710587799 -6.1100946651840786 0 -6.1100946651840786 -23.436959936356288 0 0 0 0 -160.43038109721783 128.23032422596953 0 128.23032422596953 122.13805374630101 0 0 0 0 -175.83607527725599 70.164883089408704 0 70.164883089408704 108.83717272659851 0 0 0 0 -32.173344900043958 19.570741506589911 0 19.570741506589911 178.82618553446082 0 0 0 0 -125.50057014455524 136.27731412520825 0 136.27731412520825 52.736042089469265 0 0 0 0 -147.06974737777273 96.123582986485417 0 96.123582986485417 81.354268521452468 0 0 0 0 -180.97401629269734 45.616604748038299 0 45.616604748038299 -8.7434779364266433 0 0 0 0 -117.23215291256565 95.953591875622806 0 95.953591875622806 -40.805671590955171 0 0 0 0 -261.69728494424271 7.7538766079633206 0 7.7538766079633206 -0.036210895734257065 0 0 0 0 -61.175414961246133 15.548493947375391 0 15.548493947375391 74.519141827811836 0 0 0 0 227.6949068119884 36.223482667042845 0 36.223482667042845 -26.779007127443037 0 0 0 0 -2.5907677967088425 3.7012308588104315 0 3.7012308588104315 -3.6283608713113296 0 0 0 0 2.0158340181660606 21.863738776590253 0 21.863738776590253 -24.860662281025725 0 0 0 0 46.090562222943845 143.7396623726936 0 143.7396623726936 -40.131393231429684 0 0 0 0 234.98811181677047 230.7680641627976 0 230.7680641627976 -12.653533375832922 0 0 0 0 106.98588901249911 18.26782426372813 0 18.26782426372813 95.397935199358471 0 0 0 0 107.2381783994224 34.852194792836599 0 34.852194792836599 -261.02323187456932 0 0 0 0 74.876641806289626 79.735693097869216 0 79.735693097869216 -314.36431935926885 0 0 0 0 87.54236921350639 26.198018191010078 0 26.198018191010078 -250.39507861544553 0 0 0 0 36.565373478515539 -12.741945674126328 0 -12.741945674126328 -278.39427209589121 0 0 0 0 1.7673735756270617 95.719429381904774 0 95.719429381904774 -183.51971532237349 0 0 0 0 29.676676804823728 29.148844161620218 0 29.148844161620218 -233.12353350345256 0 0 0 0 -116.86285528447115 191.43289022376484 0 191.43289022376484 -238.3089290797725 0 0 0 0 3.2355040807178739 60.929730336092689 0 60.929730336092689 -110.78544600430178 0 0 0 0 -53.384338319630842 121.85957639075241 0 121.85957639075241 -88.266770573194663 0 0 0 0 -136.44196027241242 -16.288339033538023 0 -16.288339033538023 -292.27067586684279 0 0 0 0 -2.1992941474682581 2.1555769407779906 0 2.1555769407779906 -0.90162926885906813 0 0 0 0 -95.509080284326046 175.05230625465174 0 175.05230625465174 109.75762746802229 0 0 0 0 31.032676627928595 80.213501720794739 0 80.213501720794739 -424.29995192159913 0 0 0 0 -94.928226683069397 162.6788094442764 0 162.6788094442764 -53.250945196421526 0 0 0 0 -1.8870036077205201 7.4346927106503262 0 7.4346927106503262 -63.973437143980362 0 0 0 0 111.83589771698462 98.910730218340177 0 98.910730218340177 -491.33458072901703 0 0 0 0 100.05662351958017 -32.967741012960687 0 -32.967741012960687 -100.83677670598991 0 0 0 0 33.938546195164918 104.69382399227356 0 104.69382399227356 -313.3932670567483 0 0 0 0 -16.039810912487155 75.275586225398001 0 75.275586225398001 -329.2021157714571 0 0 0 0 0.15537056276167505 -0.011257399413402425 0 -0.011257399413402425 -1.36710571962454 0 0 0 0 29.719516669186305 108.18308166086172 0 108.18308166086172 228.30355356276414 0 0 0 0 54.72323927564139 30.325871005887166 0 30.325871005887166 -68.841590594113768 0 0 0 0 43.373114017123953 -21.450278874763171 0 -21.450278874763171 -61.962562105695724 0 0 0 0 29.363540926946371 -8.1912247891923471 0 -8.1912247891923471 -58.280398373717617 0 0 0 0 54.844654718164747 -14.688556266006344 0 -14.688556266006344 -65.428629168469342 0 0 0 0 48.718141655013824 -12.128442050827289 0 -12.128442050827289 -64.277204367587728 0 0 0 0 50.539281613488129 -6.7945758216701506 0 -6.7945758216701506 -58.389795120223425 0 0 0 0 3.2749559212097665 -49.239368380964152 0 -49.239368380964152 -5.2728679992451362 0 0 0 0 3.2119232059308302 -43.738677355188841 0 -43.738677355188841 -118.25828864546929 0 0 0 0 21.311907913372124 1.6613840443715162 0 1.6613840443715162 -58.179141759894264 0 0 0 0 25.983999385465722 -29.182815639775072 0 -29.182815639775072 -117.92123158461618 0 0 0 0 34.483798329245474 9.7567894973544753 0 9.7567894973544753 -146.20194110159355 0 0 0 0 38.892049167436198 9.5192661768305697 0 9.5192661768305697 -98.110977386989362 0 0 0 0 37.444925005132973 10.46423984150897 0 10.46423984150897 -97.817739435166004 0 0 0 0 36.512970014390248 4.7547018823433973 0 4.7547018823433973 -60.989123656494485 0 0 0 0 46.974203188790852 26.772653011688817 0 26.772653011688817 -102.23822041050516 0 0 0 0 45.677067757493205 20.368971954325389 0 20.368971954325389 -105.89493293279884 0 0 0 0 42.408627179349423 30.818453006639174 0 30.818453006639174 -97.509384245353431 0 0 0 0 43.805404890209957 13.585384828020779 0 13.585384828020779 -84.197838900334318 0 0 0 0 32.277473614482005 11.340986722518664 0 11.340986722518664 -50.671701098817721 0 0 0 0 41.449811795568166 41.308226101042237 0 41.308226101042237 -62.6972067046554 0 0 0 0 21.689113463527974 34.229382853143761 0 34.229382853143761 -8.4386677202455758 0 0 0 0 46.640120550651773 41.780152078872561 0 41.780152078872561 -16.131974717215599 0 0 0 0 36.025421424656997 17.11584308808051 0 17.11584308808051 54.972216911664873 0 0 0 0 37.64016164289751 92.459251601581855 0 92.459251601581855 96.659889002514319 0 0 0 0 7.6450167109142058 7.1647721367917256 0 7.1647721367917256 -0.30411862540495349 0 0 0 0 -0.56668234190526334 0.33099638567882295 0 0.33099638567882295 -0.33850070796815857 0 0 0 0 -15.545330836957874 85.911579933526809 0 85.911579933526809 54.00169415257551 0 0 0 0 14.339397120076683 58.344578762760648 0 58.344578762760648 39.835457660813518 0 0 0 0 -1.9546408281763981 0.90640118433751127 0 0.90640118433751127 0.81367506357313601 0 0 0 0 28.754323882181779 49.550004148797598 0 49.550004148797598 41.404465242281731 0 0 0 0 34.807874616679328 38.997665191483975 0 38.997665191483975 51.987977361073717 0 0 0 0 48.330160128185526 0.67592227774002822 0 0.67592227774002822 74.289489825790952 0 0 0 0 -10.201390442238335 38.643021693360424 0 38.643021693360424 77.450615472356731 0 0 0 0 10.259330311673693 7.1950457176862983 0 7.1950457176862983 85.308175837897579 0 0 0 0 57.431657904196982 20.677039831109141 0 20.677039831109141 88.554611098892565 0 0 0 0 18.386968097447607 13.16477613947427 0 13.16477613947427 97.788512968123541 0 0 0 0 96.960862890729004 122.03425346143194 0 122.03425346143194 104.08800959281507 0 0 0 0 68.427332460787511 10.69954719591442 0 10.69954719591442 73.675107836141251 0 0 0 0 -0.68966169846019909 -0.41819972419951057 0 -0.41819972419951057 0.53288507866876955 0 0 0 0 26.214724265115365 -31.858672494188795 0 -31.858672494188795 -275.71945890685674 0 0 0 0 0.22035313791820954 -21.406949561103829 0 -21.406949561103829 -241.75083978877956 0 0 0 0 -1.3871853814875053 0.15280331669155522 0 0.15280331669155522 0.52339874750717286 0 0 0 0 31.287363040935816 27.025832920673565 0 27.025832920673565 104.35763024241351 0 0 0 0 17.470783394783211 -31.297422398913113 0 -31.297422398913113 -188.06086411615979 0 0 0 0 -0.76730495429075063 -0.067834200883414297 0 -0.067834200883414297 0.4054328415513595 0 0 0 0 -3.7331152464748811 -4.9096355007322927 0 -4.9096355007322927 4.2231716865971975 0 0 0 0 -9.729933508191607 18.277250854820522 0 18.277250854820522 -7.103276295071737 0 0 0 0 27.422671309070211 -19.407021710598201 0 -19.407021710598201 -167.29118808961357 0 0 0 0 24.20697900125333 17.483850357317806 0 17.483850357317806 -168.1303139060692 0 0 0 0 34.367327839619975 7.6939167986056418 0 7.6939167986056418 -182.73817933919418 0 0 0 0 23.934842551203474 21.834202505648136 0 21.834202505648136 -220.50799926472428 0 0 0 0 -10.640025694689029 40.422903692639011 0 40.422903692639011 -181.14256179858239 0 0 0 0 15.785857787679561 27.862272408367062 0 27.862272408367062 -177.85784684865939 0 0 0 0 23.547561980879436 42.720418418661211 0 42.720418418661211 -171.90540660509578 0 0 0 0 37.007437114156346 26.447316863752349 0 26.447316863752349 -185.68309992131617 0 0 0 0 27.968366617424181 5.105558637289505 0 5.105558637289505 -240.75809529592334 0 0 0 0 -8.4918724484541599 -0.73232650432510127 0 -0.73232650432510127 -215.26296960877153 0 0 0 0 28.774602893436168 38.284871806399678 0 38.284871806399678 -188.53854995094116 0 0 0 0 8.3265739234084322 34.685818673640824 0 34.685818673640824 -172.26252905052024 0 0 0 0 14.588450063441996 50.647173062576258 0 50.647173062576258 -166.99593397645003 0 0 0 0 17.289559347159411 42.383380790961382 0 42.383380790961382 -154.6490352151086 0 0 0 0 16.687864200820286 40.329423061854641 0 40.329423061854641 -143.90394626983834 0 0 0 0 25.033689877513098 30.603101167536806 0 30.603101167536806 -149.02441111698499 0 0 0 0 25.194304706481489 33.542141997520957 0 33.542141997520957 -145.63387270149542 0 0 0 0 43.594617581456987 16.448935240983701 0 16.448935240983701 -151.6329438264911 0 0 0 0 38.539432737983589 29.716265729053703 0 29.716265729053703 -159.67622254532762 0 0 0 0 39.379852892681811 24.247996543417685 0 24.247996543417685 -159.44737624414847 0 0 0 0 48.21011459334477 24.924176828881173 0 24.924176828881173 -166.38708629069151 0 0 0 0 49.691457042983529 27.690235590322118 0 27.690235590322118 -167.86534492487408 0 0 0 0 46.194134748578108 34.311396048628012 0 34.311396048628012 -167.26614436359523 0 0 0 0 31.578814079184667 34.023240355028975 0 34.023240355028975 -164.98432469900581 0 0 0 0 34.870563783573743 38.64479329783353 0 38.64479329783353 -167.48423542539967 0 0 0 0 37.326278485717921 31.901885553990724 0 31.901885553990724 -161.02758978728889 0 0 0 0 37.117093964261585 24.453643676293723 0 24.453643676293723 -161.41217580287775 0 0 0 0 43.395780267328519 38.068021315661099 0 38.068021315661099 -170.44437089569692 0 0 0 0 48.414857327690697 29.216956610016496 0 29.216956610016496 -165.57986538620298 0 0 0 0 54.982815378407395 29.375381215162633 0 29.375381215162633 -167.10534774457483 0 0 0 0 49.427776344984522 31.867535352035702 0 31.867535352035702 -159.82711668330739 0 0 0 0 53.230037121942587 30.874369524623035 0 30.874369524623035 -160.21170581294427 0 0 0 0 46.152323335929395 22.066541948988743 0 22.066541948988743 -139.10455535894289 0 0 0 0 48.172614339024221 23.653340075727101 0 23.653340075727101 -138.51938696095021 0 0 0 0 41.50502419159875 5.2527440107078291 0 5.2527440107078291 -149.27446337525907 0 0 0 0 46.394905396281672 30.718716510124636 0 30.718716510124636 -157.43689448700752 0 0 0 0 9.6049879367237736 33.156042379736391 0 33.156042379736391 -75.095113385192235 0 0 0 0 50.567796714089241 26.766967883382449 0 26.766967883382449 -144.23653342186662 0 0 0 0 41.511001127605596 42.537712704473961 0 42.537712704473961 -138.85720832908555 0 0 0 0 51.59754664270622 31.960408162154636 0 31.960408162154636 -139.43583365741506 0 0 0 0 51.053536144332611 26.053763640487887 0 26.053763640487887 -140.7823504529033 0 0 0 0 51.755128956028784 34.696960394383495 0 34.696960394383495 -158.5156511270543 0 0 0 0 53.838632466618947 28.733151856595214 0 28.733151856595214 -162.12974092370132 0 0 0 0 49.08343817786772 40.875487171491841 0 40.875487171491841 -160.75299523076683 0 0 0 0 58.074616847203288 27.838273215780646 0 27.838273215780646 -184.29606089680237 0 0 0 0 53.988067909376696 17.833647437124455 0 17.833647437124455 -179.44699686534295 0 0 0 0 54.41572366321634 30.62519196035646 0 30.62519196035646 -167.19849148276262 0 0 0 0 55.290991963447595 26.502034468023339 0 26.502034468023339 -175.03839299052197 0 0 0 0 58.162779315243824 31.420781276225171 0 31.420781276225171 -168.2290541926086 0 0 0 0 53.733070873953693 20.85404073038444 0 20.85404073038444 -173.28613604006841 0 0 0 0 51.325865315735427 20.422549200280628 0 20.422549200280628 -165.44945171959262 0 0 0 0 54.660722769197491 19.894178693039976 0 19.894178693039976 -174.75935680336261 0 0 0 0 53.18773073254124 9.0372253454515885 0 9.0372253454515885 -176.39734452098264 0 0 0 0 44.132963399188156 16.303215816249576 0 16.303215816249576 -165.23954413108754 0 0 0 0 49.842399384340752 8.0629488320664677 0 8.0629488320664677 -153.38541993261606 0 0 0 0 60.102415466102684 -1.0416699611305376 0 -1.0416699611305376 -208.18852867669557 0 0 0 0 55.516862087088157 -1.5789686884791081 0 -1.5789686884791081 -154.99893529311521 0 0 0 0 42.160741459091241 18.998380708399964 0 18.998380708399964 -192.77397984669369 0 0 0 0 54.857990858839912 49.554783394667538 0 49.554783394667538 -379.73902874928899 0 0 0 0 -60.021672648221283 -110.00042234026841 0 -110.00042234026841 -213.62088060648239 0 0 0 0 49.447714467577498 25.945837336049408 0 25.945837336049408 -191.70130203266672 0 0 0 0 -2.2545119117351362 3.1150809860891462 0 3.1150809860891462 -0.7728792349370508 0 0 0 0 -42.687717848519242 32.681962286509588 0 32.681962286509588 -16.88813328428796 0 0 0 0 -86.145137267331847 130.92748919741462 0 130.92748919741462 -117.64153304331194 0 0 0 0 -37.128862347553877 94.929409436264905 0 94.929409436264905 -130.39404808813561 0 0 0 0 13.147354358090524 28.732387779324199 0 28.732387779324199 -80.033973422243434 0 0 0 0 48.615755671145962 46.264378331651869 0 46.264378331651869 -212.5273279365465 0 0 0 0 63.59024608427444 -67.935199355307759 0 -67.935199355307759 -71.448379595979532 0 0 0 0 4.459405329945227 -4.8521246143126113 0 -4.8521246143126113 -82.12883151513347 0 0 0 0 123.52117116182012 -9.5763184291931793 0 -9.5763184291931793 -174.8992463185532 0 0 0 0 106.21521036684499 42.988429370351696 0 42.988429370351696 -321.03995423361448 0 0 0 0 -163.24678617837617 -166.63582483701066 0 -166.63582483701066 -93.764781738864258 0 0 0 0 101.11224004774704 -61.408011312473718 0 -61.408011312473718 -75.374675654532439 0 0 0 0 109.77198670345024 -2.6342869991804037 0 -2.6342869991804037 -152.05876426219675 0 0 0 0 101.5893853896996 30.84961556296912 0 30.84961556296912 -102.47419495408212 0 0 0 0 100.64636803432586 41.832043754007827 0 41.832043754007827 -180.56432877780571 0 0 0 0 107.97091743434066 69.276710535869825 0 69.276710535869825 -119.76515685945378 0 0 0 0 127.64822498531476 7.5636616670294643 0 7.5636616670294643 -148.09427807979591 0 0 0 0 24.955008911283926 8.9145154483410352 0 8.9145154483410352 -59.740252470088308 0 0 0 0 101.13995764488755 8.8783537476895162 0 8.8783537476895162 -133.90746694096197 0 0 0 0 1.5203754654346495 -5.331119349429251 0 -5.331119349429251 -87.684051719928021 0 0 0 0 0.36112041732701883 -5.528086844635336 0 -5.528086844635336 -15.53367875917759 0 0 0 0 60.448931308992996 -102.16532674168411 0 -102.16532674168411 -86.597560031777903 0 0 0 0 18.773188275898974 17.36101620487625 0 17.36101620487625 -100.36420268861002 0 0 0 0 1.2079785052903027 10.564099619836409 0 10.564099619836409 -44.559505069585128 0 0 0 0 -7.948442646777039 -4.1557055211924308 0 -4.1557055211924308 -63.01147884812417 0 0 0 0 -2.5234617936592283 20.822670018876821 0 20.822670018876821 -66.200063102769974 0 0 0 0 -19.944183134325613 11.549469080950075 0 11.549469080950075 -8.6434428488414596 0 0 0 0 17.31544149691581 11.110614228657141 0 11.110614228657141 -36.278921200824698 0 0 0 0 3.1431280080384738 13.83408262736825 0 13.83408262736825 -68.301389270867375 0 0 0 0 34.355120128090675 105.90735527445031 0 105.90735527445031 1.9576800811846624 0 0 0 0 63.173179941910348 10.39518080896687 0 10.39518080896687 -137.2809394431797 0 0 0 0 8.3856309413093086 6.7465343685788515 0 6.7465343685788515 -18.720735779766535 0 0 0 0 10.557372699398911 17.993674564291723 0 17.993674564291723 -42.176585108235031 0 0 0 0 17.171130051103319 31.617918360350814 0 31.617918360350814 -78.682139433600241 0 0 0 0 14.359633701402345 36.227435692577274 0 36.227435692577274 -73.860445175825589 0 0 0 0 -21.68280326324475 9.5057196717843908 0 9.5057196717843908 -43.820117921874044 0 0 0 0 19.262113950747334 -13.826283228316242 0 -13.826283228316242 -47.451208273756492 0 0 0 0 26.747559426166617 -4.8762917952203679 0 -4.8762917952203679 -68.869256511265121 0 0 0 0 -5.3900092374315136 -12.998956002826162 0 -12.998956002826162 -27.686945539628596 0 0 0 0 18.917456553496777 -4.4083504105892644 0 -4.4083504105892644 -86.986660179001774 0 0 0 0 -0.33911533646815428 -0.43956997747539361 0 -0.43956997747539361 -7.8507499080069056 0 0 0 0 6.9099524335297247 6.9809589615942969 0 6.9809589615942969 -75.013209174117947 0 0 0 0 13.72756342316643 33.033130291069028 0 33.033130291069028 18.57533081917245 0 0 0 0 3.5904214729853265 -13.267082181528167 0 -13.267082181528167 -66.448629249425721 0 0 0 0 0.65296774158196058 37.295567680404929 0 37.295567680404929 24.065402115717006 0 0 0 0 26.67595660466759 27.023641335534194 0 27.023641335534194 19.55631680424267 0 0 0 0 46.20155087011517 42.872882508268958 0 42.872882508268958 -29.667394595744554 0 0 0 0 22.779595192452689 0.42034806875744835 0 0.42034806875744835 -18.520107248143177 0 0 0 0 67.39338497204335 63.50972580978123 0 63.50972580978123 26.023050297637383 0 0 0 0 -14.343155003396532 -2.4459321694994287 0 -2.4459321694994287 -1.0913230478654441 0 0 0 0 -1.6761516718935852 0.61361487054239561 0 0.61361487054239561 0.83856255975848626 0 0 0 0 42.582499933070721 14.705656637423999 0 14.705656637423999 -306.76887611727943 0 0 0 0 19.067041458730273 28.258801297432001 0 28.258801297432001 112.6110912434815 0 0 0 0 10.639826733207883 158.32091647137349 0 158.32091647137349 148.9097450539266 0 0 0 0 -3.5539607151295058 114.09072224880947 0 114.09072224880947 -412.41658769276546 0 0 0 0 -1.0936035884261486 -0.38613088367648629 0 -0.38613088367648629 0.73199330258805162 0 0 0 0 -31.257008301616224 97.870454171286838 0 97.870454171286838 -279.912324248 0 0 0 0 -79.986848776640727 6.78624907777521 0 6.78624907777521 -260.18826720976358 0 0 0 0 -37.944793886907974 43.950529353074671 0 43.950529353074671 -186.26749307115097 0 0 0 0 -5.1557834021314193 58.569871639971097 0 58.569871639971097 -234.85999209246984 0 0 0 0 35.688458265576628 62.804495030381077 0 62.804495030381077 -261.886326865515 0 0 0 0 32.827619936082556 -11.33420619017852 0 -11.33420619017852 -177.56580513874314 0 0 0 0 4.7004550349383862 46.16149649003637 0 46.16149649003637 -154.98100858242833 0 0 0 0 -1.1654423198451695 1.3259402807925653 0 1.3259402807925653 -239.11690315850956 0 0 0 0 22.891258526648016 84.824624649983889 0 84.824624649983889 -256.07935517924125 0 0 0 0 20.266936624166192 49.507591448789753 0 49.507591448789753 -449.18092511251598 0 0 0 0 17.473271056121121 103.46160279125252 0 103.46160279125252 -298.14077065635502 0 0 0 0 73.756292184949416 130.57282457849942 0 130.57282457849942 -291.50196601006337 0 0 0 0 58.666457250629264 31.353037508259149 0 31.353037508259149 -55.575825104388059 0 0 0 0 32.586412544207633 175.7959243526293 0 175.7959243526293 -17.856554006502847 0 0 0 0 9.0049290171918983 25.716536141837423 0 25.716536141837423 30.173238814728393 0 0 0 0 -0.64146455624565135 6.5470938107449808 0 6.5470938107449808 -5.051155897296411 0 0 0 0 -91.46818650145633 145.54915567086209 0 145.54915567086209 -155.65730741574953 0 0 0 0 17.214014637878222 103.56238715698555 0 103.56238715698555 -166.63748009903429 0 0 0 0 12.176994584124174 77.835083485304722 0 77.835083485304722 -113.17057339205712 0 0 0 0 14.284133189330532 107.47233198774848 0 107.47233198774848 -232.00526933698347 0 0 0 0 -8.6644104957267576 32.765792541399989 0 32.765792541399989 -88.570461939857069 0 0 0 0 0.83481924223269743 45.518454422281593 0 45.518454422281593 -156.51794449425506 0 0 0 0 0.38430891464640737 10.786579586590955 0 10.786579586590955 -13.786248311579563 0 0 0 0 194.8326194337842 -133.01358757834305 0 -133.01358757834305 -78.895350481250716 0 0 0 0 53.049490114550281 -3.1946251754993682 0 -3.1946251754993682 -147.62521431302957 0 0 0 0 42.46564406309335 -32.788930059723498 0 -32.788930059723498 -10.898635060661945 0 0 0 0 7.1732280791383545 -11.74932172012381 0 -11.74932172012381 -9.2928565666724534 0 0 0 0 289.16902906435826 42.317805069350925 0 42.317805069350925 -181.52676800241989 0 0 0 0 77.345813674491183 -42.8231854000569 0 -42.8231854000569 -133.94589941514096 0 0 0 0 18.406011078073639 -8.4488047903111543 0 -8.4488047903111543 -87.943691034757492 0 0 0 0 22.429861965163582 -94.850424494130948 0 -94.850424494130948 -122.83777767955507 0 0 0 0 -21.716313298395562 64.227743104535875 0 64.227743104535875 -188.48400723540544 0 0 0 0 23.440863529140188 24.818606999720942 0 24.818606999720942 -183.27984209704482 0 0 0 0 3.8623905820259097 12.467355702618079 0 12.467355702618079 -82.093845881277957 0 0 0 0 70.538219587580954 27.332375881772577 0 27.332375881772577 -137.95588551311812 0 0 0 0 -52.43319761390012 89.161175850036898 0 89.161175850036898 -5.6821628518880516 0 0 0 0 35.44455312964692 373.75287829541094 0 373.75287829541094 -377.73612095993121 0 0 0 0 -75.822879173301772 -17.696683852607748 0 -17.696683852607748 -122.83108800505715 0 0 0 0 -12.965040736466108 28.829361477470229 0 28.829361477470229 -311.64029712148681 0 0 0 0 5.5287390978846815 -8.2921903330329769 0 -8.2921903330329769 1.0173964789955789 0 0 0 0 1.2122496061383572 0.70951813220221993 0 0.70951813220221993 -3.6878190132006239 0 0 0 0 -1.7384277681424081 7.0866443408234616 0 7.0866443408234616 2.3094381888894779 0 0 0 0 0.042010097486127052 6.5623541854629366 0 6.5623541854629366 -24.003544883600625 0 0 0 0 -85.851063266862184 192.21896062899918 0 192.21896062899918 -211.71912701821236 0 0 0 0 1.7732238778633018 -0.69317652561049847 0 -0.69317652561049847 -6.4856946951408077 0 0 0 0 -18.216844697707074 30.916160130699154 0 30.916160130699154 -134.48053319003463 0 0 0 0 -37.60374353624502 67.718333546661142 0 67.718333546661142 -101.55489947402043 0 0 0 0 47.684434835064167 22.950229953741768 0 22.950229953741768 -180.06261986744551 0 0 0 0 -4.8019424089782632 6.8142231320543267 0 6.8142231320543267 -5.2997791878684435 0 0 0 0 49.856156892383297 -75.989047229657444 0 -75.989047229657444 -60.027768096304499 0 0 0 0 54.002938902314781 -27.447788731229593 0 -27.447788731229593 -99.369557427264226 0 0 0 0 23.621931053057168 -8.278737686794944 0 -8.278737686794944 -81.735856979532514 0 0 0 0 -10.21827754346603 16.96934167095403 0 16.96934167095403 -58.382384262990243 0 0 0 0 34.284961664255206 -18.933277209966036 0 -18.933277209966036 -90.505168818726816 0 0 0 0 10.664706964640573 -4.6078744018013822 0 -4.6078744018013822 -67.522204971775864 0 0 0 0 29.081077025595171 -7.0533072313148466 0 -7.0533072313148466 -15.934799157407433 0 0 0 0 18.938861847669614 -24.604617810977288 0 -24.604617810977288 -112.36232944551375 0 0 0 0 23.769299700212287 8.3496697461869189 0 8.3496697461869189 -193.37082738827303 0 0 0 0 -21.146742198912762 0.053913003788693459 0 0.053913003788693459 -93.573934604421083 0 0 0 0 23.538336985207934 -13.572762888372381 0 -13.572762888372381 -152.93162863899977 0 0 0 0 9.8981106296932921 -3.0160278949661006 0 -3.0160278949661006 -40.201768514387368 0 0 0 0 2.4042232688607328 46.965665221561267 0 46.965665221561267 -131.8704181616904 0 0 0 0 8.2493228581961375 1.9558617807715564 0 1.9558617807715564 -74.876368085354443 0 0 0 0 -25.77882075585876 28.987705076727707 0 28.987705076727707 -27.8097084801866 0 0 0 0 -5.9192696519475412 2.7971226294737193 0 2.7971226294737193 2.6114926019160496 0 0 0 0 -48.273007474705992 11.830927126860161 0 11.830927126860161 20.072211908591271 0 0 0 0 -63.200793755351697 33.253981156170994 0 33.253981156170994 -24.705294837182237 0 0 0 0 15.703224506507468 -4.3553058301481542 0 -4.3553058301481542 -39.508656134961143 0 0 0 0 3.0072262068215423 10.851643240123906 0 10.851643240123906 -29.426725628444501 0 0 0 0 -2.1345439248660227 1.4985451583243341 0 1.4985451583243341 -3.6993359851162886 0 0 0 0 -1.6774220703036917 2.8946610423314496 0 2.8946610423314496 -12.392371643019487 0 0 0 0 -0.021659601112190785 8.3202489141436935 0 8.3202489141436935 -8.3128661384051821 0 0 0 0 9.4499830451150046 23.313633328293918 0 23.313633328293918 -34.377221071878125 0 0 0 0 4.3477208472370634 8.2354461832804216 0 8.2354461832804216 -1.5770945916749208 0 0 0 0 -7.1361590260912635 24.06065742200019 0 24.06065742200019 -5.4541323606108563 0 0 0 0 4.7354262117896724 12.223134363322743 0 12.223134363322743 -9.2838024815110316 0 0 0 0 -15.430515325441775 5.080318847999024 0 5.080318847999024 12.648375509689231 0 0 0 0 1.1033042357885279 14.183269854053833 0 14.183269854053833 -15.387735957603923 0 0 0 0 1.380601993027966 7.4928826366502346 0 7.4928826366502346 1.1534991206342649 0 0 0 0 8.2677559557923814 26.034269651419436 0 26.034269651419436 -4.1654969457322295 0 0 0 0 -41.079199925411558 58.709495789384846 0 58.709495789384846 36.391635662612316 0 0 0 0 62.336544543941272 -27.264879068370647 0 -27.264879068370647 -14.858539249048135 0 0 0 0 1.8500535207730167 -0.62902812633199723 0 -0.62902812633199723 -2.5092643507047825 0 0 0 0 9.4288098944425656 24.01334404720285 0 24.01334404720285 -13.081121612347488 0 0 0 0 17.960464080977545 28.034264376616193 0 28.034264376616193 -18.329274564724983 0 0 0 0 16.191540134379466 48.237712186165481 0 48.237712186165481 -2.3468037500824721 0 0 0 0 -21.690966676142125 32.920081152267812 0 32.920081152267812 -4.878087260223765 0 0 0 0 -20.937649712547454 24.238424824539777 0 24.238424824539777 20.49150950465264 0 0 0 0 -48.178715992919024 49.270913849147746 0 49.270913849147746 -293.31812154925865 0 0 0 0 -295.75477324798339 -12.612420377690796 0 -12.612420377690796 -356.53051601591687 0 0 0 0 -137.42337483584561 181.32165168663596 0 181.32165168663596 -456.0337833895901 0 0 0 0 -1.151060504034831 375.56913644770293 0 375.56913644770293 -546.45063415042387 0 0 0 0 -94.238412384547701 147.8476037105429 0 147.8476037105429 -106.9214975314535 0 0 0 0 -32.232612397157936 64.967897544560401 0 64.967897544560401 -7.0908203582894203 0 0 0 0 79.591792441242433 342.21684469652337 0 342.21684469652337 -563.24614595637286 0 0 0 0 140.71129994290823 6.9977840567371459 0 6.9977840567371459 -79.542795746834599 0 0 0 0 160.63022824905056 142.02975687725666 0 142.02975687725666 -229.72429564391859 0 0 0 0 -128.85034561683278 5.7967685502080712 0 5.7967685502080712 -404.04178025212877 0 0 0 0 -175.97924538427469 139.07742649541251 0 139.07742649541251 -737.07865734853294 0 0 0 0 9.3420383667762508 25.024029480885474 0 25.024029480885474 -442.97501192307169 0 0 0 0 20.408619739057031 20.080860216579367 0 20.080860216579367 8.8209390094275477 0 0 0 0 -2.5396750441845697 0.36965215436117305 0 0.36965215436117305 -0.10291888256010928 0 0 0 0 -8.2485999987457035 -12.153662010645576 0 -12.153662010645576 28.765468196028451 0 0 0 0 -6.2565863182753674 -6.5542424302057043 0 -6.5542424302057043 5.1583778812864693 0 0 0 0 -22.34578395432618 5.2274635668045448 0 5.2274635668045448 45.487795723314548 0 0 0 0 10.929906588964514 22.920139556132199 0 22.920139556132199 -440.77257065985214 0 0 0 0 9.2352046672313008 -29.024609925371806 0 -29.024609925371806 -315.15707378435036 0 0 0 0 10.047883531537082 -45.940916509081035 0 -45.940916509081035 -158.76819449135837 0 0 0 0 14.673519078438403 47.703068537231047 0 47.703068537231047 -246.62052128042524 0 0 0 0 -33.109580769152672 87.188708879865771 0 87.188708879865771 -230.92436560587794 0 0 0 0 18.256962894101889 47.459308233928823 0 47.459308233928823 -253.31711352706589 0 0 0 0 -31.195851452961278 71.524462757419712 0 71.524462757419712 -223.05616936956721 0 0 0 0 -63.761075068181526 105.71742094731053 0 105.71742094731053 -242.98909509489931 0 0 0 0 -4.5832168182023452 92.711996049569279 0 92.711996049569279 -329.70184284416655 0 0 0 0 6.7492337076382682 57.256755947632882 0 57.256755947632882 -209.04571533566741 0 0 0 0 -11.541632966482211 8.0984871714490509 0 8.0984871714490509 -420.91705043523325 0 0 0 0 -48.391088181953819 -2.8598157790211189 0 -2.8598157790211189 -72.705821294358429 0 0 0 0 -147.31907925545602 128.17614018398399 0 128.17614018398399 -257.39012571401508 0 0 0 0 -179.78413743767305 48.5314233864774 0 48.5314233864774 -153.58129193922468 0 0 0 0 -56.269225135823945 133.96342537221426 0 133.96342537221426 -344.38325706398246 0 0 0 0 -68.394072757859249 16.506811204243604 0 16.506811204243604 -116.19942901284412 0 0 0 0 -85.88480841985438 94.090646997057775 0 94.090646997057775 -176.49511202623762 0 0 0 0 -4.7962162968469784 13.920896345382062 0 13.920896345382062 -164.95930072564079 0 0 0 0 -23.447278548541362 47.681144647296605 0 47.681144647296605 -96.773410081434122 0 0 0 0 26.068903945319107 45.029664409631096 0 45.029664409631096 -143.52255691265054 0 0 0 0 -2.443994490091427 -30.171344559037607 0 -30.171344559037607 -74.606748612847923 0 0 0 0 124.77438680862269 14.420930021344475 0 14.420930021344475 -127.06211202259692 0 0 0 0 -34.921687566318724 30.6721733110885 0 30.6721733110885 -142.42241826145255 0 0 0 0 -22.560686780336255 -33.825971079915689 0 -33.825971079915689 -117.01934484629419 0 0 0 0 -15.190145429849508 15.800690645656687 0 15.800690645656687 -104.38919558369798 0 0 0 0 -16.356184945141649 8.5815067009434642 0 8.5815067009434642 -170.97743511518411 0 0 0 0 -25.474560825870867 -4.9043599456686024 0 -4.9043599456686024 -181.28124634938058 0 0 0 0 -46.529827462027242 49.310171960780281 0 49.310171960780281 -200.30340030314892 0 0 0 0 -42.975144946034561 32.341705736311269 0 32.341705736311269 -134.70451006198527 0 0 0 0 1.7236321071641214 3.783539968912919 0 3.783539968912919 -230.84357037486734 0 0 0 0 6.9850687068921502 49.404243199743917 0 49.404243199743917 -245.33105046803485 0 0 0 0 26.671072635003839 14.657204716699425 0 14.657204716699425 -177.81894255212137 0 0 0 0 15.192670514561541 65.267490052114226 0 65.267490052114226 -227.23952460682358 0 0 0 0 -20.733794626350573 101.28969581463753 0 101.28969581463753 -181.50856704461239 0 0 0 0 1.2424097720061127 23.280885038934571 0 23.280885038934571 -247.68837378339231 0 0 0 0 -4.9405369554369827 28.685446625232544 0 28.685446625232544 -320.80616365142998 0 0 0 0 -75.421427599829258 65.107981718521842 0 65.107981718521842 -266.04738720215028 0 0 0 0 -3.763304827540118 3.7897542773851516 0 3.7897542773851516 -1.1646477748182371 0 0 0 0 -66.860374608887469 40.836660633704469 0 40.836660633704469 294.18494928888151 0 0 0 0 73.120606305162255 -198.03169752439601 0 -198.03169752439601 -357.96743359664106 0 0 0 0 -120.73935088016151 366.51278138996804 0 366.51278138996804 -555.52833760953058 0 0 0 0 35.490225110845131 197.95622513263424 0 197.95622513263424 -120.24240553389609 0 0 0 0 36.889122006644357 211.11146200653957 0 211.11146200653957 -189.80805449963373 0 0 0 0 -0.2776224458426384 5.0807331062117829 0 5.0807331062117829 1.4266560668923001 0 0 0 0 -260.61312276274748 387.54292800027883 0 387.54292800027883 -154.74198540057296 0 0 0 0 -78.895300415690144 64.05908795617961 0 64.05908795617961 262.7463445199287 0 0 0 0 171.3824482909622 -84.777175248686035 0 -84.777175248686035 -504.63497758450694 0 0 0 0 79.180960071425943 166.24876649502767 0 166.24876649502767 -272.55116187565727 0 0 0 0 135.8879571849518 24.587957762317274 0 24.587957762317274 -274.26551960650977 0 0 0 0 101.9740047127998 -59.201536547936485 0 -59.201536547936485 -209.76067801456611 0 0 0 0 159.89034432947301 -30.704866965211295 0 -30.704866965211295 -195.76899762643643 0 0 0 0 -90.955078940556632 -208.3876819898428 0 -208.3876819898428 -182.20654487728279 0 0 0 0 -27.323627493721688 0.40739266842274446 0 0.40739266842274446 26.518982143508765 0 0 0 0 105.59131126402917 -63.827092177625673 0 -63.827092177625673 -93.642372242983129 0 0 0 0 67.707778859966311 -128.88596733089889 0 -128.88596733089889 -51.383292591140616 0 0 0 0 45.504830349263102 -67.744623095914449 0 -67.744623095914449 55.741944180336759 0 0 0 0 37.547669754488197 110.51514964591161 0 110.51514964591161 -348.30491843916752 0 0 0 0 -3.1867709390897261 -3.1352473168771935 0 -3.1352473168771935 -4.3189089609870557 0 0 0 0 -106.73988811761876 -39.939656291440429 0 -39.939656291440429 -8.9436439103201337 0 0 0 0 -1.7527022374652006 4.7456840816794283 0 4.7456840816794283 -22.140460160419593 0 0 0 0 -5.8045903124993217 -10.340756034787077 0 -10.340756034787077 -14.599081880595925 0 0 0 0 8.8111321743699591 -5.9804709876702873 0 -5.9804709876702873 -23.029979324377564 0 0 0 0 -11.703906383037975 -30.279596199009802 0 -30.279596199009802 -23.25918520374762 0 0 0 0 18.462443171672021 16.513388205690717 0 16.513388205690717 -7.1918992304936182 0 0 0 0 16.893177518703336 0.92124253833451064 0 0.92124253833451064 -21.868720320625677 0 0 0 0 9.0690486040721225 -22.035842329029492 0 -22.035842329029492 -51.530623152607404 0 0 0 0 16.267355192838743 3.0394289726897625 0 3.0394289726897625 -22.736770423523868 0 0 0 0 31.984927244537175 -30.421027547056838 0 -30.421027547056838 -51.686053664637413 0 0 0 0 20.848155538948276 6.2765061263908137 0 6.2765061263908137 -4.3409594271979586 0 0 0 0 29.872209451245226 22.782682617517139 0 22.782682617517139 -21.47720830248727 0 0 0 0 44.873914033689744 8.2341137037528824 0 8.2341137037528824 -100.38123522362366 0 0 0 0 2.5978916982499456 1.09166755214933 0 1.09166755214933 -13.043668665386248 0 0 0 0 117.32237487237398 -64.288814421691086 0 -64.288814421691086 -117.86070823859973 0 0 0 0 47.474581285712702 -78.977444369011664 0 -78.977444369011664 32.767249656643514 0 0 0 0 56.434187648648731 29.55684941559548 0 29.55684941559548 -119.01010918195904 0 0 0 0 53.399345184256163 2.6589669690256414 0 2.6589669690256414 -54.754129624217057 0 0 0 0 52.312641981075103 23.695330562598087 0 23.695330562598087 -83.535797591808659 0 0 0 0 -42.878334449558679 -70.86048944066988 0 -70.86048944066988 -166.77973898706443 0 0 0 0 -33.627610450497741 126.67101272607033 0 126.67101272607033 -205.76688844616911 0 0 0 0 -31.919364383003995 78.543081142116989 0 78.543081142116989 -46.97014535463245 0 0 0 0 15.801952489812379 15.340245555573858 0 15.340245555573858 19.421937428899128 0 0 0 0 15.806697699896056 5.6280942761972739 0 5.6280942761972739 -22.947393987594999 0 0 0 0 25.910357598595283 50.062684076739345 0 50.062684076739345 -46.371941014798722 0 0 0 0 43.074529713139327 -12.185154057025102 0 -12.185154057025102 -30.226449822834184 0 0 0 0 1.4735089621490971 -1.0895112887467988 0 -1.0895112887467988 -7.3841831964307865 0 0 0 0 11.469151949552344 7.1399155379611567 0 7.1399155379611567 -3.4242978581629178 0 0 0 0 9.2612530634705763 6.9192441008890455 0 6.9192441008890455 -20.036556342343829 0 0 0 0 6.4278225309186556 6.0014334757137533 0 6.0014334757137533 -12.549382671729152 0 0 0 0 16.803698411845289 24.744021473610701 0 24.744021473610701 -15.109939345686143 0 0 0 0 15.235627732610851 13.272616326592924 0 13.272616326592924 -17.471714547049487 0 0 0 0 27.156746252499943 20.714277769542605 0 20.714277769542605 -21.116404268105953 0 0 0 0 43.907054197904017 29.054775883052571 0 29.054775883052571 -22.093255509409573 0 0 0 0 22.623095656154874 32.872654995085213 0 32.872654995085213 -7.4477183079306997 0 0 0 0 11.498333976823233 17.884077129560865 0 17.884077129560865 -15.330274830394046 0 0 0 0 -7.6921326954688993 12.152956446364442 0 12.152956446364442 -12.784145424731832 0 0 0 0 6.7527892611997231 21.631550573486493 0 21.631550573486493 -15.44793918018695 0 0 0 0 -12.94775897454474 12.815133642044202 0 12.815133642044202 -13.45308689009471 0 0 0 0 14.596799911278595 27.750027700098144 0 27.750027700098144 -34.460034522157002 0 0 0 0 7.1605586992263852 19.086128788874248 0 19.086128788874248 -33.590605062778195 0 0 0 0 33.3541253227786 40.341384171192203 0 40.341384171192203 -130.62905389015941 0 0 0 0 -6.6642709218454002 41.729960296339868 0 41.729960296339868 -64.407691417243768 0 0 0 0 -3.2623053921047358 22.787300177443285 0 22.787300177443285 -60.462317504618113 0 0 0 0 61.791468092621471 -2.3207079418971261 0 -2.3207079418971261 -67.735272603197132 0 0 0 0 56.549348066330822 -5.3397626436026258 0 -5.3397626436026258 -33.747888694096218 0 0 0 0 46.846347078566396 33.011899322120371 0 33.011899322120371 -72.202907459728522 0 0 0 0 55.441331422714029 16.705202236129026 0 16.705202236129026 -44.089087014162942 0 0 0 0 70.54325922505268 23.153507180021279 0 23.153507180021279 -45.590475754317595 0 0 0 0 30.89384150843307 6.3903297945016675 0 6.3903297945016675 -7.747490744530765 0 0 0 0 31.968309271528597 29.947788282368492 0 29.947788282368492 -14.72254402318913 0 0 0 0 17.169902308094152 5.927495015715067 0 5.927495015715067 -19.858557403369105 0 0 0 0 14.878179633444802 -2.8226696625852128 0 -2.8226696625852128 -24.932936170605899 0 0 0 0 -3.7763688129718567 -5.1862990639836859 0 -5.1862990639836859 -7.9280030306511904 0 0 0 0 9.8835710654268496 -13.219731108040605 0 -13.219731108040605 -19.653274293645154 0 0 0 0 58.94003338755374 13.160812182826703 0 13.160812182826703 -50.917618124478395 0 0 0 0 45.852541425101663 -17.202692665298855 0 -17.202692665298855 -15.546583395944253 0 0 0 0 -2.814999775592895 -3.4369580792318253 0 -3.4369580792318253 -3.5294605118834248 0 0 0 0 79.978540526599318 -53.704581700198105 0 -53.704581700198105 -1.2778988204790949 0 0 0 0 -2.4926193419873002 57.828320946591553 0 57.828320946591553 -201.78280076923329 0 0 0 0 -2.7390935541966428 76.769886140618837 0 76.769886140618837 -268.34216378535803 0 0 0 0 -8.7790309403526408 69.554197818274588 0 69.554197818274588 -240.85672607986726 0 0 0 0 -8.2236126480665916 63.546223304919295 0 63.546223304919295 -178.39470137511853 0 0 0 0 -14.356043191437038 28.85686147828892 0 28.85686147828892 -222.1080342940395 0 0 0 0 -18.715693514163377 187.46076913121215 0 187.46076913121215 -534.44419482791091 0 0 0 0 -0.96051554953650253 -1.125541737163914 0 -1.125541737163914 -1.4141509929816607 0 0 0 0 89.588299808825013 -120.32960672175341 0 -120.32960672175341 -291.15590585198879 0 0 0 0 97.517710961292323 -116.61802649604806 0 -116.61802649604806 -335.63944677686504 0 0 0 0 32.374422517580115 -91.818875096371812 0 -91.818875096371812 -86.996250083318955 0 0 0 0 43.107919562717598 -69.829998770262591 0 -69.829998770262591 -261.14664603374513 0 0 0 0 62.979595916533981 -169.5472216670305 0 -169.5472216670305 92.084858218535373 0 0 0 0 88.508473159138816 -8.8144810301367897 0 -8.8144810301367897 -47.680528379989482 0 0 0 0 72.209574322273056 -154.34401246681045 0 -154.34401246681045 -228.6149070294432 0 0 0 0 22.531384081472424 171.00386203951166 0 171.00386203951166 -588.44068008433896 0 0 0 0 -79.269004326880349 253.27555486252004 0 253.27555486252004 -374.43553587644055 0 0 0 0 -101.73189892060327 220.60902208593689 0 220.60902208593689 -373.07248175392306 0 0 0 0 22.593173507424581 179.12944080688339 0 179.12944080688339 -396.78106976499839 0 0 0 0 -22.271133828138773 104.86569055390828 0 104.86569055390828 -446.66519430941935 0 0 0 0 10.316385342346621 22.015948566328007 0 22.015948566328007 -268.4652734587844 0 0 0 0 -52.508471744277813 51.270216746996994 0 51.270216746996994 -279.13909930120462 0 0 0 0 -46.361477382502699 25.030393675299365 0 25.030393675299365 -241.26425990029202 0 0 0 0 18.960925292716638 19.862162048503706 0 19.862162048503706 -285.29706290889317 0 0 0 0 -264.68898380400697 153.70835693607114 0 153.70835693607114 -287.67956952853274 0 0 0 0 -18.886409723833822 114.0817778861956 0 114.0817778861956 -281.30343138699391 0 0 0 0 -65.262222589559315 -35.387962177283953 0 -35.387962177283953 -521.44495495660522 0 0 0 0 43.519820227612399 42.320913636985097 0 42.320913636985097 -355.35538083299616 0 0 0 0 43.259178601759231 46.74211451091287 0 46.74211451091287 -231.16767833819722 0 0 0 0 5.5776050913405015 -22.444011316937576 0 -22.444011316937576 -218.1378068256281 0 0 0 0 9.0780467139688881 -36.489905360595458 0 -36.489905360595458 -682.31382048856358 0 0 0 0 -1.8699207073003805 1.4451467292592177 0 1.4451467292592177 -1.2617709944743787 0 0 0 0 -59.57895639389244 130.71820639415728 0 130.71820639415728 0.13648538583402114 0 0 0 0 9.6630654038413013 -61.573442443102522 0 -61.573442443102522 -39.054045114909968 0 0 0 0 63.800421625575154 0.316110663458403 0 0.316110663458403 -15.061776940918207 0 0 0 0 -8.6312016855858928 -2.4084014502955142 0 -2.4084014502955142 -122.2595794118879 0 0 0 0 -6.8911777130756491 14.737074889394989 0 14.737074889394989 -170.49437316814965 0 0 0 0 -2.6536971356053343 3.4753627111676249 0 3.4753627111676249 -6.1120400559201187 0 0 0 0 8.6765088953325176 7.5409086088284312 0 7.5409086088284312 -10.503719624810401 0 0 0 0 6.3482487752747545 1.6238891838560647 0 1.6238891838560647 -13.244839446186187 0 0 0 0 6.8192007210920202 0.47671469656934473 0 0.47671469656934473 -5.8723577409304912 0 0 0 0 6.5917379948800772 -5.9497533306539481 0 -5.9497533306539481 -12.424270164984819 0 0 0 0 7.3004819186362511 4.8407436856314234 0 4.8407436856314234 -10.063288746153376 0 0 0 0 2.4166419577609304 -10.204794339532327 0 -10.204794339532327 13.024580244979006 0 0 0 0 0.60967333998859274 0.1921521814079199 0 0.1921521814079199 0.1621272590322711 0 0 0 0 70.172356556405703 -6.0763649619111675 0 -6.0763649619111675 -9.2402163407123226 0 0 0 0 -19.393423284649089 -22.186580107894315 0 -22.186580107894315 -133.79785523310602 0 0 0 0 -0.62406074238554243 0.713721829935686 0 0.713721829935686 0.35595147313096831 0 0 0 0 -55.622217927030761 -30.015850873188356 0 -30.015850873188356 8.349643713884916 0 0 0 0 -9.6074043507369424 131.26461822490887 0 131.26461822490887 -54.878691199095556 0 0 0 0 47.712122459387047 106.44833608048589 0 106.44833608048589 -436.4471781038983 0 0 0 0 -5.9264179405972754 2.1909513914056333 0 2.1909513914056333 0.55675272259122721 0 0 0 0 -37.165912117172411 26.59211587919674 0 26.59211587919674 -3.7388712319543629 0 0 0 0 5.5770045087219842 -52.654588109299766 0 -52.654588109299766 -24.894694647678534 0 0 0 0 38.339804170113894 24.131022184244102 0 24.131022184244102 -2.8175159097681899 0 0 0 0 15.246363441192443 -11.934852341663827 0 -11.934852341663827 37.345664862916237 0 0 0 0 43.046322997114657 -36.576672056451116 0 -36.576672056451116 6.8972394172114946 0 0 0 0 -1.2098776151351558 2.348745043598683 0 2.348745043598683 -1.7176644647270223 0 0 0 0 -0.37698895460744097 5.6360751462079861 0 5.6360751462079861 10.967659639188241 0 0 0 0 0.71057990012652894 0.43307540679745049 0 0.43307540679745049 -0.96611855715099004 0 0 0 0 -24.183014412476041 -7.1111337945390005 0 -7.1111337945390005 39.097788631397407 0 0 0 0 12.037155870455535 23.178402212367473 0 23.178402212367473 3.690319320585786 0 0 0 0 8.5317765854297249 14.221691323892628 0 14.221691323892628 -13.689720048851086 0 0 0 0 4.8331916895501443 2.0092598998450795 0 2.0092598998450795 -0.42805518195740611 0 0 0 0 -61.285014228481486 0.71099000309368421 0 0.71099000309368421 107.02950524834796 0 0 0 0 1.6554034348889743 0.2767235161597883 0 0.2767235161597883 0.18704201907051665 0 0 0 0 33.857971194684069 -40.980474771380159 0 -40.980474771380159 6.9353543416686989 0 0 0 0 55.485310646346534 -32.198036756741658 0 -32.198036756741658 -6.7754774471814017 0 0 0 0 7.4331164095792701 7.185568863681965 0 7.185568863681965 -14.405114573460196 0 0 0 0 6.822409669708577 6.2949633820981035 0 6.2949633820981035 -11.1848927571491 0 0 0 0 4.8351267452280808 6.6909582419943945 0 6.6909582419943945 -10.488419035771699 0 0 0 0 0.17865924338206263 4.1120376579739855 0 4.1120376579739855 -5.5771393796081625 0 0 0 0 41.618701210541985 32.331330674217497 0 32.331330674217497 -41.893381642707027 0 0 0 0 1.3970145866935759 0.35947149048041105 0 0.35947149048041105 0.55452017080457239 0 0 0 0 21.162836282079297 1.6999088840134391 0 1.6999088840134391 -35.824074088359339 0 0 0 0 4.6905591523936749 6.357270936078721 0 6.357270936078721 2.9114622539621378 0 0 0 0 -20.695822555244376 -34.52663311428978 0 -34.52663311428978 53.551549902719898 0 0 0 0 -133.72689471573358 34.130695734609617 0 34.130695734609617 -42.552836377812127 0 0 0 0 4.0818104871004834 -48.406531747161353 0 -48.406531747161353 -215.51501666920376 0 0 0 0 -82.494028303346568 129.81184716775533 0 129.81184716775533 -206.47765277483876 0 0 0 0 16.246596328097894 -6.7989656737538553 0 -6.7989656737538553 -96.198973859971375 0 0 0 0 -5.3734039020218916 55.599377510489376 0 55.599377510489376 -146.02228437514941 0 0 0 0 -13.440409272348916 89.153339570191747 0 89.153339570191747 -9.0850119422839271 0 0 0 0 26.682963145122812 40.647115431946986 0 40.647115431946986 -162.55826792141488 0 0 0 0 -7.4170701201867111 37.961766543321332 0 37.961766543321332 -19.682234157601613 0 0 0 0 -1.3557870235297003 9.6851315574534453 0 9.6851315574534453 -7.3079020474451397 0 0 0 0 -0.059831794395794446 36.297505157883478 0 36.297505157883478 -10.316828240403662 0 0 0 0 45.642143767558991 -13.687862427579148 0 -13.687862427579148 -237.83266563124198 0 0 0 0 -9.3813288752862718 -10.768770655238768 0 -10.768770655238768 -235.99325682148628 0 0 0 0 -0.25422566040218797 -0.66420236231448015 0 -0.66420236231448015 -12.625847240471305 0 0 0 0 17.617091924557826 110.34581812343185 0 110.34581812343185 -14.252001039506467 0 0 0 0 -92.908564973410648 3.7229969043337405 0 3.7229969043337405 -78.080001712653029 0 0 0 0 39.159479953725167 -38.128221303479677 0 -38.128221303479677 -63.278620925445466 0 0 0 0 -16.912516717134167 89.320495659451353 0 89.320495659451353 -127.3057169173353 0 0 0 0 37.120304119278558 39.150137702857883 0 39.150137702857883 -83.216204600297715 0 0 0 0 -27.063845032594145 -16.685206556587673 0 -16.685206556587673 -105.65135374778811 0 0 0 0 -53.978701347387869 180.69484133457445 0 180.69484133457445 -172.29507482193821 0 0 0 0 -151.76850282854411 -85.57714847472198 0 -85.57714847472198 -15.246872777493991 0 0 0 0 8.1346963975411199 -6.2890856818339671 0 -6.2890856818339671 -55.980640267094714 0 0 0 0 -96.710569332712112 22.755932786043559 0 22.755932786043559 44.896669312053746 0 0 0 0 59.87745075186649 14.767620525506572 0 14.767620525506572 -95.838360010224278 0 0 0 0 -5.5435708819131833 23.549329177694744 0 23.549329177694744 -37.487273620619817 0 0 0 0 44.137880342736025 49.202828485027567 0 49.202828485027567 -52.947635597214685 0 0 0 0 6.7173406968080371 -46.307869106993962 0 -46.307869106993962 -140.7044928096293 0 0 0 0 28.776726900116046 8.6934328075985832 0 8.6934328075985832 -90.858763488671684 0 0 0 0 47.678754813554406 4.0752281904788106 0 4.0752281904788106 -151.88846400622242 0 0 0 0 49.421685690082086 -13.96938446366039 0 -13.96938446366039 -133.37970463148304 0 0 0 0 39.443110508458631 10.874602539435728 0 10.874602539435728 -152.1635277827063 0 0 0 0 47.364868798316479 -2.521379581864835 0 -2.521379581864835 -135.36701558523055 0 0 0 0 31.384329553911812 8.1914127456511778 0 8.1914127456511778 -124.25905357535885 0 0 0 0 36.953488958253729 3.1985262848720595 0 3.1985262848720595 -121.1006953009819 0 0 0 0 18.807256417305325 7.9518967097974382 0 7.9518967097974382 -98.70570009041694 0 0 0 0 32.887669886460571 4.5146605554982671 0 4.5146605554982671 -101.51061855309672 0 0 0 0 30.989621657683529 13.826426055225966 0 13.826426055225966 -81.476546251447871 0 0 0 0 22.984936792770895 6.2679049807920819 0 6.2679049807920819 -78.265590793875162 0 0 0 0 19.281344047220045 17.561917308274133 0 17.561917308274133 -100.81805548275588 0 0 0 0 6.7626149774732767 20.052829781423497 0 20.052829781423497 -88.78758393003227 0 0 0 0 38.288007517083315 23.650743513753696 0 23.650743513753696 -86.04848681133808 0 0 0 0 53.007345918296778 -6.4442064079266856 0 -6.4442064079266856 -96.123915885833412 0 0 0 0 87.532919232504355 17.102778217125888 0 17.102778217125888 -86.54503223397478 0 0 0 0 -43.767332505238301 80.631446887899074 0 80.631446887899074 -353.07093772633783 0 0 0 0 -69.814115754843442 11.629302444997847 0 11.629302444997847 -33.053042996998101 0 0 0 0 20.420304918658076 -71.292444014305147 0 -71.292444014305147 -240.90402650336455 0 0 0 0 52.240311281540926 -9.0500693776775734 0 -9.0500693776775734 -65.536989383217588 0 0 0 0 65.946833072051959 -58.209062519711097 0 -58.209062519711097 -179.89392803336159 0 0 0 0 23.396879266714677 3.435935618057556 0 3.435935618057556 -44.967525077248865 0 0 0 0 2.5160417452134425 33.027923014582484 0 33.027923014582484 -34.261308535642456 0 0 0 0 5.3890876700437929 34.217364319450702 0 34.217364319450702 -4.3349715140030538 0 0 0 0 77.535261615162199 -62.924620390124801 0 -62.924620390124801 -183.34234893619214 0 0 0 0 12.517606996021641 29.262459479105019 0 29.262459479105019 -65.664283275196794 0 0 0 0 12.872001045675461 28.073813508930925 0 28.073813508930925 -94.476968763643526 0 0 0 0 6.8097923334134975 37.687825277971569 0 37.687825277971569 -79.904497000952688 0 0 0 0 124.51645654926324 -1.2237362413470692 0 -1.2237362413470692 -156.73579655475669 0 0 0 0 11.321759001522878 -8.7067987151240231 0 -8.7067987151240231 -156.60219520521787 0 0 0 0 -20.293335337591998 30.073438337989188 0 30.073438337989188 -18.968671848532885 0 0 0 0 2.4909723218307747 21.172967008443315 0 21.172967008443315 -8.0395310229714063 0 0 0 0 2.3375116465176689 86.682884347275831 0 86.682884347275831 -82.98926124809077 0 0 0 0 10.938396673715033 102.48614717102282 0 102.48614717102282 -146.14961426958325 0 0 0 0 4.0659908310518809 12.73639683267778 0 12.73639683267778 -5.1342496412820751 0 0 0 0 8.4664787364163203 36.02322018572886 0 36.02322018572886 -145.20503142207508 0 0 0 0 8.1698389373650571 37.716528610472778 0 37.716528610472778 -133.29753916520713 0 0 0 0 10.382085661627571 29.671448683567178 0 29.671448683567178 -165.00494488549884 0 0 0 0 -8.4348598730284721 23.04720317317333 0 23.04720317317333 -104.02088325985096 0 0 0 0 4.9748150853265543 27.797395766875525 0 27.797395766875525 -108.95862063314416 0 0 0 0 5.4115922517376021 19.693569178962207 0 19.693569178962207 -104.32403010543203 0 0 0 0 -6.8594366837216967 37.513156615039861 0 37.513156615039861 -112.17369818659063 0 0 0 0 16.61209693782439 22.746727040102996 0 22.746727040102996 -122.26911457847109 0 0 0 0 6.9297685977362562 30.447833357095078 0 30.447833357095078 -123.91697947356442 0 0 0 0 14.802835947080894 16.751765993205481 0 16.751765993205481 -118.07716827524928 0 0 0 0 15.762426656980097 16.140570968385873 0 16.140570968385873 -117.76610258652363 0 0 0 0 12.409023877293293 29.337974042617134 0 29.337974042617134 -132.48277521681666 0 0 0 0 29.645242162641807 12.381097720448452 0 12.381097720448452 -134.04597421125072 0 0 0 0 29.149838722192726 23.544932194726243 0 23.544932194726243 -141.04714389827859 0 0 0 0 27.972123409428605 20.334431527113338 0 20.334431527113338 -146.60736924933371 0 0 0 0 36.146418409878606 10.026406098069856 0 10.026406098069856 -133.63393271461246 0 0 0 0 15.625369950093955 33.059141739509869 0 33.059141739509869 -133.9697774633205 0 0 0 0 11.650043980787814 41.415419290884529 0 41.415419290884529 -144.10405815823651 0 0 0 0 5.0172831895415584 41.728243920157183 0 41.728243920157183 -134.84011631640169 0 0 0 0 13.013884011903428 37.198488353058565 0 37.198488353058565 -139.12484522639897 0 0 0 0 -8.7953825717904692 54.342068352216302 0 54.342068352216302 -70.089508777582523 0 0 0 0 3.3134700462669571 33.980641855050635 0 33.980641855050635 -108.67206884070856 0 0 0 0 8.8628070559825574 67.347441630430694 0 67.347441630430694 -147.86558324132056 0 0 0 0 -1.7972236007996543 20.695262973650539 0 20.695262973650539 0.82802638850178034 0 0 0 0 3.734288535536507 36.942288008639935 0 36.942288008639935 -58.303768105105746 0 0 0 0 7.2814990509887139 39.011336875835696 0 39.011336875835696 -131.68399055750888 0 0 0 0 -1.6885335360947238 30.633087606962569 0 30.633087606962569 -39.109205855970345 0 0 0 0 0.82963801947869342 43.997159555389544 0 43.997159555389544 -72.092556875570892 0 0 0 0 16.434111819104146 30.079494081375742 0 30.079494081375742 -87.121821074724721 0 0 0 0 24.004212905731038 40.802069544407004 0 40.802069544407004 -74.513323400269201 0 0 0 0 -9.6228604428506515 55.775860765549737 0 55.775860765549737 -82.225018789324622 0 0 0 0 -0.20673274941691488 66.053102207041775 0 66.053102207041775 -100.84912017222223 0 0 0 0 -42.579531412366123 67.501546278015667 0 67.501546278015667 -86.190332690684045 0 0 0 0 -129.78501554469904 82.002639804280761 0 82.002639804280761 -57.026799371640891 0 0 0 0 -0.030274877123617649 -0.56272725030836668 0 -0.56272725030836668 -12.484020098598396 0 0 0 0 3.4081190679537485 33.531453737559957 0 33.531453737559957 -46.065939484979936 0 0 0 0 -61.472272569810229 37.437116997183239 0 37.437116997183239 12.29185461374891 0 0 0 0 -40.676499835712093 -63.785977755235308 0 -63.785977755235308 145.58245895891014 0 0 0 0 55.945922774157225 -33.954503742325414 0 -33.954503742325414 -54.940358786675688 0 0 0 0 1.9724177775771459 2.777688669530427 0 2.777688669530427 -23.34263364071882 0 0 0 0 -37.730654096477338 27.585029702079993 0 27.585029702079993 -28.347831509962617 0 0 0 0 -27.965894215221851 60.420884411625636 0 60.420884411625636 -70.578977805279891 0 0 0 0 -12.142236923015389 29.170786146254997 0 29.170786146254997 -36.909212146693903 0 0 0 0 9.8231174483698851 37.361987995373056 0 37.361987995373056 -8.6031016111937788 0 0 0 0 27.282175477084408 36.388232151202146 0 36.388232151202146 -12.604387734614219 0 0 0 0 27.404851108880393 57.053858324291014 0 57.053858324291014 -60.372208113964007 0 0 0 0 7.3224271611973553 9.1962014193813175 0 9.1962014193813175 1.5662549598923334 0 0 0 0 9.7414615985050723 12.971005917970121 0 12.971005917970121 -76.99699714190001 0 0 0 0 119.79803925449687 22.742001642652212 0 22.742001642652212 -139.33702126645949 0 0 0 0 95.456753441279943 -7.1791541880102159 0 -7.1791541880102159 -153.40260403125285 0 0 0 0 3.1162176638863457 -16.095755090820603 0 -16.095755090820603 -101.39325795514014 0 0 0 0 161.11438014352052 -57.240739613427195 0 -57.240739613427195 -87.10840622885371 0 0 0 0 3.9983660040760896 3.2718050596523618 0 3.2718050596523618 -7.2486540737921459 0 0 0 0 47.303860446225372 -0.50737625596684666 0 -0.50737625596684666 -31.300049779763867 0 0 0 0 47.080246002441527 8.9565568078705837 0 8.9565568078705837 -45.15955407223845 0 0 0 0 41.678912146129633 0.08258623542131005 0 0.08258623542131005 -21.762779274354358 0 0 0 0 43.211049093812107 -10.251253902832104 0 -10.251253902832104 -80.899163149315427 0 0 0 0 -1.8675381563207338 27.584578941517009 0 27.584578941517009 -75.103856199193771 0 0 0 0 22.909921173753457 9.8371220067321339 0 9.8371220067321339 -59.502018247957309 0 0 0 0 -5.5593456481903729 23.226613113265255 0 23.226613113265255 -5.3502741135016674 0 0 0 0 -1.2387183834325697 -34.489471276844597 0 -34.489471276844597 10.191562057796546 0 0 0 0 -46.359997824053607 85.481199560209461 0 85.481199560209461 -71.633705603264389 0 0 0 0 19.104594999995243 53.447748071343085 0 53.447748071343085 -114.10332091250257 0 0 0 0 -37.699128049662249 35.265896483162578 0 35.265896483162578 11.793005935831388 0 0 0 0 1.554770813304458 47.471162846794869 0 47.471162846794869 -115.57422153130392 0 0 0 0 -1.8460498830299912 26.78758405650543 0 26.78758405650543 -72.802117308923357 0 0 0 0 22.132699887019044 20.965373847437149 0 20.965373847437149 -72.545498343043747 0 0 0 0 16.689921887639589 6.4510420650798288 0 6.4510420650798288 -65.223383520388978 0 0 0 0 43.46014077636039 2.3024387235691393 0 2.3024387235691393 -82.974049205782649 0 0 0 0 19.12102081944613 32.432794861844286 0 32.432794861844286 -76.855599570048071 0 0 0 0 63.812436027245667 -4.6236789335662252 0 -4.6236789335662252 -71.368130601116718 0 0 0 0 41.921872650077603 4.4656648478285206 0 4.4656648478285206 -57.0134541550633 0 0 0 0 32.240131910938089 28.626429338689377 0 28.626429338689377 -74.661711479526275 0 0 0 0 49.091345251824805 23.38443189672671 0 23.38443189672671 -92.11015206734919 0 0 0 0 46.296950110885518 31.060023868926692 0 31.060023868926692 -104.93824658066114 0 0 0 0 11.19405088749113 13.24941801145269 0 13.24941801145269 -63.938352018947626 0 0 0 0 17.148488463851663 11.342169830564671 0 11.342169830564671 -92.956300619695867 0 0 0 0 -76.852611420415997 92.064589960330522 0 92.064589960330522 -46.023313016919928 0 0 0 0 -23.730905522460034 48.845103024948003 0 48.845103024948003 -15.324772232916075 0 0 0 0 8.2081760401251813 91.705529728149486 0 91.705529728149486 -124.66161268031283 0 0 0 0 26.78550218722512 -8.6804071071637736 0 -8.6804071071637736 -137.99545833436605 0 0 0 0 0.82217990922837636 -0.39614703545049323 0 -0.39614703545049323 0.17741314246950424 0 0 0 0 74.042791612723249 37.791719884833583 0 37.791719884833583 -83.766067386995928 0 0 0 0 56.638730370106259 -5.8341931480892981 0 -5.8341931480892981 -35.139137856349407 0 0 0 0 -0.56358014043189542 11.361851828029103 0 11.361851828029103 -23.546593937559464 0 0 0 0 2.9054900958082612 20.389934588106144 0 20.389934588106144 -41.363123920647922 0 0 0 0 2.286334746988814 82.514195169513187 0 82.514195169513187 -149.05381053640303 0 0 0 0 -19.881885365084997 26.91036078081197 0 26.91036078081197 -72.525599336833693 0 0 0 0 10.590481143284933 29.403139001994532 0 29.403139001994532 -118.93401882480248 0 0 0 0 13.557445890447713 6.1231510864195258 0 6.1231510864195258 -73.356305402132321 0 0 0 0 -0.084093840926002805 3.4530927614238891 0 3.4530927614238891 -10.111951274478791 0 0 0 0 -20.329657375945317 55.638710755127249 0 55.638710755127249 -100.916711719874 0 0 0 0 3.4870636796317438 9.5285651967394358 0 9.5285651967394358 -55.6634818956747 0 0 0 0 13.787797525043061 11.604605348318728 0 11.604605348318728 -40.895411056906596 0 0 0 0 8.4879634846435579 17.675861995260512 0 17.675861995260512 -67.294403599616118 0 0 0 0 -12.449077437565848 -20.325369631651938 0 -20.325369631651938 -65.030832779095363 0 0 0 0 7.7611358484909942 10.122926727892263 0 10.122926727892263 -39.374515342270115 0 0 0 0 -0.96619368425422181 -41.228428157791768 0 -41.228428157791768 -65.197599426788656 0 0 0 0 -2.6324006197548879 2.1884846644277509 0 2.1884846644277509 -11.182255428275397 0 0 0 0 -10.740996225649269 -20.939347435971285 0 -20.939347435971285 -40.787569189837086 0 0 0 0 2.3047075673050585 -43.039850691968695 0 -43.039850691968695 -59.391464459311464 0 0 0 0 -28.451327727611215 -49.616788119661578 0 -49.616788119661578 -86.229123705516031 0 0 0 0 -40.992908361773061 -49.529395003646641 0 -49.529395003646641 -84.707767665778192 0 0 0 0 4.952421975926427 0.77937097728317895 0 0.77937097728317895 -21.471452707502976 0 0 0 0 -3.4200041855081214 2.3683547119641091 0 2.3683547119641091 -1.305090516535671 0 0 0 0 -2.7928134908538595 28.709454230478968 0 28.709454230478968 34.90191788820448 0 0 0 0 -5.0816416428433513 16.749859397717955 0 16.749859397717955 -2.7144552984609618 0 0 0 0 -0.86352472850081696 0.7621069450476412 0 0.7621069450476412 -0.94053535816971134 0 0 0 0 -42.999869867092457 -16.980960062673148 0 -16.980960062673148 1.5408421589545469 0 0 0 0 -38.078679064901735 -68.886165512845764 0 -68.886165512845764 -195.66847692221017 0 0 0 0 -49.679325435598571 74.444315778543228 0 74.444315778543228 129.37970659467464 0 0 0 0 93.965898078712144 64.223730392109246 0 64.223730392109246 -2.2349014657502266 0 0 0 0 31.152389869294439 27.866951283515846 0 27.866951283515846 -12.790667749997738 0 0 0 0 -30.78983015207632 183.48599302550315 0 183.48599302550315 -191.92371074812218 0 0 0 0 -6.8681596419974085 -12.517897095407079 0 -12.517897095407079 -89.955122672154175 0 0 0 0 0.32251161006238416 1.3528463317497721 0 1.3528463317497721 -4.7080274737865686 0 0 0 0 -385.92262998800652 321.31623585442662 0 321.31623585442662 -178.87485637497775 0 0 0 0 -46.610882833914729 94.449877941210389 0 94.449877941210389 -104.65613726323591 0 0 0 0 -118.63825948136127 77.116984634473056 0 77.116984634473056 -101.59633707340708 0 0 0 0 6.37197037794067 81.762742227275567 0 81.762742227275567 -141.77470717736969 0 0 0 0 114.85775956708858 42.530446034699253 0 42.530446034699253 -133.89785459465327 0 0 0 0 46.756378045241945 42.905690462464918 0 42.905690462464918 -107.34371262935645 0 0 0 0 38.3682189437136 -31.177372403992877 0 -31.177372403992877 -120.27453654323153 0 0 0 0 37.055577711649676 18.561399266875924 0 18.561399266875924 -81.630272899292322 0 0 0 0 4.6874653498180834 -3.1306402111980667 0 -3.1306402111980667 -14.884269612863244 0 0 0 0 84.572233419643453 44.107683078849732 0 44.107683078849732 -49.383607014940935 0 0 0 0 85.785473329284287 -15.814304034975976 0 -15.814304034975976 -56.065083174510619 0 0 0 0 5.4756743545731297 2.7345190373816877 0 2.7345190373816877 -57.79051603454127 0 0 0 0 12.888466675006349 1.2579890444088555 0 1.2579890444088555 -44.823129068880135 0 0 0 0 91.736365816675516 36.264849019422854 0 36.264849019422854 -114.63645063849162 0 0 0 0 90.127041744712187 -21.994260267160826 0 -21.994260267160826 -115.62082474292058 0 0 0 0 206.63965295323487 -156.64413612411136 0 -156.64413612411136 38.923709100553424 0 0 0 0 -1.8096743755213538 149.42095301717563 0 149.42095301717563 68.588910722226501 0 0 0 0 28.861089626894682 170.66599628852236 0 170.66599628852236 20.026002659288679 0 0 0 0 3.0403374519178925 0.78523109382143907 0 0.78523109382143907 -0.58941889042458584 0 0 0 0 9.6427164115739021 -7.9316295237844869 0 -7.9316295237844869 -75.14515193246865 0 0 0 0 41.288392943446297 -38.850781466292574 0 -38.850781466292574 -72.407421825215351 0 0 0 0 104.15240248482587 18.796666653619468 0 18.796666653619468 -127.19374983977013 0 0 0 0 5.6722508694621396 9.1227027473977707 0 9.1227027473977707 -19.113397464473756 0 0 0 0 45.632662377631277 -20.857960604003893 0 -20.857960604003893 -78.206829901131641 0 0 0 0 356.9955001104272 35.437585639815097 0 35.437585639815097 -129.5326984633939 0 0 0 0 31.048697501615607 36.274489195456226 0 36.274489195456226 66.972426628036857 0 0 0 0 -47.988374056591056 -220.82553752963668 0 -220.82553752963668 -252.0698190636258 0 0 0 0 20.186748034795528 -255.72595170127715 0 -255.72595170127715 2.9956039134358434 0 0 0 0 -76.759417232853593 -100.56956017947869 0 -100.56956017947869 -238.10970325550807 0 0 0 0 -15.110301527533011 155.07041229704055 0 155.07041229704055 15.512419574384694 0 0 0 0 302.83570301273539 29.194886209650122 0 29.194886209650122 -223.09345255842038 0 0 0 0 -252.38028902833594 -46.575973882179824 0 -46.575973882179824 -129.54168001882772 0 0 0 0 -264.23547833211524 141.97826871256166 0 141.97826871256166 -302.99555067021902 0 0 0 0 -50.951480775116352 28.655940745472662 0 28.655940745472662 -415.7167380787796 0 0 0 0 -28.688518045103592 -116.7808606215649 0 -116.7808606215649 -268.88363477891289 0 0 0 0 -80.260757759797343 -110.10274834573556 0 -110.10274834573556 -228.24561381228159 0 0 0 0 10.110121113478272 -92.692534888378759 0 -92.692534888378759 57.951586036429035 0 0 0 0 0.80817137503262648 -0.34089075010204262 0 -0.34089075010204262 -0.70455646496287017 0 0 0 0 117.3374754879942 32.53907575404719 0 32.53907575404719 -142.74897431576301 0 0 0 0 34.633009248765802 -4.7137037974075611 0 -4.7137037974075611 -28.461314053398382 0 0 0 0 13.17713705080515 2.8043727625220409 0 2.8043727625220409 -1.5782704725874552 0 0 0 0 42.629332791517072 4.3943638347518572 0 4.3943638347518572 -26.025323085317723 0 0 0 0 2.8101007551602608 -13.002896122415379 0 -13.002896122415379 -15.45823986438787 0 0 0 0 68.774225912889051 -135.41503249374955 0 -135.41503249374955 -33.757602260238855 0 0 0 0 -60.481670838534228 -75.075178793663554 0 -75.075178793663554 27.566883586559015 0 0 0 0 183.38048814898411 -48.429447855735589 0 -48.429447855735589 -69.304395554076109 0 0 0 0 83.10679924586475 -94.657649251443672 0 -94.657649251443672 -492.185245093513 0 0 0 0 -3.6004046935708658 -4.0038493868163672 0 -4.0038493868163672 -2.0326239889898403 0 0 0 0 6.4297268326845369 205.64890287169328 0 205.64890287169328 -14.65103513559734 0 0 0 0 -96.805093162820413 -183.72520908004299 0 -183.72520908004299 -275.45782327852339 0 0 0 0 481.75624339086789 -226.71583567117068 0 -226.71583567117068 -732.98458535329883 0 0 0 0 -160.77647762964352 134.46122162689608 0 134.46122162689608 238.80608098609446 0 0 0 0 70.040355378121149 -50.194410718700965 0 -50.194410718700965 -74.220495092216879 0 0 0 0 6.6720472701514852 -8.5486694343738083 0 -8.5486694343738083 -77.312024156375287 0 0 0 0 32.195895385591939 -41.059474746704836 0 -41.059474746704836 -58.963180555971121 0 0 0 0 56.139564132134637 -16.703959201731777 0 -16.703959201731777 -76.114180852793652 0 0 0 0 5.1719667115330683 -11.17271490758978 0 -11.17271490758978 -0.94916817878158 0 0 0 0 6.5674568539562577 -6.4790213764759059 0 -6.4790213764759059 -74.537827555603599 0 0 0 0 79.79619378841312 -49.191664307399151 0 -49.191664307399151 -75.609589467805563 0 0 0 0 31.33577171719844 -208.70011642666714 0 -208.70011642666714 247.80829392402285 0 0 0 0 78.790104995735419 -17.012693493708866 0 -17.012693493708866 -60.771371206272306 0 0 0 0 158.27953650863446 -38.680963278948184 0 -38.680963278948184 -76.306736313226793 0 0 0 0 5.5765079726847659 -9.2790744471714568 0 -9.2790744471714568 -27.377829164539399 0 0 0 0 -25.657066535691683 -29.004362342865534 0 -29.004362342865534 -51.318878120069712 0 0 0 0 47.04680427856988 -60.954269193753134 0 -60.954269193753134 -78.748879597029372 0 0 0 0 15.715856209159938 17.982082559396076 0 17.982082559396076 -40.335201323785441 0 0 0 0 -41.271878024364469 -64.771448435528328 0 -64.771448435528328 -148.20063311400372 0 0 0 0 60.417119297592762 -12.092891685277209 0 -12.092891685277209 -87.391538749748179 0 0 0 0 31.544691808034258 -14.004850315815929 0 -14.004850315815929 -2.296379060048821 0 0 0 0 79.381061049248501 -56.659322369841902 0 -56.659322369841902 -16.550059140572557 0 0 0 0 146.76353793677026 -39.555950560325073 0 -39.555950560325073 -78.766844202332322 0 0 0 0 9.2364175742112984 3.2907093522685855 0 3.2907093522685855 -46.05023288591655 0 0 0 0 45.325792524061399 -34.044556448641856 0 -34.044556448641856 -16.005403399615489 0 0 0 0 3.5001345658844363 -17.258368458995974 0 -17.258368458995974 -23.963914320121077 0 0 0 0 51.861104333117055 -20.813577642576547 0 -20.813577642576547 -24.35502565414572 0 0 0 0 64.068691638871542 -10.747139015374614 0 -10.747139015374614 -45.602696051562816 0 0 0 0 47.263785249668672 -6.5849491965136622 0 -6.5849491965136622 -43.021847872028957 0 0 0 0 43.171844282189113 -4.2872184555089916 0 -4.2872184555089916 -42.974455173240131 0 0 0 0 31.632326615419771 0.48417420091510621 0 0.48417420091510621 -31.412061041897687 0 0 0 0 31.283718258691835 -6.6320893793206324 0 -6.6320893793206324 -5.1681534691197157 0 0 0 0 31.811712961315607 13.888231012133474 0 13.888231012133474 -16.415472264448908 0 0 0 0 14.772373904399046 -75.29555097205332 0 -75.29555097205332 -1.0576768253595219 0 0 0 0 5.6694104598715231 -0.0045101314504503165 0 -0.0045101314504503165 -41.188995249719987 0 0 0 0 89.909612305338669 -44.112286485267077 0 -44.112286485267077 -57.565936616189902 0 0 0 0 -143.08382664659257 41.03201672920477 0 41.03201672920477 -93.27046767120919 0 0 0 0 -43.706956372095192 45.461784466542667 0 45.461784466542667 -159.5700603281839 0 0 0 0 -7.6812729551488701 26.762263034039279 0 26.762263034039279 -150.67157197067354 0 0 0 0 0.20350913509199164 0.49420876553293702 0 0.49420876553293702 -1.8925930613172142 0 0 0 0 167.00366610851984 -120.84818858561266 0 -120.84818858561266 -258.16907764341886 0 0 0 0 -36.142823453730671 2.8383380273407965 0 2.8383380273407965 -141.05382451346486 0 0 0 0 -36.362110949679874 5.4902595134699936 0 5.4902595134699936 -96.188210028714821 0 0 0 0 -16.422254695749189 9.238881863282586 0 9.238881863282586 -172.43690409838382 0 0 0 0 -39.458622781342001 32.377342137766391 0 32.377342137766391 -115.43379203732366 0 0 0 0 -40.303757223039156 31.606529355463863 0 31.606529355463863 -92.458624501791746 0 0 0 0 -35.59672448888341 25.537699086559314 0 25.537699086559314 -111.14812165723924 0 0 0 0 -36.961380095384811 17.057412219202888 0 17.057412219202888 -107.67938080073509 0 0 0 0 -21.596344733048682 -4.083127914895158 0 -4.083127914895158 -116.2950433288961 0 0 0 0 3.919820907682606 -11.819676383173828 0 -11.819676383173828 -63.49038756121081 0 0 0 0 -6.0358523171523757 -27.346847111252373 0 -27.346847111252373 -86.095262205062681 0 0 0 0 -39.67190358180784 4.3353755212094711 0 4.3353755212094711 -71.513900985488362 0 0 0 0 -54.790171688038299 8.3801565649173426 0 8.3801565649173426 -68.516199079200305 0 0 0 0 -12.258369669286367 7.061149948763159 0 7.061149948763159 -86.647361561042999 0 0 0 0 -149.61929862985789 74.325745760988866 0 74.325745760988866 -95.515561910065571 0 0 0 0 -65.609899971563493 52.29314496727693 0 52.29314496727693 -105.99227720781892 0 0 0 0 -2.6452028371263623 7.5663555914879908 0 7.5663555914879908 -125.92989627125917 0 0 0 0 -16.287287494210432 35.36598444270021 0 35.36598444270021 -145.11778547243375 0 0 0 0 30.351866952621094 -9.3693951658715378 0 -9.3693951658715378 -121.06314159696558 0 0 0 0 -14.90895642906581 12.313877114293291 0 12.313877114293291 -106.15229120861113 0 0 0 0 26.926265687289174 -27.684327693773866 0 -27.684327693773866 -99.909929979672597 0 0 0 0 -5.2765995701864767 -13.377279859361806 0 -13.377279859361806 -87.111658873029228 0 0 0 0 -52.368800625591575 31.529343335765589 0 31.529343335765589 -100.42498897242876 0 0 0 0 0.90765273178385542 2.491168750633733 0 2.491168750633733 -101.34658153716737 0 0 0 0 -8.8386428207950303 -11.201930964398343 0 -11.201930964398343 -79.457442214214097 0 0 0 0 26.110550127704983 -53.044375522443261 0 -53.044375522443261 -63.974904362499728 0 0 0 0 67.84576260205381 -17.579060717501306 0 -17.579060717501306 -134.35077791113508 0 0 0 0 -0.85401400682394524 8.8680982564383157 0 8.8680982564383157 -126.78003462313063 0 0 0 0 -34.486812595938318 -45.528187855914439 0 -45.528187855914439 -21.847125332136784 0 0 0 0 -105.73297595677423 -105.33274493771296 0 -105.33274493771296 -159.93937933228335 0 0 0 0 -38.977452484290097 -18.936519122876234 0 -18.936519122876234 -48.230241515881062 0 0 0 0 -18.022695095825611 51.84392787639581 0 51.84392787639581 -250.87630889747015 0 0 0 0 16.625105085128098 168.7162762908506 0 168.7162762908506 -20.617879003293638 0 0 0 0 -0.0056645002806456901 0.53293518199169565 0 0.53293518199169565 -2.7245020528454802 0 0 0 0 27.035732757532287 -60.489749985649723 0 -60.489749985649723 59.747789541803286 0 0 0 0 13.057796021608738 -20.342397892645749 0 -20.342397892645749 -25.785187455361665 0 0 0 0 22.629959089978001 -90.94081877476583 0 -90.94081877476583 -68.130113090355735 0 0 0 0 10.549076944727858 -3.6458600430396473 0 -3.6458600430396473 -141.54400686490652 0 0 0 0 63.761072752304699 -77.17539945423141 0 -77.17539945423141 -139.52062673989712 0 0 0 0 -5.5083189030065114 -164.01585414517285 0 -164.01585414517285 -4.3047222468397024 0 0 0 0 -120.47815145851519 171.04020394751205 0 171.04020394751205 -12.966399794568133 0 0 0 0 -0.10391795442562213 1.6345482505466169 0 1.6345482505466169 -6.0423213414543397 0 0 0 0 -115.12333370374381 -34.169888312689181 0 -34.169888312689181 -14.07198314267589 0 0 0 0 -34.850252065483801 -55.814122808924367 0 -55.814122808924367 -42.765240194925354 0 0 0 0 216.01134850986364 106.68016178740982 0 106.68016178740982 -82.670057716948577 0 0 0 0 -16.314387643706823 9.0661391823357462 0 9.0661391823357462 -44.003570526794647 0 0 0 0 52.765782922770995 -55.453818171928106 0 -55.453818171928106 -55.807888533511687 0 0 0 0 17.524115001065184 -37.140863897291638 0 -37.140863897291638 -17.891691751676262 0 0 0 0 -50.004257027692347 51.437521732209461 0 51.437521732209461 -80.480020180657448 0 0 0 0 139.48913567557065 -46.245438204547099 0 -46.245438204547099 -161.06710845738598 0 0 0 0 44.377022529747137 -98.352663106803448 0 -98.352663106803448 22.61019876219143 0 0 0 0 35.075061383952743 -37.147729550562872 0 -37.147729550562872 -39.088656007126701 0 0 0 0 29.430079517578633 -29.12047013379015 0 -29.12047013379015 -5.5280247433176442 0 0 0 0 35.444850900922347 -37.352097225095804 0 -37.352097225095804 -40.238008676362369 0 0 0 0 0.11231410193952929 -0.035238461026104062 0 -0.035238461026104062 0.7066664795991997 0 0 0 0 -37.855262745805703 -52.402149307615218 0 -52.402149307615218 -59.470637277641799 0 0 0 0 93.031541123123361 28.377344040503431 0 28.377344040503431 -12.097183450001467 0 0 0 0 97.068069535622953 16.133546686734007 0 16.133546686734007 -100.1040357704278 0 0 0 0 253.5875766233994 -23.104590383259165 0 -23.104590383259165 -165.20624478220725 0 0 0 0 4.1612662628160386 -3.4079183747146597 0 -3.4079183747146597 -77.648063468023594 0 0 0 0 74.082812391147399 32.775791355716592 0 32.775791355716592 -99.316575010030647 0 0 0 0 16.172356454918372 5.8788268180651357 0 5.8788268180651357 -77.068344717286891 0 0 0 0 66.794656376267085 0.60785103734269796 0 0.60785103734269796 -76.527027290690057 0 0 0 0 74.546306604830306 -11.533166871850881 0 -11.533166871850881 -69.798268400169036 0 0 0 0 46.003618218067459 1.8377247795378935 0 1.8377247795378935 -64.166314394125948 0 0 0 0 36.367430997727979 -13.546992833334571 0 -13.546992833334571 -62.665433988189761 0 0 0 0 53.465327529537262 -0.7332220845764823 0 -0.7332220845764823 -55.738591233541229 0 0 0 0 56.214037201551491 -6.0291723395775989 0 -6.0291723395775989 -47.948626542955026 0 0 0 0 61.522282368328661 -8.8586907718449766 0 -8.8586907718449766 -59.82130139083165 0 0 0 0 61.976170560648825 -7.9173506897022889 0 -7.9173506897022889 -59.493925525322993 0 0 0 0 -78.432920708766687 -82.58150783236124 0 -82.58150783236124 -2.7663961826301602 0 0 0 0 101.08299254822464 0.65066701153500617 0 0.65066701153500617 -80.053176534313025 0 0 0 0 78.88850368912972 -23.400706846397952 0 -23.400706846397952 -52.719803013003911 0 0 0 0 10.252727045615881 10.332159402141853 0 10.332159402141853 -10.38502821286302 0 0 0 0 183.55209696274878 27.22123038037887 0 27.22123038037887 -116.70894573140322 0 0 0 0 -25.16896678741432 74.445471511268806 0 74.445471511268806 34.870995838413364 0 0 0 0 -0.21781433256382132 0.89576783412162797 0 0.89576783412162797 -15.820854563778248 0 0 0 0 23.590161602547141 149.26422561018808 0 149.26422561018808 -194.85934098424104 0 0 0 0 19.673638884491993 142.02362717068536 0 142.02362717068536 -140.64462035821998 0 0 0 0 8.3265740778579129 62.440992464342344 0 62.440992464342344 -82.568634619271506 0 0 0 0 -250.14803450591671 -377.62455053833389 0 -377.62455053833389 -100.04461869827719 0 0 0 0 -0.034205495838250943 -0.88557770918705359 0 -0.88557770918705359 -5.467010224347149 0 0 0 0 15.985510652620178 53.858408489106296 0 53.858408489106296 -525.86348166708012 0 0 0 0 -56.215923540282347 176.2243800025235 0 176.2243800025235 -128.46306389428173 0 0 0 0 -239.49602377267814 445.01416499550749 0 445.01416499550749 -159.63955544194687 0 0 0 0 -14.131103225772222 20.734257081534452 0 20.734257081534452 -32.045963914765707 0 0 0 0 -340.14420974339566 -181.85266775943614 0 -181.85266775943614 -153.36181591499917 0 0 0 0 14.337788833517607 -15.975769848245363 0 -15.975769848245363 -213.47829968141559 0 0 0 0 -37.837194523417111 -102.58503469433799 0 -102.58503469433799 -33.828246653474707 0 0 0 0 -1.2780515564118105 -23.22901968651604 0 -23.22901968651604 38.789508434554591 0 0 0 0 -14.443784901669915 -63.273143908964812 0 -63.273143908964812 -82.039806480794141 0 0 0 0 -76.360032548866457 19.654279340993526 0 19.654279340993526 54.693863407948811 0 0 0 0 52.100932018484627 -12.376517843701663 0 -12.376517843701663 -122.55435201786531 0 0 0 0 1.8022957206297852 -5.3816106930061558 0 -5.3816106930061558 -16.878457783416685 0 0 0 0 288.46654380027076 206.74915135943365 0 206.74915135943365 -170.63172596714321 0 0 0 0 1.6064334276322167 2.0388369901836407 0 2.0388369901836407 -78.966772385405704 0 0 0 0 26.83069813690804 -71.303866768263106 0 -71.303866768263106 -244.55354234840524 0 0 0 0 -1.5201173216983079 -44.445587625389635 0 -44.445587625389635 -67.036158900004693 0 0 0 0 -0.66784274716036141 -0.12202814015131302 0 -0.12202814015131302 0.13475464090979727 0 0 0 0 65.139889242073878 84.154400251938569 0 84.154400251938569 -10.280620390459148 0 0 0 0 43.895260755325126 16.562041468750976 0 16.562041468750976 -75.336776611882669 0 0 0 0 -7.2917779868098478 9.075003790266237 0 9.075003790266237 -14.613062223394252 0 0 0 0 20.029167642539278 -35.054646300536206 0 -35.054646300536206 -141.94720639476782 0 0 0 0 6.8951785471964921 -0.32255768679328511 0 -0.32255768679328511 0.31399252765064745 0 0 0 0 -4.4368434216066817 -44.562595667700407 0 -44.562595667700407 -72.127195159617713 0 0 0 0 -22.189637965549991 -32.304219130594447 0 -32.304219130594447 -92.577238126697011 0 0 0 0 29.648439262449529 -41.603435751512279 0 -41.603435751512279 -92.995682948319882 0 0 0 0 13.579172182323418 -24.143027765947863 0 -24.143027765947863 -97.183586473700416 0 0 0 0 7.6893210910247944 -33.511641343255633 0 -33.511641343255633 -88.693292871399535 0 0 0 0 55.148963698763509 15.543962468139398 0 15.543962468139398 -114.53976588931801 0 0 0 0 29.149142949184352 -16.355932204329292 0 -16.355932204329292 -136.46947609916515 0 0 0 0 19.937340085358755 -20.042617376898306 0 -20.042617376898306 -77.120728157069607 0 0 0 0 35.575396417663796 -13.173569979679087 0 -13.173569979679087 -83.353063781944002 0 0 0 0 35.729646517569563 -34.519826384212138 0 -34.519826384212138 -91.290240808895987 0 0 0 0 36.504391059078444 -35.677017883213011 0 -35.677017883213011 -96.042537481520412 0 0 0 0 48.120500370530863 -43.810632830072791 0 -43.810632830072791 -98.452276436311877 0 0 0 0 56.547361466311031 -18.447449642748325 0 -18.447449642748325 -88.334470025790324 0 0 0 0 48.536455124052736 -24.961435339501804 0 -24.961435339501804 -93.176462910327018 0 0 0 0 41.917395165100061 -8.2047847878911853 0 -8.2047847878911853 -68.468594632409804 0 0 0 0 42.040579138018984 -12.222398782261735 0 -12.222398782261735 -76.966158107306683 0 0 0 0 44.949388547555827 0.48638688384562556 0 0.48638688384562556 -57.765787551260928 0 0 0 0 37.985225626226793 -10.159920656861686 0 -10.159920656861686 -66.866793813325785 0 0 0 0 61.175792350585198 -72.399868440884347 0 -72.399868440884347 -130.18137300593571 0 0 0 0 79.406386856748213 -33.760227363984086 0 -33.760227363984086 -108.18949175759849 0 0 0 0 40.843306235725777 -56.696574981480808 0 -56.696574981480808 -115.64446532988859 0 0 0 0 38.519555374269657 -59.503176303609962 0 -59.503176303609962 -110.66076605420676 0 0 0 0 39.773919745407056 -57.580647540684822 0 -57.580647540684822 -107.87635467199743 0 0 0 0 11.496225789901473 -47.752861912716526 0 -47.752861912716526 -110.37980162726126 0 0 0 0 55.08441692481415 15.723964958010583 0 15.723964958010583 -56.998961230656278 0 0 0 0 94.542787342750671 -59.898791754820195 0 -59.898791754820195 -108.75457641799221 0 0 0 0 24.92473377047736 -77.004447797990224 0 -77.004447797990224 -95.143675540009099 0 0 0 0 -55.755860741378456 38.911969608164327 0 38.911969608164327 23.698723170362655 0 0 0 0 2.462481357185105 0.2293761391973721 0 0.2293761391973721 -0.60584390426708801 0 0 0 0 115.6975059935553 -131.28256906092292 0 -131.28256906092292 -181.73535112379705 0 0 0 0 -83.152025925565795 -11.684524454271013 0 -11.684524454271013 -0.29841184912129393 0 0 0 0 -101.0851822067998 -74.942763793939775 0 -74.942763793939775 -42.766880668279555 0 0 0 0 5.2826491446176078 6.2432745460118895 0 6.2432745460118895 -72.542996645128369 0 0 0 0 0.63197659276238838 0.071609888132229571 0 0.071609888132229571 0.12135962986643989 0 0 0 0 49.2766934170686 -8.1666905860656698 0 -8.1666905860656698 -76.846293750637415 0 0 0 0 -0.81829758704952837 6.0523576451687404 0 6.0523576451687404 -6.594258101350988 0 0 0 0 9.2134714851126773 -41.101335636408294 0 -41.101335636408294 -72.97137988605391 0 0 0 0 36.62249862389217 -1.377858752866814 0 -1.377858752866814 -80.487761880550352 0 0 0 0 -69.496175744908214 -91.046863119044701 0 -91.046863119044701 -86.225476042391165 0 0 0 0 -40.430446609376304 -70.513183484003093 0 -70.513183484003093 -77.516303092657836 0 0 0 0 -57.132169715264808 -58.745666615089249 0 -58.745666615089249 -82.487072940355574 0 0 0 0 -43.318241211085478 -37.881484805902801 0 -37.881484805902801 -51.470290629085412 0 0 0 0 -36.893502239619011 -35.70193312183801 0 -35.70193312183801 -80.750964253670645 0 0 0 0 4.0325491535490663 0.45741259904251308 0 0.45741259904251308 -9.9930767574322825 0 0 0 0 5.515460715397694 -0.8659757573486786 0 -0.8659757573486786 -26.97617644267666 0 0 0 0 4.5621809287267752 -3.093916823323525 0 -3.093916823323525 -25.83885247717626 0 0 0 0 -9.303054073068779 16.556923970314529 0 16.556923970314529 -35.169628832421949 0 0 0 0 3.806019526693774 3.2229176568485798 0 3.2229176568485798 -14.687613869942922 0 0 0 0 13.096428331038624 15.994225921775978 0 15.994225921775978 -39.509606040362996 0 0 0 0 -4.8779958955055918 -22.187115843544234 0 -22.187115843544234 -25.599395397693115 0 0 0 0 -44.335906467806126 -17.979909401085024 0 -17.979909401085024 -23.001466976514166 0 0 0 0 -15.911064321510366 -30.209238378361533 0 -30.209238378361533 -78.991944085697469 0 0 0 0 -0.77721845021733316 -21.0899572864937 0 -21.0899572864937 -41.875889486381539 0 0 0 0 -69.098242032887356 -5.136606385433879 0 -5.136606385433879 -15.714831653360307 0 0 0 0 -2.9949285486336521 1.2322764600936758 0 1.2322764600936758 -5.2062170531465171 0 0 0 0 5.0361372288734856 6.7737452397359448 0 6.7737452397359448 -18.143015125135207 0 0 0 0 3.1293111491131747 2.2814710804511762 0 2.2814710804511762 -15.37828360820782 0 0 0 0 -100.37777005504722 -54.44908300246334 0 -54.44908300246334 -31.33980043649899 0 0 0 0 -3.3903724802301944 2.8691066210055851 0 2.8691066210055851 -2.4256457573380388 0 0 0 0 -122.96869918352104 -79.090362823604664 0 -79.090362823604664 -73.800920111629239 0 0 0 0 77.253130323402729 55.556887702536187 0 55.556887702536187 10.501633425126784 0 0 0 0 -66.714848601430276 -32.167011892151095 0 -32.167011892151095 -64.368016291784443 0 0 0 0 -45.113032019815364 -41.58663563146456 0 -41.58663563146456 -150.3669786807277 0 0 0 0 -74.239227937573332 -68.566114053384467 0 -68.566114053384467 -85.510444719848238 0 0 0 0 -29.182496429312891 -66.666073263685803 0 -66.666073263685803 -186.1342483671433 0 0 0 0 -31.38827526703335 26.632375768272141 0 26.632375768272141 -259.67658827744162 0 0 0 0 -33.130515323562804 -42.521681608350036 0 -42.521681608350036 -327.93976151370771 0 0 0 0 -86.80076160135286 -117.75343791896012 0 -117.75343791896012 -180.2248497241826 0 0 0 0 -4.9437544216125389 -28.071476165694094 0 -28.071476165694094 -83.780600462663642 0 0 0 0 -32.435906022250492 -33.38125989281707 0 -33.38125989281707 -103.96441938202884 0 0 0 0 -35.145682974496594 -52.704351299162226 0 -52.704351299162226 -101.70658339671354 0 0 0 0 -46.738583853066302 -57.87870425249821 0 -57.87870425249821 -107.8851885162785 0 0 0 0 -46.218281356177613 -43.961923318927802 0 -43.961923318927802 -87.85465682414133 0 0 0 0 -64.727280107267688 -2.8980865504381654 0 -2.8980865504381654 -145.88806474155035 0 0 0 0 -28.770495615103755 -46.740095510344872 0 -46.740095510344872 -149.66624485533794 0 0 0 0 0.38987784910250411 -59.75332602449862 0 -59.75332602449862 -121.38847603772592 0 0 0 0 -34.182552828600819 -26.238310454564271 0 -26.238310454564271 -119.58670047980792 0 0 0 0 -26.474741100482333 -26.71861961873492 0 -26.71861961873492 -151.08394454028894 0 0 0 0 -82.256490427508652 20.615607590110812 0 20.615607590110812 -119.08191090428954 0 0 0 0 -101.57331508261416 100.82216753569389 0 100.82216753569389 -241.4780729695849 0 0 0 0 -27.268088513082603 8.1221836718509621 0 8.1221836718509621 -194.30414094150728 0 0 0 0 -15.935325926770929 49.654102620505 0 49.654102620505 -285.32558792965801 0 0 0 0 -176.45812118768208 179.15101205941073 0 179.15101205941073 -256.00064072677424 0 0 0 0 18.696223377466595 77.139810373035289 0 77.139810373035289 -309.45778498939603 0 0 0 0 -32.782774363813587 20.987532982395351 0 20.987532982395351 -312.04619669353178 0 0 0 0 -20.867500397094773 15.432514939317116 0 15.432514939317116 -314.00768653467458 0 0 0 0 -11.694808740890039 91.810419469877161 0 91.810419469877161 -307.49602552490796 0 0 0 0 -8.8131030436981064 70.942425747761035 0 70.942425747761035 -278.44302561489894 0 0 0 0 12.437999491156006 78.23115550518105 0 78.23115550518105 -276.09826209841003 0 0 0 0 8.3499724887124103 62.370272705431489 0 62.370272705431489 -192.78780630778056 0 0 0 0 80.20201700675625 69.788472840902614 0 69.788472840902614 -311.99062108056023 0 0 0 0 -22.83181213933949 20.829365430262442 0 20.829365430262442 -321.60797747997276 0 0 0 0 91.998960982001108 83.027881757267778 0 83.027881757267778 -199.18753855453542 0 0 0 0 68.974239506017966 1.9900592185208552 0 1.9900592185208552 -148.28430091877817 0 0 0 0 -0.066772137002178766 0.41734759916822739 0 0.41734759916822739 1.4696253674623776 0 0 0 0 -20.032723111996347 63.418709627161661 0 63.418709627161661 -225.8669462496764 0 0 0 0 -5.0310248738336973 4.2317118277200549 0 4.2317118277200549 -0.64839382648055466 0 0 0 0 -8.8452478395183789 41.082968226643061 0 41.082968226643061 -232.63083304864631 0 0 0 0 -115.04601133725237 53.599244821357843 0 53.599244821357843 276.52582661027463 0 0 0 0 -47.020627536101642 -140.94528041581594 0 -140.94528041581594 -250.12302319152877 0 0 0 0 59.861339047369256 96.478237126550539 0 96.478237126550539 -19.506524763899506 0 0 0 0 -77.179417006615608 73.103546002959433 0 73.103546002959433 -28.120004346725182 0 0 0 0 43.633936408798036 -18.02119582281739 0 -18.02119582281739 30.862183640419971 0 0 0 0 -133.0418455420704 83.861690744154657 0 83.861690744154657 247.06710743145572 0 0 0 0 -6.5623631413418479 99.132610224232849 0 99.132610224232849 -521.44980127807776 0 0 0 0 -2.2921450248415134 1.2100238041683369 0 1.2100238041683369 -0.30511295523341664 0 0 0 0 -5.2748783767607392 -96.178145048943293 0 -96.178145048943293 -42.662964544637362 0 0 0 0 -7.60011481548554 151.48626779687311 0 151.48626779687311 -122.04663208466718 0 0 0 0 -162.6279216411142 193.75402079354035 0 193.75402079354035 -133.49453957552214 0 0 0 0 75.418150982849056 176.8008819498782 0 176.8008819498782 -198.09880748848445 0 0 0 0 15.849123151465392 114.51482504527303 0 114.51482504527303 -125.03866340802097 0 0 0 0 181.70480133355159 -93.54796265956702 0 -93.54796265956702 60.690124728460432 0 0 0 0 -44.911615555283561 84.767994462773231 0 84.767994462773231 -138.8294251729003 0 0 0 0 16.223348363559126 168.60186981206243 0 168.60186981206243 -282.24900034173015 0 0 0 0 87.380628811259157 -17.800585236976985 0 -17.800585236976985 -109.15643775156911 0 0 0 0 -120.66521196100848 51.398669492299632 0 51.398669492299632 -99.381749073530955 0 0 0 0 70.326951960052611 -22.548859241846912 0 -22.548859241846912 -131.41696619002096 0 0 0 0 -33.182495800494507 -24.641804150640382 0 -24.641804150640382 -124.06340132788137 0 0 0 0 6.0354799767499117 2.4205496727013003 0 2.4205496727013003 1.1763337683510962 0 0 0 0 12.385999030935636 2.6484357041890689 0 2.6484357041890689 -16.79344641372154 0 0 0 0 -8.692234179065963 -63.974910758107853 0 -63.974910758107853 153.3814912491207 0 0 0 0 14.262384587830184 19.135776693507069 0 19.135776693507069 -45.826295839032355 0 0 0 0 11.599673056599386 4.7516311039580614 0 4.7516311039580614 -27.693366112158401 0 0 0 0 9.2687021100348943 55.289391890342003 0 55.289391890342003 -3.1778569906255143 0 0 0 0 26.50594453406967 6.7873546122805237 0 6.7873546122805237 -29.803544595621133 0 0 0 0 28.966671434693581 -7.5252007631306697 0 -7.5252007631306697 -21.591663160669668 0 0 0 0 52.341249050502483 15.087000413109308 0 15.087000413109308 -44.496912716430415 0 0 0 0 58.131247620965951 2.8098148415367632 0 2.8098148415367632 -100.51500294239486 0 0 0 0 150.25703059240368 62.959560789618081 0 62.959560789618081 -61.325412920905364 0 0 0 0 144.66091812924014 -73.748081722414099 0 -73.748081722414099 -130.71903515772919 0 0 0 0 -5.4885250652826016 -71.362259952883733 0 -71.362259952883733 -106.32364790932115 0 0 0 0 -126.78167740420037 -24.642010882243767 0 -24.642010882243767 40.271008687705944 0 0 0 0 2.0347786667015484 0.65630665497956464 0 0.65630665497956464 0.26985557472689869 0 0 0 0 0.50415552270121111 -0.36653716015098325 0 -0.36653716015098325 20.684659410508175 0 0 0 0 0.53986211814577167 3.8712597311314312 0 3.8712597311314312 -7.3936817998546758 0 0 0 0 -0.22383428744493 0.77358632646446068 0 0.77358632646446068 -0.94135938974565647 0 0 0 0 -8.1235276148598388 -5.807999078906505 0 -5.807999078906505 55.49781807018735 0 0 0 0 5.5761829257879798 11.214499414301827 0 11.214499414301827 -3.1049483139252629 0 0 0 0 -1.4122803366430996 3.6228280716240988 0 3.6228280716240988 -3.1764091964862473 0 0 0 0 -2.8838818398834398 2.1625316353602102 0 2.1625316353602102 0.55450824711624591 0 0 0 0 -0.14723253572944642 0.63720195397777957 0 0.63720195397777957 -1.3493385591809535 0 0 0 0 0.94305989957684333 3.7573162551525456 0 3.7573162551525456 -13.896745462763647 0 0 0 0 -0.012124000936893965 2.2501897077308968 0 2.2501897077308968 -7.0967499580074218 0 0 0 0 -2.026235950828513 -4.1589364275605476 0 -4.1589364275605476 1.3360229895479279 0 0 0 0 -2.5839463119599411 5.1836035874475783 0 5.1836035874475783 -4.9420279123260116 0 0 0 0 3.3620325608417203 -1.8081992313199393 0 -1.8081992313199393 -5.3149027139524492 0 0 0 0 -12.635011406019885 10.672633967446018 0 10.672633967446018 -21.561008495067654 0 0 0 0 -8.5275474195545939 2.2812233530639787 0 2.2812233530639787 -6.3824304562294856 0 0 0 0 7.7736369033149231 16.121037252401948 0 16.121037252401948 -31.940942957142397 0 0 0 0 -5.6600749722297223 11.418152499631105 0 11.418152499631105 -15.339774712906546 0 0 0 0 3.9960916300977942 10.771738522795204 0 10.771738522795204 -5.4268381312140264 0 0 0 0 3.9214863152647799 -2.3980724929860457 0 -2.3980724929860457 -4.1720029192321846 0 0 0 0 0.28364313486806481 0.79560855687343235 0 0.79560855687343235 -0.56593909026252831 0 0 0 0 -10.917244010824845 12.761082289493061 0 12.761082289493061 -13.609942180737562 0 0 0 0 -3.6452656210176828 5.3788362406029933 0 5.3788362406029933 -1.5378073484491743 0 0 0 0 1.91476741105879 8.9038388251137803 0 8.9038388251137803 -27.862914170214935 0 0 0 0 5.2098925065592994 9.1874379444780061 0 9.1874379444780061 -18.127122496029187 0 0 0 0 3.6613863782646865 6.0323563229907151 0 6.0323563229907151 -13.735069935166536 0 0 0 0 -15.749261767128928 32.083415996479744 0 32.083415996479744 10.886245527595747 0 0 0 0 -8.7784559870365229 34.615181282628328 0 34.615181282628328 -0.96798719008074841 0 0 0 0 -2.9188726606988382 3.8622350075602299 0 3.8622350075602299 -8.1870873009465868 0 0 0 0 26.784143098539062 16.237744267004018 0 16.237744267004018 -3.4636340111392201 0 0 0 0 2.073520556989831 1.5343668690511265 0 1.5343668690511265 -3.4269290882113808 0 0 0 0 -7.3380501941938405 8.993333531623648 0 8.993333531623648 9.5136705950862961 0 0 0 0 -3.7306933891895699 4.3202332510196442 0 4.3202332510196442 0.38682705360082537 0 0 0 0 -2.4540117784903259 13.514835940935882 0 13.514835940935882 -18.73857064027834 0 0 0 0 -2.520666970909982 11.76020039018124 0 11.76020039018124 8.9671697431913344 0 0 0 0 -17.500717557238559 20.437550197060773 0 20.437550197060773 16.07749825589417 0 0 0 0 -15.170420475359549 20.289303715318965 0 20.289303715318965 15.775992755341576 0 0 0 0 -15.571772579316871 21.585582060815796 0 21.585582060815796 15.457635276099609 0 0 0 0 -11.022543193752313 24.167439991724677 0 24.167439991724677 16.613860235112952 0 0 0 0 -15.527903201500095 22.396787285493701 0 22.396787285493701 13.816571895600646 0 0 0 0 -4.4008559565128849 47.795668735565414 0 47.795668735565414 11.627528740529669 0 0 0 0 -1.4632621859857817 2.1437558226177273 0 2.1437558226177273 -1.3231628466814698 0 0 0 0 -11.952480910712723 7.8936283780731173 0 7.8936283780731173 6.2995479297096608 0 0 0 0 -15.521159562131857 25.666664467280498 0 25.666664467280498 33.516271366584988 0 0 0 0 9.1134210507471209 39.690182779948373 0 39.690182779948373 13.207726809589076 0 0 0 0 6.4395182312882753 33.886946331076615 0 33.886946331076615 28.799041699719965 0 0 0 0 -0.31838077581787394 0.026962278018551444 0 0.026962278018551444 0.13788469585780661 0 0 0 0 -9.6670251497715753 37.131968135032366 0 37.131968135032366 1.6221870511271845 0 0 0 0 -5.8177297625651363 32.104918983350217 0 32.104918983350217 43.576633127930108 0 0 0 0 -20.926187407430916 15.639200413781509 0 15.639200413781509 25.882488786784052 0 0 0 0 -9.0325879025574949 14.768193053419964 0 14.768193053419964 -24.911768358681002 0 0 0 0 -12.053670024702981 31.44161180590163 0 31.44161180590163 -27.310095777292645 0 0 0 0 -21.001347875017927 1.6477835154255445 0 1.6477835154255445 7.3277906463845284 0 0 0 0 -1.7840774269467339 20.154835602346793 0 20.154835602346793 -15.388441968963889 0 0 0 0 -14.775740773733006 20.404134086478734 0 20.404134086478734 10.419461300632975 0 0 0 0 -14.16623628333025 12.835460194484767 0 12.835460194484767 11.01532095956054 0 0 0 0 -12.286349668481677 19.958481432645385 0 19.958481432645385 25.916773312434088 0 0 0 0 7.7727925824097248 25.64316579581282 0 25.64316579581282 18.17100631845824 0 0 0 0 0.033428006703854506 9.7206012982096581 0 9.7206012982096581 53.431536289994256 0 0 0 0 -6.4126215370938695 23.187500850144716 0 23.187500850144716 48.790572361363957 0 0 0 0 -5.4797670788016362 10.23364506177677 0 10.23364506177677 20.354424934936105 0 0 0 0 -2.6965432697049394 25.29866962248343 0 25.29866962248343 5.8329971146195021 0 0 0 0 -0.059338378781570042 25.515709321267423 0 25.515709321267423 -20.912469988597877 0 0 0 0 -0.074789989402378285 12.869253581608518 0 12.869253581608518 1.5142133428162197 0 0 0 0 4.1165417917279896 21.542848581646467 0 21.542848581646467 -40.614910774238524 0 0 0 0 -16.276009735103671 16.112557260155882 0 16.112557260155882 -16.503467092810752 0 0 0 0 29.517420629248765 20.255018721617489 0 20.255018721617489 -123.84697671023605 0 0 0 0 -36.420142499261104 -45.786416940565687 0 -45.786416940565687 -140.76015249396005 0 0 0 0 4.6791875019296523 -45.066099062556532 0 -45.066099062556532 -167.06182370086026 0 0 0 0 -0.2516110144034111 -0.18041274809147012 0 -0.18041274809147012 -0.23864331626599267 0 0 0 0 -43.059055219641436 -16.530554718141502 0 -16.530554718141502 -54.075675956908526 0 0 0 0 -0.019597674107729019 -22.269568153344153 0 -22.269568153344153 -226.16569264080317 0 0 0 0 -27.194965773458065 -50.770024993231345 0 -50.770024993231345 -164.80936330181066 0 0 0 0 -7.5411241519242669 -38.619854502738235 0 -38.619854502738235 -226.99368488967593 0 0 0 0 -10.666395256442243 -81.362958748602978 0 -81.362958748602978 -264.05949555735424 0 0 0 0 3.5669377521071368 -58.612798453083087 0 -58.612798453083087 -225.13730608366313 0 0 0 0 -7.0654797087333066 -76.606217820713937 0 -76.606217820713937 -292.61522032645007 0 0 0 0 -21.30232894413983 -51.44617077494695 0 -51.44617077494695 -226.7142982319001 0 0 0 0 -29.355113733411777 -69.770088074510568 0 -69.770088074510568 -292.93980173281307 0 0 0 0 17.139799435308234 -68.614818116202514 0 -68.614818116202514 -392.6130109565338 0 0 0 0 -0.023335525975180627 -42.063164576949433 0 -42.063164576949433 -309.22775209815882 0 0 0 0 -155.41499712742419 -114.67090901035408 0 -114.67090901035408 -293.44716008787509 0 0 0 0 -83.311624033466288 -29.735162894097812 0 -29.735162894097812 -199.47580374767131 0 0 0 0 -72.871398990755964 -107.47955118467507 0 -107.47955118467507 -278.5158977273968 0 0 0 0 -10.088885105460008 -67.720303428977786 0 -67.720303428977786 -352.06029273668537 0 0 0 0 -47.856987358984355 -48.650806500385443 0 -48.650806500385443 -202.73879621939705 0 0 0 0 -12.778869320950221 -49.962219904886297 0 -49.962219904886297 -203.3137118991317 0 0 0 0 -45.481689451432203 -39.973788070114097 0 -39.973788070114097 -196.98695151871652 0 0 0 0 -63.107884792918128 13.417568728431434 0 13.417568728431434 -0.93830410327791469 0 0 0 0 -65.633220058099525 -28.964407491475868 0 -28.964407491475868 -85.360633771531866 0 0 0 0 -23.84875445385353 -9.7712155364497448 0 -9.7712155364497448 -87.049591385988606 0 0 0 0 -0.52338549720469574 -0.19284925844154799 0 -0.19284925844154799 -0.08740229645297859 0 0 0 0 -51.924145319035368 10.632128663790354 0 10.632128663790354 3.0784773069535731 0 0 0 0 -17.49983076871689 -23.472258317135129 0 -23.472258317135129 5.9450837521872018 0 0 0 0 -7.8310953954141951 28.398723494890874 0 28.398723494890874 -5.5919933422674148 0 0 0 0 -33.008276050122774 21.260080420665417 0 21.260080420665417 4.9058046389764058 0 0 0 0 -3.5834401813814907 16.725998923531733 0 16.725998923531733 15.787086501062731 0 0 0 0 70.901752544797432 69.648252657818375 0 69.648252657818375 9.854957794971142 0 0 0 0 -87.43612973885331 38.325990169194483 0 38.325990169194483 -23.140196989254036 0 0 0 0 -0.40573361413437226 1.2861571787363033 0 1.2861571787363033 -2.420354028435753 0 0 0 0 148.13104831092107 26.607435367819562 0 26.607435367819562 -110.29793555307697 0 0 0 0 -0.30491892660573028 0.5345198274308629 0 0.5345198274308629 -0.99089054875440752 0 0 0 0 -363.04460541630397 99.173921309336947 0 99.173921309336947 1.563764224483748 0 0 0 0 -14.873963919549624 10.867869257483108 0 10.867869257483108 18.092539147725802 0 0 0 0 -3.8889137311635977 16.558188567247271 0 16.558188567247271 -65.533973229816183 0 0 0 0 -102.6843250819845 -13.596364503609948 0 -13.596364503609948 -60.67553305689853 0 0 0 0 -7.6423606595553224 95.505560672178035 0 95.505560672178035 -140.76896776913054 0 0 0 0 -191.71828724011311 23.586560908195679 0 23.586560908195679 -168.38502017040446 0 0 0 0 -148.98366985989315 84.036661901091065 0 84.036661901091065 -168.82562102004886 0 0 0 0 -181.77566029957097 17.80750572166653 0 17.80750572166653 -168.05169948177354 0 0 0 0 -126.27390267220454 36.785763807150943 0 36.785763807150943 -221.45253771007265 0 0 0 0 40.21248930067236 60.249248730253385 0 60.249248730253385 -215.31591176424081 0 0 0 0 -106.28763772516834 18.464093901120577 0 18.464093901120577 -88.748089833432459 0 0 0 0 236.66062251187213 116.51730612918254 0 116.51730612918254 -150.81263648767708 0 0 0 0 -28.567144712115805 131.47634279192516 0 131.47634279192516 -113.18401454480045 0 0 0 0 59.662355552777854 165.41684225677091 0 165.41684225677091 -85.906468620665692 0 0 0 0 41.185625431777282 26.097341716362507 0 26.097341716362507 141.6738108442587 0 0 0 0 -37.524870768326537 64.013187999742513 0 64.013187999742513 37.84776847356261 0 0 0 0 -71.98120829392451 165.93982623798365 0 165.93982623798365 -170.72612664689586 0 0 0 0 -56.554264412142629 58.263143256226613 0 58.263143256226613 -11.516663097767378 0 0 0 0 -77.673384274136367 125.59500382341366 0 125.59500382341366 -80.878776641897275 0 0 0 0 53.715149531036218 12.567849118034701 0 12.567849118034701 -317.65282736677182 0 0 0 0 27.588516068349008 74.719009142267168 0 74.719009142267168 -56.500256923296547 0 0 0 0 -48.056939828518807 -7.6292598499712767 0 -7.6292598499712767 59.875975877657766 0 0 0 0 -33.386337215270487 44.767892814004881 0 44.767892814004881 -34.073169339884771 0 0 0 0 7.5030381584924726 7.0603842348173202 0 7.0603842348173202 0.038149780411913525 0 0 0 0 3.4036727842022572 59.517033359067909 0 59.517033359067909 39.558747036811837 0 0 0 0 -10.684100879929247 -1.4929699003660062 0 -1.4929699003660062 -19.438962761505536 0 0 0 0 -10.816871157932013 4.7083362401666164 0 4.7083362401666164 -2.0566532477918642 0 0 0 0 -31.672171253156421 53.324814131970925 0 53.324814131970925 -59.377979793385748 0 0 0 0 -12.918446345363179 6.3052929155319362 0 6.3052929155319362 -9.6171588420256739 0 0 0 0 -7.1702367186440483 44.866157718708564 0 44.866157718708564 25.520006013355669 0 0 0 0 -22.281734259490804 -4.9966179294351605 0 -4.9966179294351605 2.5730374358827248 0 0 0 0 26.233805558596146 29.653840396957094 0 29.653840396957094 16.887769250199199 0 0 0 0 -3.2167401290220337 2.8968131227399141 0 2.8968131227399141 -2.2096650696318818 0 0 0 0 -9.4930313290460617 14.948216880657128 0 14.948216880657128 -17.330486715174629 0 0 0 0 -1.8081538553914223 2.844023342860865 0 2.844023342860865 -2.7011587539208506 0 0 0 0 -18.167552383171596 17.629164663791016 0 17.629164663791016 45.263995726246321 0 0 0 0 -8.4169601322479082 -1.734082130713432 0 -1.734082130713432 -19.533152045027236 0 0 0 0 1.1625335102444296 9.4457841834373539 0 9.4457841834373539 -3.7618884334551694 0 0 0 0 -0.74320237782012555 8.753203579748515 0 8.753203579748515 2.1657295537006576 0 0 0 0 -9.7690711375646195 8.9535632545966397 0 8.9535632545966397 -3.9979699445997596 0 0 0 0 0.058982355503424344 9.6169246825390005 0 9.6169246825390005 -4.9482008515997649 0 0 0 0 -10.831128967338509 14.961177078302597 0 14.961177078302597 -11.486818802020842 0 0 0 0 -7.1263975504773498 32.881163206780911 0 32.881163206780911 -25.276664480035834 0 0 0 0 -15.651766207460842 8.5883355057385202 0 8.5883355057385202 -3.9494866130754005 0 0 0 0 -28.90077621053797 12.325976304673532 0 12.325976304673532 7.6480710333489696 0 0 0 0 7.1254606234615494 47.579740489549295 0 47.579740489549295 -23.430806302776546 0 0 0 0 -3.1923018515249169 8.8997201025049435 0 8.8997201025049435 -9.0822986108396435 0 0 0 0 7.334956735945747 3.2341568220113999 0 3.2341568220113999 -3.3717689571989879 0 0 0 0 2.1691703335036436 15.609640066697466 0 15.609640066697466 -18.387970135077921 0 0 0 0 1.0118492874235017 7.4558129139768425 0 7.4558129139768425 -19.204926141857868 0 0 0 0 -25.593933601136087 11.168563407365582 0 11.168563407365582 -4.6371394425077597 0 0 0 0 -44.657740264522545 20.575456360740645 0 20.575456360740645 5.7512657026527449 0 0 0 0 -2.0589837078449671 2.7027592034062664 0 2.7027592034062664 -1.8199429231375461 0 0 0 0 -2.4490723368262479 -0.29872310218706843 0 -0.29872310218706843 -20.6256364446308 0 0 0 0 -9.6654954676756404 8.1649302821692089 0 8.1649302821692089 -6.2065036828846374 0 0 0 0 60.507202180750028 -9.2214097480900818 0 -9.2214097480900818 -80.340319649170851 0 0 0 0 8.5778514121302578 13.495858645594126 0 13.495858645594126 -18.072130674317123 0 0 0 0 77.486561065970818 123.25968225154793 0 123.25968225154793 -113.57879863667767 0 0 0 0 5.4315822139451484 7.4489625764872471 0 7.4489625764872471 -9.5733019967155997 0 0 0 0 -1.1853910960046714 2.7870940114724689 0 2.7870940114724689 -1.1659634270627919 0 0 0 0 -10.803754839244903 9.8628572499692382 0 9.8628572499692382 -20.422335600767838 0 0 0 0 -6.3469946154191348 6.9652213943991228 0 6.9652213943991228 -7.6668325714817911 0 0 0 0 -0.049722123150445441 5.4546196957544453 0 5.4546196957544453 -24.678304809407564 0 0 0 0 5.2344718663540029 5.8155423123629078 0 5.8155423123629078 -12.943474683599334 0 0 0 0 0.74378990300012826 3.826468317873406 0 3.826468317873406 -8.617073448255212 0 0 0 0 -0.64084007035673629 11.705069385744849 0 11.705069385744849 -20.675778259159465 0 0 0 0 -736.89543027899708 -82.312833459436661 0 -82.312833459436661 444.91894905551453 0 0 0 0 -13.589291057432263 10.751517669315341 0 10.751517669315341 -7.1676408035521071 0 0 0 0 -4.8383973774853075 12.834467812288494 0 12.834467812288494 -20.462629709748398 0 0 0 0 -8.2953031331457971 5.4244140473725651 0 5.4244140473725651 -0.27483003137659345 0 0 0 0 -29.615327334911854 13.530478020649753 0 13.530478020649753 -18.013285051223647 0 0 0 0 -17.692389056670436 5.7339081422087474 0 5.7339081422087474 -15.699112633839832 0 0 0 0 -0.31674946725965114 1.0677936309743998 0 1.0677936309743998 -3.2981249646831721 0 0 0 0 0.85734095834413893 22.667096112083527 0 22.667096112083527 -28.757308283638849 0 0 0 0 -26.87191998360322 8.9975053213638603 0 8.9975053213638603 -14.726900869471137 0 0 0 0 -26.971393600252114 17.648067092478442 0 17.648067092478442 -13.142015115881804 0 0 0 0 7.2582286194799508 9.5844752350512863 0 9.5844752350512863 1.1317557694055722 0 0 0 0 -10.792308281585065 11.462610286962445 0 11.462610286962445 -11.565163058603503 0 0 0 0 6.8318709311313341 2.7001043871223374 0 2.7001043871223374 -19.092328017075488 0 0 0 0 30.894350461524482 9.8929409327392932 0 9.8929409327392932 -17.557595837657573 0 0 0 0 30.120654201262823 13.657038791076047 0 13.657038791076047 -29.632883047983341 0 0 0 0 3.4797662361920629 39.451177186425411 0 39.451177186425411 -70.408067317068344 0 0 0 0 -17.953161890842011 15.475847524414348 0 15.475847524414348 -58.342151044016646 0 0 0 0 1.2775478986507451 -2.3249067980224183 0 -2.3249067980224183 -3.3570485758264894 0 0 0 0 2.545824937674297 -3.9495402179563825 0 -3.9495402179563825 -29.373124894691045 0 0 0 0 -0.78394392167902716 5.1053552723557161 0 5.1053552723557161 -0.88629180154329035 0 0 0 0 -8.9137023396133372 15.720950035240094 0 15.720950035240094 -11.932950146496296 0 0 0 0 -1.145966830086814 -1.4987418782309163 0 -1.4987418782309163 0.057530861874450778 0 0 0 0 -27.353338347726776 37.698178191207262 0 37.698178191207262 126.9744158840258 0 0 0 0 67.244739487603169 28.719295898052223 0 28.719295898052223 -314.09304160234024 0 0 0 0 -36.13544317742253 14.675273851138627 0 14.675273851138627 -124.4772090740953 0 0 0 0 0.77141055658921687 35.270465739860811 0 35.270465739860811 -147.36878613214731 0 0 0 0 -3.6320464063556086 -0.67686293819892995 0 -0.67686293819892995 -0.62578879436202328 0 0 0 0 -29.898372763150689 57.481467224034077 0 57.481467224034077 -83.017008333394188 0 0 0 0 13.821743433315987 22.737124071725702 0 22.737124071725702 -4.0484008793209796 0 0 0 0 37.860076498923718 21.120957518975047 0 21.120957518975047 -38.08568917599041 0 0 0 0 -222.40063304254181 91.468140856472019 0 91.468140856472019 211.67450855761126 0 0 0 0 3.083153335755382 0.27877668224964935 0 0.27877668224964935 -2.5387962615416839 0 0 0 0 333.92467474017849 -145.57076979696285 0 -145.57076979696285 -121.9260752488417 0 0 0 0 69.870284548038057 110.3238754761478 0 110.3238754761478 -148.33705478378079 0 0 0 0 6.0211759165974854 42.632208711902422 0 42.632208711902422 149.86428654365591 0 0 0 0 11.942056213704916 39.994778825555841 0 39.994778825555841 117.20066552334174 0 0 0 0 -2.7665363897713178 0.19457602314651012 0 0.19457602314651012 189.12573606720252 0 0 0 0 -0.83449845272795642 -1.4079665256067528 0 -1.4079665256067528 128.49903783045011 0 0 0 0 12.936507593040744 37.565859847232787 0 37.565859847232787 21.781837076749071 0 0 0 0 7.0260718613585595 66.033658717757135 0 66.033658717757135 70.893040527345875 0 0 0 0 11.930399504603542 23.30139483219682 0 23.30139483219682 -25.61819665969233 0 0 0 0 22.329009406176283 113.29040017507941 0 113.29040017507941 -71.215456453748175 0 0 0 0 -6.1064904664404143 25.475818651184976 0 25.475818651184976 -55.997343074607841 0 0 0 0 26.772292614511571 69.986311304952324 0 69.986311304952324 -96.197332263713179 0 0 0 0 1.5507239725616131 13.098352259824406 0 13.098352259824406 -16.947167699996356 0 0 0 0 -5.1535436369640593 16.302472983453299 0 16.302472983453299 -71.100819321105519 0 0 0 0 9.827098797706185 18.50994640191584 0 18.50994640191584 -71.565690493785951 0 0 0 0 9.3417705702163314 20.373504601819377 0 20.373504601819377 -0.13270182553232246 0 0 0 0 20.893973504630367 -51.426476399841704 0 -51.426476399841704 -27.151613163677666 0 0 0 0 51.269178349768708 112.85992714537315 0 112.85992714537315 -148.83675663455142 0 0 0 0 0.53000584219789104 15.576593447057967 0 15.576593447057967 -76.252536888018355 0 0 0 0 40.382386210395453 127.37962612766569 0 127.37962612766569 -84.004310003983846 0 0 0 0 185.51728089425978 77.122128535804222 0 77.122128535804222 -126.62537918421003 0 0 0 0 25.834721700201953 35.9031953675767 0 35.9031953675767 -42.210740015962074 0 0 0 0 -107.2583836918011 97.80721655252637 0 97.80721655252637 -21.893743922577414 0 0 0 0 -135.54935137543407 189.6327492364162 0 189.6327492364162 -105.16875415476534 0 0 0 0 8.4345341776554967 6.7028709198016543 0 6.7028709198016543 3.8950254419399499 0 0 0 0 311.87332169293325 -18.483164387471334 0 -18.483164387471334 -44.161852607910987 0 0 0 0 34.826480297997932 282.28869459309317 0 282.28869459309317 -100.93153447146324 0 0 0 0 -9.9347485920718555 24.992672997028421 0 24.992672997028421 58.211091898614541 0 0 0 0 38.258614917979457 78.853858846512594 0 78.853858846512594 -13.209008942547371 0 0 0 0 13.564628165074964 72.870589751153602 0 72.870589751153602 -121.81585448938768 0 0 0 0 -28.22201833994859 75.672792828139791 0 75.672792828139791 -12.733151834101591 0 0 0 0 -18.366238909960543 92.4481672208276 0 92.4481672208276 23.395415825085365 0 0 0 0 -39.531497400790613 52.304668615272021 0 52.304668615272021 18.096412327591679 0 0 0 0 -21.87200597658466 59.302391108351003 0 59.302391108351003 -83.312332786278603 0 0 0 0 -47.322592845956933 125.51754887717107 0 125.51754887717107 72.785946122538007 0 0 0 0 -116.24495846630361 48.806952947590617 0 48.806952947590617 20.154452667244186 0 0 0 0 -157.80580993654121 4.0791068024373089 0 4.0791068024373089 72.723867616859934 0 0 0 0 -4.0562333069588181 1.3815413758545105 0 1.3815413758545105 -0.54500617402173646 0 0 0 0 -241.04103948736156 125.35917965736371 0 125.35917965736371 73.648305596635964 0 0 0 0 97.26657784197846 -407.25819664622577 0 -407.25819664622577 -15.337995456914314 0 0 0 0 58.858383198233241 188.87630321456163 0 188.87630321456163 -95.027645296657283 0 0 0 0 4.6621816419205953 3.7485380727881719 0 3.7485380727881719 -0.69452147590133961 0 0 0 0 -249.53930317795971 114.64000098555698 0 114.64000098555698 -48.20348631386878 0 0 0 0 -277.26524727323124 220.16176320258319 0 220.16176320258319 -92.787034843458969 0 0 0 0 -148.10164288022179 113.9475518928266 0 113.9475518928266 -178.91496675699273 0 0 0 0 -288.59117551888403 319.06282136340451 0 319.06282136340451 -220.20659022904147 0 0 0 0 390.9381946970916 -178.76956725618038 0 -178.76956725618038 21.026130184654903 0 0 0 0 0.97205653579747864 0.80500110719830076 0 0.80500110719830076 -0.13906334901454898 0 0 0 0 -85.480774303190628 257.26562791458491 0 257.26562791458491 -277.92615394184031 0 0 0 0 -83.000422108080329 82.862414043898752 0 82.862414043898752 -188.97065253433539 0 0 0 0 -266.26569787542064 164.88505504288787 0 164.88505504288787 -169.61056902306882 0 0 0 0 -57.620213393065569 50.350413173275228 0 50.350413173275228 -293.52656249129723 0 0 0 0 -121.3228275149304 -255.13858723748126 0 -255.13858723748126 -362.20582851971631 0 0 0 0 52.249023089094237 132.03533088149788 0 132.03533088149788 -168.39843391051545 0 0 0 0 191.77125471184172 -161.46003109602134 0 -161.46003109602134 -170.16401244981171 0 0 0 0 297.07604306865915 41.71671813717694 0 41.71671813717694 -224.7960880655628 0 0 0 0 4.1095536134516806 -41.452758532584994 0 -41.452758532584994 -219.63806895516609 0 0 0 0 -66.091198045383862 -90.329838729952826 0 -90.329838729952826 39.231272053730208 0 0 0 0 32.891465832603444 193.87512452869123 0 193.87512452869123 -38.053933474900987 0 0 0 0 107.27156687883962 111.74145937970025 0 111.74145937970025 -122.49165229132723 0 0 0 0 247.82766163018141 52.319782390562523 0 52.319782390562523 -132.10651892289025 0 0 0 0 -144.79564882584668 72.59882183600871 0 72.59882183600871 -50.343114526302088 0 0 0 0 -108.63027029137174 178.1353785969477 0 178.1353785969477 -91.85916714425548 0 0 0 0 -132.95843943257478 80.479525660401123 0 80.479525660401123 -91.103504285019881 0 0 0 0 3.1604588028587841 81.807886625362357 0 81.807886625362357 -62.937106049270369 0 0 0 0 4.4030190732642041 118.89708975568647 0 118.89708975568647 -135.88436437970813 0 0 0 0 219.90440525798931 52.094944619431772 0 52.094944619431772 -132.56428515885636 0 0 0 0 88.575615590026246 84.66603559675923 0 84.66603559675923 -37.759019127406646 0 0 0 0 89.882084952339028 97.401278035569703 0 97.401278035569703 -140.13951537714456 0 0 0 0 5.5740059708161604 -3.6034350533741701 0 -3.6034350533741701 -18.156081679312351 0 0 0 0 182.73553502584116 32.635194071739306 0 32.635194071739306 -114.33398072273121 0 0 0 0 227.53059494182128 103.26959391702076 0 103.26959391702076 -24.597130588976142 0 0 0 0 18.526676655495066 18.556135088312658 0 18.556135088312658 -85.452370520857585 0 0 0 0 30.502047277539532 24.369427883051685 0 24.369427883051685 -83.262184034198071 0 0 0 0 7.5579773042881424 13.778033279843392 0 13.778033279843392 -40.291323967330698 0 0 0 0 18.184705123885578 20.927780804042413 0 20.927780804042413 -19.180615401026444 0 0 0 0 213.42171187234567 -29.671954463821749 0 -29.671954463821749 -56.400494348126813 0 0 0 0 97.107459501871745 20.08154842715885 0 20.08154842715885 -77.628650480612123 0 0 0 0 -2.9010082146064962 13.552128666325929 0 13.552128666325929 -22.753278001963494 0 0 0 0 41.952773174447429 -31.274597426225228 0 -31.274597426225228 22.126302796092205 0 0 0 0 4.5365396457689044 1.7955848800848884 0 1.7955848800848884 -3.0593474539353696 0 0 0 0 41.496260630747202 89.254488987113291 0 89.254488987113291 76.545608629098524 0 0 0 0 9.2901480285527214 21.46688199777418 0 21.46688199777418 -19.187879952222374 0 0 0 0 0.1984070319426241 10.285945062937349 0 10.285945062937349 -24.461462294812293 0 0 0 0 -0.90997851615657055 40.307483193271764 0 40.307483193271764 -116.431556868396 0 0 0 0 -0.43901076183987975 2.7825734550874728 0 2.7825734550874728 1.9709308012959639 0 0 0 0 20.20261969831563 -14.421379529754631 0 -14.421379529754631 -131.95423370773642 0 0 0 0 17.521743312243871 100.58323097825178 0 100.58323097825178 -43.053915436859825 0 0 0 0 0.88056200847677246 43.222785055620079 0 43.222785055620079 -128.63890648607776 0 0 0 0 152.59153634721906 161.56458667625338 0 161.56458667625338 -32.140560548468784 0 0 0 0 98.073902588619603 82.075671719230741 0 82.075671719230741 -148.01475331629308 0 0 0 0 25.612537372606312 -11.557908180118829 0 -11.557908180118829 -258.43656102762179 0 0 0 0 2.5292080841963198 6.569768706260021 0 6.569768706260021 10.883971347938598 0 0 0 0 -9.7219642112054316 60.414337538037216 0 60.414337538037216 -149.17819345380121 0 0 0 0 40.94107590477779 52.755142482719748 0 52.755142482719748 -151.95149053828936 0 0 0 0 27.626646377551879 29.560465409580502 0 29.560465409580502 -122.00585056648561 0 0 0 0 16.296198291267501 10.443032520404813 0 10.443032520404813 -153.51762391427701 0 0 0 0 6.4958024921153203 13.749232101567834 0 13.749232101567834 -6.5852834379523113 0 0 0 0 7.5520818093909838 20.866114494246176 0 20.866114494246176 -16.212702556553268 0 0 0 0 10.248667255024575 22.170317911631756 0 22.170317911631756 -19.751899453446057 0 0 0 0 -4.614271309275864 85.459594540690887 0 85.459594540690887 -9.8908891298196977 0 0 0 0 24.893600514525588 21.480797939541844 0 21.480797939541844 -50.566057751319022 0 0 0 0 22.633763924930236 29.772764963329791 0 29.772764963329791 -63.336639060151356 0 0 0 0 26.864410623383264 51.438919478492608 0 51.438919478492608 -32.098787185803303 0 0 0 0 26.652458963102617 16.720373401759389 0 16.720373401759389 -59.091052386457704 0 0 0 0 12.205315990883719 44.682427155588812 0 44.682427155588812 -94.38924063473678 0 0 0 0 -12.729084396852613 8.192392261200439 0 8.192392261200439 -73.268276599742421 0 0 0 0 0.13364867354482235 0.57435654210241793 0 0.57435654210241793 -1.3267498624179268 0 0 0 0 91.569565085453064 -55.873958059527922 0 -55.873958059527922 -16.496731919978629 0 0 0 0 41.614548824478788 -21.925324766459198 0 -21.925324766459198 -54.419948387001568 0 0 0 0 60.294768812213533 -2.9786852160996204 0 -2.9786852160996204 -105.4028868714322 0 0 0 0 45.724002419930912 22.725099014569423 0 22.725099014569423 -122.07493516300201 0 0 0 0 18.654135152425624 5.8697658115579543 0 5.8697658115579543 -84.831324109281923 0 0 0 0 42.751848776071938 10.095723303902332 0 10.095723303902332 -86.83886677965711 0 0 0 0 3.9556616600209509 8.3418248926350316 0 8.3418248926350316 -76.441350575412798 0 0 0 0 1.320655478655353 16.795561563236028 0 16.795561563236028 -74.188516763701216 0 0 0 0 18.410372984570131 5.9161750028870301 0 5.9161750028870301 -77.369282604813634 0 0 0 0 -2.5549021726064893 20.374649754829079 0 20.374649754829079 -61.599001418391708 0 0 0 0 7.9492341006641709 14.377988626516071 0 14.377988626516071 -62.113478291237698 0 0 0 0 -5.8420607439929881 22.11663072569354 0 22.11663072569354 -51.272197926055014 0 0 0 0 5.056202569224979 15.003782036730172 0 15.003782036730172 -22.282437154241052 0 0 0 0 -4.8932332149233844 18.186268250618014 0 18.186268250618014 -62.22518078209032 0 0 0 0 -6.4572348357887677 30.314974281956893 0 30.314974281956893 -70.004654468863919 0 0 0 0 -4.6642796703063141 49.490198252469781 0 49.490198252469781 -90.832987009415319 0 0 0 0 3.9867572034545447 28.832473224357273 0 28.832473224357273 -84.751505944743258 0 0 0 0 -0.45177808813696174 48.184450250955706 0 48.184450250955706 -71.371524543425039 0 0 0 0 -4.9521834722645508 33.197616822459167 0 33.197616822459167 -87.311516587014921 0 0 0 0 33.162816398386894 31.527604090779278 0 31.527604090779278 -47.85563445810476 0 0 0 0 1.4050036340749159 27.500512218879635 0 27.500512218879635 -35.875918492118217 0 0 0 0 17.911988825627304 61.027768635889515 0 61.027768635889515 -81.307709401447937 0 0 0 0 6.4647787535723182 16.504540778826595 0 16.504540778826595 15.43371668623513 0 0 0 0 135.47273248911961 -12.442336870118197 0 -12.442336870118197 -37.112416959823349 0 0 0 0 48.709634413253298 40.46423333956136 0 40.46423333956136 -20.754386495085782 0 0 0 0 0.34539381345265385 0.83212050739755306 0 0.83212050739755306 -3.1813315086747522 0 0 0 0 34.245716157651714 11.406865433540588 0 11.406865433540588 -45.946269369789661 0 0 0 0 59.278921017599714 74.07645765167581 0 74.07645765167581 33.875622667777122 0 0 0 0 79.230876396279655 30.24348803401881 0 30.24348803401881 -233.9110027947645 0 0 0 0 1.8760438083048339 0.26601170281478304 0 0.26601170281478304 -0.2974316409633011 0 0 0 0 143.88045295448183 -27.884913837676322 0 -27.884913837676322 -120.51055958100187 0 0 0 0 -47.003946452853143 -95.442770732671306 0 -95.442770732671306 -99.540417313153739 0 0 0 0 124.74514647983506 155.10628483925939 0 155.10628483925939 -255.37021914563775 0 0 0 0 116.80614147394101 58.301553153385726 0 58.301553153385726 -213.17316518683947 0 0 0 0 -37.719632564598101 141.19402079230963 0 141.19402079230963 -126.06162290840803 0 0 0 0 11.746464329847186 67.269509756486514 0 67.269509756486514 -15.936530717361165 0 0 0 0 22.186618949228887 92.836290733239821 0 92.836290733239821 -118.11609871318797 0 0 0 0 43.735244253292308 12.901945485020178 0 12.901945485020178 -207.21793576913115 0 0 0 0 -8.8700049372050671 12.337536268275471 0 12.337536268275471 -114.08453791476586 0 0 0 0 54.115592628571903 42.651146355996389 0 42.651146355996389 -169.38041030960994 0 0 0 0 -11.679925168074078 41.603213541911828 0 41.603213541911828 -92.860595353371536 0 0 0 0 0.55751949879686435 12.177776091837586 0 12.177776091837586 -72.742403054162423 0 0 0 0 -10.648947819678142 48.869111935745423 0 48.869111935745423 -87.234451956508565 0 0 0 0 3.5227679459740102 14.066704170367757 0 14.066704170367757 -22.715283303879914 0 0 0 0 5.203262851084137 0.43075483318445862 0 0.43075483318445862 0.75303494618979827 0 0 0 0 3.0775042485392987 31.850401346447143 0 31.850401346447143 -140.34947113944327 0 0 0 0 21.525722215720862 10.401059006600462 0 10.401059006600462 -46.558662722334702 0 0 0 0 9.6365022755455811 7.2370624149070863 0 7.2370624149070863 -42.657000165015234 0 0 0 0 10.21343013144741 18.424366296288554 0 18.424366296288554 -57.954117155990389 0 0 0 0 14.720025429543739 9.1474430885518814 0 9.1474430885518814 -63.038015936577722 0 0 0 0 4.233479349056779 0.87665180407566368 0 0.87665180407566368 -50.990663550595855 0 0 0 0 19.534349681990534 7.1597066826079754 0 7.1597066826079754 -62.011025319687178 0 0 0 0 21.681718666060078 -22.18358354891916 0 -22.18358354891916 -92.932159981166478 0 0 0 0 75.089133063917416 13.462775847241574 0 13.462775847241574 -81.591305658464989 0 0 0 0 16.150396526004215 9.1926873761749448 0 9.1926873761749448 -26.57721101585048 0 0 0 0 -8.3693404724149332 -11.505683114125986 0 -11.505683114125986 -83.284467994693841 0 0 0 0 32.311144168596911 -27.360031154477838 0 -27.360031154477838 -89.970282566797323 0 0 0 0 34.986457681073261 -23.662766464312881 0 -23.662766464312881 -105.24281918174893 0 0 0 0 30.321498621489809 -13.081831830355441 0 -13.081831830355441 -83.670099337214992 0 0 0 0 28.333263311885275 -26.783417887983887 0 -26.783417887983887 -99.333559147609776 0 0 0 0 27.008605115609384 -21.489828390921957 0 -21.489828390921957 -94.204265929081885 0 0 0 0 20.626265319337051 -30.029550059411463 0 -30.029550059411463 -108.14127742679193 0 0 0 0 22.310406769392102 -20.547327759088148 0 -20.547327759088148 -90.372230525137638 0 0 0 0 18.676201484207013 -12.947731460440991 0 -12.947731460440991 -97.24486200307183 0 0 0 0 12.75395170453703 -31.636258578237175 0 -31.636258578237175 -94.264674012671094 0 0 0 0 17.807229704096244 -16.314931061623611 0 -16.314931061623611 -59.375706270995579 0 0 0 0 -15.442060662931681 -14.717587997783085 0 -14.717587997783085 -16.769501424332702 0 0 0 0 -1.4368194789731206 -23.747046956824306 0 -23.747046956824306 -49.749952270522044 0 0 0 0 12.463540768857456 -1.6973141462740386 0 -1.6973141462740386 -36.736245107236755 0 0 0 0 7.9909897849321396 -24.72626814186583 0 -24.72626814186583 -2.7680106300394982 0 0 0 0 3.6190640003801491 -9.7486393766157562 0 -9.7486393766157562 -17.77781298969785 0 0 0 0 21.673258168249276 -17.314695770497565 0 -17.314695770497565 -14.736928837482992 0 0 0 0 5.5404687540474535 -6.8228608869867919 0 -6.8228608869867919 -15.070205278244735 0 0 0 0 7.7591627151614375 -7.1469352790190896 0 -7.1469352790190896 -26.426831948287145 0 0 0 0 -0.090371466190813265 -10.491661151477778 0 -10.491661151477778 -13.677157049035905 0 0 0 0 -6.8443241669010604 -21.990944865480742 0 -21.990944865480742 11.204062213018915 0 0 0 0 31.855177726656279 -11.608626000207892 0 -11.608626000207892 -15.279571994415164 0 0 0 0 -4.5341932690976137 -17.634155565551737 0 -17.634155565551737 -16.116993136001383 0 0 0 0 1.3683999614764693 -3.9352315014242407 0 -3.9352315014242407 -2.0089045638973886 0 0 0 0 21.644348028210686 -37.512338430209184 0 -37.512338430209184 -66.421085521818895 0 0 0 0 26.750475396351476 -3.8620285416782281 0 -3.8620285416782281 -51.339969673720589 0 0 0 0 20.292669637527979 -23.269023022896363 0 -23.269023022896363 -40.851268387650634 0 0 0 0 -0.6785816815532828 -12.531956844053807 0 -12.531956844053807 -20.929366973536176 0 0 0 0 -48.259249694852315 -48.508600264264714 0 -48.508600264264714 19.210208700613293 0 0 0 0 22.024971213114441 -32.255131814197739 0 -32.255131814197739 -28.454517021598804 0 0 0 0 0.31216723116962219 -4.3629644240409355 0 -4.3629644240409355 0.49040944074705095 0 0 0 0 2.1729915285085744 -16.328512999244879 0 -16.328512999244879 -25.816882279863115 0 0 0 0 30.939281581117569 -38.553115718381946 0 -38.553115718381946 -35.003662010152766 0 0 0 0 34.872881152212358 -16.26743522554807 0 -16.26743522554807 -123.4800076999727 0 0 0 0 15.840798072975758 2.6714576256904365 0 2.6714576256904365 -87.387887877426692 0 0 0 0 -36.419634160384703 -19.560713595283232 0 -19.560713595283232 -74.768737917674116 0 0 0 0 -7.65949588744013 31.10325379498272 0 31.10325379498272 -81.306455742163962 0 0 0 0 15.42385542251759 8.2870432917061407 0 8.2870432917061407 -69.25776950434738 0 0 0 0 15.928525555719261 5.6518870881827752 0 5.6518870881827752 -57.775591826653908 0 0 0 0 11.447920875741602 -0.288969377090325 0 -0.288969377090325 -58.560090429657066 0 0 0 0 8.2483733675976243 -10.148614842853707 0 -10.148614842853707 -25.085862281254173 0 0 0 0 11.046242751685725 -10.057096279437246 0 -10.057096279437246 -7.2262288449437619 0 0 0 0 5.0691283240967095 -19.316659238585999 0 -19.316659238585999 0.028386737685650587 0 0 0 0 4.7975885684890311 -15.015603339537414 0 -15.015603339537414 -20.68902209284736 0 0 0 0 -0.12239373200515047 -40.490598043817954 0 -40.490598043817954 4.3384524464199785 0 0 0 0 -15.014250656907848 -23.977119222945475 0 -23.977119222945475 -2.4367170977448041 0 0 0 0 -3.332369870827165 -10.016413055911471 0 -10.016413055911471 -22.423400293162558 0 0 0 0 -18.590672654177979 -20.226679967208838 0 -20.226679967208838 -8.9257733420599834 0 0 0 0 -0.46773148828396705 -1.3411238511479393 0 -1.3411238511479393 -6.645392338831968 0 0 0 0 -89.925271010561289 -81.257526706533099 0 -81.257526706533099 -66.00500358674617 0 0 0 0 -0.47889399459132442 -1.1562678039116996 0 -1.1562678039116996 -2.0506463046427967 0 0 0 0 -88.828671810762273 94.7200228932561 0 94.7200228932561 -122.0732999554275 0 0 0 0 31.30599109166937 -1.786227624719686 0 -1.786227624719686 -204.55928358028905 0 0 0 0 -29.274261722231131 99.646514304875382 0 99.646514304875382 -145.56443894117911 0 0 0 0 -0.11964633508959688 -0.35765227855366888 0 -0.35765227855366888 -0.93184454996900001 0 0 0 0 54.468229460371276 -33.627593976729258 0 -33.627593976729258 -99.696346976112181 0 0 0 0 55.087032881566074 18.895380110505357 0 18.895380110505357 -146.89531781768642 0 0 0 0 -25.143885269195835 10.083540388533947 0 10.083540388533947 -9.6155384412704734 0 0 0 0 23.697725040998421 22.58760633998827 0 22.58760633998827 -147.13917475136327 0 0 0 0 -17.424261863371953 4.7809265171676998 0 4.7809265171676998 -12.094005469829426 0 0 0 0 61.48478575625893 -49.833826021411369 0 -49.833826021411369 -13.209361559296667 0 0 0 0 1.2247580652967258 5.2196987645702393 0 5.2196987645702393 2.1432261517438747 0 0 0 0 7.2639965855413493 -1.0750099225169834 0 -1.0750099225169834 -4.9985077888450178 0 0 0 0 -5.3753933974566053 -4.9937769003772701 0 -4.9937769003772701 -7.823492086816259 0 0 0 0 -9.7777021814497402 5.2335837026585068 0 5.2335837026585068 -9.1601735042038399 0 0 0 0 0.77501197034779157 -5.8911416506761043 0 -5.8911416506761043 -9.2873478059112387 0 0 0 0 11.220173487535362 7.7111892870143492 0 7.7111892870143492 -27.413100779398519 0 0 0 0 9.0072992598222754 -3.7891551430129766 0 -3.7891551430129766 -22.631021828769008 0 0 0 0 7.865700650635258 1.5914995415142741 0 1.5914995415142741 -9.7329186545323481 0 0 0 0 -19.534846485217372 39.932387803786696 0 39.932387803786696 -42.770259432792955 0 0 0 0 28.202385893446376 -3.5601461470814684 0 -3.5601461470814684 -92.919023070237017 0 0 0 0 3.6435972133711978 2.2070319219230043 0 2.2070319219230043 -5.8119976311323924 0 0 0 0 -16.209430501614406 3.5095408473644056 0 3.5095408473644056 -169.11576887801857 0 0 0 0 -25.042611163724359 31.605906510892964 0 31.605906510892964 -84.69985045674548 0 0 0 0 25.11925167296647 1.2569363045531645 0 1.2569363045531645 -17.324832762136793 0 0 0 0 20.246306091348742 -25.587448733305791 0 -25.587448733305791 -72.872947059218859 0 0 0 0 -17.455723798821055 -6.0906366207855172 0 -6.0906366207855172 -66.067439511345583 0 0 0 0 36.250168409938397 -40.790586382820038 0 -40.790586382820038 -18.925706081634416 0 0 0 0 16.561256312687874 11.750843579786306 0 11.750843579786306 -91.319632939650546 0 0 0 0 -0.25654537461938576 5.7061505882933137 0 5.7061505882933137 -28.844667419815323 0 0 0 0 34.912108810862719 -11.884761059549419 0 -11.884761059549419 -68.035734048615268 0 0 0 0 6.0146046524743042 5.6785002114665986 0 5.6785002114665986 -23.964018944789132 0 0 0 0 1.039669810813721 4.6014822230838437 0 4.6014822230838437 -23.161181348313178 0 0 0 0 5.1808115070886656 -2.9069188937719375 0 -2.9069188937719375 -41.391147980159957 0 0 0 0 -3.2281700188443665 0.08422462591988733 0 0.08422462591988733 -52.513894059131417 0 0 0 0 -1.1177458245184653 5.5202298414660618 0 5.5202298414660618 -63.065693717624526 0 0 0 0 10.990994253272902 21.538026212103432 0 21.538026212103432 -53.648261437665496 0 0 0 0 6.5657577481662246 -9.9218736969096 0 -9.9218736969096 -8.2966323242977182 0 0 0 0 27.185851212786702 20.501177464742796 0 20.501177464742796 -6.0451543568342458 0 0 0 0 5.9333827432883481 5.0346043207136972 0 5.0346043207136972 -49.845595555281761 0 0 0 0 5.8904095191310262 5.5951265363255516 0 5.5951265363255516 -56.628755157173146 0 0 0 0 8.9754205009248835 10.717565780305449 0 10.717565780305449 -51.114565621008296 0 0 0 0 0.34045851915061576 5.6336149504186324 0 5.6336149504186324 -49.056366921449808 0 0 0 0 2.8516591241137803 9.4692367696875408 0 9.4692367696875408 -43.944805165267098 0 0 0 0 8.1600642809079478 2.0906643321641276 0 2.0906643321641276 -7.6167715477502993 0 0 0 0 6.7111957805154816 23.466207833302178 0 23.466207833302178 -70.636153768845418 0 0 0 0 -9.1248656083344031 37.995057640656114 0 37.995057640656114 -37.72456883648556 0 0 0 0 32.795881312461461 12.539891703587273 0 12.539891703587273 -68.333908852810055 0 0 0 0 -5.724445521158259 39.027873532589183 0 39.027873532589183 -53.56210727483267 0 0 0 0 -8.5965711011606505 21.688446478517125 0 21.688446478517125 -46.990556198058329 0 0 0 0 11.659358928589427 3.1139334891267936 0 3.1139334891267936 -30.795169589790021 0 0 0 0 -91.802034000418644 91.820773404209831 0 91.820773404209831 -41.517646184682235 0 0 0 0 3.5426845006406893 9.8374849938918487 0 9.8374849938918487 -18.017585110021173 0 0 0 0 0.47738532904386832 1.9425921030461168 0 1.9425921030461168 -4.5058105206110355 0 0 0 0 37.30631126837352 18.838482936556829 0 18.838482936556829 -6.5860672422677453 0 0 0 0 46.603995805925479 15.129640034101612 0 15.129640034101612 -33.982732312186272 0 0 0 0 43.443426981667471 8.0770521008453215 0 8.0770521008453215 -27.778989335907681 0 0 0 0 38.593383893817645 28.927561998223609 0 28.927561998223609 14.302449576753133 0 0 0 0 1.2118391827157282 -1.0980111030945281 0 -1.0980111030945281 -3.2941247089858248 0 0 0 0 -4.0680082732510527 -18.537948672998027 0 -18.537948672998027 33.210091081920837 0 0 0 0 -29.059629390352598 14.274472012210026 0 14.274472012210026 -39.803623892941687 0 0 0 0 -3.8270787312742649 8.7330922438618543 0 8.7330922438618543 -21.79697186827001 0 0 0 0 -25.650073525872358 14.087565018267924 0 14.087565018267924 -1.7153998300345847 0 0 0 0 -25.042627498712136 65.733762373298305 0 65.733762373298305 -82.737400501453521 0 0 0 0 -40.932220075511395 27.093847796621048 0 27.093847796621048 59.197520269084634 0 0 0 0 59.322162452076554 25.053058403840623 0 25.053058403840623 -14.272723732254235 0 0 0 0 53.30346520592002 -11.696627565657764 0 -11.696627565657764 -30.014508280379232 0 0 0 0 2.8483203465399356 5.217869913107279 0 5.217869913107279 -16.125671435489494 0 0 0 0 4.1290441263921593 12.209920399936436 0 12.209920399936436 -22.95478210314468 0 0 0 0 -10.965585514632949 15.833052220110403 0 15.833052220110403 -16.190475502498884 0 0 0 0 -20.137936521164193 10.600550106373703 0 10.600550106373703 -16.436942973399709 0 0 0 0 -28.531980560952434 32.853496416450071 0 32.853496416450071 -24.706200173088291 0 0 0 0 -21.569655935241826 11.875504757746967 0 11.875504757746967 -13.404056215025776 0 0 0 0 2.4232986636778127 0.38013953149727087 0 0.38013953149727087 -8.4714064701496454 0 0 0 0 -7.3952673662312236 13.848843516689158 0 13.848843516689158 -17.338527154781332 0 0 0 0 7.8645615584445636 -8.616322790938284 0 -8.616322790938284 -15.442123602922948 0 0 0 0 -15.380963192124 16.834994420183648 0 16.834994420183648 -24.596634510460717 0 0 0 0 -10.594118508510292 14.999502630438656 0 14.999502630438656 -24.471884010547456 0 0 0 0 11.777592024990399 0.027917347796140746 0 0.027917347796140746 -19.978812282281453 0 0 0 0 22.582652939818935 -6.6519231304591813 0 -6.6519231304591813 -21.025203383578628 0 0 0 0 3.2290835528856712 1.8517748217220085 0 1.8517748217220085 -15.806876394167347 0 0 0 0 14.845323836120848 1.5794392806474207 0 1.5794392806474207 -22.993517066919594 0 0 0 0 12.15430092583761 1.3774004347998812 0 1.3774004347998812 -14.519165209581551 0 0 0 0 22.105356249385522 2.6118838372167374 0 2.6118838372167374 -24.711653341426427 0 0 0 0 0.11114077359476759 -0.46648482084394161 0 -0.46648482084394161 -6.2783418091950836 0 0 0 0 -17.220995998757189 36.126436800264855 0 36.126436800264855 -55.122063482911472 0 0 0 0 33.627981777147397 -18.69248617901394 0 -18.69248617901394 -4.0889542903096299 0 0 0 0 -22.465437231118699 13.902611705079835 0 13.902611705079835 4.0078429891109408 0 0 0 0 -2.7961546791436831 2.178621144279532 0 2.178621144279532 -15.054499095014762 0 0 0 0 0.60264999595437985 1.1650551670682034 0 1.1650551670682034 3.7789593588095158 0 0 0 0 24.852407916137054 -20.642574782039446 0 -20.642574782039446 2.4515050996415084 0 0 0 0 2.9772477355921865 7.5204201091146388 0 7.5204201091146388 4.5571958648069995 0 0 0 0 7.9226243405343268 1.6241304729701369 0 1.6241304729701369 -82.792713762821222 0 0 0 0 0.014361828393571585 39.730811307867043 0 39.730811307867043 -32.637188360167784 0 0 0 0 9.983140592728823 12.041333468265293 0 12.041333468265293 -32.521365819353377 0 0 0 0 15.805314414131033 -3.7017270683181778 0 -3.7017270683181778 -85.319357184431283 0 0 0 0 0.30278206874339197 -0.1246968953057177 0 -0.1246968953057177 -2.1998214311951045 0 0 0 0 2.8174161988511539 3.2319305367925661 0 3.2319305367925661 -23.511340849841787 0 0 0 0 13.604081899148014 8.9048153145868127 0 8.9048153145868127 -68.042055738005729 0 0 0 0 28.588921929000207 -25.074994439026341 0 -25.074994439026341 199.17927830293775 0 0 0 0 44.357792893280475 -9.4294912161203683 0 -9.4294912161203683 -31.614995170326438 0 0 0 0 1.35871014120994 0.29754221868643072 0 0.29754221868643072 -20.117167308082571 0 0 0 0 4.9559447194792483 17.795946191043186 0 17.795946191043186 -37.166190723896307 0 0 0 0 221.51948019252359 -103.34851286630146 0 -103.34851286630146 -437.5823014295238 0 0 0 0 4.3590111387644281 2.511593481245086 0 2.511593481245086 -4.7164560129678108 0 0 0 0 9.669883582881198 0.62447932385839522 0 0.62447932385839522 -24.182103958395601 0 0 0 0 9.1019077541072875 6.7890635186049622 0 6.7890635186049622 -23.177909717296643 0 0 0 0 7.0001910099613784 5.2681697565574979 0 5.2681697565574979 -7.737255299850645 0 0 0 0 28.76283916904913 5.3572943343460793 0 5.3572943343460793 -36.952917910272618 0 0 0 0 12.653747333118417 -2.8808314813832112 0 -2.8808314813832112 -23.18335750742699 0 0 0 0 16.922326562285889 0.29599152613081969 0 0.29599152613081969 -23.126277690433426 0 0 0 0 22.311391734307108 -11.845023441266676 0 -11.845023441266676 -15.702416785774403 0 0 0 0 15.184769227691618 -0.94531986784750188 0 -0.94531986784750188 -26.827188928931719 0 0 0 0 5.0780191017822744 17.226175942445479 0 17.226175942445479 -23.440138663107064 0 0 0 0 11.980254385782782 -3.6095772676617628 0 -3.6095772676617628 -9.6049140561239597 0 0 0 0 10.412389293325759 -1.6452610913474928 0 -1.6452610913474928 -16.812143587452738 0 0 0 0 7.9692090966364049 -4.8451610822230577 0 -4.8451610822230577 -22.136298224504571 0 0 0 0 11.496278519682733 80.784152781703597 0 80.784152781703597 -132.52053756375244 0 0 0 0 10.14308804982057 -5.8218917541459163 0 -5.8218917541459163 -12.687001382247495 0 0 0 0 94.169078275857146 27.007335808762036 0 27.007335808762036 -143.17837240090012 0 0 0 0 7.1922903686412587 7.7258333118582811 0 7.7258333118582811 -10.143127726404394 0 0 0 0 2.8276487319187709 4.1726251866712118 0 4.1726251866712118 -29.375471696930617 0 0 0 0 10.460866803933527 3.3577292280751863 0 3.3577292280751863 -19.593183300385135 0 0 0 0 13.266726657286881 6.0883493787860061 0 6.0883493787860061 -16.975112796539179 0 0 0 0 1.0450911485405001 -1.7386492138409793 0 -1.7386492138409793 -6.1858622966616394 0 0 0 0 -0.80433906310388181 25.138267708318836 0 25.138267708318836 -25.570916877491982 0 0 0 0 14.995075896384378 -7.5142808324962971 0 -7.5142808324962971 -17.128088424989983 0 0 0 0 1.2713312438612832 5.6509884402921671 0 5.6509884402921671 -21.886477996325993 0 0 0 0 10.484740296428072 5.8971400414629898 0 5.8971400414629898 -37.598077527474743 0 0 0 0 9.0451109561116709 10.015824787769816 0 10.015824787769816 -7.5289128679141868 0 0 0 0 42.331375171462014 -8.9858372201051679 0 -8.9858372201051679 -9.3344542526874648 0 0 0 0 -0.83682992040451021 -1.3394802065794877 0 -1.3394802065794877 -2.3408998202897067 0 0 0 0 -42.233457151902712 49.127631458810356 0 49.127631458810356 -35.837574398734432 0 0 0 0 26.456877535554213 6.8576869164062373 0 6.8576869164062373 -67.419028438702298 0 0 0 0 45.577752295701885 -4.8873993591423641 0 -4.8873993591423641 -26.388674092264409 0 0 0 0 3.61563571060924 6.1432426635219599 0 6.1432426635219599 12.708106610582036 0 0 0 0 47.978167565775379 60.840233698018892 0 60.840233698018892 -67.246092867684638 0 0 0 0 9.3609935423316983 -45.256063772245398 0 -45.256063772245398 17.199889929254141 0 0 0 0 -0.051921406235559076 0.23858057870698701 0 0.23858057870698701 -1.0372336163148859 0 0 0 0 -13.95275440096637 32.394294646685921 0 32.394294646685921 -80.011029065379262 0 0 0 0 -0.39693037790681951 0.77423224350772202 0 0.77423224350772202 -0.464478697015835 0 0 0 0 -50.281730023414298 38.175089249743905 0 38.175089249743905 -49.857145118818153 0 0 0 0 -40.623658091027437 -60.109578326064366 0 -60.109578326064366 -61.540000861714361 0 0 0 0 32.100838811165659 -38.043178034678931 0 -38.043178034678931 -32.145215469876348 0 0 0 0 0.66267197661765409 -0.27361520611356038 0 -0.27361520611356038 -21.9102426799207 0 0 0 0 7.9955710692623256 -3.4037703795511334 0 -3.4037703795511334 -28.462133013934363 0 0 0 0 5.2719478327318257 2.2326133167007356 0 2.2326133167007356 -25.136882077142218 0 0 0 0 -2.2314155182825743 -4.8678895140910754 0 -4.8678895140910754 -14.534816364794096 0 0 0 0 -1.2885150985580367 -10.190415878081694 0 -10.190415878081694 -18.874564998855931 0 0 0 0 0.63844158172618348 -1.8852894083724294 0 -1.8852894083724294 -6.1339930320171874 0 0 0 0 -33.456632385332796 -36.167851016318309 0 -36.167851016318309 -13.401746889212518 0 0 0 0 6.8484532697482337 2.6707492284367618 0 2.6707492284367618 -5.1678667621818022 0 0 0 0 -1.30473421903028 -9.7465519093502735 0 -9.7465519093502735 -21.884825569111854 0 0 0 0 0.2295884552172538 32.023321762069827 0 32.023321762069827 -14.082635199039942 0 0 0 0 -31.463701990556501 12.8530365158731 0 12.8530365158731 -16.018626343153301 0 0 0 0 -3.1426108690839101 -0.15541435248451307 0 -0.15541435248451307 -32.265980883938028 0 0 0 0 25.134655395546588 34.933775904952199 0 34.933775904952199 -25.008589552853664 0 0 0 0 1.5642666855059515 -0.19467703936588521 0 -0.19467703936588521 -3.3813504311651457 0 0 0 0 9.5419995585509696 -0.75083023121260339 0 -0.75083023121260339 -18.656538230541628 0 0 0 0 0.86601496855708349 1.4833456898456916 0 1.4833456898456916 -9.3594727071145769 0 0 0 0 0.28797365544801323 3.7688550708335242 0 3.7688550708335242 -12.101394124241779 0 0 0 0 1.4414971837579622 0.30447299688258234 0 0.30447299688258234 -17.673644805594563 0 0 0 0 29.163883003405545 29.15668575311247 0 29.15668575311247 -28.208593237737659 0 0 0 0 -2.5089016468077716 18.91001224701904 0 18.91001224701904 -23.859699123844621 0 0 0 0 18.070282501006432 22.493649081698095 0 22.493649081698095 -23.237726422794367 0 0 0 0 0.32330475213819998 3.4362898318130704 0 3.4362898318130704 -2.2666049519215363 0 0 0 0 1.1129225700524394 -0.82216946185292628 0 -0.82216946185292628 -18.54594629272728 0 0 0 0 -1.3361841551869702 -4.4275541554452502 0 -4.4275541554452502 -18.501148531096987 0 0 0 0 14.232242821328896 -0.019803949900961015 0 -0.019803949900961015 -16.913036170706619 0 0 0 0 4.9410220393197459 4.7036578037230825 0 4.7036578037230825 -19.53729774694321 0 0 0 0 3.0063670974250911 -2.7959208697011491 0 -2.7959208697011491 -21.420496198981709 0 0 0 0 9.7078043159406207 5.9965774406155106 0 5.9965774406155106 -20.598057638686441 0 0 0 0 7.102529492401402 0.44367034464448807 0 0.44367034464448807 -9.4612883045119816 0 0 0 0 -7.452213355041124 6.5228707295900676 0 6.5228707295900676 -4.4775579126098819 0 0 0 0 -0.563199000099317 -0.39463758223519108 0 -0.39463758223519108 -7.1952177647253848 0 0 0 0 -0.59191095749254818 -1.8504885246590135 0 -1.8504885246590135 -7.739167663135504 0 0 0 0 -0.00052775528824255957 1.5779672647986445 0 1.5779672647986445 -8.9205362740103737 0 0 0 0 -0.68052019338507108 0.47227130103260517 0 0.47227130103260517 -6.1008942084335445 0 0 0 0 -1.0129248140183507 2.5223698011621707 0 2.5223698011621707 -5.4050747946825908 0 0 0 0 1.0798273388183497 2.9732852671595769 0 2.9732852671595769 -10.233329844617032 0 0 0 0 2.583678402593959 1.9066533945839765 0 1.9066533945839765 -17.298630014839418 0 0 0 0 0.10703867884222973 4.2244505121507245 0 4.2244505121507245 -12.684485654630407 0 0 0 0 25.136010281087749 7.5157608154768241 0 7.5157608154768241 -30.642847835246357 0 0 0 0 5.5990102906117727 3.9248438842987525 0 3.9248438842987525 -16.141837696013681 0 0 0 0 -16.752827935736946 10.320765395328635 0 10.320765395328635 16.913287079078145 0 0 0 0 -0.54296815754514682 4.5520814339688513 0 4.5520814339688513 -14.253299004223663 0 0 0 0 -0.097733173591558309 4.9936936056693639 0 4.9936936056693639 -15.713617295117764 0 0 0 0 6.5861590006653401 -0.013281842761124096 0 -0.013281842761124096 -12.926560675779726 0 0 0 0 -9.9913674493780036 12.403904586117278 0 12.403904586117278 40.707380553954863 0 0 0 0 -11.010699676047309 -10.973502248463774 0 -10.973502248463774 -26.411887334295898 0 0 0 0 -0.49528672984524441 2.4834420104709114 0 2.4834420104709114 0.20002678276284769 0 0 0 0 -11.48272351475714 -5.1739305591181619 0 -5.1739305591181619 -6.6170009107190708 0 0 0 0 -11.482723514756344 -5.1739305591181619 0 -5.1739305591181619 -6.6170009107445367 0 0 0 0 -11.482723514760778 -5.17393055910361 0 -5.17393055910361 -6.617000910693605 0 0 0 0 -0.33319859550537478 10.318497584038434 0 10.318497584038434 -14.721951416243087 0 0 0 0 0.44210070086603537 -1.3144798340435955 0 -1.3144798340435955 -39.910647403077746 0 0 0 0 -0.35124692809521374 5.2968395207863068 0 5.2968395207863068 -20.666406743002881 0 0 0 0 -4.5695922010102521 5.6307618216524133 0 5.6307618216524133 -17.843590159580344 0 0 0 0 0.094660759855997867 4.1259401977440575 0 4.1259401977440575 -17.752404507278698 0 0 0 0 -8.3030184142196433 4.1309901411659666 0 4.1309901411659666 -5.6205880395282293 0 0 0 0 0.32816319253591786 -2.4219358152113273 0 -2.4219358152113273 -7.7906960829495802 0 0 0 0 -2.3482530102558314 -1.4657249767078611 0 -1.4657249767078611 -4.9895566229201904 0 0 0 0 -1.6840972043473244 -2.9822267850104254 0 -2.9822267850104254 -1.9766495136427693 0 0 0 0 -0.631194000311595 -0.31741506689832022 0 -0.31741506689832022 -9.0750941515216255 0 0 0 0 -0.63571224147398409 -0.30730625185431393 0 -0.30730625185431393 -0.38146771250553968 0 0 0 0 -5.7517280654466276 -2.8955291619349737 0 -2.8955291619349737 -5.0317286305512425 0 0 0 0 2.2098756686832814 2.3641585631667112 0 2.3641585631667112 -19.158568783685041 0 0 0 0 0.19248412457471886 -0.53832503683588584 0 -0.53832503683588584 -9.8957852012536023 0 0 0 0 -0.10725162092744417 0.3634262456888564 0 0.3634262456888564 -0.93134851501540084 0 0 0 0 -0.93811581007853917 -5.3361914788270042 0 -5.3361914788270042 -21.001037931746396 0 0 0 0 -0.8341227793202961 -6.3751972546670004 0 -6.3751972546670004 -21.846104935284529 0 0 0 0 -2.644836455635069 -11.22997788021803 0 -11.22997788021803 -34.098184812311956 0 0 0 0 1.4138074263345572 1.0319160657127213 0 1.0319160657127213 -26.728212025251196 0 0 0 0 1.4299556540468075 -3.5478217541494814 0 -3.5478217541494814 -28.455564043339109 0 0 0 0 1.6171111414072357 -2.3368815515277674 0 -2.3368815515277674 -20.620683195844322 0 0 0 0 0.093962292853442958 -1.4017665927240159 0 -1.4017665927240159 -70.401066584270666 0 0 0 0 0.14007037557251084 -0.24398887545544312 0 -0.24398887545544312 -0.29191348904356573 0 0 0 0 -2.805574036730679 13.718284461152507 0 13.718284461152507 -63.040210131533968 0 0 0 0 0.049780911918661706 -0.046021905874383151 0 -0.046021905874383151 -0.4677634949045455 0 0 0 0 6.9717589894058776 3.9648658277510549 0 3.9648658277510549 -34.280909191490935 0 0 0 0 9.4494339813783483 -0.59794475697708549 0 -0.59794475697708549 -60.07456829883813 0 0 0 0 -17.877498772009535 -36.727574348064081 0 -36.727574348064081 -53.744846512103322 0 0 0 0 -1.7408221379658548 -12.908530297183461 0 -12.908530297183461 -31.013215852195572 0 0 0 0 0.12550568238955639 -0.62655920174685775 0 -0.62655920174685775 0.42138367019597922 0 0 0 0 3.7801544738198771 -2.5558148386553512 0 -2.5558148386553512 -3.8548723402673204 0 0 0 0 -0.056602500029102318 0.41549153370980818 0 0.41549153370980818 -1.7935191318210002 0 0 0 0 1.5968567593192373 2.611530658108677 0 2.611530658108677 0.28271204317570664 0 0 0 0 0.0081805778672344159 1.2454000967391039 0 1.2454000967391039 -0.026790282028741785 0 0 0 0 3.2558813653724412 2.1169967637797527 0 2.1169967637797527 0.38781744432708365 0 0 0 0 -0.32434946737088666 1.7142329717771645 0 1.7142329717771645 -2.0994395587622421 0 0 0 0 -0.10450098134495329 0.39557873790189646 0 0.39557873790189646 -1.2781088305029868 0 0 0 0 7.8036409772532505 4.4759160672856524 0 4.4759160672856524 -3.5647394351981347 0 0 0 0 9.7041342360939638 3.2457388931034075 0 3.2457388931034075 -7.7038833937622258 0 0 0 0 -0.011979333099784122 4.6212726305875549 0 4.6212726305875549 -0.35425457396922866 0 0 0 0 4.6116985188506057 5.9393998483028554 0 5.9393998483028554 -3.7279378392777289 0 0 0 0 -5.7042104047894018 -8.958639021979252 0 -8.958639021979252 -5.6257474231060769 0 0 0 0 4.2756901676358021 6.5715480671424302 0 6.5715480671424302 -39.279478426469723 0 0 0 0 0.012778872154997402 3.9107463406289753 0 3.9107463406289753 -40.329514957487845 0 0 0 0 1.2519259372844811 18.245879952308314 0 18.245879952308314 -72.281958388868588 0 0 0 0 4.0577318682428114 -14.183187544582324 0 -14.183187544582324 -42.552697572722536 0 0 0 0 -0.063313527403398018 0.17060336053967973 0 0.17060336053967973 -0.50514793315275597 0 0 0 0 -27.699590852434472 22.036359236410135 0 22.036359236410135 -5.1401429663674207 0 0 0 0 -8.5986823468008993 30.139620417439801 0 30.139620417439801 -41.248169996018987 0 0 0 0 5.3502208939748499 17.91196872135697 0 17.91196872135697 -37.641472705612614 0 0 0 0 -3.1635240382082515 18.570950505720248 0 18.570950505720248 -18.49197592562723 0 0 0 0 4.4804441715008565 18.208660364911339 0 18.208660364911339 -37.63459674056503 0 0 0 0 2.6684321156687902 18.530200867668327 0 18.530200867668327 -33.679856498252775 0 0 0 0 8.2340488897300048 -1.0011672454093059 0 -1.0011672454093059 -18.43045031600559 0 0 0 0 3.9964664287629148 22.790963362738694 0 22.790963362738694 -55.036624167481932 0 0 0 0 1.4919672210937946 -2.9562686299250345 0 -2.9562686299250345 -56.179338842747256 0 0 0 0 -13.320326729274793 -11.363349853490945 0 -11.363349853490945 -37.869155346172192 0 0 0 0 -11.114452127215564 -4.2334767694228503 0 -4.2334767694228503 -20.402954628552834 0 0 0 0 5.7663767497091953 7.7065829677412694 0 7.7065829677412694 -38.298961169923132 0 0 0 0 8.1150743580903786 0.30154341520221806 0 0.30154341520221806 -19.420680844268645 0 0 0 0 -0.077604906202911828 -10.440552581010706 0 -10.440552581010706 -3.8405215000821045 0 0 0 0 -4.5859468194549198 6.6546694894677785 0 6.6546694894677785 -8.9217289133302984 0 0 0 0 -5.2587080218596451 0.91928660024677811 0 0.91928660024677811 -19.575684093171731 0 0 0 0 -9.184339145226156 13.107955030489393 0 13.107955030489393 -17.78995704611043 0 0 0 0 0.0041157273029499824 7.3512826028443046 0 7.3512826028443046 -38.692941600573249 0 0 0 0 -28.926086927239453 15.528856724596153 0 15.528856724596153 -27.491094478376908 0 0 0 0 3.9787831258575457 3.7158872692089062 0 3.7158872692089062 -4.8588092777063139 0 0 0 0 3.4245373370128007 -3.6031442559506104 0 -3.6031442559506104 -9.882319319058297 0 0 0 0 0.16014555337078629 -0.21403122547934572 0 -0.21403122547934572 -1.0814948817697854 0 0 0 0 -2.3661872128800638 7.4755845935433172 0 7.4755845935433172 8.1989492305219756 0 0 0 0 2.9779645312513905 -2.3090683977388835 0 -2.3090683977388835 -9.3018640233349288 0 0 0 0 -0.0022966834205598251 4.7740735064908222 0 4.7740735064908222 4.8328778389295621 0 0 0 0 -2.3801587210538218 -8.5540449417603668 0 -8.5540449417603668 -15.34290770331063 0 0 0 0 -0.03609596093139792 0.011395328448450925 0 0.011395328448450925 0.023740554310876405 0 0 0 0 1.3275946662742726 -1.0813124768101261 0 -1.0813124768101261 -7.4037326588804717 0 0 0 0 -2.8278571829563361 -23.070977731083985 0 -23.070977731083985 -9.6194206586078508 0 0 0 0 13.905200334536403 -8.9486786634297459 0 -8.9486786634297459 -163.35219547222368 0 0 0 0 -49.274759935958286 9.6223433832565206 0 9.6223433832565206 112.95760150987189 0 0 0 0 0.80445491700359639 -1.8620773548354919 0 -1.8620773548354919 -5.4650331097218441 0 0 0 0 2.0842084299253076 1.6257188759667933 0 1.6257188759667933 -11.565085522584113 0 0 0 0 6.9956479121939878 4.7295706924669503 0 4.7295706924669503 -13.123429097846383 0 0 0 0 -0.083638901764374329 0.90098983899540608 0 0.90098983899540608 -0.42162088965199018 0 0 0 0 15.232241002245246 38.952893979749206 0 38.952893979749206 -82.038566322844417 0 0 0 0 6.8063205534133431 14.359953413917538 0 14.359953413917538 10.263028680295974 0 0 0 0 5.5210646246907231 -27.373115127338679 0 -27.373115127338679 -18.279901324684033 0 0 0 0 18.326944837421593 -22.962938855533139 0 -22.962938855533139 -17.078942153239041 0 0 0 0 28.720878172497351 9.0409296962825465 0 9.0409296962825465 -17.847587878259219 0 0 0 0 20.068072121999705 -18.092615236309484 0 -18.092615236309484 -29.471072846718016 0 0 0 0 20.996389975168995 1.5885388754149972 0 1.5885388754149972 -36.045439508459822 0 0 0 0 5.3322351291944869 -14.611397166863753 0 -14.611397166863753 -6.5880831102695083 0 0 0 0 17.613292711393171 3.2058396270094818 0 3.2058396270094818 -4.1080521507246885 0 0 0 0 13.377785834634437 13.63979735781686 0 13.63979735781686 -19.76998623910913 0 0 0 0 -12.707710411363792 10.401165934596065 0 10.401165934596065 2.1594158140214859 0 0 0 0 -0.60940370192014282 2.6528285213435354 0 2.6528285213435354 -1.3712025347050485 0 0 0 0 2.3395665475473493 2.490076110814698 0 2.490076110814698 -5.0793045886384789 0 0 0 0 -0.047697597550039439 0.99193753384223626 0 0.99193753384223626 -6.9391325406255078 0 0 0 0 4.9097174680354101 -1.2665517602072214 0 -1.2665517602072214 -44.20340362197021 0 0 0 0 0.63631322785220457 2.985652027633531 0 2.985652027633531 -9.7504419255269283 0 0 0 0 0.4818386496651958 0.94035206580822717 0 0.94035206580822717 -7.8109268019523199 0 0 0 0 -6.3856571659769514 2.2962853925091622 0 2.2962853925091622 1.1204749127682589 0 0 0 0 -0.59588925398983972 1.6533946838276776 0 1.6533946838276776 -0.45206339845242383 0 0 0 0 -16.411730731723466 13.342900038061998 0 13.342900038061998 0.83471115764041315 0 0 0 0 -2.9734938649931597 4.7562469887458008 0 4.7562469887458008 -8.9964831585263596 0 0 0 0 17.793175055641541 18.370754756540691 0 18.370754756540691 -31.243141516111791 0 0 0 0 -4.3100498195596231 5.597698228295485 0 5.597698228295485 -9.2048510079912376 0 0 0 0 17.730187558736347 19.976448479053943 0 19.976448479053943 6.1896560748937191 0 0 0 0 0.10772116021953537 -0.65476090942398457 0 -0.65476090942398457 -1.6646826181367658 0 0 0 0 -27.289116127748002 29.011522658252943 0 29.011522658252943 11.095891624878277 0 0 0 0 7.4362763173608073 -2.4258053146004386 0 -2.4258053146004386 -19.07402796579845 0 0 0 0 -34.442978987981292 -7.6250024391556508 0 -7.6250024391556508 0.68505226304114331 0 0 0 0 -1.0895091589470005 -0.41981936629647976 0 -0.41981936629647976 -1.7006006299442085 0 0 0 0 1.0962224526501103 29.990963740262941 0 29.990963740262941 -4.0676943709258921 0 0 0 0 -95.282857619068409 25.511904369326658 0 25.511904369326658 4.8736890055515687 0 0 0 0 13.668793531560528 12.862689925670111 0 12.862689925670111 -33.757033150250209 0 0 0 0 -32.100653562679511 -7.5476264023891417 0 -7.5476264023891417 15.615474845704739 0 0 0 0 -0.43087464005107884 2.7503257006779296 0 2.7503257006779296 -9.5551614431844314 0 0 0 0 -36.710963153960748 -11.055212096231116 0 -11.055212096231116 -5.2860655201729969 0 0 0 0 0.22127411764790628 -0.069890125739931364 0 -0.069890125739931364 -1.3851187428160756 0 0 0 0 17.905799585197883 11.330712392169517 0 11.330712392169517 -51.136445965748862 0 0 0 0 15.137906042337143 8.8664015482499963 0 8.8664015482499963 -47.956610829394776 0 0 0 0 -2.0306009336445676 -9.4191676338232355 0 -9.4191676338232355 -6.812992762774229 0 0 0 0 18.916230569415958 7.5717748740571551 0 7.5717748740571551 -88.2624901312156 0 0 0 0 -105.74639884718147 100.95041087953723 0 100.95041087953723 -34.606547531686374 0 0 0 0 -5.884014624066312 -11.780944095312407 0 -11.780944095312407 -23.516138478720677 0 0 0 0 7.7028475904774041 12.623155939254502 0 12.623155939254502 -83.371526872972026 0 0 0 0 8.7190866570085106 -14.017751058891008 0 -14.017751058891008 -66.846555823918607 0 0 0 0 -0.089244147112336789 0.48740227966663685 0 0.48740227966663685 -0.84694520446672072 0 0 0 0 8.8415850615160281 -9.4984348230354954 0 -9.4984348230354954 -49.850436275252832 0 0 0 0 11.053132381842675 -0.12211623131952365 0 -0.12211623131952365 -27.823936331071309 0 0 0 0 -0.70045885141571951 -9.7394643695297418 0 -9.7394643695297418 -19.734017633862095 0 0 0 0 -3.3037037113414272 -3.1995981946529355 0 -3.1995981946529355 -1.1407343745231628 0 0 0 0 8.0938338947526542 4.8679052371262514 0 4.8679052371262514 -35.04982974469749 0 0 0 0 0.0074829651562616766 6.7772533756033226 0 6.7772533756033226 -17.892821866118538 0 0 0 0 4.2216245326140411 -20.862213721520675 0 -20.862213721520675 -48.55411296605962 0 0 0 0 13.081151643442835 13.617653750981844 0 13.617653750981844 -29.884253980475478 0 0 0 0 -0.098540506111183618 -0.048155849936975414 0 -0.048155849936975414 0.050242288551572756 0 0 0 0 18.594034257902024 -12.088414835936419 0 -12.088414835936419 -87.823133536401656 0 0 0 0 -0.0033573275678865731 -4.0261265470150871 0 -4.0261265470150871 -82.466821833833819 0 0 0 0 10.822881804251445 -26.715338600888572 0 -26.715338600888572 -100.17316956485593 0 0 0 0 17.555340891544446 -8.2074615192141209 0 -8.2074615192141209 -102.10125070267986 0 0 0 0 0.045666602088954865 3.7667084923959919 0 3.7667084923959919 -99.943893437033694 0 0 0 0 0.0047717440327708291 11.419177252773807 0 11.419177252773807 -31.334183131097234 0 0 0 0 16.076988320173019 43.997571778374549 0 43.997571778374549 -62.287579718115012 0 0 0 0 24.975344559642046 34.689956341289871 0 34.689956341289871 -46.106443850723736 0 0 0 0 3.6076533502173529 20.304698321229807 0 20.304698321229807 -47.716072939219885 0 0 0 0 0.032048527901618204 -0.041746425966337597 0 -0.041746425966337597 -0.019731088150212461 0 0 0 0 -28.313647612244264 -2.9319545044108963 0 -2.9319545044108963 -19.669801131003624 0 0 0 0 -2.7754711347742891 42.018986571147252 0 42.018986571147252 30.204583268925489 0 0 0 0 2.5791785277211923 -0.78746795508358503 0 -0.78746795508358503 -5.1173043000236289 0 0 0 0 -19.575561268708043 -13.109367027995177 0 -13.109367027995177 61.08852052995644 0 0 0 0 8.4299450191240339 -56.853731935018004 0 -56.853731935018004 55.722375950899732 0 0 0 0 3.2910109481163943 0.16858701151249988 0 0.16858701151249988 -27.264358019805513 0 0 0 0 0.71980787973128768 -0.31587208828975122 0 -0.31587208828975122 0.54384145525882344 0 0 0 0 -69.401723248036518 8.8033915168743988 0 8.8033915168743988 111.07038458934016 0 0 0 0 1.5639056488338952 1.3605268214923854 0 1.3605268214923854 -26.073399574437644 0 0 0 0 -199.53220106535636 24.755462660927151 0 24.755462660927151 12.80271963590269 0 0 0 0 0.30635423185540844 6.5578516757923353 0 6.5578516757923353 12.038871732140251 0 0 0 0 -46.843952804653469 -80.644021477809474 0 -80.644021477809474 47.798661125278159 0 0 0 0 35.508636491418429 -73.289876474475022 0 -73.289876474475022 -14.513990275532706 0 0 0 0 56.470300249960019 -32.550256668866496 0 -32.550256668866496 -20.180741548562764 0 0 0 0 -69.81541555658481 -124.44972384145694 0 -124.44972384145694 -87.050287461177504 0 0 0 0 35.674761453191536 17.177961386372772 0 17.177961386372772 -219.47501062121592 0 0 0 0 -24.522615645907429 96.093370704731569 0 96.093370704731569 -186.01197209897509 0 0 0 0 17.065373159349058 -43.44785520833284 0 -43.44785520833284 -198.60582455690746 0 0 0 0 -56.98443266586019 -69.147391441112632 0 -69.147391441112632 -85.428844373796892 0 0 0 0 -0.22881357421733367 0.48444941413962361 0 0.48444941413962361 -2.9421611851868477 0 0 0 0 -137.1209988695461 111.26716827610551 0 111.26716827610551 -96.563104069238761 0 0 0 0 -65.682367728434997 147.44564416264257 0 147.44564416264257 -116.36640800582973 0 0 0 0 169.50111131063341 17.008373918375582 0 17.008373918375582 -111.66203473903443 0 0 0 0 10.238957848809889 -37.430923640912624 0 -37.430923640912624 -77.739358015813195 0 0 0 0 0.98271649489505752 -1.9354657203602059 0 -1.9354657203602059 -22.793765185579872 0 0 0 0 63.323445778053838 -156.22756663327527 0 -156.22756663327527 -72.779084221818948 0 0 0 0 -42.191708471433572 45.724041083931297 0 45.724041083931297 -37.8015726416088 0 0 0 0 54.820167260430708 175.7227559101193 0 175.7227559101193 -88.510926836375575 0 0 0 0 24.123275510534427 -49.195676526538591 0 -49.195676526538591 44.448750245635892 0 0 0 0 184.20207901820368 -66.823061100767518 0 -66.823061100767518 -5.1210342243430205 0 0 0 0 61.138944651789416 -19.273479046816647 0 -19.273479046816647 15.698876777387341 0 0 0 0 0.82480718149342103 -1.5457153473663094 0 -1.5457153473663094 -25.876770879417251 0 0 0 0 154.59819056662741 -118.94072772177969 0 -118.94072772177969 -67.783170552636875 0 0 0 0 124.6743557575584 -5.3086573098462395 0 -5.3086573098462395 -95.200987368058122 0 0 0 0 114.38587351388333 -87.460664687794633 0 -87.460664687794633 24.008967377973022 0 0 0 0 35.543437397364208 -60.000103268031893 0 -60.000103268031893 58.196492028801003 0 0 0 0 0.71643769336122343 -4.9212987265813908 0 -4.9212987265813908 -0.8466796422645757 0 0 0 0 6.025535523464896 -20.165445862003253 0 -20.165445862003253 3.0708636132912943 0 0 0 0 -0.064587594772304358 0.049842613468451091 0 0.049842613468451091 -2.5863911787793796 0 0 0 0 -140.12846938652888 75.772656973176709 0 75.772656973176709 2.229068812339392 0 0 0 0 -25.061445617848392 -26.734656209600871 0 -26.734656209600871 -33.591595979160047 0 0 0 0 -23.775934818318774 -8.7487359374790685 0 -8.7487359374790685 8.0862084716582103 0 0 0 0 1.3427108180076175 -36.902816374204122 0 -36.902816374204122 -36.327312272434938 0 0 0 0 26.117068296127172 21.304644932693918 0 21.304644932693918 -53.909028449590551 0 0 0 0 10.907434471879071 5.4147457194922026 0 5.4147457194922026 -6.6572478835441871 0 0 0 0 -21.759638320655199 13.896462423075718 0 13.896462423075718 -10.566530459371279 0 0 0 0 -0.016766602094439587 -1.2924134556502391 0 -1.2924134556502391 -7.6369134500684197 0 0 0 0 1.5195247806392445 11.248282863642089 0 11.248282863642089 4.7304466711648274 0 0 0 0 5.1322290320995307 37.70621442895208 0 37.70621442895208 -11.400528325786581 0 0 0 0 3.099402588295991 -0.75365388287355017 0 -0.75365388287355017 -27.891091968340334 0 0 0 0 0.080212300287192839 -0.74335515027748045 0 -0.74335515027748045 -7.0546584622509823 0 0 0 0 1.5197715380698367 4.7240945316270739 0 4.7240945316270739 -2.9196583980479147 0 0 0 0 50.951579256756759 64.033818408817751 0 64.033818408817751 -41.935899368494574 0 0 0 0 35.027750585008789 -53.226077612518566 0 -53.226077612518566 15.147856785435579 0 0 0 0 33.924549349795569 40.744555095335272 0 40.744555095335272 9.6163733691064408 0 0 0 0 26.723450031395714 33.911953441689548 0 33.911953441689548 3.2943847541647244 0 0 0 0 1.7061134044240147 0.09010443427378334 0 0.09010443427378334 -25.399594768601915 0 0 0 0 52.312324663432719 -85.046672888547619 0 -85.046672888547619 -34.712575574892981 0 0 0 0 0.64150762848530629 -0.37390303059308394 0 -0.37390303059308394 -2.1567063080869531 0 0 0 0 -7.4094142317514979 -13.643831570479961 0 -13.643831570479961 -0.29110240502268425 0 0 0 0 39.831201254599677 9.5465922812554709 0 9.5465922812554709 33.160553729700041 0 0 0 0 -1.0385017188082672 -3.9246710296773841 0 -3.9246710296773841 -3.5411665022827989 0 0 0 0 -6.302268166072281 -7.297727040713653 0 -7.297727040713653 -8.6855014624306932 0 0 0 0 -7.7666160404000948 -5.9769221531023504 0 -5.9769221531023504 -5.1915564501323388 0 0 0 0 -10.10017920302198 1.3011828786511614 0 1.3011828786511614 -0.29624295370740583 0 0 0 0 -12.914321869923242 -4.2180962975326111 0 -4.2180962975326111 -5.6363751500830404 0 0 0 0 -4.8257270967127397 -16.689969663102602 0 -16.689969663102602 -39.462980340962531 0 0 0 0 -12.868723997150255 -14.149838469489623 0 -14.149838469489623 -11.94861674459753 0 0 0 0 -12.259104970740736 -16.235516806698797 0 -16.235516806698797 -28.257268030632986 0 0 0 0 -16.854019909555859 -25.409219141092763 0 -25.409219141092763 -30.1559174083377 0 0 0 0 2.3038544833593733 -21.235368662084511 0 -21.235368662084511 -81.319581345749612 0 0 0 0 2.5506646656970133 -8.3720119137724396 0 -8.3720119137724396 -45.149707924501854 0 0 0 0 2.767373706843955 -17.181486480283638 0 -17.181486480283638 -58.95714854063408 0 0 0 0 5.6248974832831209 -10.961965966896969 0 -10.961965966896969 -55.835339849159936 0 0 0 0 -5.1587490999932015 -0.32878219138365239 0 -0.32878219138365239 -9.8146127611507836 0 0 0 0 3.7277830431389702 -4.9744303753686836 0 -4.9744303753686836 -37.897320232655829 0 0 0 0 2.7458508518216149 1.5769716212307685 0 1.5769716212307685 -38.080450352164917 0 0 0 0 3.6047576820229779 -0.67810967257901211 0 -0.67810967257901211 -52.794926963411854 0 0 0 0 8.3971721804532535 1.6221864910112345 0 1.6221864910112345 -53.559792354979436 0 0 0 0 13.617811052259185 1.7491065475514915 0 1.7491065475514915 -66.666462550241704 0 0 0 0 11.82899553010111 -2.560997813463473 0 -2.560997813463473 -64.0925709567382 0 0 0 0 12.446330786492126 -4.2411585077934433 0 -4.2411585077934433 -59.739142991322296 0 0 0 0 14.563180711315852 8.1727150652568525 0 8.1727150652568525 -82.083832692303986 0 0 0 0 13.842857324870693 5.0001355912536383 0 5.0001355912536383 -60.936094534466974 0 0 0 0 -18.264187913395517 -37.63901151522623 0 -37.63901151522623 -77.504592816578224 0 0 0 0 1.9672970849258036 -35.841523521885392 0 -35.841523521885392 -111.88459296265501 0 0 0 0 12.431261559212089 -13.075200858856988 0 -13.075200858856988 -80.25988991628401 0 0 0 0 8.4941615197255942 11.973116690791358 0 11.973116690791358 -64.382666494020668 0 0 0 0 4.8744873982429908 29.725529477022064 0 29.725529477022064 -137.72339883556924 0 0 0 0 -38.293595185034405 25.327834168729169 0 25.327834168729169 0.77855561467004009 0 0 0 0 1.0086046887831799 22.471574296290783 0 22.471574296290783 -68.478902827313505 0 0 0 0 11.951977142294254 2.9182994329858047 0 2.9182994329858047 -59.784873980877819 0 0 0 0 2.0111828106576581 12.538785574079157 0 12.538785574079157 -29.597681271210604 0 0 0 0 3.4079165118195078 5.7956140116402821 0 5.7956140116402821 -28.687126332847811 0 0 0 0 3.9067616325853578 -23.099523562149443 0 -23.099523562149443 -64.835427295191039 0 0 0 0 6.8641351010297633 -15.475930540038462 0 -15.475930540038462 -45.185532979958225 0 0 0 0 -5.4649635052442136 -24.392040743536199 0 -24.392040743536199 -28.119935924718447 0 0 0 0 4.4659618778747054 -2.1303018105951566 0 -2.1303018105951566 -1.3646368336126571 0 0 0 0 15.472295156836026 -19.541909794228559 0 -19.541909794228559 5.2364680229711666 0 0 0 0 -20.37651008577626 -9.3960900000074616 0 -9.3960900000074616 20.750665064304485 0 0 0 0 8.1528359019994241 88.222744216964202 0 88.222744216964202 -37.899019346143177 0 0 0 0 1.7739033978550349 -0.060886897531954531 0 -0.060886897531954531 -16.645103361123034 0 0 0 0 -31.130284244806262 104.89575739156862 0 104.89575739156862 -39.584270529410787 0 0 0 0 -24.777360349763057 69.477646879546228 0 69.477646879546228 -1.9303065304666234 0 0 0 0 -86.147039910170179 90.090025077970495 0 90.090025077970495 -8.3902612726815278 0 0 0 0 -24.711090404512333 58.805442137640057 0 58.805442137640057 -19.838435888123058 0 0 0 0 -23.838648203840705 68.235508950684562 0 68.235508950684562 -24.348778007581132 0 0 0 0 -18.000069733413966 62.842512889168574 0 62.842512889168574 -27.270577774579579 0 0 0 0 -18.249939870324624 62.045808014750946 0 62.045808014750946 -29.806609002320329 0 0 0 0 26.772427663721942 31.033854712866741 0 31.033854712866741 -32.437627756487927 0 0 0 0 -22.820855616953622 79.527110223210911 0 79.527110223210911 -67.577357303045574 0 0 0 0 -32.349106513890547 53.263737824365307 0 53.263737824365307 -55.327909560495755 0 0 0 0 -134.34085030946335 63.581393707805546 0 63.581393707805546 -56.089937028884378 0 0 0 0 -133.95921575478678 63.152562159695663 0 63.152562159695663 -67.76845729406341 0 0 0 0 -120.94006155950137 42.522889450570801 0 42.522889450570801 10.490788750146748 0 0 0 0 1.0972060929764389 0.48429804406739407 0 0.48429804406739407 -2.9538756678274893 0 0 0 0 -190.42662139821948 145.108699099359 0 145.108699099359 -111.19428345472261 0 0 0 0 0.7893250187715446 -1.7156020506506913 0 -1.7156020506506913 -4.0792396914537221 0 0 0 0 -170.39838816046608 83.77098638537791 0 83.77098638537791 -60.463587578764418 0 0 0 0 -136.73927671402726 112.67413496170411 0 112.67413496170411 -108.82234726063325 0 0 0 0 -41.699703540239511 68.02910113091275 0 68.02910113091275 -60.135401170307887 0 0 0 0 -39.430694126322123 70.104556887803483 0 70.104556887803483 -92.416776158570428 0 0 0 0 7.4223802270888655 26.225035733748882 0 26.225035733748882 -111.75107121534529 0 0 0 0 -5.3499677833274291 86.529259662282129 0 86.529259662282129 -172.87435468204058 0 0 0 0 -94.689610521856594 140.86994225798844 0 140.86994225798844 -205.8470314641163 0 0 0 0 -126.53194302690463 -627.86738333581889 0 -627.86738333581889 -425.55248019121063 0 0 0 0 0.89726033725395382 35.813271266768425 0 35.813271266768425 -63.688802313889028 0 0 0 0 15.032613246130381 27.50398449313434 0 27.50398449313434 -60.88468186928003 0 0 0 0 38.136195114017028 -10.850815570574923 0 -10.850815570574923 -70.159367625896266 0 0 0 0 24.101591522868603 -25.881816297032856 0 -25.881816297032856 -17.238940532042761 0 0 0 0 -98.559638327076527 9.2278019515761116 0 9.2278019515761116 129.59033216330863 0 0 0 0 -7.2380818879659339 11.878537367530157 0 11.878537367530157 -6.8617363808698144 0 0 0 0 -153.0283607879195 -32.965199972841219 0 -32.965199972841219 122.28437410967217 0 0 0 0 109.92002669162093 -55.160620744429252 0 -55.160620744429252 -87.824864530770355 0 0 0 0 -10.066495987803073 13.931917686902146 0 13.931917686902146 -9.1380047275070808 0 0 0 0 59.308520609439256 123.17164237952966 0 123.17164237952966 -8.2438461006095167 0 0 0 0 -101.87343372006762 -71.18854498770088 0 -71.18854498770088 -50.093184062036016 0 0 0 0 336.91209083293597 120.00169650866155 0 120.00169650866155 -946.15520548084169 0 0 0 0 126.82536082435081 -34.431415045793983 0 -34.431415045793983 -579.22760074210601 0 0 0 0 -145.5287090631 202.79920985859644 0 202.79920985859644 -30.702544301433591 0 0 0 0 -6.6059245816160779 12.825898838422319 0 12.825898838422319 -8.0428730540790596 0 0 0 0 33.696636296810993 16.451108868877782 0 16.451108868877782 -639.9558008781587 0 0 0 0 -51.582899770082804 312.77713389834389 0 312.77713389834389 -682.56749757078251 0 0 0 0 98.555055337970316 76.911918332778441 0 76.911918332778441 -399.33388916587865 0 0 0 0 48.423630949681865 134.40254052457749 0 134.40254052457749 -415.61017132141751 0 0 0 0 70.407623524175506 41.749127488365048 0 41.749127488365048 -390.43924159449489 0 0 0 0 3.7102356714863163 -12.927316151093692 0 -12.927316151093692 -192.06815715281846 0 0 0 0 103.57146447274431 49.499509327924898 0 49.499509327924898 -327.83374720974098 0 0 0 0 48.307880983093582 83.643000473181019 0 83.643000473181019 -177.06830213377543 0 0 0 0 36.978439116209302 20.250250650075031 0 20.250250650075031 -175.00605968322975 0 0 0 0 -31.763381168143496 3.6437360997515498 0 3.6437360997515498 -15.788729506719392 0 0 0 0 26.564039075913257 -148.6709149998162 0 -148.6709149998162 39.868751858615724 0 0 0 0 -23.715593004380253 -98.457654075638857 0 -98.457654075638857 118.97148883854243 0 0 0 0 4.6756855006506157 75.983242894148134 0 75.983242894148134 94.667359560524346 0 0 0 0 45.421326871296742 -69.283800950202931 0 -69.283800950202931 -89.237685542022518 0 0 0 0 -5.7549305882914723 60.279406298115646 0 60.279406298115646 -110.76644864211994 0 0 0 0 -171.54108852800755 -46.349753482061715 0 -46.349753482061715 100.78811503254838 0 0 0 0 -110.52276000705638 -189.55159195415399 0 -189.55159195415399 -190.79600013832169 0 0 0 0 -6.3326468827119697 -14.217392284801463 0 -14.217392284801463 -41.86353822016099 0 0 0 0 14.779158139902918 42.307765332192332 0 42.307765332192332 127.59318217771579 0 0 0 0 -1.3992907082250028 8.2628264526580253 0 8.2628264526580253 -9.6440520736653568 0 0 0 0 -1.7759721209491748 -2.4863872362166752 0 -2.4863872362166752 -6.8972147892702509 0 0 0 0 -62.133348109141821 -22.290020640833973 0 -22.290020640833973 -21.405864404036038 0 0 0 0 -33.788554106946776 -5.651183930625848 0 -5.651183930625848 -15.733267049639835 0 0 0 0 -0.53583493160361417 -1.7596036807198487 0 -1.7596036807198487 -4.8024398149727219 0 0 0 0 -3.2807291343058864 -12.03040867558957 0 -12.03040867558957 -21.791105774969765 0 0 0 0 -6.8897036408978352 -7.6133868342585629 0 -7.6133868342585629 -19.216150841130002 0 0 0 0 -3.2456458851791687 -8.2742662009429822 0 -8.2742662009429822 -20.857853287663488 0 0 0 0 -1.4636233355704462 -0.92880039181363827 0 -0.92880039181363827 -34.060066391393775 0 0 0 0 -4.0204064010326874 -12.923647223804437 0 -12.923647223804437 -23.286660154897618 0 0 0 0 -12.516105505347923 -2.2999603916323395 0 -2.2999603916323395 -20.222216410851615 0 0 0 0 -2.4181028095688362 -11.734263958405791 0 -11.734263958405791 -31.562137125871232 0 0 0 0 -16.708295905219792 3.9937952439931905 0 3.9937952439931905 -42.69199735987786 0 0 0 0 5.6919766207064271 -11.117674612884002 0 -11.117674612884002 -57.368098839880986 0 0 0 0 -1.6934058816991922 10.995096694808126 0 10.995096694808126 -2.3550613748411706 0 0 0 0 0.069550804234680852 0.49061389584390724 0 0.49061389584390724 0.14387205310611506 0 0 0 0 -5.2261604397617134 -6.6337725271896488 0 -6.6337725271896488 -37.237256485233956 0 0 0 0 4.7444992084301703 -12.605717702510447 0 -12.605717702510447 -29.756748802341463 0 0 0 0 10.383001094783111 -10.624191583749052 0 -10.624191583749052 -59.072004144327366 0 0 0 0 10.932205370614867 6.2820126027318111 0 6.2820126027318111 -51.782808085277793 0 0 0 0 -3.7235574577101032 1.7850846215819089 0 1.7850846215819089 -4.1531678595264125 0 0 0 0 -11.594614762059827 11.542095116771634 0 11.542095116771634 -25.661299806833995 0 0 0 0 -45.145131625849615 -26.90522190448246 0 -26.90522190448246 -45.791268215321907 0 0 0 0 -15.021725813198071 4.1073496959506883 0 4.1073496959506883 -89.672067309649719 0 0 0 0 -6.8929638378979874 14.705400101462146 0 14.705400101462146 -77.267107884268626 0 0 0 0 1.2504181033579016 1.7910378527890316 0 1.7910378527890316 -69.701457153765659 0 0 0 0 3.7168312148086216 11.263531560787669 0 11.263531560787669 -95.471903357713018 0 0 0 0 -0.20402903841687348 4.5910012274762266 0 4.5910012274762266 -105.18647541082464 0 0 0 0 7.5552087891800284 -1.4914464852481615 0 -1.4914464852481615 -60.725424995653157 0 0 0 0 7.0020121031528788 8.9124068043347506 0 8.9124068043347506 -61.444214567806739 0 0 0 0 -0.25596343752351913 19.985499959955632 0 19.985499959955632 -83.125852706059959 0 0 0 0 7.9969494396524397 7.6388827179616783 0 7.6388827179616783 -67.849264230564586 0 0 0 0 13.142287549857656 3.4739341667263943 0 3.4739341667263943 -67.049445840071712 0 0 0 0 6.9775869621328184 6.0016396281134803 0 6.0016396281134803 -62.99620020789007 0 0 0 0 -8.3754102819660829 14.20315921571455 0 14.20315921571455 -41.038617032638285 0 0 0 0 -2.7358518695419125 -2.4117230239688112 0 -2.4117230239688112 -1.2884379800781147 0 0 0 0 28.232448613759516 -0.014078223051910754 0 -0.014078223051910754 -18.580319565051468 0 0 0 0 -0.12380571791214834 -2.5254324808447564 0 -2.5254324808447564 -35.587980212010734 0 0 0 0 0.18416878618968235 -1.5522217354121253 0 -1.5522217354121253 -2.1925847984909268 0 0 0 0 -3.6761145063009053 1.3583016217617114 0 1.3583016217617114 -34.403072737623006 0 0 0 0 7.9527359776905087 3.5197704853489995 0 3.5197704853489995 -60.857595745750587 0 0 0 0 -16.038883003904402 25.596211030591803 0 25.596211030591803 -57.249401149805635 0 0 0 0 -17.867858719988135 34.653089263847505 0 34.653089263847505 -69.301178441244701 0 0 0 0 -73.734674617403471 -137.10316590179355 0 -137.10316590179355 219.33863518930229 0 0 0 0 41.666078279400836 3.2187908700288972 0 3.2187908700288972 -30.78922866974608 0 0 0 0 -4.1874274106874267 37.474575472042488 0 37.474575472042488 -100.29602951047855 0 0 0 0 -1.5291449582211076 -1.0619806771114213 0 -1.0619806771114213 -0.20770455897606155 0 0 0 0 -1.8007255251677468 -1.3611493757551401 0 -1.3611493757551401 -1.205228099011542 0 0 0 0 -41.658485853028992 -14.13220080211795 0 -14.13220080211795 19.166559018223779 0 0 0 0 16.606856849767382 30.192116042183443 0 30.192116042183443 102.86332876553206 0 0 0 0 30.647250497466757 66.745274415187851 0 66.745274415187851 -215.11116173861956 0 0 0 0 117.87710164458258 -86.384756927060153 0 -86.384756927060153 -6.6005893468973227 0 0 0 0 -1.4142722252504427 -120.55955025794174 0 -120.55955025794174 138.40608316631551 0 0 0 0 -38.428332064933784 8.9487734151480254 0 8.9487734151480254 -21.856503400929796 0 0 0 0 8.5510237754158425 -83.251434410194634 0 -83.251434410194634 16.58261240390857 0 0 0 0 -10.970835477548007 5.7779238977345813 0 5.7779238977345813 89.006577326741535 0 0 0 0 26.861815828863882 -13.060272874374277 0 -13.060272874374277 -123.19643340112816 0 0 0 0 -21.316816337218484 66.732427292665307 0 66.732427292665307 -23.548530507228861 0 0 0 0 -23.108425086841194 99.315894038179977 0 99.315894038179977 -161.41071294612084 0 0 0 0 -45.605241294422171 -126.87717759915176 0 -126.87717759915176 -100.92083946618732 0 0 0 0 -200.81940666902241 12.071134435593194 0 12.071134435593194 49.318797310814261 0 0 0 0 74.389206648277238 -46.063870835811031 0 -46.063870835811031 46.559714697068557 0 0 0 0 -31.607445351525257 64.459828225832098 0 64.459828225832098 109.40099768479558 0 0 0 0 3.9656553414603195 23.259195295640893 0 23.259195295640893 2.6451313607321936 0 0 0 0 -1.1890412505801269 0.0081560511809968261 0 0.0081560511809968261 0.24802272756182475 0 0 0 0 -45.798035289322115 -36.269225274572818 0 -36.269225274572818 178.42511203628237 0 0 0 0 145.77944366339875 -45.551987476934301 0 -45.551987476934301 -199.80812593305018 0 0 0 0 -90.529121730133966 -75.147832872804429 0 -75.147832872804429 -73.193186263561074 0 0 0 0 -60.581748003249288 -20.18415661112158 0 -20.18415661112158 27.512411722180332 0 0 0 0 -0.94206726441063138 -0.26499836679481348 0 -0.26499836679481348 -0.17619007827892119 0 0 0 0 -27.530228269651971 109.39967857457214 0 109.39967857457214 -205.17692621621609 0 0 0 0 113.07968502201436 -2.2693449948328634 0 -2.2693449948328634 -218.23333896331678 0 0 0 0 -3.9555265874993752 -6.3357336083231957 0 -6.3357336083231957 -17.555745666344947 0 0 0 0 -247.00654045475221 18.217417825013399 0 18.217417825013399 -113.84654268343002 0 0 0 0 -0.0027201807191090666 -3.119204266300585 0 -3.119204266300585 -29.772200665047421 0 0 0 0 -0.8633917762249621 8.4092585802719171 0 8.4092585802719171 -9.6849860257323215 0 0 0 0 0.95082753287158539 -1.2662832459463971 0 -1.2662832459463971 -28.649166737232008 0 0 0 0 -10.132388389099617 -12.245979533217906 0 -12.245979533217906 -39.630189577346755 0 0 0 0 -0.22541263581334192 -8.3536212802036971 0 -8.3536212802036971 -39.114160642733623 0 0 0 0 -13.819535953475338 -13.921581404047174 0 -13.921581404047174 -31.791019326648893 0 0 0 0 -21.644251172263921 -27.961503916645597 0 -27.961503916645597 -47.299347816433965 0 0 0 0 -0.36769383444095638 -13.17317122953682 0 -13.17317122953682 -46.055325918137441 0 0 0 0 -20.808290151803419 -32.071891814890478 0 -32.071891814890478 -54.204021438978089 0 0 0 0 -3.4766277392445772 19.384634664525947 0 19.384634664525947 -12.107689849121925 0 0 0 0 -3.4721841585636071 -20.485802661280104 0 -20.485802661280104 -60.60407233004662 0 0 0 0 6.7028851891548129 4.4016565186248044 0 4.4016565186248044 -9.3783725908469933 0 0 0 0 14.412188268027535 8.1515207719894534 0 8.1515207719894534 -35.878788466437072 0 0 0 0 -149.51905212621386 6.9072300017578527 0 6.9072300017578527 -63.185542657432961 0 0 0 0 3.5734250503361622 7.4726093858486848 0 7.4726093858486848 -7.7745977919244993 0 0 0 0 -2.2080212339310492 -44.877577082952484 0 -44.877577082952484 -45.468085082060497 0 0 0 0 -15.057598965065154 -46.802725205503521 0 -46.802725205503521 40.039477816448198 0 0 0 0 -7.1607426950783974 30.234221686503588 0 30.234221686503588 34.592011850819063 0 0 0 0 13.685732949930298 -2.138280749642945 0 -2.138280749642945 -22.258313199970871 0 0 0 0 7.7282308465068219 3.9392173008553897 0 3.9392173008553897 -8.6018862940000886 0 0 0 0 14.350464398762369 -7.5833442344810464 0 -7.5833442344810464 -24.858110206696438 0 0 0 0 18.966401156459597 -16.482118091862503 0 -16.482118091862503 -7.7657498551197932 0 0 0 0 10.828945317294711 1.3233100721081428 0 1.3233100721081428 -12.471181801970488 0 0 0 0 14.783638302778172 -1.0303508016713749 0 -1.0303508016713749 -29.662183395616012 0 0 0 0 16.67592418188417 -7.6411508444139145 0 -7.6411508444139145 -24.679047102010372 0 0 0 0 2.7855287692815409 15.496773012459016 0 15.496773012459016 -37.434317629042198 0 0 0 0 18.259632370562429 -3.8810044443284824 0 -3.8810044443284824 -39.747433303549769 0 0 0 0 3.894548090376702 -12.27465247174041 0 -12.27465247174041 -15.603467452601762 0 0 0 0 7.5153087542439607 -15.528120465764005 0 -15.528120465764005 -20.850742697799433 0 0 0 0 7.569826902979619 -6.2747923640853394 0 -6.2747923640853394 -12.769679563109591 0 0 0 0 2.0968441622256622 -9.2708219036395363 0 -9.2708219036395363 -7.7247265476972515 0 0 0 0 0.52712458251889271 -5.7479923456647661 0 -5.7479923456647661 -18.522898479280713 0 0 0 0 7.4045086357186847 -16.622330682806933 0 -16.622330682806933 -16.171283857879189 0 0 0 0 7.4604968529526445 -7.5997249172387455 0 -7.5997249172387455 -15.426685509373783 0 0 0 0 16.819205177344884 -9.8346713853970869 0 -9.8346713853970869 -17.023665331609664 0 0 0 0 3.3835266445194936 1.6118839459467438 0 1.6118839459467438 -0.83237712422506149 0 0 0 0 24.378123128631756 7.5831960153373075 0 7.5831960153373075 -17.446076745502069 0 0 0 0 1.9853862428050206 -0.84710197716049151 0 -0.84710197716049151 -4.3500050072652812 0 0 0 0 0.76337196011474329 -1.4305453934594823 0 -1.4305453934594823 -1.0771871691615758 0 0 0 0 3.7303873484431009 -5.2757255761122295 0 -5.2757255761122295 -4.3334260874801274 0 0 0 0 9.8131233943363441 -37.323569471485825 0 -37.323569471485825 -25.705159697161434 0 0 0 0 6.5929288695278139 -9.2743350520589658 0 -9.2743350520589658 -0.54421981902702754 0 0 0 0 -18.244280951281155 -6.5051719948842219 0 -6.5051719948842219 6.9186757657826092 0 0 0 0 -24.185722034972599 -37.37343852369122 0 -37.37343852369122 -27.86033577654598 0 0 0 0 -9.7807601277961709 -28.357199886988383 0 -28.357199886988383 -66.639114779929514 0 0 0 0 -1.2165554088702275 -0.21540135471568078 0 -0.21540135471568078 0.60094215641672832 0 0 0 0 -25.618095001210008 -17.588997441016545 0 -17.588997441016545 -66.338425639711204 0 0 0 0 -35.178431304196693 -78.905712069077708 0 -78.905712069077708 -99.398987855645828 0 0 0 0 -22.195096520037396 -46.061436036776286 0 -46.061436036776286 -97.856176793357008 0 0 0 0 -16.66232811586589 -53.52669595415864 0 -53.52669595415864 -88.015447522891918 0 0 0 0 -11.985721294066821 -43.747847216138325 0 -43.747847216138325 -80.024885147446184 0 0 0 0 -17.478288749155489 -40.004275541250536 0 -40.004275541250536 -59.671414303855272 0 0 0 0 -14.392909065998936 -48.744630913774017 0 -48.744630913774017 -73.584100578256766 0 0 0 0 -11.29794851279793 -53.476805072103161 0 -53.476805072103161 -94.079102901217993 0 0 0 0 -16.802346985749978 -24.883768968780714 0 -24.883768968780714 -30.992757597574382 0 0 0 0 -3.2112355732225524 -47.468188034879859 0 -47.468188034879859 -54.194336508535343 0 0 0 0 -16.049114317839098 -47.53359022908262 0 -47.53359022908262 -53.75885679005296 0 0 0 0 -6.6288273366054682 -50.348648600178421 0 -50.348648600178421 -67.788366562250303 0 0 0 0 -13.475971950686926 -42.896749055435066 0 -42.896749055435066 -65.00511018873658 0 0 0 0 -16.305303799943346 -52.688087496717344 0 -52.688087496717344 -69.352714970693341 0 0 0 0 -11.740027369118224 -50.785279204552353 0 -50.785279204552353 -73.136171125224791 0 0 0 0 -16.747571359926283 -51.548916474199586 0 -51.548916474199586 -71.618155958334683 0 0 0 0 -22.287916306395914 -58.983455192428664 0 -58.983455192428664 -76.90985075107892 0 0 0 0 -16.352023417845714 -49.616162079706555 0 -49.616162079706555 -78.10947156889597 0 0 0 0 -16.717630164482244 -58.980572481610579 0 -58.980572481610579 -83.241958810409415 0 0 0 0 -13.993272942648192 -46.40001162262206 0 -46.40001162262206 -69.719824707921362 0 0 0 0 -14.121048404469377 -53.647563845101104 0 -53.647563845101104 -71.947291393087653 0 0 0 0 -17.368840930392963 -48.413572550467507 0 -48.413572550467507 -81.70348733929859 0 0 0 0 -18.755933997006935 -47.140127884296817 0 -47.140127884296817 -80.682575830942369 0 0 0 0 -30.052209251802367 -53.571171638352098 0 -53.571171638352098 -77.412472766885912 0 0 0 0 -28.784950028597134 -67.31770101064285 0 -67.31770101064285 -85.405436511122389 0 0 0 0 -19.039560269635366 -67.78305227823148 0 -67.78305227823148 -93.164536113654322 0 0 0 0 -20.530610611769937 -62.919685204924463 0 -62.919685204924463 -90.859754401462851 0 0 0 0 -26.550487602335835 -72.767669247299636 0 -72.767669247299636 -101.12839429924497 0 0 0 0 -18.376380601909794 -64.892480695416452 0 -64.892480695416452 -89.192127896356396 0 0 0 0 -18.388509082977855 -58.931783878157148 0 -58.931783878157148 -81.075439086096594 0 0 0 0 -16.572813949591904 -56.893432403533552 0 -56.893432403533552 -83.045082396973157 0 0 0 0 -34.440370555370805 -51.866845237629605 0 -51.866845237629605 -39.07873101264704 0 0 0 0 -16.193015132729215 -43.627840344750439 0 -43.627840344750439 -50.775277839820774 0 0 0 0 -28.724318124899241 -48.574008560441143 0 -48.574008560441143 -47.227356986753875 0 0 0 0 -31.330477667362061 -40.108382003803854 0 -40.108382003803854 -13.02891360790818 0 0 0 0 -32.68740717397111 -31.163920584302105 0 -31.163920584302105 -5.041655894870928 0 0 0 0 2.787929635163124 -32.68421289051912 0 -32.68421289051912 -53.554094501334475 0 0 0 0 -14.435473303598883 -23.865815780372941 0 -23.865815780372941 -18.638892108603613 0 0 0 0 -10.575520330654115 -49.585272721764341 0 -49.585272721764341 -69.641306865116348 0 0 0 0 -11.173429684166763 -42.058209755807184 0 -42.058209755807184 -49.872568873855926 0 0 0 0 -9.6448674807731436 -49.635875112529902 0 -49.635875112529902 -80.024435781466309 0 0 0 0 -14.30554013167972 -42.966465118333872 0 -42.966465118333872 -73.194961878441973 0 0 0 0 -13.918280877997859 -46.428419237607159 0 -46.428419237607159 -82.595684294705279 0 0 0 0 -14.335369060859421 -41.448089561345114 0 -41.448089561345114 -89.684030954966147 0 0 0 0 -16.856404543670521 -41.585463832747337 0 -41.585463832747337 -81.835476369247772 0 0 0 0 -19.360573357117858 -53.837840514337586 0 -53.837840514337586 -78.021053819597 0 0 0 0 -36.341683150619133 -62.147005553500549 0 -62.147005553500549 -76.851903618764482 0 0 0 0 -17.386178618033455 -46.507212098309537 0 -46.507212098309537 -104.16170261380466 0 0 0 0 0.29450944485768149 0.27946668356146631 0 0.27946668356146631 -0.10843193708089416 0 0 0 0 -33.010183018646444 -34.420696444401983 0 -34.420696444401983 -67.271957189306249 0 0 0 0 -0.72418769156427931 -0.14653664477847173 0 -0.14653664477847173 0.57059216019715819 0 0 0 0 -22.801462425222951 -26.0620755254713 0 -26.0620755254713 -101.38376323152534 0 0 0 0 -31.48981359408458 -17.169062907412808 0 -17.169062907412808 -68.332721999460773 0 0 0 0 -30.053653000854069 -39.599420548373018 0 -39.599420548373018 -67.803928540401103 0 0 0 0 -20.160470548090302 -33.455504156903771 0 -33.455504156903771 -83.148851996927988 0 0 0 0 -30.816870774221115 -40.231659826698888 0 -40.231659826698888 -54.030700212835654 0 0 0 0 -4.1672632382509676 -4.366257905614475 0 -4.366257905614475 -4.264102411656495 0 0 0 0 -2.15527099307387 -2.9703714881761698 0 -2.9703714881761698 -3.9713240440723894 0 0 0 0 -46.13461823366049 -77.656577809560986 0 -77.656577809560986 -85.632875824860093 0 0 0 0 -44.455507870476552 -51.575941453898849 0 -51.575941453898849 -77.310848633554997 0 0 0 0 0.82381615291429533 -0.088508710547991143 0 -0.088508710547991143 -2.9375828584592796 0 0 0 0 69.2074150763886 25.859926026490939 0 25.859926026490939 -54.846049629231857 0 0 0 0 0.52805382631916586 -2.0891087061027065 0 -2.0891087061027065 -5.5969810487404175 0 0 0 0 38.814298521596697 31.803222416016069 0 31.803222416016069 -50.842836838092808 0 0 0 0 -11.592175422212676 -74.423591415630654 0 -74.423591415630654 -74.255344466404495 0 0 0 0 -2.494175396631988 -2.8315450063855678 0 -2.8315450063855678 -2.5878644217336841 0 0 0 0 -33.9991175070503 -37.532381953977165 0 -37.532381953977165 -41.26381124359051 0 0 0 0 -0.50381109667662838 -0.17176694784837565 0 -0.17176694784837565 0.47003315856620276 0 0 0 0 -23.27708129091269 -30.356355288859049 0 -30.356355288859049 -41.113619389416272 0 0 0 0 -16.286302100884541 -21.285701322150999 0 -21.285701322150999 -36.109775472799811 0 0 0 0 -29.953979624837814 -21.11668433401428 0 -21.11668433401428 -28.129579611810186 0 0 0 0 -44.438400472324247 -53.265112683126063 0 -53.265112683126063 -45.33597412200379 0 0 0 0 -25.875964928794133 29.479119358806201 0 29.479119358806201 41.607048209021741 0 0 0 0 -0.22868533293098992 -0.09566895854281654 0 -0.09566895854281654 0.23258025122574821 0 0 0 0 -19.187796121148565 -41.204523956365847 0 -41.204523956365847 -48.983722742545069 0 0 0 0 3.1792221940039838 -15.713313918661697 0 -15.713313918661697 3.8528704990676488 0 0 0 0 -2.7773863729461254 -7.7281653531135817 0 -7.7281653531135817 19.720073297208728 0 0 0 0 -48.961237130082566 -31.679184414852898 0 -31.679184414852898 47.305019672872731 0 0 0 0 7.5133466449833861 -44.896128001868419 0 -44.896128001868419 27.66702943666678 0 0 0 0 -35.5331559120458 -12.465672912632726 0 -12.465672912632726 24.150584893439373 0 0 0 0 -35.18158303097357 -7.3835946271246939 0 -7.3835946271246939 31.294781415454054 0 0 0 0 -86.052610907064945 17.732530368568405 0 17.732530368568405 26.77276594983141 0 0 0 0 -45.141763379357144 -3.9169605103816139 0 -3.9169605103816139 23.57128430029843 0 0 0 0 -54.00812894633782 12.516922038601479 0 12.516922038601479 44.236290650114825 0 0 0 0 -42.882476237170749 26.309757670547697 0 26.309757670547697 15.850430885679089 0 0 0 0 -42.890991640859284 36.03156728331669 0 36.03156728331669 -16.170554746571725 0 0 0 0 -35.24290762998271 3.7116743516817223 0 3.7116743516817223 -3.6535622072333354 0 0 0 0 64.918715122739911 52.771082288494199 0 52.771082288494199 -307.86174248284078 0 0 0 0 -166.85281446384442 12.755267598859064 0 12.755267598859064 -12.513716991707042 0 0 0 0 -0.55627780388785952 -1.2326295455576641 0 -1.2326295455576641 -2.6396667037155481 0 0 0 0 78.658327264240597 120.23179433144287 0 120.23179433144287 -170.23490282197599 0 0 0 0 36.421477733879783 4.290350550909352 0 4.290350550909352 -368.17239220517513 0 0 0 0 42.775734125160852 75.653625569721044 0 75.653625569721044 -329.62351340643136 0 0 0 0 69.786948328644939 66.029232005414087 0 66.029232005414087 -370.49123186856741 0 0 0 0 -126.83714318002751 -119.05213755023942 0 -119.05213755023942 -152.51135535611684 0 0 0 0 189.36382410237485 70.837664417271299 0 70.837664417271299 -190.7463795724907 0 0 0 0 7.0216699646658469 34.689873640658334 0 34.689873640658334 21.415317161063285 0 0 0 0 0.14642864652806975 -0.093792279168411596 0 -0.093792279168411596 -1.1596474114822826 0 0 0 0 -199.46973435370873 -275.75511415937399 0 -275.75511415937399 -205.78539836842901 0 0 0 0 -51.906509696883063 -71.635496238355699 0 -71.635496238355699 -103.87616242436707 0 0 0 0 -6.1975384530883844 -102.95372646546457 0 -102.95372646546457 -108.73674101356301 0 0 0 0 1.2680599314319778 -66.815091775839392 0 -66.815091775839392 -105.09272585524741 0 0 0 0 41.274417976805466 -17.149099396854581 0 -17.149099396854581 2.0874337994155212 0 0 0 0 0.78514634242533432 -0.23399014691144515 0 -0.23399014691144515 -2.8446836304114527 0 0 0 0 -1.1866815709927805 1.3025143372464285 0 1.3025143372464285 -1.4161634421672886 0 0 0 0 -156.55162888240443 -23.510480912034836 0 -23.510480912034836 94.95163489197148 0 0 0 0 -136.04377224931773 312.12296897054512 0 312.12296897054512 3.3039298630378653 0 0 0 0 -21.299118848933869 -60.152071714449789 0 -60.152071714449789 -145.05406442847379 0 0 0 0 151.69122564682311 83.425382427435579 0 83.425382427435579 -99.831605552637484 0 0 0 0 -0.97444174531961658 2.2076169165409851 0 2.2076169165409851 -3.5882183312869955 0 0 0 0 3.5657672422052542 -27.308253235565644 0 -27.308253235565644 -59.777638865989047 0 0 0 0 96.272731311911485 -150.73373137367344 0 -150.73373137367344 -159.27182213484411 0 0 0 0 39.233207230805817 -35.146958194940453 0 -35.146958194940453 -375.05828401048348 0 0 0 0 -220.41276788339866 59.195458311376569 0 59.195458311376569 -242.84456088654042 0 0 0 0 -217.46268476060578 91.984875460528201 0 91.984875460528201 -79.13839954053401 0 0 0 0 141.49194752564998 -88.27390134808229 0 -88.27390134808229 -465.49888761702459 0 0 0 0 -240.08149860149297 115.38713290432861 0 115.38713290432861 -322.80846917676899 0 0 0 0 36.983851965474969 97.146532101658522 0 97.146532101658522 -392.54147338853363 0 0 0 0 -23.160284164258883 63.877990690256411 0 63.877990690256411 -369.89437676020316 0 0 0 0 -2.6598108376369964 2.8533098166881246 0 2.8533098166881246 -367.31037639252281 0 0 0 0 -209.4782939511465 10.009799079536606 0 10.009799079536606 -332.38911937426747 0 0 0 0 -25.677977726561494 101.94050724850604 0 101.94050724850604 -392.53655293664633 0 0 0 0 -58.308597582959692 97.431021110380243 0 97.431021110380243 -314.8988389393453 0 0 0 0 -91.012106898975389 126.96025103742977 0 126.96025103742977 -318.04947238291061 0 0 0 0 -235.60660974923454 192.22455550291636 0 192.22455550291636 -294.85335310584924 0 0 0 0 -24.160146595879269 162.41188157544457 0 162.41188157544457 -341.66044939119274 0 0 0 0 -45.177883986013967 177.94480389831006 0 177.94480389831006 -352.34241290856153 0 0 0 0 5.7849540458910269 88.144110958066449 0 88.144110958066449 -301.41980637199595 0 0 0 0 -145.69036052980823 251.76138226628245 0 251.76138226628245 -368.19143770233131 0 0 0 0 -235.44817183717734 130.84992919705229 0 130.84992919705229 -184.09061212365486 0 0 0 0 -264.06467424676032 199.41252228900157 0 199.41252228900157 -391.34150582493567 0 0 0 0 0.52217539526839785 0.40008839150335973 0 0.40008839150335973 -2.4506568034324232 0 0 0 0 -364.30671159124847 240.66297966711318 0 240.66297966711318 -101.20716694628936 0 0 0 0 -12.482800327039918 -47.504738144497651 0 -47.504738144497651 -14.7093287899188 0 0 0 0 13.78082847389112 -37.725994552470183 0 -37.725994552470183 -61.654913416790805 0 0 0 0 -80.668687942961014 -8.6337533800797246 0 -8.6337533800797246 16.202415465617378 0 0 0 0 5.7725699828615689 23.699348724698211 0 23.699348724698211 -253.81882869514811 0 0 0 0 -14.418212639439609 21.7377105266998 0 21.7377105266998 5.8047531829724903 0 0 0 0 -0.0066432502834192775 -1.4202394980583684 0 -1.4202394980583684 -3.7761708241006886 0 0 0 0 29.039018347829995 -1.3490600082063793 0 -1.3490600082063793 17.162284838304913 0 0 0 0 9.9683417446959766 -0.34829769816860789 0 -0.34829769816860789 -1.8490783525194274 0 0 0 0 2.5926375752319473 16.800370534248941 0 16.800370534248941 7.1616015311119554 0 0 0 0 0.70575533951615443 0.074208200130154722 0 0.074208200130154722 -4.555005633080043 0 0 0 0 -179.69939930308374 102.29485808132267 0 102.29485808132267 -42.254673799181546 0 0 0 0 -290.34603889812684 131.11894841511457 0 131.11894841511457 -21.531023326686409 0 0 0 0 -121.66329277507239 185.0314953860634 0 185.0314953860634 -240.53086184369386 0 0 0 0 -20.719422411854893 -18.919045952017768 0 -18.919045952017768 -474.19291931331099 0 0 0 0 -203.89399225983672 300.97965884587211 0 300.97965884587211 -337.58028296891644 0 0 0 0 -15.073946241549663 92.64129822202267 0 92.64129822202267 -236.68421728389512 0 0 0 0 -91.171529608206072 131.72905318953417 0 131.72905318953417 -125.41162268799962 0 0 0 0 -98.576386901386158 129.53450118024739 0 129.53450118024739 -123.21375385203282 0 0 0 0 -154.39894695063026 153.79460595791534 0 153.79460595791534 -79.061659087150474 0 0 0 0 -66.37876645908176 97.564687900432546 0 97.564687900432546 -85.069445344190171 0 0 0 0 152.33207118449758 265.9860137042815 0 265.9860137042815 -1498.6163622798676 0 0 0 0 -108.67190293987993 135.36941262672644 0 135.36941262672644 -68.145803213890758 0 0 0 0 -112.94742994284212 125.8491167065049 0 125.8491167065049 -63.316631386980589 0 0 0 0 -126.30017848315276 126.7192349680081 0 126.7192349680081 -57.73065321528702 0 0 0 0 -184.64560122688926 107.33474820809988 0 107.33474820809988 -43.319645198615035 0 0 0 0 -127.79885347343429 89.699659441757831 0 89.699659441757831 -37.853421486945081 0 0 0 0 -58.880996351528552 73.799044855462853 0 73.799044855462853 -79.912745255225673 0 0 0 0 0.61218654835533926 0.44467390340105339 0 0.44467390340105339 -7.8551610548383906 0 0 0 0 1.4062084829224193 0.36692780243512146 0 0.36692780243512146 -5.5985200094208949 0 0 0 0 -103.7228313904521 150.2569789349327 0 150.2569789349327 -36.813415234573768 0 0 0 0 0.54027644459870616 0.029802842856220479 0 0.029802842856220479 -0.99717447849920227 0 0 0 0 -69.650060706606567 108.25893870096024 0 108.25893870096024 -169.9638135592686 0 0 0 0 -104.08461614856365 143.6693541753084 0 143.6693541753084 -87.035054459722232 0 0 0 0 -59.407860466575052 319.53936961817089 0 319.53936961817089 -383.4356994392183 0 0 0 0 153.06919411690345 -379.55194589095368 0 -379.55194589095368 -604.24635432346986 0 0 0 0 86.080726795990643 64.406360919201688 0 64.406360919201688 43.054129103417836 0 0 0 0 0.37905676941827632 -0.91076243521580835 0 -0.91076243521580835 -4.5565812064551352 0 0 0 0 0.60972971764031947 1.6682864224943614 0 1.6682864224943614 0.039181289961646826 0 0 0 0 120.10710198634982 -6.2738456884981133 0 -6.2738456884981133 -49.250549438613234 0 0 0 0 16.365378250995349 303.93600608433144 0 303.93600608433144 -1052.757240340612 0 0 0 0 6.555438080538238 -4.0123572708544089 0 -4.0123572708544089 15.483666041465767 0 0 0 0 1.4438200452690029 3.0024117201238454 0 3.0024117201238454 -4.4799853405258894 0 0 0 0 149.2928796560978 65.112535168183967 0 65.112535168183967 -1396.0046762737875 0 0 0 0 27.87577161057304 91.006384859043465 0 91.006384859043465 -1384.1409658594166 0 0 0 0 -184.52942348193437 244.08897459873879 0 244.08897459873879 -1743.2245494656563 0 0 0 0 -451.59998112432231 438.32135949286021 0 438.32135949286021 -1634.3639988240539 0 0 0 0 89.803534656407265 -309.82713596319081 0 -309.82713596319081 -1237.6745658782838 0 0 0 0 -47.079616051905504 -414.43430965218795 0 -414.43430965218795 -236.04504189011277 0 0 0 0 5.1394498347193629 2.4401646050102599 0 2.4401646050102599 -5.236085965852288 0 0 0 0 -311.3049211959522 122.29126985993389 0 122.29126985993389 153.45829124821466 0 0 0 0 13.926530979212203 -2.8502609949355246 0 -2.8502609949355246 -14.236741096759943 0 0 0 0 62.582500451682883 -75.587617705685261 0 -75.587617705685261 -599.27380568873195 0 0 0 0 -9.2833615712578581 383.20519202312244 0 383.20519202312244 -445.43099580940907 0 0 0 0 -154.91500045319162 528.04597694651329 0 528.04597694651329 -1711.7151520306179 0 0 0 0 0.27988524729526315 0.59823317612016069 0 0.59823317612016069 -6.212176088402444 0 0 0 0 9.701071759792228 5.0721760288647602 0 5.0721760288647602 -11.059679816884454 0 0 0 0 6.2418597081201312 4.1164828186957472 0 4.1164828186957472 -14.969284538289457 0 0 0 0 11.328370428272478 -2.2259469999680732 0 -2.2259469999680732 -13.097908737814578 0 0 0 0 15.094132079153724 -2.341513846302405 0 -2.341513846302405 -14.016173352592887 0 0 0 0 0.042679050798291707 -1.246443496364634 0 -1.246443496364634 -5.8364562954308639 0 0 0 0 1.0692811159952598 6.7577171638496338 0 6.7577171638496338 -13.694576042275003 0 0 0 0 15.194851261930353 0.081547143552597845 0 0.081547143552597845 -11.788206516848732 0 0 0 0 -9.9987364867074575 12.590358090325026 0 12.590358090325026 6.0509696743829409 0 0 0 0 -7.8304332767568212 -8.0290978039738548 0 -8.0290978039738548 -4.2197930057773192 0 0 0 0 -0.33991082178931808 -1.8371946486414821 0 -1.8371946486414821 -4.1188835273687374 0 0 0 0 35.14040881807523 -24.062789878669719 0 -24.062789878669719 -11.199033401971974 0 0 0 0 9.3482296125998801 5.4797795471440622 0 5.4797795471440622 -5.8318247917704866 0 0 0 0 19.493852072309892 -9.3657535165402805 0 -9.3657535165402805 -19.788392215637941 0 0 0 0 13.089385013397305 -9.0894224394287448 0 -9.0894224394287448 6.8063285391654063 0 0 0 0 7.5567834087871955 1.7611010665701095 0 1.7611010665701095 -17.224765828518315 0 0 0 0 216.4461407117185 -71.16819327185658 0 -71.16819327185658 -70.806156361766625 0 0 0 0 167.19317361693118 -110.97252644183391 0 -110.97252644183391 -102.96837742022399 0 0 0 0 6.5037083877941768 -1.2425296404981054 0 -1.2425296404981054 -21.713638613349758 0 0 0 0 27.451161803645846 -19.848785099693487 0 -19.848785099693487 -38.216408511387272 0 0 0 0 1.3654589148573244 0.75042600489967981 0 0.75042600489967981 -3.1618167671332316 0 0 0 0 130.91620347031966 -28.60762835603964 0 -28.60762835603964 11.296379901585169 0 0 0 0 127.73213644226144 -10.91081393807508 0 -10.91081393807508 118.06161745423742 0 0 0 0 6.9975734570235772 -71.190971273324976 0 -71.190971273324976 4.3133975334894785 0 0 0 0 88.85513120523774 17.558378649382576 0 17.558378649382576 -235.67632358859555 0 0 0 0 150.75622114210057 -85.32909400497374 0 -85.32909400497374 -56.783132108951577 0 0 0 0 80.6162042831034 -134.88643088755634 0 -134.88643088755634 94.007619824809808 0 0 0 0 24.805235735610381 74.995759949128114 0 74.995759949128114 -77.673624558845404 0 0 0 0 -113.8294738023792 449.74650248129933 0 449.74650248129933 -478.74565649807482 0 0 0 0 -148.58514264812015 148.58435652081062 0 148.58435652081062 -46.180354755776079 0 0 0 0 -130.35361708073185 420.19057391249135 0 420.19057391249135 -1500.4780676958344 0 0 0 0 -55.583290111001261 492.7660222489958 0 492.7660222489958 -1556.8059739268247 0 0 0 0 12.542740280865246 27.977527019220361 0 27.977527019220361 1.3756691018388665 0 0 0 0 -125.34199521127509 451.5209191768663 0 451.5209191768663 -1580.5195404712767 0 0 0 0 -3.6851298715923138 2.6056816980720541 0 2.6056816980720541 -3.6417825973000788 0 0 0 0 208.53948830547498 337.56714886789996 0 337.56714886789996 -1161.7701876963565 0 0 0 0 257.52267051113733 309.10856498865587 0 309.10856498865587 -1183.0777833284919 0 0 0 0 212.59441455859118 182.39755801060346 0 182.39755801060346 -1202.0401334219387 0 0 0 0 289.52381675655261 181.79631422965576 0 181.79631422965576 -1161.3939747783734 0 0 0 0 193.30902531075444 221.95228011705331 0 221.95228011705331 -520.86927549598477 0 0 0 0 40.624994708182214 137.22081023566943 0 137.22081023566943 -189.82187722014351 0 0 0 0 205.50245831610835 118.0984210570532 0 118.0984210570532 -536.69747644424615 0 0 0 0 205.97233256611747 93.716065770743626 0 93.716065770743626 -267.08315770905756 0 0 0 0 169.61158398544512 35.63095668834103 0 35.63095668834103 -358.20931434731756 0 0 0 0 274.36924061056561 -79.679114865064548 0 -79.679114865064548 -107.72550017721369 0 0 0 0 140.67515518765913 24.912839594471734 0 24.912839594471734 -79.652455044430098 0 0 0 0 196.62612400301464 8.8191402589982317 0 8.8191402589982317 -265.27739575681983 0 0 0 0 359.15490222174725 -125.21952782012204 0 -125.21952782012204 -74.755187917566218 0 0 0 0 174.67243452058028 -75.605154518951167 0 -75.605154518951167 15.814807601094799 0 0 0 0 152.81111086738116 -98.399087374757073 0 -98.399087374757073 178.47035515412426 0 0 0 0 325.6315208826004 -313.18948117539367 0 -313.18948117539367 136.63587246968609 0 0 0 0 4.9741967421894966 0.13186620843842434 0 0.13186620843842434 -2.6761755713116742 0 0 0 0 239.66052018244199 -41.433697412332549 0 -41.433697412332549 -7.0012897856449854 0 0 0 0 214.32973285376727 -6.101249444673158 0 -6.101249444673158 -194.67665309922154 0 0 0 0 95.98214898839052 -28.873134201163339 0 -28.873134201163339 8.1935538120160345 0 0 0 0 50.188088037889429 34.583652364752197 0 34.583652364752197 -55.339809796212649 0 0 0 0 8.7569686393261144 3.7127836790398732 0 3.7127836790398732 -4.868214161494933 0 0 0 0 150.21651451703792 -192.49839984984646 0 -192.49839984984646 107.49252214324042 0 0 0 0 226.44009150797581 -152.38139383622547 0 -152.38139383622547 17.132943033017 0 0 0 0 82.216077026415121 -74.077624878780625 0 -74.077624878780625 50.554360697264201 0 0 0 0 25.564850014669446 -41.450469908802916 0 -41.450469908802916 12.112554730892271 0 0 0 0 0.40744441575699675 -5.5189799985961372 0 -5.5189799985961372 -13.513927677586381 0 0 0 0 26.244576976376379 -23.604367689289575 0 -23.604367689289575 17.627551943987783 0 0 0 0 32.71572720597942 -25.950250398116623 0 -25.950250398116623 15.617081156095082 0 0 0 0 24.985377987356969 -31.117399911930988 0 -31.117399911930988 15.258763384284975 0 0 0 0 9.9509423032923223 2.1994299049911206 0 2.1994299049911206 -44.734173631935846 0 0 0 0 71.691715744177145 -101.18838701348432 0 -101.18838701348432 175.74863502114022 0 0 0 0 56.058388187826495 -25.454371911529961 0 -25.454371911529961 18.304848964673511 0 0 0 0 31.733749829651174 -20.989201088874324 0 -20.989201088874324 17.51983895542071 0 0 0 0 -45.012395876021856 135.80284006998045 0 135.80284006998045 -124.60907793583101 0 0 0 0 41.258357077690107 -82.153751637444657 0 -82.153751637444657 -12.244926381330515 0 0 0 0 18.193535964143393 -150.82970599318287 0 -150.82970599318287 -72.596796689249459 0 0 0 0 -0.68156595638933304 -3.3857918263171456 0 -3.3857918263171456 -11.650013935198942 0 0 0 0 -276.94626668049568 213.61135583695432 0 213.61135583695432 -36.372580278025453 0 0 0 0 -239.65231749389386 161.30089536487503 0 161.30089536487503 -278.35616101395135 0 0 0 0 -40.447181181617452 107.03152782297548 0 107.03152782297548 -279.76912318747782 0 0 0 0 -26.708693821607994 147.69566796435174 0 147.69566796435174 -262.76466178263945 0 0 0 0 0.37457859417822625 -0.41419696938868356 0 -0.41419696938868356 -2.1066562072572736 0 0 0 0 -129.63102106408951 122.66305946538341 0 122.66305946538341 -265.17396229090082 0 0 0 0 -36.275999920196227 135.537069957325 0 135.537069957325 -336.03803390226676 0 0 0 0 -32.321335062828439 148.03226736672514 0 148.03226736672514 -355.50934028692427 0 0 0 0 -13.10554281324994 112.96107169969764 0 112.96107169969764 -322.13790694079216 0 0 0 0 -3.2317163886145863 137.63769688780667 0 137.63769688780667 -370.61932498816896 0 0 0 0 -30.594456983480768 176.14110735154645 0 176.14110735154645 -412.73781168796995 0 0 0 0 -107.9401465714036 185.46215940131151 0 185.46215940131151 -358.49551467889978 0 0 0 0 -22.889421334853978 196.72375796587221 0 196.72375796587221 -358.65492706696386 0 0 0 0 18.661188004873111 130.23781664435592 0 130.23781664435592 -412.27921752721159 0 0 0 0 49.484088561340286 142.00584768071712 0 142.00584768071712 -439.80708864695407 0 0 0 0 14.59548589197766 113.63258901506561 0 113.63258901506561 -395.60006232367596 0 0 0 0 -257.38755314804621 438.11913672367155 0 438.11913672367155 -480.86074176461989 0 0 0 0 -207.09678580276432 314.76844253588933 0 314.76844253588933 -223.47750022005494 0 0 0 0 43.25021755031571 177.90710865942765 0 177.90710865942765 -491.39063891197293 0 0 0 0 -107.23713177340233 314.30452819920538 0 314.30452819920538 -510.80396935873432 0 0 0 0 -0.1867907047793258 -1.1554837697176552 0 -1.1554837697176552 -5.2595700802955321 0 0 0 0 108.56262718539438 -193.62148604251161 0 -193.62148604251161 -188.79819539983146 0 0 0 0 83.922265572507513 -92.026283883287761 0 -92.026283883287761 -556.6724215309514 0 0 0 0 -83.472563887516685 133.72893054175347 0 133.72893054175347 -408.80320990029577 0 0 0 0 1.2594837046613376 -0.31881801897431217 0 -0.31881801897431217 -1.2888550102021128 0 0 0 0 237.45393859561773 -402.87340359701375 0 -402.87340359701375 365.17636834722725 0 0 0 0 37.110883367897756 87.827851681286461 0 87.827851681286461 -14.08050002224627 0 0 0 0 -38.36568852747132 -19.395162050972431 0 -19.395162050972431 27.762283471634873 0 0 0 0 138.2863630376317 -189.85037828763234 0 -189.85037828763234 -195.7950162750858 0 0 0 0 -98.257749286144872 -221.00005233349839 0 -221.00005233349839 -115.05809198156567 0 0 0 0 281.78623377676433 -357.40003239204361 0 -357.40003239204361 -192.25880739850982 0 0 0 0 -54.335596618657462 -173.35833618272045 0 -173.35833618272045 -172.41285996291481 0 0 0 0 17.425642422047702 -30.584783191429779 0 -30.584783191429779 -40.972542709252593 0 0 0 0 -108.30710529169775 215.46227755315431 0 215.46227755315431 -734.28989293360792 0 0 0 0 -793.16826699808803 -62.572064566915287 0 -62.572064566915287 -25.957008091465468 0 0 0 0 -143.74778004306023 -399.79161957205952 0 -399.79161957205952 -755.62513251114433 0 0 0 0 -28.739895396226302 193.71560362623131 0 193.71560362623131 -687.82780827363263 0 0 0 0 -574.16116091970412 -1086.7671432008137 0 -1086.7671432008137 -738.68149943005847 0 0 0 0 -146.4753219730178 -595.86000819004767 0 -595.86000819004767 -1238.6748900669882 0 0 0 0 -0.42114996001900318 1.69121214209909 0 1.69121214209909 -10.577763952064785 0 0 0 0 -309.32620131920356 237.45350353815866 0 237.45350353815866 -85.754937709534715 0 0 0 0 -21.91198251320526 134.56764295954054 0 134.56764295954054 -200.50781344694042 0 0 0 0 117.08689145482356 -21.719798265638019 0 -21.719798265638019 -534.86956891159025 0 0 0 0 110.36697932499067 5.2633617234387202 0 5.2633617234387202 -21.540818638965902 0 0 0 0 232.28497178788433 -32.865511279197563 0 -32.865511279197563 -185.87069460164639 0 0 0 0 134.04200488028465 104.61791474292022 0 104.61791474292022 -203.79292589655961 0 0 0 0 7.4976545292583978 35.863863618315008 0 35.863863618315008 -225.41245257520859 0 0 0 0 325.83468347987173 125.18142995455491 0 125.18142995455491 -1499.7065416430351 0 0 0 0 13.31487543060598 141.84444393483864 0 141.84444393483864 -205.44877848251872 0 0 0 0 -71.313912719228142 113.83371244601767 0 113.83371244601767 -167.65941093780202 0 0 0 0 83.190956954469243 -57.933616837332011 0 -57.933616837332011 -827.9757315014358 0 0 0 0 2.8267337725547779 -2.0997566471036748 0 -2.0997566471036748 -0.78965326920538459 0 0 0 0 107.34590849637283 179.89377365646942 0 179.89377365646942 -881.93468281117839 0 0 0 0 67.483097354917646 87.188582466346816 0 87.188582466346816 -1096.9571009516003 0 0 0 0 1.2906453461162362 -0.59702819076771618 0 -0.59702819076771618 -1.2030014919703245 0 0 0 0 169.44290222253989 -77.029405086499537 0 -77.029405086499537 -1186.2556877855814 0 0 0 0 210.56564568410948 -193.35962019377348 0 -193.35962019377348 -1781.7085935330979 0 0 0 0 153.82987204067825 -69.844672391759559 0 -69.844672391759559 -1083.636144093256 0 0 0 0 -143.56072093707235 -170.1171775327166 0 -170.1171775327166 -413.53867047940366 0 0 0 0 127.01741761214276 -76.591303249968405 0 -76.591303249968405 -1083.6843236236182 0 0 0 0 -17.444105225409203 -0.86636787323186581 0 -0.86636787323186581 -104.43619557684224 0 0 0 0 -0.50092534915110876 7.3148571797147142 0 7.3148571797147142 -24.36682539049734 0 0 0 0 4.8079495779570145 -1.7760329142261071 0 -1.7760329142261071 -6.413849815990595 0 0 0 0 -5.3052246090741164 24.716702103689386 0 24.716702103689386 -61.059171125394641 0 0 0 0 224.92455824510603 517.41597883097893 0 517.41597883097893 -1164.2010049722594 0 0 0 0 -601.88972108290977 -575.28603267995641 0 -575.28603267995641 418.88865486412305 0 0 0 0 -378.52898777106111 2.7460303865336755 0 2.7460303865336755 -1499.5972222317796 0 0 0 0 0.6142399292142402 0.58297531296949501 0 0.58297531296949501 -8.498771331979448 0 0 0 0 -218.41329446761264 96.615424328856534 0 96.615424328856534 99.618900645611575 0 0 0 0 -0.51900628438542729 -1.3008588502691225 0 -1.3008588502691225 -0.65740443533550241 0 0 0 0 179.5141839001036 -359.28726593872852 0 -359.28726593872852 -701.00795673269113 0 0 0 0 240.95414702977899 -266.62224655390582 0 -266.62224655390582 -1053.6655526003451 0 0 0 0 22.047157507071574 -134.00339667222215 0 -134.00339667222215 -282.12588513251831 0 0 0 0 -0.50331038182176591 5.2402606522076951 0 5.2402606522076951 -18.823324675124837 0 0 0 0 -29.41489154651407 -103.89075592005611 0 -103.89075592005611 -574.38912691180303 0 0 0 0 70.362959630626619 -21.19091567392752 0 -21.19091567392752 -22.229161004791422 0 0 0 0 -1.4063784620505029 2.1487164391596707 0 2.1487164391596707 -7.3427711059394198 0 0 0 0 -513.41202744609177 -936.85224497989839 0 -936.85224497989839 -992.70402605907111 0 0 0 0 -550.18507375018135 361.98253745570764 0 361.98253745570764 -7.1345932174081099 0 0 0 0 -208.38604488459652 668.30286172767774 0 668.30286172767774 -993.41585721860611 0 0 0 0 0.39552805115231743 -7.352073355077664 0 -7.352073355077664 -1034.597137488563 0 0 0 0 130.92627233986485 127.70817625681229 0 127.70817625681229 -1674.131995918071 0 0 0 0 -108.49941938384399 3.3886777848019847 0 3.3886777848019847 -453.74213890967621 0 0 0 0 -191.89499229124041 190.92671167745539 0 190.92671167745539 -735.50137141514824 0 0 0 0 30.842890861224419 -48.754386046337459 0 -48.754386046337459 -590.57578265498341 0 0 0 0 -0.20481864892562129 -71.391773231930529 0 -71.391773231930529 -362.88464735464731 0 0 0 0 -41.020123293072821 -36.137075549226211 0 -36.137075549226211 -50.456322881942469 0 0 0 0 14.153193551191634 -60.30738852237846 0 -60.30738852237846 -83.148972481038072 0 0 0 0 1.3299596433685394 -33.726315697540485 0 -33.726315697540485 -410.52535259319848 0 0 0 0 -70.753312822699456 -19.821106295492427 0 -19.821106295492427 -44.281281941250199 0 0 0 0 -61.730585530839448 -51.026983548206772 0 -51.026983548206772 -406.1084068967466 0 0 0 0 27.532717978384767 82.387890254718513 0 82.387890254718513 -440.74653756956468 0 0 0 0 -57.230795824049657 -206.70604262610328 0 -206.70604262610328 -691.4097399093298 0 0 0 0 -1.3608398796234122 -4.0441194202462238 0 -4.0441194202462238 -13.596955665274663 0 0 0 0 -272.32223096788948 -624.21335901954808 0 -624.21335901954808 -128.49129361113228 0 0 0 0 35.190773225614066 169.92095960737242 0 169.92095960737242 -728.22973752621874 0 0 0 0 -123.92372027623549 -768.12831144254142 0 -768.12831144254142 -443.87729694801965 0 0 0 0 -170.38402442422603 -447.20251941977767 0 -447.20251941977767 69.073569924890762 0 0 0 0 8.9671567999395165 67.297457551680054 0 67.297457551680054 -107.95492682330951 0 0 0 0 40.339044322688459 -22.866935267632016 0 -22.866935267632016 -29.870919322711416 0 0 0 0 -63.868680976791779 -76.637471745560106 0 -76.637471745560106 48.35896802600837 0 0 0 0 36.242313737828226 -23.452544965824927 0 -23.452544965824927 -32.652508491126355 0 0 0 0 1.1116683830294556 -7.5835652271676643 0 -7.5835652271676643 -33.75532374175063 0 0 0 0 0.04215575064507332 -0.58186719590251279 0 -0.58186719590251279 0.47488301287958734 0 0 0 0 -123.20340861809666 383.40412541499836 0 383.40412541499836 -3.3450999861015589 0 0 0 0 476.3091848265542 105.16139544614452 0 105.16139544614452 -127.97193442015123 0 0 0 0 -126.08164138376691 174.28208228531776 0 174.28208228531776 144.10706676725385 0 0 0 0 3.9507228247507755 6.5060773655507944 0 6.5060773655507944 -10.660670113951781 0 0 0 0 1.5523970881909177 -0.77757442165296453 0 -0.77757442165296453 -9.5260752932276205 0 0 0 0 8.0210138212508362 -0.79589754771996013 0 -0.79589754771996013 -16.778780968743376 0 0 0 0 3.3357519376228337 -8.77987693401397 0 -8.77987693401397 -11.589934483720391 0 0 0 0 7.1250707203294628 -1.0297607817301468 0 -1.0297607817301468 -9.6992258031532401 0 0 0 0 0.93409769004412602 -1.3244332289191618 0 -1.3244332289191618 -1.0703288678046121 0 0 0 0 1.953222650074685 1.1576130681205541 0 1.1576130681205541 -3.903153148607089 0 0 0 0 -0.019774255934691572 2.0021166272876592 0 2.0021166272876592 -2.7243855935812462 0 0 0 0 2.6623671542110063 -0.29689746645453852 0 -0.29689746645453852 -12.199205746401276 0 0 0 0 -16.95891602165787 40.649460156950227 0 40.649460156950227 28.668749247462983 0 0 0 0 0.29029041492475816 -0.24471588205801709 0 -0.24471588205801709 0.22880693017211229 0 0 0 0 -16.887646216526946 2.6150042289518751 0 2.6150042289518751 60.382027898711385 0 0 0 0 -45.385043739586308 -33.851118164511718 0 -33.851118164511718 15.677010249579325 0 0 0 0 4.2588990780395761 -9.3006975841202006 0 -9.3006975841202006 -48.130356469121409 0 0 0 0 5.8364618607897683 -7.5254094193014112 0 -7.5254094193014112 -53.395780264066815 0 0 0 0 10.286844480567197 -11.23068899725007 0 -11.23068899725007 -56.84570080334106 0 0 0 0 8.9343263705629852 -7.1792745897348595 0 -7.1792745897348595 -61.179623592489634 0 0 0 0 2.8902527294339961 -7.8866211619490514 0 -7.8866211619490514 -53.095133970947131 0 0 0 0 3.2868999109393826 -5.0928927323770949 0 -5.0928927323770949 -54.564960075034719 0 0 0 0 -5.7217288506440838 -11.674306042794569 0 -11.674306042794569 -34.076607776886476 0 0 0 0 -4.3867977409167906 -5.4545876570214205 0 -5.4545876570214205 -40.319844182590941 0 0 0 0 5.6721880818251691 -7.3645992708322865 0 -7.3645992708322865 -48.022392358549951 0 0 0 0 6.1333804845947917 1.5239631251851584 0 1.5239631251851584 -44.989409184249098 0 0 0 0 -3.1731805541719496 -0.60291393422846795 0 -0.60291393422846795 -51.251099297339351 0 0 0 0 2.4184289671493451 -4.251734614031335 0 -4.251734614031335 -10.761991713987316 0 0 0 0 -3.5402962419859421 -23.99271766724155 0 -23.99271766724155 -68.451358426939976 0 0 0 0 -4.6426641224222411 -18.187684217145296 0 -18.187684217145296 -24.329015577704521 0 0 0 0 -2.9748231045724793 -18.060522891858724 0 -18.060522891858724 -31.987596397041671 0 0 0 0 0.93287182699509685 -1.4589931909858151 0 -1.4589931909858151 -50.650239284366194 0 0 0 0 3.9243859952766798 -7.1828130707324362 0 -7.1828130707324362 -52.839983370789156 0 0 0 0 3.2546949553311606 -10.382407366670577 0 -10.382407366670577 -64.119347591067935 0 0 0 0 -15.771348889868023 -16.83797971101626 0 -16.83797971101626 -47.689479659382414 0 0 0 0 -3.3381312845731372 -19.398344677605678 0 -19.398344677605678 -75.85141853434925 0 0 0 0 -0.76157588989053693 -2.126122431859045 0 -2.126122431859045 -40.06989565846709 0 0 0 0 -4.4243251086554665 -17.616756706083834 0 -17.616756706083834 -55.512116888716264 0 0 0 0 0.64192776154747655 -12.742845847708622 0 -12.742845847708622 -11.171617376445859 0 0 0 0 0.18912762058970767 -0.43740126268167501 0 -0.43740126268167501 -6.6812518268770145 0 0 0 0 -3.3521316839211863 -7.0053585286068056 0 -7.0053585286068056 -32.945309281432628 0 0 0 0 3.0286612928393879 -7.0544511608495668 0 -7.0544511608495668 -57.055866884274565 0 0 0 0 3.6803796723121338 -1.0717447794857478 0 -1.0717447794857478 -7.9031853662081186 0 0 0 0 5.6049910076351779 1.3477498471443017 0 1.3477498471443017 -23.121834928501784 0 0 0 0 -1.0296827101237587 -9.0133133473947407 0 -9.0133133473947407 -15.095539343073774 0 0 0 0 -2.153402338708986 -9.9679341606779417 0 -9.9679341606779417 -21.255027967641809 0 0 0 0 1.4698669437024421 -18.268385712344752 0 -18.268385712344752 -48.978629557261229 0 0 0 0 -7.9260424248202526 5.3533208082658348 0 5.3533208082658348 -28.443523947826179 0 0 0 0 -5.0718012060542605 -8.3690420914390415 0 -8.3690420914390415 -54.278611095578526 0 0 0 0 -20.357048068770155 -34.470721745073206 0 -34.470721745073206 -55.643609282358739 0 0 0 0 -18.848393136737172 -4.5681575964117656 0 -4.5681575964117656 69.062146511319042 0 0 0 0 0.37988451759629127 -0.69763379417634752 0 -0.69763379417634752 -2.1294535002835175 0 0 0 0 -7.8637392621116646 -45.86459194329791 0 -45.86459194329791 62.746192919480563 0 0 0 0 -6.4588320113864981 11.752897081288687 0 11.752897081288687 -1.0248096370851272 0 0 0 0 2.6197519845067272 -11.46753394960882 0 -11.46753394960882 -16.394035914247706 0 0 0 0 194.87886853762495 -24.256074680512484 0 -24.256074680512484 -22.579472482932033 0 0 0 0 1.0314502415408242 -6.5757097689272541 0 -6.5757097689272541 -37.843258240033265 0 0 0 0 3.2255597490728367 4.0935335506258106 0 4.0935335506258106 -9.6710096861903896 0 0 0 0 2.6534773915862484 -2.7147064799873539 0 -2.7147064799873539 -5.5139681649302243 0 0 0 0 5.0634179243385855 2.5744588020494463 0 2.5744588020494463 -2.8863480626718476 0 0 0 0 3.4672319053498244 -2.2844070539314414 0 -2.2844070539314414 -1.0631764702492466 0 0 0 0 2.7816981712217057 -11.908218620657749 0 -11.908218620657749 -41.711376757006633 0 0 0 0 -7.0588694203615887 -14.121831167629352 0 -14.121831167629352 -111.46225151015642 0 0 0 0 0.48766694923142495 -10.056289200145358 0 -10.056289200145358 -23.614176877040279 0 0 0 0 1.2311191948389535 -5.0726540206685584 0 -5.0726540206685584 -29.481365583357729 0 0 0 0 -143.54959140102767 -142.62754354413664 0 -142.62754354413664 36.520604866731446 0 0 0 0 3.3467886121011361 -6.506528156585091 0 -6.506528156585091 -26.712667342864236 0 0 0 0 3.582742336419301 -8.2524230593066648 0 -8.2524230593066648 -19.786521693172517 0 0 0 0 10.983651912806408 -1.2421335745286228 0 -1.2421335745286228 -23.933334568125026 0 0 0 0 2.6122737523680826 -9.6344695285117723 0 -9.6344695285117723 -24.873028017049805 0 0 0 0 7.9884366182928375 -6.9510017624061504 0 -6.9510017624061504 -33.51898336800582 0 0 0 0 0.76027702607052561 -10.359611713551772 0 -10.359611713551772 -27.105869635615463 0 0 0 0 5.4322679911527985 -10.556312586585193 0 -10.556312586585193 -39.912786612427453 0 0 0 0 151.46156373029044 124.89271585852293 0 124.89271585852293 -56.094607319454042 0 0 0 0 2.1540681019540138 0.19641092756967637 0 0.19641092756967637 -2.3903106380851824 0 0 0 0 -56.408026941917399 -62.905515194837108 0 -62.905515194837108 -4.8858143448333067 0 0 0 0 54.123342382827104 0.0055188674009514216 0 0.0055188674009514216 -81.472661317429811 0 0 0 0 4.5823954060215195 -3.8985482638765667 0 -3.8985482638765667 -24.662318098806679 0 0 0 0 18.536431825819136 16.63090766158075 0 16.63090766158075 -65.703131995959666 0 0 0 0 0.91649199971208484 -0.018237057334065554 0 -0.018237057334065554 -1.4752286660278386 0 0 0 0 -59.704198170292955 -144.48884460634417 0 -144.48884460634417 -120.56271930142429 0 0 0 0 -72.169039407286277 -38.866233940801067 0 -38.866233940801067 -41.805125147700892 0 0 0 0 26.610437306211935 5.8476109549824287 0 5.8476109549824287 -144.69601679470543 0 0 0 0 7.7644480363757111 21.374801647884851 0 21.374801647884851 37.972732993200225 0 0 0 0 61.109821651331913 -36.329003288323293 0 -36.329003288323293 -115.64752044045963 0 0 0 0 0.16683192164123284 -17.695528048490871 0 -17.695528048490871 -58.397177664807714 0 0 0 0 -13.136188552573913 -21.892618806372411 0 -21.892618806372411 -28.978168441512025 0 0 0 0 -1.758481135083378 -4.9142542589177065 0 -4.9142542589177065 -7.0480276771631098 0 0 0 0 15.779105164304481 -5.2860068417509254 0 -5.2860068417509254 -22.718856966860848 0 0 0 0 45.761094481663235 38.893041054035962 0 38.893041054035962 56.473874499628437 0 0 0 0 0.90101219736175153 -14.210690352624169 0 -14.210690352624169 -24.111352580157927 0 0 0 0 7.6103243897218569 -4.6596278160078484 0 -4.6596278160078484 -18.674832613812953 0 0 0 0 64.242676729561254 27.984800190583883 0 27.984800190583883 -4.1837365097399015 0 0 0 0 12.122833441597095 -11.287376299130869 0 -11.287376299130869 -29.736546960071792 0 0 0 0 9.6770720489702562 -3.2881001958657308 0 -3.2881001958657308 -6.6501456952130749 0 0 0 0 2.0209216864016071 -3.7404285124753187 0 -3.7404285124753187 -14.549960214206294 0 0 0 0 -3.7358721420059737 -9.1797316945312559 0 -9.1797316945312559 -91.884250298769075 0 0 0 0 3.9626450144410228 -41.308352697704265 0 -41.308352697704265 -80.892157961878183 0 0 0 0 1.5274378366766541 -18.429374637205342 0 -18.429374637205342 -53.290048741953569 0 0 0 0 8.0667719701022751 1.8594395480362049 0 1.8594395480362049 -1.6937394630040568 0 0 0 0 4.5350734088689082 -1.4103645740495656 0 -1.4103645740495656 0.71874598397098444 0 0 0 0 9.5914272343274245 -2.32182162526767 0 -2.32182162526767 -6.919869038789126 0 0 0 0 4.0682369516606851 -3.9880520012810035 0 -3.9880520012810035 -4.9067756428122138 0 0 0 0 5.8455308920456446 -33.983686236408175 0 -33.983686236408175 -55.281116695476157 0 0 0 0 -1.6955453760268711 -25.485456277575963 0 -25.485456277575963 -17.634184161781832 0 0 0 0 2.5196757207377232 -27.005401377030012 0 -27.005401377030012 -42.754788799723428 0 0 0 0 25.953723362661549 -19.749073435965784 0 -19.749073435965784 -57.145675325347838 0 0 0 0 9.2780204744576622 -4.3715787809369431 0 -4.3715787809369431 -12.032672273844582 0 0 0 0 -6.6348766777527999 -21.29972098815233 0 -21.29972098815233 -15.350176972959162 0 0 0 0 8.1490233313916178 -14.362719997966167 0 -14.362719997966167 -23.775592181073989 0 0 0 0 1.0383967205834779 -12.006890730855957 0 -12.006890730855957 -8.2284928120006953 0 0 0 0 -5.4228266354075458 -16.919406779819383 0 -16.919406779819383 -23.628036358963072 0 0 0 0 19.209629758670417 -12.65163789526332 0 -12.65163789526332 -31.595682102722549 0 0 0 0 19.092662891281179 -4.0449530903829327 0 -4.0449530903829327 -22.581201678039633 0 0 0 0 18.755566185435782 -0.28112747212026079 0 -0.28112747212026079 -16.172334225779196 0 0 0 0 14.724688970480429 -6.0172476777627253 0 -6.0172476777627253 -14.398246483259754 0 0 0 0 3.8093822034370532 -4.9391219000863202 0 -4.9391219000863202 -13.553351065380411 0 0 0 0 7.1093866856564683 -5.1507399891553636 0 -5.1507399891553636 -12.961959939220575 0 0 0 0 -11.804204833514632 -20.053511666148552 0 -20.053511666148552 -20.054736520847655 0 0 0 0 -8.5733954226625428 -18.063660921474366 0 -18.063660921474366 -20.312207472870341 0 0 0 0 2.9990058028181177 -8.8061513105782421 0 -8.8061513105782421 -12.312247967876598 0 0 0 0 -23.925996763900912 -22.534032910418318 0 -22.534032910418318 -17.461634812429111 0 0 0 0 -5.4043500166181104 -14.713305153791062 0 -14.713305153791062 -32.62215759342871 0 0 0 0 -2.8479510249435407 -9.8224289811796552 0 -9.8224289811796552 -17.951825091885439 0 0 0 0 -6.8086030666563602 -20.103753223430431 0 -20.103753223430431 -36.184768498136236 0 0 0 0 -0.3032896094687203 -1.994769903030079 0 -1.994769903030079 -6.608212615183751 0 0 0 0 -6.7004105247106054 -14.404973909049204 0 -14.404973909049204 -30.132340038924667 0 0 0 0 -6.9039813695289922 -16.673924765057563 0 -16.673924765057563 -31.613911321874184 0 0 0 0 -5.2433231759059709 -15.911281660695749 0 -15.911281660695749 -35.483513204488645 0 0 0 0 2.6098183983948822 -7.4178107104439253 0 -7.4178107104439253 -19.656710171986528 0 0 0 0 7.708000304629536 -10.246588983503898 0 -10.246588983503898 -15.993749458923048 0 0 0 0 12.997318928209097 8.9778445290976379 0 8.9778445290976379 -42.546594601531979 0 0 0 0 3.2330823096898191 -8.9433885631286518 0 -8.9433885631286518 -18.551056450376393 0 0 0 0 -5.9272954482303248 -15.370545363023211 0 -15.370545363023211 -31.973820642993815 0 0 0 0 2.7658987630620686 -22.191948770370345 0 -22.191948770370345 -39.12881820522216 0 0 0 0 5.7852647559926176 -2.1586328921903024 0 -2.1586328921903024 -5.9685715504214478 0 0 0 0 -9.7094670451770071 -18.669724539577146 0 -18.669724539577146 -28.351904625051247 0 0 0 0 6.9542939096836562 -4.1291646295630926 0 -4.1291646295630926 -11.772702757014486 0 0 0 0 0.58642759287705104 -8.5618683271130998 0 -8.5618683271130998 -18.801792554257453 0 0 0 0 5.3273775769731291 -3.5437119811815023 0 -3.5437119811815023 -20.406097557607076 0 0 0 0 -0.64670544860746304 -11.207846835131022 0 -11.207846835131022 -29.978501272660651 0 0 0 0 6.3115769837920439 0.20159076741964554 0 0.20159076741964554 -11.936620795599374 0 0 0 0 3.8442207080361186 13.993854346423177 0 13.993854346423177 -24.312486922084645 0 0 0 0 0.68434743769648776 -8.141995626159769 0 -8.141995626159769 -31.030053966132982 0 0 0 0 -1.2308049053899595 -8.2473104149794381 0 -8.2473104149794381 -25.410864662870154 0 0 0 0 18.78122679393357 -8.6666080863674324 0 -8.6666080863674324 -23.618577465535054 0 0 0 0 -3.0013434175234579 -9.2072387310981867 0 -9.2072387310981867 -23.429923945797782 0 0 0 0 -3.0541421577327128 -10.708353884776443 0 -10.708353884776443 -24.896341649386159 0 0 0 0 -0.068634095168256692 -8.7695489507316609 0 -8.7695489507316609 -11.675498317148374 0 0 0 0 -1.975076153237751 -7.9164889564599434 0 -7.9164889564599434 -21.822984675083717 0 0 0 0 -1.1412702486763919 -6.6341628531372407 0 -6.6341628531372407 -21.917295578037738 0 0 0 0 0.018683091813727515 -8.0973848818721308 0 -8.0973848818721308 -25.265339760098868 0 0 0 0 -0.89069397067942191 -9.5215017964110302 0 -9.5215017964110302 -26.365213215573021 0 0 0 0 -1.6562304995723842 -7.0151353040052182 0 -7.0151353040052182 -13.107006613258303 0 0 0 0 -0.57672893442895656 -4.6366803974333379 0 -4.6366803974333379 -19.258332577079273 0 0 0 0 -2.1007099208618456 -10.208049358408971 0 -10.208049358408971 -18.180232820792753 0 0 0 0 -2.1193220716659198 -7.5469246647503496 0 -7.5469246647503496 -22.769061957467784 0 0 0 0 -1.5419464077513112 -17.810896775450601 0 -17.810896775450601 -47.354169135052871 0 0 0 0 0.7999812449224919 -1.5966592181757733 0 -1.5966592181757733 -17.532563811744694 0 0 0 0 0.86079214598423448 0.65975764590876551 0 0.65975764590876551 -13.948692662112613 0 0 0 0 -7.1662158027547775 -4.9976975458171182 0 -4.9976975458171182 -22.90345313348098 0 0 0 0 -6.8171049817683524 -12.753204497868865 0 -12.753204497868865 -51.676099028882163 0 0 0 0 1.2107723393656471 -0.97837442453644297 0 -0.97837442453644297 -3.3525456163043454 0 0 0 0 0.36016632831342577 -3.0634732326534504 0 -3.0634732326534504 -27.173968590030199 0 0 0 0 1.361894987077978 -5.1833144655903638 0 -5.1833144655903638 -7.8470341795645542 0 0 0 0 3.378089608456424 6.5420108934622405 0 6.5420108934622405 -17.6072489089124 0 0 0 0 -0.079252881401316699 -2.8082264550953369 0 -2.8082264550953369 -17.116477361321813 0 0 0 0 1.3737488403166935 -1.4629233263076458 0 -1.4629233263076458 -20.599805974512947 0 0 0 0 2.8447487420562538 -4.7796616050072771 0 -4.7796616050072771 -27.650494945247374 0 0 0 0 4.4922604249917519 -4.9586081851418911 0 -4.9586081851418911 -10.049540143652465 0 0 0 0 0.71546614761882665 -6.7618768983529662 0 -6.7618768983529662 -29.229234612830624 0 0 0 0 13.086363657241236 -9.8606110891623757 0 -9.8606110891623757 -12.104531929740915 0 0 0 0 3.3567240699212562 2.3595607960032794 0 2.3595607960032794 -27.414268856690796 0 0 0 0 43.3344340262679 12.734676984752241 0 12.734676984752241 -22.399792683224405 0 0 0 0 -2.4629739452191188 -9.0565236174545589 0 -9.0565236174545589 -18.788542931242773 0 0 0 0 1.254688233017081 -1.7356550579406793 0 -1.7356550579406793 -2.9284365417451816 0 0 0 0 -1.7411916294131515 -9.515881319143773 0 -9.515881319143773 -18.76774647354847 0 0 0 0 24.233766338138594 -6.3219681851091991 0 -6.3219681851091991 -12.308945165357727 0 0 0 0 29.75445858396688 2.0028426996296957 0 2.0028426996296957 -27.47335444530836 0 0 0 0 0.72440518382048324 -0.32407310534962797 0 -0.32407310534962797 -5.313126018092305 0 0 0 0 30.464270127329655 0.15061892529593024 0 0.15061892529593024 -43.470894216541637 0 0 0 0 0.42478670019590936 -6.8556925075972686 0 -6.8556925075972686 -47.82963384098548 0 0 0 0 38.477223636269628 -21.633149106348355 0 -21.633149106348355 -22.337420554753407 0 0 0 0 0.65669817601479785 0.78596959929704724 0 0.78596959929704724 -2.2917381908469352 0 0 0 0 23.572224626921525 -8.9320453489417559 0 -8.9320453489417559 -52.859611395955653 0 0 0 0 43.304138617579156 -20.875581032285481 0 -20.875581032285481 -53.201676750199113 0 0 0 0 -7.9171788097501121 -15.820938497342468 0 -15.820938497342468 -17.491105999421052 0 0 0 0 -28.614164884827915 5.9810597402092753 0 5.9810597402092753 -37.184812240058818 0 0 0 0 -37.771799558894259 -29.575337852614666 0 -29.575337852614666 -23.369010012649596 0 0 0 0 16.433225928178217 3.4886106815110907 0 3.4886106815110907 -24.60797436834946 0 0 0 0 -0.032359192036892637 -25.916162502154066 0 -25.916162502154066 -42.872955495342467 0 0 0 0 3.5303455140909783 -1.0312513138601815 0 -1.0312513138601815 -0.34247708435633939 0 0 0 0 -8.8039665149776738 -47.399781034198895 0 -47.399781034198895 -78.594804706737705 0 0 0 0 49.012255197214472 -19.501219285429215 0 -19.501219285429215 -129.17719261775073 0 0 0 0 32.379305089408263 -25.99568628804127 0 -25.99568628804127 -41.449682149589535 0 0 0 0 -25.27038120359407 -53.638395983296334 0 -53.638395983296334 -52.16752548882414 0 0 0 0 19.255529875782486 -51.71030116163729 0 -51.71030116163729 -83.002334973261895 0 0 0 0 3.656921231692043 -0.67898621622972222 0 -0.67898621622972222 -0.52942788592500278 0 0 0 0 -4.8176608064196671 -21.002276474303471 0 -21.002276474303471 -30.377545147811361 0 0 0 0 -13.300091107758362 -2.5313900707860739 0 -2.5313900707860739 -52.470489886760333 0 0 0 0 19.985238670772659 -24.971370687894655 0 -24.971370687894655 -1.2106791944333963 0 0 0 0 3.6566790436208976 -4.9058629362757529 0 -4.9058629362757529 -21.343535806701084 0 0 0 0 -2.1245963990465384 -29.025149127835277 0 -29.025149127835277 -4.108753777540187 0 0 0 0 7.7283470969011887 -15.701380889141092 0 -15.701380889141092 4.4429486135695697 0 0 0 0 -1.0954558816190456 -20.624295514306709 0 -20.624295514306709 33.819611756385711 0 0 0 0 0.47521410218561932 1.0937966845446647 0 1.0937966845446647 0.28522269269056416 0 0 0 0 -23.629705078528531 -38.685005102422792 0 -38.685005102422792 -29.078412703152026 0 0 0 0 1.1441293885858421 -2.0422165265855385 0 -2.0422165265855385 -2.9701725333599072 0 0 0 0 1.2595526315352013 0.41695440075339896 0 0.41695440075339896 -2.3070235106779799 0 0 0 0 8.4795227162375753 -5.8369016637706892 0 -5.8369016637706892 -5.213084993006305 0 0 0 0 5.5047401572655872 -8.0708111533770079 0 -8.0708111533770079 -6.4486737007288468 0 0 0 0 0.90866183652449184 -0.40179736945448852 0 -0.40179736945448852 -0.78452247309394352 0 0 0 0 44.623066968976218 1.7994295453522682 0 1.7994295453522682 -11.172232867602588 0 0 0 0 -34.422156360420175 -43.198830087473198 0 -43.198830087473198 -20.293056288754997 0 0 0 0 -14.915289061057422 -36.652975519765732 0 -36.652975519765732 -32.006280982193175 0 0 0 0 -62.658893384242447 -27.217518276515875 0 -27.217518276515875 -16.877610952899431 0 0 0 0 33.853864959782214 8.3676207382372922 0 8.3676207382372922 -50.796530688730854 0 0 0 0 -4.6859187708078025 6.3412437202969159 0 6.3412437202969159 -50.002238384354769 0 0 0 0 1.9858455135179136 0.23676740140527741 0 0.23676740140527741 -0.84261590778864814 0 0 0 0 -58.263035419972766 -65.559914484785622 0 -65.559914484785622 -78.713014465514789 0 0 0 0 22.772245863989156 -59.229441329183828 0 -59.229441329183828 -129.19228933726299 0 0 0 0 -29.208373305076975 -32.575392420652406 0 -32.575392420652406 -65.64687322825921 0 0 0 0 44.715596791062524 21.752767438913622 0 21.752767438913622 -72.781582442157742 0 0 0 0 2.1433193970619868 24.393887523781814 0 24.393887523781814 -20.480587216385175 0 0 0 0 22.329510921681162 -3.8504927597855385 0 -3.8504927597855385 -48.744556905643549 0 0 0 0 10.642875294165085 -2.8317088946284557 0 -2.8317088946284557 -6.4724383694248475 0 0 0 0 19.984720344723463 -15.860749881923766 0 -15.860749881923766 -60.945090574958158 0 0 0 0 26.527334983564288 -18.735627701810245 0 -18.735627701810245 -65.199275151172515 0 0 0 0 65.61585587716192 -17.522666661330732 0 -17.522666661330732 -61.960896195585519 0 0 0 0 26.883666345800293 -53.478134894218329 0 -53.478134894218329 -6.2716610743300407 0 0 0 0 -20.755315846710573 -23.99324861444984 0 -23.99324861444984 -49.356201363565106 0 0 0 0 11.580481617208619 -5.7002964812759274 0 -5.7002964812759274 -24.519816492849714 0 0 0 0 2.9087883382643747 -7.6058347648575797 0 -7.6058347648575797 -30.170117249662148 0 0 0 0 9.9772236576243358 -20.267753598383933 0 -20.267753598383933 -58.092575466190283 0 0 0 0 0.70977121088611161 -5.5077132297239029 0 -5.5077132297239029 -27.499294132469782 0 0 0 0 20.555694275818496 -16.350126041162184 0 -16.350126041162184 -88.789639172754505 0 0 0 0 5.6375088813812742 -2.6121463298278478 0 -2.6121463298278478 -35.201735239635603 0 0 0 0 5.1729482563978308 1.0743459976883969 0 1.0743459976883969 -37.942401267236164 0 0 0 0 5.2596049617529843 0.50911944772769857 0 0.50911944772769857 -38.824609572591726 0 0 0 0 3.5893388084137445 4.927757027118056 0 4.927757027118056 -37.664998213546681 0 0 0 0 5.0255462082418489 0.62644976021545062 0 0.62644976021545062 -38.537179367076533 0 0 0 0 3.4400804524103705 0.2062572302938861 0 0.2062572302938861 -21.272167066130351 0 0 0 0 37.048950370531202 5.5326582310453887 0 5.5326582310453887 -25.318462250401353 0 0 0 0 -0.29473803086330008 29.806648919215149 0 29.806648919215149 55.769136760474794 0 0 0 0 3.888781970203306 6.657567050447895 0 6.657567050447895 -41.412198259807226 0 0 0 0 2.604538798758635 4.0024412359726629 0 4.0024412359726629 -4.2495015568157939 0 0 0 0 5.2142367798042262 4.6982107128209876 0 4.6982107128209876 -12.225723282973384 0 0 0 0 4.0371500480294467 2.4983652154107441 0 2.4983652154107441 -26.96592747324722 0 0 0 0 5.4987577716412943 1.1059829863943378 0 1.1059829863943378 -38.909808778005754 0 0 0 0 20.443601358304477 9.2533106599039456 0 9.2533106599039456 -17.887269293947611 0 0 0 0 19.147791990866608 14.00552887683989 0 14.00552887683989 -19.850995096021506 0 0 0 0 7.6501830796096328 0.24394461428710201 0 0.24394461428710201 -20.858038162050434 0 0 0 0 20.781695361936954 9.9209923530786455 0 9.9209923530786455 -38.587237544114032 0 0 0 0 -7.2813234919694878 21.917591782459567 0 21.917591782459567 -18.273645046152524 0 0 0 0 1.4822957622950526 10.720583674262343 0 10.720583674262343 -0.73448440413176286 0 0 0 0 17.173452567702043 7.1994043114573287 0 7.1994043114573287 -8.4441780340985133 0 0 0 0 9.0650644376293386 0.13281664593418263 0 0.13281664593418263 -10.54916693532185 0 0 0 0 -0.35814963901947294 -15.73197108250406 0 -15.73197108250406 -29.519329597229444 0 0 0 0 23.093436737231968 6.5198145254635165 0 6.5198145254635165 -10.471549045856591 0 0 0 0 21.245242364926753 22.174227318668272 0 22.174227318668272 7.1508849757665303 0 0 0 0 -1.1927119197163876 -2.3068915032471686 0 -2.3068915032471686 -2.2320669039156087 0 0 0 0 -0.41216435710668975 -15.141513096530616 0 -15.141513096530616 -33.397482384229079 0 0 0 0 3.5905012795055806 -2.4246682711411154 0 -2.4246682711411154 -11.376003987057601 0 0 0 0 4.5728199757259063 -12.464930244610514 0 -12.464930244610514 -36.426649872430971 0 0 0 0 3.4135980315666075 -10.389460864229477 0 -10.389460864229477 -40.118086582704564 0 0 0 0 1.2997761972433182 -13.717680180277966 0 -13.717680180277966 -36.827153235499281 0 0 0 0 2.472858109796789 -16.618909442220684 0 -16.618909442220684 -34.823093923996566 0 0 0 0 10.208665159678731 -15.949604043191357 0 -15.949604043191357 -42.955056825539941 0 0 0 0 6.1741401574124666 -21.540953124109365 0 -21.540953124109365 -31.565670797419443 0 0 0 0 -0.8729891594007313 -18.616826910109012 0 -18.616826910109012 -29.599734327287479 0 0 0 0 -0.22487849994365661 -18.049700231156748 0 -18.049700231156748 -31.011321959580528 0 0 0 0 6.9638826431910275 -22.412057879946587 0 -22.412057879946587 -33.252835490115103 0 0 0 0 6.9510578420309006 -19.407202910773272 0 -19.407202910773272 -13.92504992987233 0 0 0 0 -0.84713107065928739 -17.920951674681419 0 -17.920951674681419 -28.848560717189685 0 0 0 0 -0.49694953052892288 -18.591439985981197 0 -18.591439985981197 -30.507950458129926 0 0 0 0 1.1977967516363606 -18.319680815782704 0 -18.319680815782704 -30.879168263900283 0 0 0 0 -1.4290445273431942 -16.354939347931577 0 -16.354939347931577 -31.615294849812017 0 0 0 0 2.3428235923888678 -17.2104612683097 0 -17.2104612683097 -40.23026886239677 0 0 0 0 3.2915600645418976 -20.608244362590085 0 -20.608244362590085 -32.906248071400114 0 0 0 0 2.1591176682331685 -8.1318905641460333 0 -8.1318905641460333 -6.236657651877934 0 0 0 0 3.4075797296270594 -21.369735283822592 0 -21.369735283822592 -39.39680790647526 0 0 0 0 8.441179126960785 -14.947220498252246 0 -14.947220498252246 -28.615760629558348 0 0 0 0 -6.5053450538789548 -44.866871124317186 0 -44.866871124317186 20.332532786671436 0 0 0 0 50.292638591814921 4.4130963685356619 0 4.4130963685356619 -60.886151299320773 0 0 0 0 36.103190768657953 6.8850474213435291 0 6.8850474213435291 -37.35079476869214 0 0 0 0 33.501893423073852 -21.392033570858985 0 -21.392033570858985 -90.635542027092015 0 0 0 0 -11.380743060842633 -13.09443592205389 0 -13.09443592205389 -32.70879869169039 0 0 0 0 11.904067666035189 -18.96867325704261 0 -18.96867325704261 -69.261284436022834 0 0 0 0 -10.569827258916121 -26.478015043881896 0 -26.478015043881896 -30.531222964345943 0 0 0 0 -24.988120591097697 12.348735043982288 0 12.348735043982288 -59.999495648014999 0 0 0 0 3.708356419780479 -11.597110585451501 0 -11.597110585451501 -2.0482434918913697 0 0 0 0 43.253844875423965 -20.933866093957477 0 -20.933866093957477 -50.728295256398269 0 0 0 0 42.014855853742574 27.254253853081536 0 27.254253853081536 16.945104185360833 0 0 0 0 4.5267655712370356 -7.4778394307829785 0 -7.4778394307829785 -26.564712653042989 0 0 0 0 2.0792930267016345 -8.1720534583027984 0 -8.1720534583027984 -26.557506091762662 0 0 0 0 -1.8294013185469566 -7.2220426919634519 0 -7.2220426919634519 -24.079699448971951 0 0 0 0 1.4384684286147578 -2.8507056147624272 0 -2.8507056147624272 -26.617985403811886 0 0 0 0 1.1011030155831349 -4.7858865902917387 0 -4.7858865902917387 -23.161335184764539 0 0 0 0 -2.8292950765277283 -0.50150350154808621 0 -0.50150350154808621 -48.560563545726268 0 0 0 0 -1.8441559710250708 -9.6553901048745843 0 -9.6553901048745843 -21.201050529151679 0 0 0 0 7.619476258611968 -14.484356641792374 0 -14.484356641792374 -32.367562996364995 0 0 0 0 67.363207751713674 2.1453137692740256 0 2.1453137692740256 -51.74838903429918 0 0 0 0 19.761413074960302 -62.19861497724969 0 -62.19861497724969 -26.14718441297282 0 0 0 0 -32.686680110706675 -1.5759948192876436 0 -1.5759948192876436 29.384697359881784 0 0 0 0 -40.004874524348907 24.705710335340427 0 24.705710335340427 -13.753490979108847 0 0 0 0 13.93006274874562 -12.931111826666609 0 -12.931111826666609 -22.727760124810629 0 0 0 0 -0.26367512287362338 -9.2221612177934702 0 -9.2221612177934702 -26.69296963033138 0 0 0 0 0.076104412871440541 -5.7454943443387654 0 -5.7454943443387654 -28.581638228207005 0 0 0 0 18.196623747896183 -24.070250615891382 0 -24.070250615891382 -34.827132759588494 0 0 0 0 26.940259831026822 -52.953772359353025 0 -52.953772359353025 -26.017386973691828 0 0 0 0 9.7501032276991655 -11.954913923490089 0 -11.954913923490089 -22.10541061922045 0 0 0 0 12.268499100226109 -61.996480974848964 0 -61.996480974848964 -0.72570438611001009 0 0 0 0 2.915809480984052 -4.7633266913053376 0 -4.7633266913053376 -28.271755868148801 0 0 0 0 -26.709509083141938 -28.726324171711894 0 -28.726324171711894 -36.687513286622561 0 0 0 0 -36.754629255499367 -45.489595927821938 0 -45.489595927821938 -48.187061488475592 0 0 0 0 -3.497167303302831 -35.711390413729532 0 -35.711390413729532 -61.026129942365515 0 0 0 0 34.809117076278994 -59.805061563954951 0 -59.805061563954951 -92.833850633993279 0 0 0 0 21.310357608547065 -54.09762495222094 0 -54.09762495222094 -52.569701890100987 0 0 0 0 11.283433419467656 1.8737321156986582 0 1.8737321156986582 -21.790548295655753 0 0 0 0 4.0456841179602634 -17.654231846383482 0 -17.654231846383482 -5.926615128249864 0 0 0 0 -15.299048492197471 -1.6354855994832178 0 -1.6354855994832178 -28.362927879998097 0 0 0 0 32.37700432493375 -92.50098904105289 0 -92.50098904105289 49.184093972919072 0 0 0 0 2.3294283266407536 -0.74016016754240965 0 -0.74016016754240965 -6.810100978942188 0 0 0 0 2.793466154963486 -1.570943304585815 0 -1.570943304585815 -10.744378867762194 0 0 0 0 123.38296428927333 -2.1008501993819664 0 -2.1008501993819664 -34.196678897624224 0 0 0 0 4.8889026747224307 -33.100687033051145 0 -33.100687033051145 40.780999073895146 0 0 0 0 41.085615340431104 -28.294890942350321 0 -28.294890942350321 -5.9720281630798127 0 0 0 0 85.588772685877302 -38.210121951764449 0 -38.210121951764449 -12.351459678829997 0 0 0 0 8.0312071772729627 -8.4683672036185946 0 -8.4683672036185946 -8.6183838847410357 0 0 0 0 57.949985811231272 -30.25060308380489 0 -30.25060308380489 -49.054237964694039 0 0 0 0 19.639546583839774 -47.657968478430121 0 -47.657968478430121 -12.908480747137219 0 0 0 0 50.091993751533209 -84.652549604481464 0 -84.652549604481464 0.23018937924643978 0 0 0 0 53.712716759342129 -27.814108630860574 0 -27.814108630860574 -44.077704285387881 0 0 0 0 48.499330677203261 -32.545924769190606 0 -32.545924769190606 -45.004594547786837 0 0 0 0 55.209274847414918 -34.35293595325129 0 -34.35293595325129 -54.751491733579314 0 0 0 0 45.470559125885401 -26.00849380636032 0 -26.00849380636032 -34.586016537505202 0 0 0 0 38.032638492720253 -20.993487900358559 0 -20.993487900358559 -18.459256602082405 0 0 0 0 12.70595230183422 -15.102613066641837 0 -15.102613066641837 -21.774295651469274 0 0 0 0 22.906262300341041 -36.247501504580214 0 -36.247501504580214 -12.95809164336606 0 0 0 0 1.5235051148238199 -35.115304874918365 0 -35.115304874918365 -4.2543373359203542 0 0 0 0 114.86721547483648 -69.872207972680599 0 -69.872207972680599 -45.65815932102123 0 0 0 0 -90.819360403332212 -28.746252309988449 0 -28.746252309988449 31.659470912669349 0 0 0 0 -0.37672381110321629 -1.112235405109594 0 -1.112235405109594 -2.3541323214904821 0 0 0 0 -29.123635692888456 32.826177443351298 0 32.826177443351298 -43.584983381289931 0 0 0 0 -14.669510254620036 6.0732958186372343 0 6.0732958186372343 -2.2659434588858858 0 0 0 0 7.4298628094520609 0.20334845811521518 0 0.20334845811521518 -3.1822465230234229 0 0 0 0 24.890157080146082 -31.382648444727238 0 -31.382648444727238 -1.6914785486624169 0 0 0 0 4.2401972508851031 -15.762213663293892 0 -15.762213663293892 -15.847865360505239 0 0 0 0 21.606140499146932 -23.739877295280166 0 -23.739877295280166 -14.241894101660364 0 0 0 0 3.1000808574873089 0.5998351642247286 0 0.5998351642247286 -8.0321805278911569 0 0 0 0 16.888593210135241 -31.777462389160064 0 -31.777462389160064 -7.5785579042785685 0 0 0 0 17.853304451044583 -11.583061346576791 0 -11.583061346576791 -25.193466223879142 0 0 0 0 41.442279292054764 -32.875882001420905 0 -32.875882001420905 -1.5744084886973724 0 0 0 0 1.2048117882222913 -19.584673478519829 0 -19.584673478519829 -14.001248534119718 0 0 0 0 30.576002537136674 -26.559330589494493 0 -26.559330589494493 -13.350612072041258 0 0 0 0 51.842953044961973 -46.695677292348591 0 -46.695677292348591 -24.009626160517655 0 0 0 0 -3.5303832311781207 -19.316556153453348 0 -19.316556153453348 -18.210126464800851 0 0 0 0 9.7272721378847109 -30.594083296198733 0 -30.594083296198733 -11.221753316134709 0 0 0 0 19.673840170584981 -21.0073334509907 0 -21.0073334509907 -3.4972378249822214 0 0 0 0 22.14912034446013 -20.837412181404943 0 -20.837412181404943 -7.2133002131522517 0 0 0 0 58.092709413310786 -9.7654262978794577 0 -9.7654262978794577 -14.852612928130839 0 0 0 0 40.673069280022446 -0.66383306331408676 0 -0.66383306331408676 -17.432689596189448 0 0 0 0 70.08598614493053 -6.7439568241898087 0 -6.7439568241898087 -66.481549616826669 0 0 0 0 61.31598406595333 -17.867451518079179 0 -17.867451518079179 -72.189484617789276 0 0 0 0 31.498371183796991 0.14674331000787788 0 0.14674331000787788 8.731741493975278 0 0 0 0 52.561501448825766 15.773127622993343 0 15.773127622993343 5.1460133002692601 0 0 0 0 36.986999568977808 -2.7619749508521636 0 -2.7619749508521636 -0.78633249516133219 0 0 0 0 -0.50270244837460609 -8.2698856602755768 0 -8.2698856602755768 5.3230504783277865 0 0 0 0 33.73679377232088 -5.2406848346618062 0 -5.2406848346618062 -2.2899552313356253 0 0 0 0 26.790135428243843 5.3026029531101813 0 5.3026029531101813 -7.5991450369256199 0 0 0 0 33.191544745026249 -1.8450050299361465 0 -1.8450050299361465 0.38076938454150877 0 0 0 0 59.127432966680772 12.580801015079487 0 12.580801015079487 1.4192227842886496 0 0 0 0 0.70325678423604943 -0.1632367345650465 0 -0.1632367345650465 -2.0688812770454916 0 0 0 0 55.514483143739653 19.01707611915117 0 19.01707611915117 8.0898521677372628 0 0 0 0 81.182480688040073 53.613851597528992 0 53.613851597528992 5.5151969512080541 0 0 0 0 46.252955398464451 28.267696985518342 0 28.267696985518342 6.8243196779076243 0 0 0 0 84.008756676519852 31.162480025857803 0 31.162480025857803 0.87939685747551266 0 0 0 0 45.743901488858796 23.911836687348114 0 23.911836687348114 1.7149362694035517 0 0 0 0 46.134521486494691 58.77869971896871 0 58.77869971896871 29.658825091530161 0 0 0 0 -53.362659334348336 -70.019007835217053 0 -70.019007835217053 -103.64819698338397 0 0 0 0 -27.773967973405433 -68.405662607445265 0 -68.405662607445265 -114.27197510219412 0 0 0 0 -100.31959258995312 -79.19433567528904 0 -79.19433567528904 -98.686439955490641 0 0 0 0 86.260093595593617 27.400854752613668 0 27.400854752613668 5.8691540745348902 0 0 0 0 93.780984824076313 16.599545483215479 0 16.599545483215479 3.2671315993211465 0 0 0 0 93.399417591229167 34.944889565973426 0 34.944889565973426 17.186915401834995 0 0 0 0 62.949969535462628 5.6451612307573669 0 5.6451612307573669 5.5816936267510755 0 0 0 0 82.268968399691062 20.91682807662437 0 20.91682807662437 32.187647961545736 0 0 0 0 80.498007715432664 34.348586304073251 0 34.348586304073251 55.814154346764553 0 0 0 0 120.01591791771648 97.148430343680957 0 97.148430343680957 63.376852683222751 0 0 0 0 -67.381903547883439 -128.15962499938905 0 -128.15962499938905 -247.02079319313634 0 0 0 0 -0.091696711506103201 -0.062271068528890083 0 -0.062271068528890083 -0.096687823284980823 0 0 0 0 -0.37485209731027291 -0.27682367799945951 0 -0.27682367799945951 -0.13124564359296187 0 0 0 0 -41.802891410405664 -143.66854446288198 0 -143.66854446288198 -237.83820171117259 0 0 0 0 -98.933121402441202 -92.57588683981885 0 -92.57588683981885 -153.11609783838503 0 0 0 0 116.92630668954234 45.916537519857229 0 45.916537519857229 -39.318661945464555 0 0 0 0 65.569311055538492 -9.4116191574066761 0 -9.4116191574066761 -95.091770929589984 0 0 0 0 -35.831587426350893 -65.430067566550861 0 -65.430067566550861 -88.3280157437257 0 0 0 0 -43.623934576951456 -34.82489877322223 0 -34.82489877322223 -113.68859779892955 0 0 0 0 26.051991484540167 -82.746452020772267 0 -82.746452020772267 -209.70824817819084 0 0 0 0 -43.444941479670661 -21.020133801663178 0 -21.020133801663178 -89.251759752311045 0 0 0 0 -17.741551621403659 -29.650195255257131 0 -29.650195255257131 -94.934165780738113 0 0 0 0 -39.07519833736194 -53.230918050903711 0 -53.230918050903711 -125.0321731610893 0 0 0 0 -41.872419270531395 -26.163358346508176 0 -26.163358346508176 -89.841131047825911 0 0 0 0 -24.845820012077269 -56.495634101629548 0 -56.495634101629548 -125.84786758618429 0 0 0 0 -43.936618159739965 -65.353506023049704 0 -65.353506023049704 -108.30917727932683 0 0 0 0 -43.472572036141969 -79.399452935685986 0 -79.399452935685986 -161.06405500831897 0 0 0 0 -194.25530020690962 -175.70315646533709 0 -175.70315646533709 -191.26873697954579 0 0 0 0 -76.943833552241699 -36.1708861510524 0 -36.1708861510524 -124.37609094710206 0 0 0 0 -64.594354224815106 -53.785009629857086 0 -53.785009629857086 -197.49493317893939 0 0 0 0 -24.646858142165684 -0.0082352858062222367 0 -0.0082352858062222367 -26.227102191645827 0 0 0 0 43.469722042476349 -11.829565323508177 0 -11.829565323508177 27.494347070045478 0 0 0 0 46.070840386872305 1.5688656118618383 0 1.5688656118618383 -49.722877268468437 0 0 0 0 4.8176778003413574 16.076598523715802 0 16.076598523715802 21.638577379351773 0 0 0 0 1.4294396006757779 -55.766192934248011 0 -55.766192934248011 -97.90254813379579 0 0 0 0 15.781988382763529 -18.884243565731595 0 -18.884243565731595 -17.855894427513704 0 0 0 0 -19.79366619496659 1.3476457060714893 0 1.3476457060714893 -29.28964181887568 0 0 0 0 15.786564017153751 -4.2144915597255022 0 -4.2144915597255022 -183.31778772316466 0 0 0 0 3.4998263422320406 -47.570493168534085 0 -47.570493168534085 -105.16594995117703 0 0 0 0 -33.706382076679574 -11.428535326106612 0 -11.428535326106612 -70.787078229463077 0 0 0 0 1.9892748259958353 -40.867055216829613 0 -40.867055216829613 -57.363609366311721 0 0 0 0 8.3685729558936259 -45.129014510248453 0 -45.129014510248453 -25.339746595636825 0 0 0 0 21.421140126632281 -10.106956857584009 0 -10.106956857584009 -57.959896316788218 0 0 0 0 23.518571801716917 -24.081842300388644 0 -24.081842300388644 -2.9028141171729658 0 0 0 0 67.020744806281982 -18.479208112077686 0 -18.479208112077686 -146.66636163837575 0 0 0 0 71.182040415878419 1.6342339436573639 0 1.6342339436573639 -146.44661544115661 0 0 0 0 87.145403866981724 -17.654041879333818 0 -17.654041879333818 -125.01705383905937 0 0 0 0 23.383252788342588 -56.022705897319611 0 -56.022705897319611 -133.77304759998515 0 0 0 0 40.356797123473143 -11.515771577051055 0 -11.515771577051055 -29.185755579343095 0 0 0 0 3.3732781225605777 51.236722137313336 0 51.236722137313336 -50.288085896769189 0 0 0 0 49.835399937536749 42.798141960705834 0 42.798141960705834 -57.889451646078669 0 0 0 0 28.760075751555632 23.135695795150241 0 23.135695795150241 -22.44490355695325 0 0 0 0 34.650158966484355 22.425859777325968 0 22.425859777325968 -40.11013094169175 0 0 0 0 62.123443916928181 2.0974906573737826 0 2.0974906573737826 -49.996336404387876 0 0 0 0 89.008877492005809 34.345198111772334 0 34.345198111772334 -79.007985150547029 0 0 0 0 74.102948990933555 3.4959349845230463 0 3.4959349845230463 -133.41373955562631 0 0 0 0 -95.881468068658251 -179.47687740539732 0 -179.47687740539732 -210.12260902555659 0 0 0 0 94.726293354708531 78.142929198658408 0 78.142929198658408 18.189244862693158 0 0 0 0 -0.21791064137133209 0.3758953776306555 0 0.3758953776306555 -0.86957048407634829 0 0 0 0 56.335733261183918 -3.1981173195272277 0 -3.1981173195272277 -37.348738848766516 0 0 0 0 -0.23358533012492633 1.3031601323547122 0 1.3031601323547122 -2.8130955122466048 0 0 0 0 61.762829891647016 17.718768211199858 0 17.718768211199858 -25.251076628275769 0 0 0 0 2.3288057973811647 -91.342335068211469 0 -91.342335068211469 -136.62195424265542 0 0 0 0 -9.7400255547651682 -53.960844884237304 0 -53.960844884237304 -131.39298910177968 0 0 0 0 9.5559355548220992 -1.4968904905899763 0 -1.4968904905899763 -38.171484421480727 0 0 0 0 20.385532788583987 6.5557306503928885 0 6.5557306503928885 -45.816803614043238 0 0 0 0 -3.8586715295581371 -20.653222161756275 0 -20.653222161756275 -55.677971491490098 0 0 0 0 -17.683471385626603 19.409789952464052 0 19.409789952464052 -48.268244304776999 0 0 0 0 5.6189841085663499 -7.3770969418369781 0 -7.3770969418369781 -10.888165656989663 0 0 0 0 1.4309121709848682 10.059762646081253 0 10.059762646081253 -43.069055162979566 0 0 0 0 4.1255688675837643 -15.492428367314048 0 -15.492428367314048 -44.347405688009985 0 0 0 0 -3.9397110384565792 6.4574115753434853 0 6.4574115753434853 -45.170404458423945 0 0 0 0 3.1112894110240132 0.99663641424587768 0 0.99663641424587768 -24.821315149586674 0 0 0 0 -13.427282909316773 -21.558381220342199 0 -21.558381220342199 -11.163581815492762 0 0 0 0 -1.2141783489705158 -11.266077616757464 0 -11.266077616757464 -8.427550951047964 0 0 0 0 -3.2711890546478024 -2.5662707161560974 0 -2.5662707161560974 3.5876282214858186 0 0 0 0 -1.1746799331669835 0.14054773193030634 0 0.14054773193030634 -9.1166965163244189 0 0 0 0 4.0138252128356271 3.1106204078887458 0 3.1106204078887458 -43.98069467081001 0 0 0 0 2.5947020372108995 -4.095377307105041 0 -4.095377307105041 -16.294988642475424 0 0 0 0 7.5222014202442224 -12.8863628699483 0 -12.8863628699483 -30.511114457403785 0 0 0 0 5.1140763636997235 -12.937790017050247 0 -12.937790017050247 -22.167330314883657 0 0 0 0 46.989644288916679 21.755612248176476 0 21.755612248176476 -17.224711220958852 0 0 0 0 -0.058513664724284986 -2.7172713179287982 0 -2.7172713179287982 -6.8371613189367526 0 0 0 0 3.0398504279369414 -3.7899005412492865 0 -3.7899005412492865 -27.012907143156966 0 0 0 0 8.4007479021096163 -0.28420842982194827 0 -0.28420842982194827 -22.817456163051972 0 0 0 0 -11.905298070324989 -13.338339939756452 0 -13.338339939756452 -29.192856221736292 0 0 0 0 123.82291403634258 -12.552654593269835 0 -12.552654593269835 -129.08533117503612 0 0 0 0 18.129343139200842 80.821474830114312 0 80.821474830114312 -163.93609891896267 0 0 0 0 33.530471299848614 43.047082667573704 0 43.047082667573704 -76.246323639832553 0 0 0 0 -46.521905583409989 79.963844976791734 0 79.963844976791734 349.22036054334603 0 0 0 0 -0.32304270613763775 0.26260998849441286 0 0.26260998849441286 -3.5455814405059556 0 0 0 0 38.683138308942034 -18.565005929004656 0 -18.565005929004656 -60.990414239342499 0 0 0 0 1.7677140580811237 -5.2137369250202905 0 -5.2137369250202905 -32.250528072258263 0 0 0 0 -0.013621566363725357 -0.1771689740248279 0 -0.1771689740248279 -17.750611479656556 0 0 0 0 -64.657691466159577 -22.567463546166437 0 -22.567463546166437 53.173255287805659 0 0 0 0 139.65027486671806 -14.794841836100204 0 -14.794841836100204 -667.43684172970825 0 0 0 0 0.42263478128552379 -103.05443737354653 0 -103.05443737354653 128.86273571234301 0 0 0 0 107.94050106318355 9.1502834725724824 0 9.1502834725724824 -284.076899998101 0 0 0 0 71.356346830926213 -234.43933612489491 0 -234.43933612489491 -163.42135779077216 0 0 0 0 -6.6384276746994146 81.09327379368915 0 81.09327379368915 135.91785599498758 0 0 0 0 70.783906540319094 124.06928331418567 0 124.06928331418567 -80.043251948198304 0 0 0 0 0.053785718742379141 -0.56191003888613889 0 -0.56191003888613889 -6.458870570093751 0 0 0 0 107.6742474442832 -3.8692793496884406 0 -3.8692793496884406 -152.46591265287861 0 0 0 0 -233.18130739319076 -177.15560704357267 0 -177.15560704357267 144.68447519202891 0 0 0 0 1.2865112205743765 -2.3132663748068225 0 -2.3132663748068225 -33.847386402845203 0 0 0 0 -5.3129017227392978 -9.5779306595759408 0 -9.5779306595759408 -27.272162287934407 0 0 0 0 0.62327619114444133 -6.806736057512353 0 -6.806736057512353 -35.925060162295267 0 0 0 0 -0.49859396543813617 -1.8545108459564936 0 -1.8545108459564936 -9.7004214313680244 0 0 0 0 4.1921539255879186 1.8374990547503494 0 1.8374990547503494 -14.119975045195581 0 0 0 0 13.221733849143448 -13.796877725627382 0 -13.796877725627382 -38.747442927791781 0 0 0 0 0.94221130107234785 -16.145298812456531 0 -16.145298812456531 -53.912185527943393 0 0 0 0 1.0722070082795199 -5.0375649901934594 0 -5.0375649901934594 -25.238786312036609 0 0 0 0 -10.969165318179876 -8.3231252103987572 0 -8.3231252103987572 -48.430023516978508 0 0 0 0 -7.1207456647098297 -17.557197480169634 0 -17.557197480169634 -36.097112837850091 0 0 0 0 -15.265779091351305 -11.805812324842009 0 -11.805812324842009 -34.587943192442253 0 0 0 0 3.5962177383659872 4.8967810518527237 0 4.8967810518527237 -11.887490448933232 0 0 0 0 -11.263605656753043 -18.289789757129256 0 -18.289789757129256 -28.510887069556702 0 0 0 0 1.1469331588864407 -17.351858573630125 0 -17.351858573630125 -49.445758484805992 0 0 0 0 -6.4043768856435968 -3.5836393169778731 0 -3.5836393169778731 -3.6484480966559865 0 0 0 0 4.2612525852961669 3.6581258584361915 0 3.6581258584361915 -17.107896143849704 0 0 0 0 -14.687028564425589 71.459088365168554 0 71.459088365168554 59.099694570073552 0 0 0 0 91.427048639153 -131.87761035886717 0 -131.87761035886717 -57.551326713704839 0 0 0 0 -0.42901038368149225 0.79769965582991276 0 0.79769965582991276 -0.68015575328743338 0 0 0 0 172.56261214946551 150.40843485303139 0 150.40843485303139 -436.22403158566522 0 0 0 0 -123.99187630496624 186.91213752131034 0 186.91213752131034 -123.03085989780993 0 0 0 0 -424.07529121983634 186.36573369097096 0 186.36573369097096 -240.77227841052058 0 0 0 0 0.022170276112356113 -0.061921760479288324 0 -0.061921760479288324 -2.6080186149797875 0 0 0 0 -86.317157738929723 352.62807233779222 0 352.62807233779222 -92.591255847339198 0 0 0 0 -10.304586519722307 -35.886623271159351 0 -35.886623271159351 -101.37630663536765 0 0 0 0 -269.74485281965633 -289.38574611415152 0 -289.38574611415152 -180.63956319373506 0 0 0 0 21.360439972713266 -10.086534745425524 0 -10.086534745425524 -51.359727029619535 0 0 0 0 -0.69925338612055565 8.3077322762385357 0 8.3077322762385357 -23.183316635315208 0 0 0 0 -37.700430651816532 9.1993425584778379 0 9.1993425584778379 -9.3346398445646628 0 0 0 0 -1.9099124827303058 -5.5894413876667386 0 -5.5894413876667386 -24.129553610373478 0 0 0 0 -8.3073628352267406 -12.552826645129244 0 -12.552826645129244 -40.468048480943253 0 0 0 0 1.396279602341564 -3.9873919960965907 0 -3.9873919960965907 -26.059971166953233 0 0 0 0 442.17113781441958 52.591768131271238 0 52.591768131271238 -500.63343991860529 0 0 0 0 -168.22284286236209 263.37078787372957 0 263.37078787372957 216.40108149316075 0 0 0 0 3.3953616834326645 0.51961668108040016 0 0.51961668108040016 -19.865044384925227 0 0 0 0 76.898108825300937 59.00880320696433 0 59.00880320696433 -132.03406762459053 0 0 0 0 66.764707302130319 -3.0570908508634602 0 -3.0570908508634602 -361.1807170912216 0 0 0 0 -199.54022905291299 -244.23674251854754 0 -244.23674251854754 -217.62238113165222 0 0 0 0 -38.243640161585972 -61.254679078883782 0 -61.254679078883782 -15.653261374951398 0 0 0 0 -339.38537280828905 -30.290251341461044 0 -30.290251341461044 115.09017935910379 0 0 0 0 65.621054696913689 -26.632921299289592 0 -26.632921299289592 -237.96974731399678 0 0 0 0 -43.985339650779679 -86.852320653157221 0 -86.852320653157221 -77.617021924990695 0 0 0 0 12.224924059901241 67.50055895272817 0 67.50055895272817 53.147176459926413 0 0 0 0 18.425825057740667 -9.8218735320333508 0 -9.8218735320333508 -8.8039953916741069 0 0 0 0 -57.463749187110807 -10.676515111154004 0 -10.676515111154004 24.819647690354032 0 0 0 0 -16.636970544863289 43.218692816590192 0 43.218692816590192 85.455033541018565 0 0 0 0 -166.52592032837583 -62.244887516986637 0 -62.244887516986637 58.213350437203189 0 0 0 0 -106.78095644002542 120.75620441584942 0 120.75620441584942 188.22912075794011 0 0 0 0 -23.843843107693829 54.307275674098491 0 54.307275674098491 68.444310378239607 0 0 0 0 -14.492525580557412 50.637035287054459 0 50.637035287054459 59.175706518857623 0 0 0 0 59.33240898243821 70.505677659006324 0 70.505677659006324 63.873880422523143 0 0 0 0 29.258397076444453 43.028358880044834 0 43.028358880044834 36.19922641733865 0 0 0 0 220.06069114776255 -64.968395262647391 0 -64.968395262647391 -31.276513178932873 0 0 0 0 -24.342113161928864 -34.212710615479409 0 -34.212710615479409 -27.426619414501602 0 0 0 0 2.1747536244661116 11.190903603813485 0 11.190903603813485 -32.969272174455639 0 0 0 0 1.5851110993993043 -3.9839215232142635 0 -3.9839215232142635 -9.3052210748550124 0 0 0 0 206.06836975733313 429.11592438566731 0 429.11592438566731 162.94739075183497 0 0 0 0 158.93194211773516 124.47283818184951 0 124.47283818184951 70.8142491440085 0 0 0 0 7.8127037075708472 -71.96615088947874 0 -71.96615088947874 -93.641560455333092 0 0 0 0 0.63538662467287832 20.773785239821237 0 20.773785239821237 -40.095053457069469 0 0 0 0 126.42513335976219 156.25599885386328 0 156.25599885386328 -170.17887502293524 0 0 0 0 -31.336880273364841 -43.92933245160657 0 -43.92933245160657 -70.75620341901822 0 0 0 0 45.173296349257541 -65.490078236108417 0 -65.490078236108417 -91.455761136905494 0 0 0 0 47.831007192923607 74.699915041754139 0 74.699915041754139 37.133290585934446 0 0 0 0 5.2744087350083593 16.126401133132806 0 16.126401133132806 -39.418797844325773 0 0 0 0 50.751536715763194 11.041948071058926 0 11.041948071058926 -67.337283511647001 0 0 0 0 -1.5888762369686447 -11.825657704167497 0 -11.825657704167497 -67.464038653294665 0 0 0 0 11.458332532500208 -3.8825066605686516 0 -3.8825066605686516 -63.149237050527518 0 0 0 0 -21.824565889040969 -11.583852468572331 0 -11.583852468572331 -52.429503085802935 0 0 0 0 -24.394244037562657 -62.843373122911544 0 -62.843373122911544 -76.229292269478492 0 0 0 0 -5.8205503377008085 1.6766696732936737 0 1.6766696732936737 -0.31054394878310276 0 0 0 0 1.004161686622395 -1.6441550836105279 0 -1.6441550836105279 -13.661467281737835 0 0 0 0 31.953374203193334 -4.3114262566045909 0 -4.3114262566045909 -25.88894045869074 0 0 0 0 -12.620244230475691 -11.828562007052824 0 -11.828562007052824 -18.270580951226293 0 0 0 0 -12.239421744513407 -13.993382012229631 0 -13.993382012229631 -11.552653434067906 0 0 0 0 21.321148775171473 -10.946494613440336 0 -10.946494613440336 -59.354024770607793 0 0 0 0 -38.670117715919702 -37.333133598253426 0 -37.333133598253426 -19.22668242365944 0 0 0 0 11.92370833518379 -1.4855910952292106 0 -1.4855910952292106 -8.1999643590315827 0 0 0 0 21.431984553131002 6.730279677703038 0 6.730279677703038 -36.059979210826896 0 0 0 0 14.365061771238288 13.890835622261875 0 13.890835622261875 -41.760853487665827 0 0 0 0 45.917309511022381 21.411742109421539 0 21.411742109421539 -37.134813557491725 0 0 0 0 -0.75935168485398752 -0.77176602325432242 0 -0.77176602325432242 -7.9050304985835851 0 0 0 0 -116.41760777667969 -121.94949336215996 0 -121.94949336215996 -96.684102472931045 0 0 0 0 31.684979638000385 -41.861419081813438 0 -41.861419081813438 -78.659389560187265 0 0 0 0 -3.6726271973795974 -1.1322352436345682 0 -1.1322352436345682 -65.183015315138164 0 0 0 0 22.0520853465394 -1.3775545213029545 0 -1.3775545213029545 -23.457258623409871 0 0 0 0 52.98520622902106 -23.894361320198186 0 -23.894361320198186 -68.189858836634812 0 0 0 0 70.400179708948826 -2.4717316376663803 0 -2.4717316376663803 -44.373382598663738 0 0 0 0 75.617822641135376 -18.704928685781852 0 -18.704928685781852 -72.375657305806271 0 0 0 0 74.497676100062108 -13.885037736945378 0 -13.885037736945378 -67.5454248777678 0 0 0 0 83.894807047027712 -19.332813151273854 0 -19.332813151273854 -64.737733467358339 0 0 0 0 71.024199927510864 -2.2470905122727345 0 -2.2470905122727345 -75.909970560009242 0 0 0 0 80.465856557491634 -14.423302408582458 0 -14.423302408582458 -71.694450636987312 0 0 0 0 49.923342579044174 28.782181835135816 0 28.782181835135816 -103.79410738729348 0 0 0 0 70.891043590355821 1.6539030669227941 0 1.6539030669227941 -91.129812086419406 0 0 0 0 69.831230634409167 -15.845375051729206 0 -15.845375051729206 -108.64975852457428 0 0 0 0 11.685633514346137 -35.95027768687396 0 -35.95027768687396 -48.185710756799381 0 0 0 0 72.263673688308018 -3.4911644880157837 0 -3.4911644880157837 -65.862048669652722 0 0 0 0 81.936800133909856 8.9277864721225342 0 8.9277864721225342 -35.207278597052209 0 0 0 0 59.41725233544912 -17.299804428668722 0 -17.299804428668722 -64.721816687061391 0 0 0 0 62.753248639026879 10.181976249190484 0 10.181976249190484 -24.519644850597615 0 0 0 0 9.1719386888016743 16.68577879600889 0 16.68577879600889 10.928620089871401 0 0 0 0 81.46459318466259 33.684804984677612 0 33.684804984677612 14.045142600047257 0 0 0 0 58.17481939044319 39.242367148046469 0 39.242367148046469 6.6348442941889516 0 0 0 0 69.50462614812659 42.821962886780966 0 42.821962886780966 3.5600714614902245 0 0 0 0 83.976465602584085 16.206955796973489 0 16.206955796973489 -37.824025223395438 0 0 0 0 90.266770180605818 41.681770511488139 0 41.681770511488139 2.8198087790296995 0 0 0 0 47.122131252815961 74.212076888412412 0 74.212076888412412 48.006493110326119 0 0 0 0 134.56730302632059 61.331904263068282 0 61.331904263068282 10.413329152623191 0 0 0 0 1.4442690094380632 8.4555031394574929 0 8.4555031394574929 -0.96424160290537486 0 0 0 0 9.4713387370652526 -44.045252379484737 0 -44.045252379484737 -58.935258691064519 0 0 0 0 2.2878623908880344 -3.5527477499143556 0 -3.5527477499143556 -45.297054367823002 0 0 0 0 0.52443706397155587 -3.1341730676041593 0 -3.1341730676041593 -4.9466574761195261 0 0 0 0 186.39090912385177 39.668153619772056 0 39.668153619772056 -75.540482323438482 0 0 0 0 150.95269622499563 116.59224955217724 0 116.59224955217724 34.923098846658831 0 0 0 0 89.802830690651263 27.865497267215687 0 27.865497267215687 -14.448283247680592 0 0 0 0 111.43295098193644 13.642880921513552 0 13.642880921513552 -63.102328766730352 0 0 0 0 99.207389127630904 43.283457779161836 0 43.283457779161836 -1.76117392593369 0 0 0 0 32.410162310602203 31.512540079696009 0 31.512540079696009 -92.195590191437077 0 0 0 0 83.22510913553738 -19.117070128441014 0 -19.117070128441014 -48.932108210778097 0 0 0 0 48.374972645681964 74.437923755664087 0 74.437923755664087 -59.90233471093029 0 0 0 0 -60.361994252513796 107.92053299601503 0 107.92053299601503 -83.214661303307366 0 0 0 0 -9.751602535513598 82.814842940450035 0 82.814842940450035 -74.943066995441768 0 0 0 0 26.371036979310759 20.292113646923099 0 20.292113646923099 -113.04185016920928 0 0 0 0 -127.46933633724331 154.59004656139768 0 154.59004656139768 -22.857917015931889 0 0 0 0 -142.96261383236384 73.803611206896676 0 73.803611206896676 -20.655295215292426 0 0 0 0 -83.996238318736857 116.91339081231854 0 116.91339081231854 -62.921321916357556 0 0 0 0 -83.229527643900667 121.54081181414949 0 121.54081181414949 -47.612082306084631 0 0 0 0 1.2588912283306399 39.341832163319168 0 39.341832163319168 -43.911499148754956 0 0 0 0 -55.9716302337211 73.982430797954294 0 73.982430797954294 -11.109936851884413 0 0 0 0 -37.058716067386968 92.080024909371787 0 92.080024909371787 -30.760882065716942 0 0 0 0 -0.57763529053488583 21.909767662665217 0 21.909767662665217 -52.49578346209455 0 0 0 0 78.775460213530096 11.356728804275917 0 11.356728804275917 -74.008580566798628 0 0 0 0 76.180914817820394 50.703282483447765 0 50.703282483447765 -118.94898233466301 0 0 0 0 81.445866710189648 30.273241159020472 0 30.273241159020472 -78.703966876029881 0 0 0 0 134.86027049405243 19.889682048033137 0 19.889682048033137 -82.212191285464542 0 0 0 0 107.58697335220518 -13.784241260854287 0 -13.784241260854287 -63.78461402906396 0 0 0 0 89.665354598284011 -15.048460036800861 0 -15.048460036800861 42.100360212265514 0 0 0 0 94.508858487557973 69.818068811213379 0 69.818068811213379 -57.675978119110368 0 0 0 0 69.397722949760464 -22.956947011705779 0 -22.956947011705779 -57.079258581481554 0 0 0 0 -3.3375782835242815 -4.8017351560619961 0 -4.8017351560619961 -34.894321501590454 0 0 0 0 29.434093034398302 -9.3519465470490104 0 -9.3519465470490104 -39.017775645566871 0 0 0 0 54.379663499148592 0.086267456208588555 0 0.086267456208588555 -49.806383317078144 0 0 0 0 0.10847515144244113 -2.5701572985151167 0 -2.5701572985151167 -7.5493899775628037 0 0 0 0 75.067499509168101 40.74390186810524 0 40.74390186810524 -31.443845746493935 0 0 0 0 32.307702286518094 36.083472629318067 0 36.083472629318067 87.168629182688164 0 0 0 0 -11.027300545352167 7.3478299695357894 0 7.3478299695357894 -33.487777290775718 0 0 0 0 -327.39025065225258 130.76582921850604 0 130.76582921850604 -43.885537208261667 0 0 0 0 90.471742631387315 128.14509947459737 0 128.14509947459737 -58.220273999526398 0 0 0 0 -6.69554695017528 7.6528816635768209 0 7.6528816635768209 -13.5019173542264 0 0 0 0 -11.661413359891956 2.5214960172478982 0 2.5214960172478982 -43.885537208267124 0 0 0 0 -2.6497895425845135 0.76332242551702356 0 0.76332242551702356 -13.3768537629702 0 0 0 0 224.40426801463096 172.11637547876671 0 172.11637547876671 -1498.1456040538906 0 0 0 0 -179.98093696601282 513.22086111387853 0 513.22086111387853 -765.30218944446642 0 0 0 0 76.994954328406763 -210.33865641663306 0 -210.33865641663306 -776.72895181766216 0 0 0 0 234.50480299644573 73.288623279015155 0 73.288623279015155 -131.09692772081326 0 0 0 0 -139.62912839788225 105.7843023536052 0 105.7843023536052 -61.573399307722866 0 0 0 0 -108.51097094787769 -16.517107934096202 0 -16.517107934096202 -48.955988932468244 0 0 0 0 113.59440579909725 -100.04043476626885 0 -100.04043476626885 -42.077867431795312 0 0 0 0 -3.4306043367871197 3.8383422511247538 0 3.8383422511247538 -4.8417634987750802 0 0 0 0 -293.63015329061227 208.92346007322703 0 208.92346007322703 98.424843746698116 0 0 0 0 70.229632026817143 -289.83801974378997 0 -289.83801974378997 -1498.2866638010128 0 0 0 0 -414.41089232415339 536.96307325464204 0 536.96307325464204 -416.07495678393025 0 0 0 0 68.22472318195517 568.24507493466263 0 568.24507493466263 -1266.3486494163917 0 0 0 0 -165.71643872408731 56.084433500294836 0 56.084433500294836 -127.55951042585002 0 0 0 0 -243.52225503979682 112.09651849157854 0 112.09651849157854 -36.899955201370176 0 0 0 0 8.226570369037475 -44.08166890918028 0 -44.08166890918028 19.206968283418973 0 0 0 0 -43.281901823058135 14.484939176694752 0 14.484939176694752 41.506913584053564 0 0 0 0 -10.146864958076243 23.533538223920004 0 23.533538223920004 -20.199080701788262 0 0 0 0 52.326681574846994 -4.3483956727902751 0 -4.3483956727902751 -28.681647920168871 0 0 0 0 -61.561690038329033 1.1951218240051276 0 1.1951218240051276 1.9111010271208215 0 0 0 0 -1.9463674794433885 -10.073471732650546 0 -10.073471732650546 0.82146615418423607 0 0 0 0 -0.17496476138856409 -4.3194922180907227 0 -4.3194922180907227 -16.693619389505439 0 0 0 0 -0.2687466589166263 -2.5812006064962816 0 -2.5812006064962816 -14.509126935785389 0 0 0 0 0.21064900603120185 -3.2721347587447998 0 -3.2721347587447998 1.86242158105172 0 0 0 0 30.908537884362204 -4.8265447358439815 0 -4.8265447358439815 -22.100558145524701 0 0 0 0 1.5075554881076632 1.5370959440153946 0 1.5370959440153946 -1.2579181609182797 0 0 0 0 -11.774639563324399 -23.608444728814902 0 -23.608444728814902 -5.0631213490687514 0 0 0 0 0.22947037295574546 -17.902394164288125 0 -17.902394164288125 -6.0272462265470494 0 0 0 0 25.700895736851635 -16.290861269597372 0 -16.290861269597372 -24.379027871847939 0 0 0 0 -2.4207346120227413 -27.582539233804255 0 -27.582539233804255 -37.28397249196496 0 0 0 0 -13.780514290803978 -26.068038098528689 0 -26.068038098528689 -50.906339336643214 0 0 0 0 -9.1838297110313185 3.2833638227349944 0 3.2833638227349944 -6.8490710848768614 0 0 0 0 -56.028352963457564 13.341424183847266 0 13.341424183847266 -60.476650631972007 0 0 0 0 -9.8664412401253685 -3.4101543919387041 0 -3.4101543919387041 -47.748608205067285 0 0 0 0 -68.568798508236242 23.706723968132337 0 23.706723968132337 -6.0214382874582952 0 0 0 0 -67.24389807912705 36.125890568808245 0 36.125890568808245 -1.1227928499756672 0 0 0 0 3.1499065067241245 -1.1463275050526214 0 -1.1463275050526214 -8.0729694580367415 0 0 0 0 -4.4286475825106884 -31.50959406002346 0 -31.50959406002346 -25.479453849227866 0 0 0 0 -31.935024468659989 -17.771502582508219 0 -17.771502582508219 -141.87653099681484 0 0 0 0 0.034407309009751363 -0.22319760859586601 0 -0.22319760859586601 1.1126039907687471 0 0 0 0 -8.2613631870608515 37.511810620489996 0 37.511810620489996 -9.4032563338797672 0 0 0 0 -20.187842778065146 9.6828274676518049 0 9.6828274676518049 -50.90422574799959 0 0 0 0 -1.3168190283998342 -24.56649478260988 0 -24.56649478260988 -3.9072045680040901 0 0 0 0 -26.648455419393287 11.919568262206667 0 11.919568262206667 -48.65293565669981 0 0 0 0 147.11398635717939 -103.33795212650239 0 -103.33795212650239 -679.78182866610405 0 0 0 0 -162.17053568720377 -97.889971788303228 0 -97.889971788303228 -129.30221104978591 0 0 0 0 18.466428840514414 -14.171172597245118 0 -14.171172597245118 -66.370184142757353 0 0 0 0 -85.03003568153305 65.154057046589514 0 65.154057046589514 -118.20997265342885 0 0 0 0 -0.55062070984715605 -0.91592162941895894 0 -0.91592162941895894 -5.7618388664996516 0 0 0 0 -447.64722144539138 -563.2142763315594 0 -563.2142763315594 -475.86904113375022 0 0 0 0 235.63419156461822 -307.72555537160588 0 -307.72555537160588 -1498.0347326597021 0 0 0 0 222.73736932326256 48.697175722134489 0 48.697175722134489 -698.11400105512985 0 0 0 0 -368.78762488299145 632.93230368905915 0 632.93230368905915 -636.84021523480214 0 0 0 0 218.42052188572612 232.29569239390389 0 232.29569239390389 -1498.0750845857219 0 0 0 0 75.284909774698519 -27.936195452214633 0 -27.936195452214633 -179.68298767887791 0 0 0 0 -0.79244076207414138 -3.4003532007349042 0 -3.4003532007349042 -13.642510866546544 0 0 0 0 -78.735252571430408 90.434853132823264 0 90.434853132823264 -207.39066927944987 0 0 0 0 -53.437296375270208 -76.439596691496376 0 -76.439596691496376 -188.37956818563907 0 0 0 0 -64.464251089223154 82.29992380737167 0 82.29992380737167 -77.923021715172808 0 0 0 0 -340.3760658935671 -383.06098778048022 0 -383.06098778048022 -201.26410338576898 0 0 0 0 -0.76432865002979189 -0.9603267032015399 0 -0.9603267032015399 -6.1715995696848651 0 0 0 0 65.289760320791984 -247.23428538652388 0 -247.23428538652388 -1498.041593275437 0 0 0 0 111.17654366150779 59.691480929891441 0 59.691480929891441 -281.90249946105541 0 0 0 0 193.68011175689844 430.64225079569906 0 430.64225079569906 -1495.8345628411591 0 0 0 0 0.027379548863445822 -0.82229924318947023 0 -0.82229924318947023 -5.478723586842559 0 0 0 0 -140.63223644075407 -157.62468671227862 0 -157.62468671227862 -158.446790768656 0 0 0 0 185.61421082417783 -285.74304000870416 0 -285.74304000870416 -1497.6945685970923 0 0 0 0 103.57086010217711 74.699431105328358 0 74.699431105328358 -1465.0573603355888 0 0 0 0 -433.63327893295065 -732.2522137950923 0 -732.2522137950923 -1685.3977620279193 0 0 0 0 -82.203979916779929 -558.37544008216878 0 -558.37544008216878 -479.96546061088702 0 0 0 0 135.35583635767586 -368.89923236203867 0 -368.89923236203867 -1409.5874468648508 0 0 0 0 -152.89872039088755 184.28556342007232 0 184.28556342007232 7.7077493081969806 0 0 0 0 -141.50355765996693 -74.882656526270239 0 -74.882656526270239 -300.70805760960866 0 0 0 0 -111.75273112333696 2.6160628845832434 0 2.6160628845832434 -356.88082026221491 0 0 0 0 -56.626728606279073 13.558467522154842 0 13.558467522154842 62.137668207660681 0 0 0 0 -169.61376129921899 100.07189192275646 0 100.07189192275646 -0.91212800975154096 0 0 0 0 -74.155959816642934 69.173469032877108 0 69.173469032877108 34.415263256283652 0 0 0 0 260.42191018020566 91.277754396749515 0 91.277754396749515 -71.71230441178659 0 0 0 0 -13.203182302496089 65.470262346848813 0 65.470262346848813 28.955367164002382 0 0 0 0 -5.6874472513335377 24.738430602941662 0 24.738430602941662 0.558709944597922 0 0 0 0 -3.5263477270864314 6.6984124151358628 0 6.6984124151358628 14.161798893146624 0 0 0 0 -57.917203858090218 -48.378191274463006 0 -48.378191274463006 -2.5372190936013794 0 0 0 0 81.154772257526304 -3.6074926169044375 0 -3.6074926169044375 -58.973089537971646 0 0 0 0 0.15894887562204033 -1.0526423859861427 0 -1.0526423859861427 -9.9029625670133932 0 0 0 0 42.793345461579598 32.717030252976429 0 32.717030252976429 -10.909187542763902 0 0 0 0 0.038566568785606062 -0.54748557028993194 0 -0.54748557028993194 -6.8927575699782828 0 0 0 0 39.223439273368797 -29.757579767746392 0 -29.757579767746392 -9.6849910141600049 0 0 0 0 -42.601392905690886 -16.316173703991581 0 -16.316173703991581 -1.7373904473124639 0 0 0 0 15.048599966417754 -10.179411632102529 0 -10.179411632102529 -255.16334247256509 0 0 0 0 -0.1169036173887186 -0.19897682894701374 0 -0.19897682894701374 -2.4801982703923464 0 0 0 0 -58.275771602624189 -87.095318387544467 0 -87.095318387544467 -57.433271300329579 0 0 0 0 -112.15722323479841 106.95843414486228 0 106.95843414486228 -96.59005547439665 0 0 0 0 -18.087573146162242 45.154807781148065 0 45.154807781148065 -22.567353789549088 0 0 0 0 -15.639807646555937 83.241731623673786 0 83.241731623673786 -92.616263264842928 0 0 0 0 -49.361837901815655 32.274971863098472 0 32.274971863098472 -9.5808114633427977 0 0 0 0 9.3592585428515491 34.248820010117356 0 34.248820010117356 -39.527995331291095 0 0 0 0 13.921291346135888 22.868065673963883 0 22.868065673963883 -30.894044118807869 0 0 0 0 10.363035168479996 38.535400492213739 0 38.535400492213739 -21.833625871993831 0 0 0 0 50.192612372136978 18.725732256130868 0 18.725732256130868 -64.540631691856561 0 0 0 0 56.388248482636754 -12.142012684016208 0 -12.142012684016208 -48.41015722841621 0 0 0 0 30.627300524894402 19.587621878427399 0 19.587621878427399 -85.112091834771491 0 0 0 0 2.6516566221074527 61.76184608599624 0 61.76184608599624 -236.81735143383139 0 0 0 0 18.715247758631634 7.2987293605583545 0 7.2987293605583545 -91.484927051349786 0 0 0 0 25.656823756084918 -42.112211724852841 0 -42.112211724852841 -115.22327514410335 0 0 0 0 14.575200089413212 -73.659190415882222 0 -73.659190415882222 -205.01745703441065 0 0 0 0 13.271685779052007 2.0403283127971008 0 2.0403283127971008 -95.684199012892805 0 0 0 0 76.100176150252992 -56.339780855879326 0 -56.339780855879326 -116.20305557306665 0 0 0 0 84.08515832958588 -96.152214668661031 0 -96.152214668661031 -1.8908916271848284 0 0 0 0 -18.052623508978627 -79.705467755369909 0 -79.705467755369909 66.524572793667176 0 0 0 0 3.1762658912273767 -10.918039268162701 0 -10.918039268162701 -15.500910098312941 0 0 0 0 -6.9389030081329679 17.935411013576413 0 17.935411013576413 38.739393549501983 0 0 0 0 4.8529996231274151 -62.464038906588485 0 -62.464038906588485 -26.411668558297606 0 0 0 0 -43.487756133839 -34.395181897864177 0 -34.395181897864177 -23.573805572706078 0 0 0 0 -0.43344524885544983 0.10120871656749664 0 0.10120871656749664 -0.067016259726461413 0 0 0 0 -25.553431584378451 -42.5846350505185 0 -42.5846350505185 -25.877804532910886 0 0 0 0 -30.6194339763491 -56.825021655590717 0 -56.825021655590717 -22.982574584830218 0 0 0 0 21.622891203604986 -30.580696154614088 0 -30.580696154614088 -65.642397485166839 0 0 0 0 -1.1309248245986483 0.56332667190466168 0 0.56332667190466168 -0.3145964215313608 0 0 0 0 -81.707504743748331 25.153072862563022 0 25.153072862563022 15.998306650974428 0 0 0 0 9.7989323616891397 -28.530473071059532 0 -28.530473071059532 -27.275005955796587 0 0 0 0 -9.6430978613011078 -22.742925380489083 0 -22.742925380489083 -7.2685601843495533 0 0 0 0 168.41948149290431 -57.928694381482273 0 -57.928694381482273 -101.40365293615105 0 0 0 0 5.0763468434640799 87.244207944552045 0 87.244207944552045 -227.15384860029008 0 0 0 0 -158.7186065473573 -61.529471986916178 0 -61.529471986916178 -56.547598202192603 0 0 0 0 14.864344465272552 -8.2999520047051192 0 -8.2999520047051192 -66.35681739954407 0 0 0 0 20.606531784060735 -26.674820195277334 0 -26.674820195277334 -24.952365197814288 0 0 0 0 -35.579993672755791 -39.131806334970861 0 -39.131806334970861 -41.731878864055489 0 0 0 0 -119.97788588093982 -138.22043381735739 0 -138.22043381735739 -13.76569724020419 0 0 0 0 -128.52059192379193 -117.27353358062373 0 -117.27353358062373 -56.722466685564996 0 0 0 0 -10.043744316393713 -96.26532168484664 0 -96.26532168484664 -86.721285946064199 0 0 0 0 29.479603420037165 -52.619123684582519 0 -52.619123684582519 -65.046251895535534 0 0 0 0 27.054693805920579 -77.968702393720378 0 -77.968702393720378 -42.020688497645779 0 0 0 0 1.0209241184045368 -67.012998191311681 0 -67.012998191311681 -40.685905622354767 0 0 0 0 0.41099776194587179 -3.9602497463053363 0 -3.9602497463053363 -6.3769989135192215 0 0 0 0 18.508958465776004 -24.516022568411927 0 -24.516022568411927 -53.295545741133992 0 0 0 0 74.733610969019537 17.213544196037077 0 17.213544196037077 -44.196404828034247 0 0 0 0 66.914392549960667 -69.576585334360971 0 -69.576585334360971 -61.921256379107035 0 0 0 0 16.51946258980206 -4.3333367250983201 0 -4.3333367250983201 -24.256800416012197 0 0 0 0 4.0405184579588358 -5.167398271363246 0 -5.167398271363246 -21.553537370881418 0 0 0 0 13.331604028682932 -4.7752185827049516 0 -4.7752185827049516 -14.140674957459851 0 0 0 0 12.137537558310669 -7.9837529138070522 0 -7.9837529138070522 -20.191801882382904 0 0 0 0 6.9954640245275765 -9.6931468934626039 0 -9.6931468934626039 -17.809480119675033 0 0 0 0 37.880121674772113 -80.924586957165502 0 -80.924586957165502 -30.778808143269998 0 0 0 0 102.40518314607897 -45.585893456800932 0 -45.585893456800932 -187.10749688029682 0 0 0 0 48.546074278676315 65.349411026425514 0 65.349411026425514 -209.38850868079112 0 0 0 0 4.3901632313876462 18.961824539881036 0 18.961824539881036 -15.621177765820903 0 0 0 0 3.4021000432353503 34.464968610835967 0 34.464968610835967 -81.714610700710182 0 0 0 0 -53.703528835826205 132.21808357955797 0 132.21808357955797 -148.70440760844849 0 0 0 0 -0.76458586396905681 -0.3363759617260218 0 -0.3363759617260218 -0.086543178162695966 0 0 0 0 21.159158330981882 -26.64779683708548 0 -26.64779683708548 -26.148402265122058 0 0 0 0 8.9655292193078164 -10.418941739090736 0 -10.418941739090736 -25.701552276311318 0 0 0 0 13.367076453783056 -9.8033226022721465 0 -9.8033226022721465 -18.211344128259952 0 0 0 0 9.5331924324741202 -8.8043870300591411 0 -8.8043870300591411 -42.474686694946996 0 0 0 0 4.9206808608443611 -19.340073146876726 0 -19.340073146876726 -22.92741116390777 0 0 0 0 2.6064564781993109 -4.8401027094240829 0 -4.8401027094240829 -9.4166716681884814 0 0 0 0 45.454835925769203 66.955172344978564 0 66.955172344978564 -59.706979689866785 0 0 0 0 -14.311256284714659 -30.390351460783677 0 -30.390351460783677 -1.1557537094076906 0 0 0 0 8.8874979215270287 -12.554190805914914 0 -12.554190805914914 -62.45069993046036 0 0 0 0 5.3808285858596054 0.42301220677705409 0 0.42301220677705409 -13.292142413120537 0 0 0 0 2.0935624740220837 -1.9033391737437144 0 -1.9033391737437144 -41.924144663237684 0 0 0 0 17.411521922995462 5.065057041590876 0 5.065057041590876 -55.849516163375483 0 0 0 0 20.540867469394357 7.6555726090793996 0 7.6555726090793996 -102.67614558358218 0 0 0 0 -0.20667638163740776 9.0307077459283391 0 9.0307077459283391 -42.76350855394503 0 0 0 0 51.009921635925934 -7.7423983869121002 0 -7.7423983869121002 -32.180556534613061 0 0 0 0 42.122047677623414 -2.0360490159509936 0 -2.0360490159509936 -6.5882583886796056 0 0 0 0 60.631714216633014 0.98934057279473109 0 0.98934057279473109 -33.203221250052593 0 0 0 0 7.0784820553237751 -6.5135737431528469 0 -6.5135737431528469 -61.475368760280617 0 0 0 0 2.3668911777714801 1.968733765318067 0 1.968733765318067 -10.16669507858888 0 0 0 0 58.75584531085201 -9.931597807450089 0 -9.931597807450089 -33.429317912756233 0 0 0 0 40.357512991334147 0.78189753355127323 0 0.78189753355127323 -31.549105004963167 0 0 0 0 31.070797655728143 -1.9219858737333197 0 -1.9219858737333197 -33.642257820137729 0 0 0 0 -6.2219908538096211 -4.4573073382948998 0 -4.4573073382948998 -11.567195474334966 0 0 0 0 5.6742997994173265 29.149798985716274 0 29.149798985716274 -1.5725351871950579 0 0 0 0 -0.94866807328311342 1.1365387603173402 0 1.1365387603173402 -27.331445988589817 0 0 0 0 -42.543460415379741 -41.840686540841943 0 -41.840686540841943 -35.783215949541955 0 0 0 0 -52.497701592862782 14.698145246157623 0 14.698145246157623 -56.896769386004962 0 0 0 0 -46.033639039144987 -60.215280811946513 0 -60.215280811946513 -54.355489303437025 0 0 0 0 -187.05449682031986 3.3395410896687281 0 3.3395410896687281 -14.555563039245953 0 0 0 0 -11.725142213685558 3.5150233537008262 0 3.5150233537008262 -42.515908508071334 0 0 0 0 -312.27285751616228 -198.9343655878414 0 -198.9343655878414 -30.610570468435981 0 0 0 0 -427.27428942806063 -504.32283345047904 0 -504.32283345047904 -702.04570969805104 0 0 0 0 -590.75816404026182 -40.274237735797328 0 -40.274237735797328 24.903126218465502 0 0 0 0 31.071198578503186 -110.57906289302917 0 -110.57906289302917 -708.30998771206032 0 0 0 0 -4.3543998037954399 -2.8152132114257027 0 -2.8152132114257027 -1.013665061623148 0 0 0 0 -416.01362550674537 -586.6121100657258 0 -586.6121100657258 -606.21116862183885 0 0 0 0 -469.60303691949298 -421.49831761684277 0 -421.49831761684277 -938.34175577992289 0 0 0 0 -221.73582782147764 -67.188108238671305 0 -67.188108238671305 -719.26888501994085 0 0 0 0 -2.5090471803292687 -1.6560124656253095 0 -1.6560124656253095 -13.909373880116618 0 0 0 0 27.663262709144107 1.4290219083561624 0 1.4290219083561624 -13.820707951638724 0 0 0 0 -159.64920416949019 45.894466129065535 0 45.894466129065535 7.1786004815370177 0 0 0 0 -195.14113000024227 -173.84054150012955 0 -173.84054150012955 -345.59385931447935 0 0 0 0 -0.33994650465535869 -183.23597141998491 0 -183.23597141998491 -409.25005280647036 0 0 0 0 0.61086973376855713 1.3480149692763614 0 1.3480149692763614 -22.200417337111769 0 0 0 0 109.30569289147172 -44.768292634768841 0 -44.768292634768841 -9.4579616048849857 0 0 0 0 -146.12523357474169 -97.512916666868819 0 -97.512916666868819 154.36455549354105 0 0 0 0 50.425259706512804 258.34477550320253 0 258.34477550320253 -437.45081309745638 0 0 0 0 -766.81774517501901 -1052.1217353690872 0 -1052.1217353690872 -1139.015440588953 0 0 0 0 -0.14173767183714781 -0.25159613741818632 0 -0.25159613741818632 -9.7977515417045264 0 0 0 0 -676.81176337913473 -804.34732712107302 0 -804.34732712107302 -607.95374562338975 0 0 0 0 -215.97433898041078 -458.76533151762891 0 -458.76533151762891 -1142.1171569152591 0 0 0 0 -281.02013999470745 -662.92224040976339 0 -662.92224040976339 -1728.2347463923597 0 0 0 0 -970.43465358478738 -431.77535758324848 0 -431.77535758324848 -1500.9284883098358 0 0 0 0 -43.193639162042665 -330.47975804300364 0 -330.47975804300364 -937.64407770886942 0 0 0 0 -91.861827371834039 -584.79829252432478 0 -584.79829252432478 -1499.3062754597136 0 0 0 0 -74.138102834933392 -228.52119772324048 0 -228.52119772324048 -1150.657125613767 0 0 0 0 213.05524473809757 -118.4093308427075 0 -118.4093308427075 -1499.8741040446205 0 0 0 0 87.412813536396072 -13.499203873065426 0 -13.499203873065426 -937.9228750276518 0 0 0 0 244.30376963912209 169.02287665747104 0 169.02287665747104 -765.05025651525102 0 0 0 0 118.7500207726851 -51.507295556302324 0 -51.507295556302324 -1082.1397847944891 0 0 0 0 323.14057061801617 86.356675697926789 0 86.356675697926789 -1121.0601052805666 0 0 0 0 356.39497416036937 243.81582223612696 0 243.81582223612696 -1120.7516565546848 0 0 0 0 445.54576446802815 113.70633082608538 0 113.70633082608538 -1499.6702110899755 0 0 0 0 352.10586109850021 198.05797490882901 0 198.05797490882901 -1146.7814991905007 0 0 0 0 -68.567644947960275 170.2108231705663 0 170.2108231705663 -713.2763296248454 0 0 0 0 401.99257103186301 226.43650243506397 0 226.43650243506397 -1146.0602394962907 0 0 0 0 397.56113076021177 272.61805458286653 0 272.61805458286653 -1115.3307648381863 0 0 0 0 258.8333664118951 3.4812747536972353 0 3.4812747536972353 -603.01378123206905 0 0 0 0 437.88517384714919 -27.151353033925034 0 -27.151353033925034 -670.63103930317334 0 0 0 0 325.12113482236578 -105.97630693914778 0 -105.97630693914778 11.54665114754971 0 0 0 0 5.0827631113064609 2.2290520404280674 0 2.2290520404280674 -4.0116030084080405 0 0 0 0 -0.11505264484667244 -2.29864630080862 0 -2.29864630080862 -6.9303610444935835 0 0 0 0 113.98734179141138 24.962200861747533 0 24.962200861747533 -188.75715997502834 0 0 0 0 31.862709474784879 80.069306677887198 0 80.069306677887198 -197.86258173795937 0 0 0 0 126.29942735388832 45.839728972128114 0 45.839728972128114 -122.14306503344415 0 0 0 0 -11.780718820390234 -129.61265803203435 0 -129.61265803203435 -740.70712823930921 0 0 0 0 -320.09920764245879 -251.50444349784675 0 -251.50444349784675 -158.57569593478809 0 0 0 0 -124.09808144371408 -191.64289592897444 0 -191.64289592897444 -744.11183092318652 0 0 0 0 -8.4450676743393842 -194.59086009923078 0 -194.59086009923078 -519.87530795498856 0 0 0 0 -686.16920042259767 -1232.5572252940576 0 -1232.5572252940576 -1495.9222449600647 0 0 0 0 -8.1080699607942499 -5.6395782689276253 0 -5.6395782689276253 -7.3322244493425899 0 0 0 0 -1288.7133357080106 -576.96546722720495 0 -576.96546722720495 -75.663951666445428 0 0 0 0 -932.56292207041611 15.225444495687043 0 15.225444495687043 53.350558937991082 0 0 0 0 -454.22522382695342 -206.90549482015012 0 -206.90549482015012 -40.340130486008661 0 0 0 0 -42.74930199364735 165.90064176652777 0 165.90064176652777 -98.755423592804618 0 0 0 0 145.21587433807872 -106.54881159361503 0 -106.54881159361503 -74.128538941626175 0 0 0 0 178.43217719887548 -51.971548905573854 0 -51.971548905573854 -169.417000709891 0 0 0 0 -391.43623291833723 827.10702167633872 0 827.10702167633872 -1498.9301948611956 0 0 0 0 -218.14274885267577 485.58449514102756 0 485.58449514102756 -899.85880637220953 0 0 0 0 194.14574100089033 441.41243366081744 0 441.41243366081744 -1499.8744884166313 0 0 0 0 -67.42014581252775 283.26702656953489 0 283.26702656953489 -866.20119861116814 0 0 0 0 -13.682354456160537 -18.565063247727117 0 -18.565063247727117 -22.898368911181343 0 0 0 0 20.819684837462773 -3.3488970103624069 0 -3.3488970103624069 -102.00136018494049 0 0 0 0 10.043126303410418 13.015939165664406 0 13.015939165664406 -126.80819595153844 0 0 0 0 42.778153605541775 -17.23975317600798 0 -17.23975317600798 -145.21512112467872 0 0 0 0 22.596345816811663 -18.628464389367764 0 -18.628464389367764 -114.95951793076119 0 0 0 0 40.116016491670052 -32.811593351173542 0 -32.811593351173542 -104.17738912117602 0 0 0 0 20.179923266532569 -18.536175989410708 0 -18.536175989410708 -93.030626287033556 0 0 0 0 29.698170822469979 15.666131578882478 0 15.666131578882478 -17.438078764636106 0 0 0 0 75.080482267541811 -19.312646974804011 0 -19.312646974804011 -40.170794128094713 0 0 0 0 0.39863116988681213 66.845698557604919 0 66.845698557604919 -126.72548272243148 0 0 0 0 -501.18051661641152 -27.265680212159168 0 -27.265680212159168 11.05772882731253 0 0 0 0 -55.660447189807428 -110.31374966152111 0 -110.31374966152111 -145.30211452630101 0 0 0 0 2.6087194596095742 50.652962673676484 0 50.652962673676484 -30.677288822163973 0 0 0 0 24.38859379058831 16.057617092167551 0 16.057617092167551 -20.86303058114359 0 0 0 0 16.298694883802909 -15.83342800159744 0 -15.83342800159744 -92.053870780217494 0 0 0 0 3.6321063123750483 2.5194076712525959 0 2.5194076712525959 1.6445376722399132 0 0 0 0 15.882978123072462 -8.105727457455032 0 -8.105727457455032 -87.700405428254726 0 0 0 0 19.662144195212477 -0.87379524919197138 0 -0.87379524919197138 -75.056547144289652 0 0 0 0 -2.7981034396293234 -2.5918646884099417 0 -2.5918646884099417 -7.7562867872012156 0 0 0 0 17.673230507447382 5.4397283955033906 0 5.4397283955033906 -38.907032097042247 0 0 0 0 -51.063589768827569 -1.6376062813033059 0 -1.6376062813033059 -54.513115499743435 0 0 0 0 -15.618038944434375 -17.033885358949192 0 -17.033885358949192 -56.733403893129434 0 0 0 0 18.336313318994144 2.3070693502023687 0 2.3070693502023687 -62.81315489015833 0 0 0 0 -400.89271411067762 -605.2655000820414 0 -605.2655000820414 -704.37197864323753 0 0 0 0 -413.12107224950955 -520.67164269709076 0 -520.67164269709076 -583.19147576356772 0 0 0 0 -665.48003249946487 -431.0477050027921 0 -431.0477050027921 -223.3205725738917 0 0 0 0 -502.56895921127625 -646.71005984913063 0 -646.71005984913063 -225.84863623964156 0 0 0 0 -646.24911091338072 -562.92596919981543 0 -562.92596919981543 -158.91098066830091 0 0 0 0 -400.15147660609159 -367.77271684685729 0 -367.77271684685729 -232.14099401170097 0 0 0 0 1.2347269889230574 -15.908596000588346 0 -15.908596000588346 -47.341407628380693 0 0 0 0 1.4931974832443302 -25.452744074370457 0 -25.452744074370457 -79.214655245568792 0 0 0 0 2.2873915471749342 -24.385290513230302 0 -24.385290513230302 -75.302397656369067 0 0 0 0 3.2919700817328703 -15.823418292656243 0 -15.823418292656243 -64.288382583973544 0 0 0 0 0.47846887222021905 -27.417746902142426 0 -27.417746902142426 -70.588174200447611 0 0 0 0 17.056002811385952 -6.453662933403848 0 -6.453662933403848 -64.466726399698018 0 0 0 0 13.24654014953785 -17.963605204860869 0 -17.963605204860869 -70.2195512291255 0 0 0 0 15.430463687693646 -13.410440234122689 0 -13.410440234122689 -58.466364612979305 0 0 0 0 16.067184162505328 -13.216208741247556 0 -13.216208741247556 -72.349213591896842 0 0 0 0 10.714196872532739 -12.244695419015898 0 -12.244695419015898 -73.68876400683439 0 0 0 0 10.193080122135143 -13.190219672247622 0 -13.190219672247622 -69.610422163537805 0 0 0 0 7.9762212037992413 -18.492113369902881 0 -18.492113369902881 -74.458600403488163 0 0 0 0 9.4237097824170633 -12.384443141064367 0 -12.384443141064367 -67.762635640734516 0 0 0 0 2.6480301382252946 -17.149602567669717 0 -17.149602567669717 -70.854450546641601 0 0 0 0 1.5138172859103634 -23.392125653748849 0 -23.392125653748849 -79.138263023753098 0 0 0 0 6.4683553990907967 -19.829542582063368 0 -19.829542582063368 -76.726175272013279 0 0 0 0 7.0464532568003051 -18.009219635242516 0 -18.009219635242516 -81.804899614458463 0 0 0 0 6.0384702767632064 -28.749597456300535 0 -28.749597456300535 -79.78032793769853 0 0 0 0 -2.7285421661781584 -23.702825976363329 0 -23.702825976363329 -74.767554098023538 0 0 0 0 -7.9756490791560282 -33.804589760473164 0 -33.804589760473164 -79.619664980997186 0 0 0 0 -4.3170028236709186 -31.519360437816886 0 -31.519360437816886 -81.872332809745785 0 0 0 0 -5.6457081636654038 -24.658139088828648 0 -24.658139088828648 -69.514993074891208 0 0 0 0 -22.345581287119785 -27.095835973535941 0 -27.095835973535941 -77.83803256583542 0 0 0 0 -8.0385239864172036 -60.374050215005354 0 -60.374050215005354 -128.85521864974544 0 0 0 0 -33.471341900789412 -55.585043272053554 0 -55.585043272053554 -88.854997286380694 0 0 0 0 -9.5407460587657624 -56.11678378935585 0 -56.11678378935585 -87.137554017330331 0 0 0 0 -4.9122164306318155 -34.54573617267306 0 -34.54573617267306 -97.242392541547815 0 0 0 0 -4.9379399109839142 -54.880965237043256 0 -54.880965237043256 -83.801191454236687 0 0 0 0 12.308096301077057 -53.558744697002112 0 -53.558744697002112 -90.91839177118618 0 0 0 0 -0.11711700007163017 -38.46843354608427 0 -38.46843354608427 -80.729740078098985 0 0 0 0 14.596667201889431 -29.901344661699568 0 -29.901344661699568 -91.892027231500322 0 0 0 0 17.147418342679885 -35.539094055734267 0 -35.539094055734267 -102.48319644568073 0 0 0 0 41.262421828412243 -50.584700765029538 0 -50.584700765029538 -93.401438279788181 0 0 0 0 40.911792330550867 -47.279674924933943 0 -47.279674924933943 -111.7427563955107 0 0 0 0 83.884427128702555 -46.554374894825514 0 -46.554374894825514 -124.48452333387786 0 0 0 0 90.987454177723748 -59.071026213377081 0 -59.071026213377081 -109.62599598866336 0 0 0 0 -33.417476284970689 -71.751326909372438 0 -71.751326909372438 -73.50357653045694 0 0 0 0 19.881494524210552 -88.920145614903845 0 -88.920145614903845 -68.313850503160211 0 0 0 0 101.2491302250944 -36.640991352904393 0 -36.640991352904393 -32.527028022287595 0 0 0 0 -10.73604900966596 -5.2920089289087127 0 -5.2920089289087127 -6.1582804176055124 0 0 0 0 -1.4130745117207031 -5.6517528817173615 0 -5.6517528817173615 -6.5794203343896811 0 0 0 0 -206.68760802130367 -287.18168248779239 0 -287.18168248779239 12.338441720463379 0 0 0 0 -176.82822336178555 -353.02730237777905 0 -353.02730237777905 -224.80341757255883 0 0 0 0 -2.6525327096781841 8.6527835023408421 0 8.6527835023408421 -32.761177792722037 0 0 0 0 -158.40130405331382 413.08260143425235 0 413.08260143425235 -179.25734480593201 0 0 0 0 62.515808549698249 -21.406457337821848 0 -21.406457337821848 -58.4381436659678 0 0 0 0 -49.800639266118196 -4.9235950566016982 0 -4.9235950566016982 -50.819131013869992 0 0 0 0 -16.772935627323022 -10.937662137348525 0 -10.937662137348525 -24.65240518075916 0 0 0 0 -28.971949409113108 -31.026171691407512 0 -31.026171691407512 -48.82197221959359 0 0 0 0 -8.9390953939356361 -19.652950771898919 0 -19.652950771898919 -9.4468501698401823 0 0 0 0 -0.14354162900192691 -0.80331258070105171 0 -0.80331258070105171 -3.9802433008116402 0 0 0 0 -1.5501739615083352 -21.973180569255192 0 -21.973180569255192 -66.338047261153406 0 0 0 0 -1.394097978969171 -18.381218565691142 0 -18.381218565691142 -157.25548816802257 0 0 0 0 -2.0361401973779927 1.5095050564197958 0 1.5095050564197958 7.3650893399047579 0 0 0 0 -5.1908523907281161 -19.0985791297812 0 -19.0985791297812 5.3181643440704729 0 0 0 0 55.55440536003789 -50.959753259679019 0 -50.959753259679019 -98.238714268463809 0 0 0 0 -35.829113504702036 -60.206788641738967 0 -60.206788641738967 -56.461020547832049 0 0 0 0 -5.5004237855719111 -37.42844354014187 0 -37.42844354014187 -91.909193247894564 0 0 0 0 51.687278704379423 -81.78168105356599 0 -81.78168105356599 -8.243384585081003 0 0 0 0 -1.2244824974668518 -10.336258763087244 0 -10.336258763087244 -67.93925970732198 0 0 0 0 -26.391125166078382 -51.499559889947705 0 -51.499559889947705 94.501160909287137 0 0 0 0 -39.07757709767975 -52.004647754303733 0 -52.004647754303733 8.3522545302403159 0 0 0 0 -13.886819244993148 -59.900787608314204 0 -59.900787608314204 -37.400726660529472 0 0 0 0 -18.609910777959158 -50.149872434387362 0 -50.149872434387362 4.6400271002712543 0 0 0 0 0.23152903482696274 -38.356084354355517 0 -38.356084354355517 -81.674260416825746 0 0 0 0 -5.8134210369115422 -23.089344577760262 0 -23.089344577760262 4.4204962832774619 0 0 0 0 -5.9457776359604395 -38.32869057903963 0 -38.32869057903963 -71.339539016591061 0 0 0 0 -66.15247344933988 -208.29007832558955 0 -208.29007832558955 -84.522474846954083 0 0 0 0 -157.38866407931354 -219.12385746213704 0 -219.12385746213704 -155.24527713297402 0 0 0 0 -168.73690831997942 -211.02006841768764 0 -211.02006841768764 -79.825465033500677 0 0 0 0 266.14450527811789 -74.696681607903884 0 -74.696681607903884 -180.29566701022941 0 0 0 0 101.32841612055313 -276.69020810941379 0 -276.69020810941379 -278.04973987301287 0 0 0 0 111.98931767348472 -89.53039655227667 0 -89.53039655227667 -66.709692931753125 0 0 0 0 116.70685025590728 -101.72665245424923 0 -101.72665245424923 -185.17324591247655 0 0 0 0 -22.764808863498217 -134.24679003238521 0 -134.24679003238521 -19.124264301693074 0 0 0 0 90.491804370890719 -51.489948004361395 0 -51.489948004361395 9.2284191477028799 0 0 0 0 61.602926580912936 -124.70878828375953 0 -124.70878828375953 29.434488028403848 0 0 0 0 143.99257292141192 -54.502676787838936 0 -54.502676787838936 -521.49210800791661 0 0 0 0 49.001615028692981 -52.953119906903339 0 -52.953119906903339 -178.46116168862363 0 0 0 0 -173.62440155129434 -196.4310803844819 0 -196.4310803844819 241.8243131143397 0 0 0 0 136.53754507963075 -105.51249965818215 0 -105.51249965818215 -792.45761985496529 0 0 0 0 -4.5122562875602945 -2.4192020213622865 0 -2.4192020213622865 -0.694830658269872 0 0 0 0 -218.88676350809138 -328.8626690261799 0 -328.8626690261799 -64.141913830077101 0 0 0 0 -196.99390492355184 -205.8251919450754 0 -205.8251919450754 -8.9383973760168374 0 0 0 0 34.445383045904023 -152.71598642386363 0 -152.71598642386363 -324.87551744209941 0 0 0 0 42.969591140481867 -57.703891649746311 0 -57.703891649746311 -4.721880632063403 0 0 0 0 -94.547115738717025 99.600152500451713 0 99.600152500451713 -184.65108661743034 0 0 0 0 -298.54531918640652 -111.37899193293492 0 -111.37899193293492 -62.117278739497124 0 0 0 0 -156.73426379641933 -280.22671299091917 0 -280.22671299091917 -426.31007990826765 0 0 0 0 -135.82344472959497 -70.149477389826188 0 -70.149477389826188 -23.339136106358637 0 0 0 0 -41.485842411095177 56.360462119301701 0 56.360462119301701 -76.896532368857436 0 0 0 0 79.387154157186046 201.80782652968264 0 201.80782652968264 35.727063205310287 0 0 0 0 -9.2964762460617578 8.5794737380244896 0 8.5794737380244896 -6.0133793638742645 0 0 0 0 -4.6924446525986241 -0.50396359415162806 0 -0.50396359415162806 -10.040002377104884 0 0 0 0 -30.87193061456496 -34.340079936608618 0 -34.340079936608618 81.168996403072015 0 0 0 0 -2.7448432478028888 -8.6405805437928898 0 -8.6405805437928898 -11.233835831487211 0 0 0 0 4.9488096540408151 -9.7409060171003148 0 -9.7409060171003148 -2.5470449091126284 0 0 0 0 -6.6930948495382978 -11.715175100452484 0 -11.715175100452484 -9.2954335362450848 0 0 0 0 -0.29311229903446812 -12.011420879291947 0 -12.011420879291947 -26.313777710199272 0 0 0 0 5.5698896152577895 0.78307018289214625 0 0.78307018289214625 -5.2610895607904595 0 0 0 0 -36.613113519101546 21.507455920773737 0 21.507455920773737 48.816982013406232 0 0 0 0 5.9004545102279735 -10.282504936976693 0 -10.282504936976693 -29.74243536482436 0 0 0 0 66.55991936310329 11.643042393983706 0 11.643042393983706 -73.534074685858286 0 0 0 0 60.5015624435473 -24.553479300466279 0 -24.553479300466279 -33.44320984325168 0 0 0 0 31.949657557252976 -46.722818473342159 0 -46.722818473342159 -44.777537058616872 0 0 0 0 11.35354844943231 -22.365663613252764 0 -22.365663613252764 -6.0393148434432078 0 0 0 0 20.911198556810234 -9.6894881956377503 0 -9.6894881956377503 -4.3080131782489843 0 0 0 0 96.135348871389397 -78.223047237706851 0 -78.223047237706851 17.816234285086466 0 0 0 0 -14.554403746061872 -13.937096066262853 0 -13.937096066262853 -12.163645497163856 0 0 0 0 3.1479132935278429 0.68655821277235418 0 0.68655821277235418 -2.7661227227984213 0 0 0 0 -48.196026318662916 -46.002932610161224 0 -46.002932610161224 -30.73134882409795 0 0 0 0 -5.0813650984217702 -145.66297499971279 0 -145.66297499971279 -20.557077962317635 0 0 0 0 46.059920692134256 -91.100973904229249 0 -91.100973904229249 80.313450448662479 0 0 0 0 77.226923040468989 -6.7193294985443117 0 -6.7193294985443117 -20.261204635116883 0 0 0 0 -1.7697803592343533 1.094258408495179 0 1.094258408495179 2.4852742437728743 0 0 0 0 214.81620386617851 -189.11972205549137 0 -189.11972205549137 57.054086730076961 0 0 0 0 263.80524499480771 203.33235264562245 0 203.33235264562245 -42.935038983850973 0 0 0 0 -2.4689292932262106 -131.80494901257043 0 -131.80494901257043 -1.0430639678716034 0 0 0 0 -67.167473086257246 -59.530032551644581 0 -59.530032551644581 -6.2631219648698107 0 0 0 0 -36.105463542772327 -38.623916583463597 0 -38.623916583463597 -170.53483265882551 0 0 0 0 82.436309941748164 46.823598328905518 0 46.823598328905518 -445.27963580509095 0 0 0 0 97.109009383558217 84.698775277915161 0 84.698775277915161 -746.28211428392206 0 0 0 0 -1.0992039412817007 -255.49875209736456 0 -255.49875209736456 -723.28356308876573 0 0 0 0 -5.6642500641105755 -5.0509654492479701 0 -5.0509654492479701 -5.0877666084974607 0 0 0 0 -397.54997592739653 -352.29587078708028 0 -352.29587078708028 -28.594566141284304 0 0 0 0 -374.82549799538629 -546.55976012833344 0 -546.55976012833344 -222.38324839953384 0 0 0 0 -36.874043110521995 -571.31446151409182 0 -571.31446151409182 -512.31502080704468 0 0 0 0 85.339293299919859 -413.55792889587246 0 -413.55792889587246 -369.55243068227355 0 0 0 0 -148.95152495894479 -357.20284543938362 0 -357.20284543938362 -72.488495074318053 0 0 0 0 -150.48126973824404 -389.78739758130104 0 -389.78739758130104 -269.46044849806276 0 0 0 0 -112.23674637659337 -336.08632257899262 0 -336.08632257899262 -208.92373111933011 0 0 0 0 -190.86822849317309 -282.91741804742196 0 -282.91741804742196 -155.97680167215185 0 0 0 0 -237.96870277845846 -186.94266119956956 0 -186.94266119956956 -10.982471924358833 0 0 0 0 -139.18380254334716 -144.61851873200612 0 -144.61851873200612 73.548331935595343 0 0 0 0 77.058776583377949 30.358347359779145 0 30.358347359779145 120.13299175978591 0 0 0 0 -70.202636862348754 -151.56708949936183 0 -151.56708949936183 -55.509250288501789 0 0 0 0 -197.1768857224597 -136.99548923524344 0 -136.99548923524344 183.21652622231886 0 0 0 0 -148.74041875487313 -221.48054540470366 0 -221.48054540470366 -38.779503856319934 0 0 0 0 -24.69611077218633 -1.3770516667937045 0 -1.3770516667937045 54.468729755171807 0 0 0 0 -24.868441632792155 -22.322052584679341 0 -22.322052584679341 50.673701850071666 0 0 0 0 -18.885809464474733 -10.829131675625831 0 -10.829131675625831 37.030484137978419 0 0 0 0 -0.5731859056743529 9.7103500718008657 0 9.7103500718008657 -27.011341897196246 0 0 0 0 -21.169250500260205 3.7212502043985296 0 3.7212502043985296 91.282591215845741 0 0 0 0 446.84208978179595 211.56962474521424 0 211.56962474521424 -475.88779925721246 0 0 0 0 62.072620141419463 -239.46811972842443 0 -239.46811972842443 -321.13966699190132 0 0 0 0 -173.04674614022224 -200.5659745404173 0 -200.5659745404173 -309.62536652381823 0 0 0 0 -163.85146706952673 151.58865108864848 0 151.58865108864848 232.03156419758125 0 0 0 0 169.37811950115827 -656.27532528319921 0 -656.27532528319921 -621.43857141111948 0 0 0 0 -2.5791006238026455 0.60075622705799958 0 0.60075622705799958 -0.65892748041938631 0 0 0 0 -654.34614759082058 -770.59087657854298 0 -770.59087657854298 -544.28043111250372 0 0 0 0 220.99900003774201 470.24997298864218 0 470.24997298864218 -156.00634602563514 0 0 0 0 -0.93828497757590679 3.5925731710295032 0 3.5925731710295032 -11.204030821825739 0 0 0 0 -200.37510140595077 -147.53258561504663 0 -147.53258561504663 -425.91934196918919 0 0 0 0 -566.34864101144149 -244.28742966015147 0 -244.28742966015147 -270.99989577575252 0 0 0 0 -124.92700581480085 -304.03059445307736 0 -304.03059445307736 -473.81413131790032 0 0 0 0 -166.37088183146312 -208.99623223563185 0 -208.99623223563185 -283.32015807478456 0 0 0 0 -67.929166559339791 9.4823365026040847 0 9.4823365026040847 51.016559828105528 0 0 0 0 -79.479885587429635 -209.36637546232578 0 -209.36637546232578 -417.32598291631075 0 0 0 0 24.6486823883738 150.58322437404786 0 150.58322437404786 -385.31150112476098 0 0 0 0 -111.54251682238396 172.7297810321752 0 172.7297810321752 134.7231169210354 0 0 0 0 -101.01799286150919 -624.07645843066314 0 -624.07645843066314 -954.84092913890345 0 0 0 0 273.45788206510292 171.76411086391636 0 171.76411086391636 -985.62111853329043 0 0 0 0 -31.892950474310396 -63.293289603670928 0 -63.293289603670928 -62.184191923652179 0 0 0 0 86.309943694402591 5.0612202087922924 0 5.0612202087922924 -43.420370488496701 0 0 0 0 -29.176793436811067 -45.633593545204349 0 -45.633593545204349 -225.1977775396972 0 0 0 0 -112.1053745755263 -182.09198549023131 0 -182.09198549023131 -72.652631717070108 0 0 0 0 -93.817746477263768 -214.89972566039251 0 -214.89972566039251 -339.97191515502891 0 0 0 0 43.271357333385254 -58.583482578632356 0 -58.583482578632356 -389.13947030019335 0 0 0 0 -42.615448492775613 -23.336357984757342 0 -23.336357984757342 -170.78030709724408 0 0 0 0 163.3706638752962 54.549412467889852 0 54.549412467889852 -226.64663040543383 0 0 0 0 1.1326792655163329 -0.55583974358520116 0 -0.55583974358520116 -1.6504911690594568 0 0 0 0 -99.905409072560445 60.076363487421986 0 60.076363487421986 -43.216584786334352 0 0 0 0 51.045495222196223 26.481207299073503 0 26.481207299073503 -143.09035624474745 0 0 0 0 6.714263916594021 9.0100017220278232 0 9.0100017220278232 -23.377443575256621 0 0 0 0 0.29347334542130987 6.6483925084368707 0 6.6483925084368707 -6.806095051118298 0 0 0 0 -16.276783187203051 -14.976610245092388 0 -14.976610245092388 -11.682449690757494 0 0 0 0 -12.793389325077783 9.6041970703590778 0 9.6041970703590778 -18.697295083626159 0 0 0 0 -4.0407106482610855 -4.2440922390107083 0 -4.2440922390107083 -4.0862034851783875 0 0 0 0 6.1292959960914004 -8.0635994927288266 0 -8.0635994927288266 -15.223552347714758 0 0 0 0 -5.5936619899461473 -4.5096186699046683 0 -4.5096186699046683 -9.7560375671831068 0 0 0 0 3.1530396538685155 -4.979093144735117 0 -4.979093144735117 -7.4051204281039809 0 0 0 0 5.670836243101121 13.420620543424775 0 13.420620543424775 -40.885244414287627 0 0 0 0 6.0989545742631073 -7.6192080327028293 0 -7.6192080327028293 -18.368930995338815 0 0 0 0 6.4509447147701628 -8.42448184992341 0 -8.42448184992341 -8.7886838053825649 0 0 0 0 4.9725988562890961 -25.428292276904358 0 -25.428292276904358 -9.0559682345337933 0 0 0 0 -26.473500394842631 -62.329824671262031 0 -62.329824671262031 -4.0250563491099456 0 0 0 0 -124.70325210809142 -21.681632275969605 0 -21.681632275969605 281.3698014202273 0 0 0 0 -30.844248219949943 -16.651257086219481 0 -16.651257086219481 -8.0644366946032591 0 0 0 0 60.29869542601682 89.69953908338357 0 89.69953908338357 52.25176537348429 0 0 0 0 -15.261658996073493 -10.632708880177233 0 -10.632708880177233 -26.56004832409235 0 0 0 0 5.8196804866451748 -7.1294603271956944 0 -7.1294603271956944 -14.97569877314551 0 0 0 0 -2.7267020169683747 -6.1176823438981955 0 -6.1176823438981955 -16.249012020305599 0 0 0 0 6.4414633927474156 -0.54832472757858142 0 -0.54832472757858142 -8.8245856734150294 0 0 0 0 9.0746051082647483 -1.5355336406038305 0 -1.5355336406038305 -5.6645610897822074 0 0 0 0 5.8091307469039748 -6.5343086566390411 0 -6.5343086566390411 -18.956467530313603 0 0 0 0 -5.9313484205358691 -73.914792683517589 0 -73.914792683517589 -75.643653306507986 0 0 0 0 -46.520217505219989 -60.613449922695509 0 -60.613449922695509 -24.306242733160616 0 0 0 0 3.1869235906508493 -1.329740502302684 0 -1.329740502302684 -11.000504810181155 0 0 0 0 4.9690899785123239 -2.7776398168849035 0 -2.7776398168849035 -12.214177644816971 0 0 0 0 10.070455018279972 0.87181141470136936 0 0.87181141470136936 -11.52366490623308 0 0 0 0 6.5237265687286765 -8.7879483774413529 0 -8.7879483774413529 -17.735712427353064 0 0 0 0 1.9480553071448981 -8.427065776470954 0 -8.427065776470954 -17.458972455318872 0 0 0 0 -1.4749603474572268 -12.398995749441383 0 -12.398995749441383 -21.17211900185066 0 0 0 0 6.106408717125305 -6.1747642055961478 0 -6.1747642055961478 -20.684552119562795 0 0 0 0 4.2600313041750724 -8.7913711948294804 0 -8.7913711948294804 -22.389447603172357 0 0 0 0 1.847372776655102 -9.364634510136927 0 -9.364634510136927 -13.248037072389408 0 0 0 0 -3.2702585629849636 -20.616049333020783 0 -20.616049333020783 -77.036221831804141 0 0 0 0 -0.49131484279273963 -1.640108588305953 0 -1.640108588305953 -1.1235206810620184 0 0 0 0 8.4100621056559248 -7.9102052010166517 0 -7.9102052010166517 -18.678817657646505 0 0 0 0 6.2642437062208955 -7.4110144933283664 0 -7.4110144933283664 -14.902505461932378 0 0 0 0 7.2494964044342396 -8.8355699390795053 0 -8.8355699390795053 -15.314610716090101 0 0 0 0 6.2957055231482153 -8.8912332633165185 0 -8.8912332633165185 -7.5283611375337465 0 0 0 0 7.3526988473449819 -4.8533700207908623 0 -4.8533700207908623 -23.692984308345331 0 0 0 0 6.1150778760231788 -4.862495311344901 0 -4.862495311344901 -18.090307081531137 0 0 0 0 6.5119462798470522 -4.9474840835882787 0 -4.9474840835882787 -17.214267071370159 0 0 0 0 3.5598763369114295 -6.4906614175379218 0 -6.4906614175379218 -17.989263959387245 0 0 0 0 7.8915631026245165 -1.0832245111315117 0 -1.0832245111315117 -0.59198280129590231 0 0 0 0 11.348594849533583 -13.525022406161952 0 -13.525022406161952 -26.853213469059483 0 0 0 0 6.990569654659943 -0.24978534450368528 0 -0.24978534450368528 -5.6255647646735412 0 0 0 0 3.5956686100241289 -4.3499313182240318 0 -4.3499313182240318 -16.497911126517401 0 0 0 0 10.323022434256018 -6.0673910152709141 0 -6.0673910152709141 -21.997509348189851 0 0 0 0 14.764145768325307 -9.612857831844849 0 -9.612857831844849 -23.344804648066201 0 0 0 0 8.1221036252663907 -5.9704333453610161 0 -5.9704333453610161 -16.74383322137146 0 0 0 0 -3.2889707998588165 -23.688100148288868 0 -23.688100148288868 -28.180220067730261 0 0 0 0 6.0879163805805092 13.54742198448821 0 13.54742198448821 -27.834320351979841 0 0 0 0 2.2484823753469421 0.74505132989194545 0 0.74505132989194545 -0.51902890131614043 0 0 0 0 -0.82533352008249494 -5.4532206265466812 0 -5.4532206265466812 -29.745572775120309 0 0 0 0 13.120282013929724 -5.4959931100395121 0 -5.4959931100395121 -18.73357998898755 0 0 0 0 14.506690692866869 1.1894130887376377 0 1.1894130887376377 2.6516966167073406 0 0 0 0 7.5018866676022675 -4.552894525658516 0 -4.552894525658516 -16.51662307752818 0 0 0 0 8.2058699567855911 -2.943464673764538 0 -2.943464673764538 -13.841057179335621 0 0 0 0 7.389621555060204 -6.7767461156689954 0 -6.7767461156689954 -13.098670330028874 0 0 0 0 6.5007439291226472 -9.8468495465230177 0 -9.8468495465230177 -8.3005695861136992 0 0 0 0 4.165258420234295 -18.872127519671267 0 -18.872127519671267 -33.36225390078107 0 0 0 0 4.8477761388129466 -4.3717027259790484 0 -4.3717027259790484 -27.647630642059084 0 0 0 0 16.7593483169004 -7.9463582340831636 0 -7.9463582340831636 -34.778709314315051 0 0 0 0 12.615626007373976 -18.303616089841853 0 -18.303616089841853 -58.59579145272437 0 0 0 0 21.033327407285469 -34.391848916075105 0 -34.391848916075105 -42.447745694870633 0 0 0 0 -4.445319182086223 10.712454686360616 0 10.712454686360616 -21.623868034572297 0 0 0 0 3.9554589182712334 -9.475174239532862 0 -9.475174239532862 -10.176305217805748 0 0 0 0 7.2306691546778801 -5.9894343104028636 0 -5.9894343104028636 -12.537692710939741 0 0 0 0 7.5624721412150393 -8.2632507070884458 0 -8.2632507070884458 -14.214822029476636 0 0 0 0 2.2220895764190383 -7.9070775003542479 0 -7.9070775003542479 -12.143597326132371 0 0 0 0 10.316053803887677 -0.35859847952860946 0 -0.35859847952860946 -6.8041695769479702 0 0 0 0 17.939951974660289 -17.74539783369687 0 -17.74539783369687 -6.1060219519804377 0 0 0 0 22.72134172037126 -2.8664500750958197 0 -2.8664500750958197 -6.5974722677405175 0 0 0 0 19.349402917480973 -8.9903062538705854 0 -8.9903062538705854 -28.503129670705675 0 0 0 0 7.1482308270217914 9.4192241895547113 0 9.4192241895547113 -65.618063485984749 0 0 0 0 11.834263122665098 3.058163126111701 0 3.058163126111701 -2.5469532514831279 0 0 0 0 10.642477246358212 8.5882755173352052 0 8.5882755173352052 -15.265607622731295 0 0 0 0 16.659341558809658 5.5386913073234609 0 5.5386913073234609 -48.005017769090955 0 0 0 0 -2.6885788867828246 -8.659740808784818 0 -8.659740808784818 -28.506460627297201 0 0 0 0 4.8358155619232122 -0.024996585522785608 0 -0.024996585522785608 -29.208919725138912 0 0 0 0 -236.00890013991574 -57.956722703933252 0 -57.956722703933252 -240.13794080528169 0 0 0 0 -369.70631654321619 -64.863097704279426 0 -64.863097704279426 -216.16597912674297 0 0 0 0 -232.83729005259647 -129.68100921807491 0 -129.68100921807491 -132.93982457096718 0 0 0 0 -157.28139883474796 -116.29627409485147 0 -116.29627409485147 -233.40510866989644 0 0 0 0 -215.75673650124736 -199.29396218528927 0 -199.29396218528927 -187.98788678290657 0 0 0 0 -202.6646969041683 -76.351253617274779 0 -76.351253617274779 -230.00761219529886 0 0 0 0 -272.27107215163619 94.975312241947904 0 94.975312241947904 -448.67031831498298 0 0 0 0 -480.43295477915785 111.23568130372814 0 111.23568130372814 -142.52901019967248 0 0 0 0 -356.0043855684192 -45.327113469176766 0 -45.327113469176766 -142.23601276316725 0 0 0 0 -347.7729778246856 -19.57613597632826 0 -19.57613597632826 -213.94582983945293 0 0 0 0 -259.67267673961055 -195.90443909185524 0 -195.90443909185524 -217.85289003408985 0 0 0 0 -380.29065987861918 -65.412590064586766 0 -65.412590064586766 -16.049140165323479 0 0 0 0 -193.4240841253619 -416.57712527093463 0 -416.57712527093463 -257.41181773761127 0 0 0 0 -299.33419143541556 -232.37707519411833 0 -232.37707519411833 -202.8686967406029 0 0 0 0 -287.92559931436745 -85.694832391593081 0 -85.694832391593081 -559.37236972149185 0 0 0 0 -377.68447652295254 -407.14493361825225 0 -407.14493361825225 -380.17203645309291 0 0 0 0 -50.111137176088505 168.80869816204904 0 168.80869816204904 -311.358361458324 0 0 0 0 -388.90008383445092 -41.006530314827614 0 -41.006530314827614 -235.1775171631034 0 0 0 0 -124.96079396816458 -55.207276860019192 0 -55.207276860019192 -236.10272679093396 0 0 0 0 -302.60915389844627 -200.04495726648793 0 -200.04495726648793 -345.75641365435513 0 0 0 0 -39.41091756305832 2.3016791510081021 0 2.3016791510081021 -325.51165705407038 0 0 0 0 25.242626407069565 -91.974170958805189 0 -91.974170958805189 -575.35759757633787 0 0 0 0 -10.503965654093008 -11.703979703834193 0 -11.703979703834193 -319.13596936295107 0 0 0 0 -7.2830852672135507 9.6337095987721568 0 9.6337095987721568 -332.12418884468207 0 0 0 0 2.2375445441894044 -3.1025210568768671 0 -3.1025210568768671 -337.42308166842304 0 0 0 0 -35.548778447488985 -34.296724112562515 0 -34.296724112562515 -234.06289284806553 0 0 0 0 -25.198849852910826 -47.448703259236936 0 -47.448703259236936 -339.81701760745273 0 0 0 0 -5.8140898864639592 4.4596158276102997 0 4.4596158276102997 -3.4703611877311573 0 0 0 0 108.21352881082157 -137.07467466798698 0 -137.07467466798698 -882.37555976227577 0 0 0 0 8.5995498194897664 0.239578672186326 0 0.239578672186326 -409.18543519248851 0 0 0 0 -16.381597496119866 72.508574484178098 0 72.508574484178098 -368.7118186140724 0 0 0 0 15.419602847565329 66.754071350314916 0 66.754071350314916 -434.56752868991316 0 0 0 0 -65.610018906575533 89.888221977294961 0 89.888221977294961 -139.54978613466665 0 0 0 0 -45.500099358181615 -3.71039468899653 0 -3.71039468899653 -195.2420028270717 0 0 0 0 -56.443784480977229 -45.421623549398646 0 -45.421623549398646 -351.32451384004878 0 0 0 0 -4.143472552989806 7.2466963563110767 0 7.2466963563110767 -353.89537800157268 0 0 0 0 202.66347235032117 192.11249664890238 0 192.11249664890238 -267.2288734709382 0 0 0 0 200.33306441090463 204.04857538014767 0 204.04857538014767 -70.529295875173375 0 0 0 0 208.34414563520113 394.92916871712077 0 394.92916871712077 -624.08178076817057 0 0 0 0 -102.67744953748524 -125.91358907713629 0 -125.91358907713629 646.64842992414196 0 0 0 0 -2.1304643226521875 226.05493714224576 0 226.05493714224576 188.99554691171215 0 0 0 0 33.709290103528474 6.9192947027841001 0 6.9192947027841001 -41.984816771808255 0 0 0 0 47.800541629761938 -147.45104969555541 0 -147.45104969555541 52.801947602383734 0 0 0 0 217.05651024805775 -297.89050075497653 0 -297.89050075497653 153.4608945533364 0 0 0 0 -23.992947242903938 -38.402386181198381 0 -38.402386181198381 256.16191050875932 0 0 0 0 90.808179571637083 -307.48901596937503 0 -307.48901596937503 886.88224078330677 0 0 0 0 354.24572716146213 -173.50661747171398 0 -173.50661747171398 -115.07156056231179 0 0 0 0 783.13118724860396 -436.91181057378708 0 -436.91181057378708 -86.807901502741515 0 0 0 0 331.62449460188145 -174.38167426931614 0 -174.38167426931614 -77.602234186435453 0 0 0 0 380.33124394627521 158.80961111016222 0 158.80961111016222 -290.47166242714593 0 0 0 0 672.3671278297943 -30.684455164755491 0 -30.684455164755491 -432.11400626464456 0 0 0 0 1.4502556250206382 -0.40213345447747884 0 -0.40213345447747884 -1.7722017771247565 0 0 0 0 -31.618444558537703 441.721296024818 0 441.721296024818 67.101644983296865 0 0 0 0 88.518061353772282 430.27877969443216 0 430.27877969443216 -489.14678610191913 0 0 0 0 80.813628692605562 -252.39732826303043 0 -252.39732826303043 124.705493756941 0 0 0 0 6.7193011588763056 -4.2804522987826203 0 -4.2804522987826203 -13.566292599873123 0 0 0 0 4.7796687002307863 -6.3730034541886198 0 -6.3730034541886198 -14.085604786727345 0 0 0 0 3.327112499435902 -4.6755046345756526 0 -4.6755046345756526 -7.8310559789648977 0 0 0 0 6.0383826516347625 3.3189093799854845 0 3.3189093799854845 -3.319374230128151 0 0 0 0 64.640591788525853 -408.65248031571537 0 -408.65248031571537 -442.61872644190589 0 0 0 0 54.65228837338509 -87.516862188535015 0 -87.516862188535015 -175.7358208494752 0 0 0 0 14.234086820963057 -15.557910043982702 0 -15.557910043982702 -104.91163775243695 0 0 0 0 100.84250343428903 -70.420582463393657 0 -70.420582463393657 -91.273295228671486 0 0 0 0 -10.3653404562574 -67.36898187051338 0 -67.36898187051338 -59.91773331866716 0 0 0 0 76.404742574219199 -44.290058254551695 0 -44.290058254551695 -67.809855619070731 0 0 0 0 32.04117306219996 -65.791587169294871 0 -65.791587169294871 13.252294603335031 0 0 0 0 144.45039805251417 -91.596924927007422 0 -91.596924927007422 -67.746569044051284 0 0 0 0 104.9752657616923 -57.805040591494617 0 -57.805040591494617 -89.167414973810082 0 0 0 0 246.46536229632511 -40.788568300922634 0 -40.788568300922634 -115.13642419665121 0 0 0 0 28.125464479622678 49.183151836778052 0 49.183151836778052 -99.892288398492383 0 0 0 0 183.7284242523674 -109.69010820724361 0 -109.69010820724361 -92.137071123019268 0 0 0 0 207.03596605068742 -146.45053162164186 0 -146.45053162164186 -70.100970763101941 0 0 0 0 65.152880064721103 -136.74989865775569 0 -136.74989865775569 -14.54429313937726 0 0 0 0 110.25166459436718 -97.477154056768995 0 -97.477154056768995 -91.204930531799619 0 0 0 0 120.07335060710466 -120.03403676344897 0 -120.03403676344897 -77.960184184596073 0 0 0 0 94.794028905420419 -132.35365326365445 0 -132.35365326365445 -55.072900641440356 0 0 0 0 54.664750621973326 -56.656337284392066 0 -56.656337284392066 92.272613112536419 0 0 0 0 88.173114737960532 -129.79326895569011 0 -129.79326895569011 15.610835099272663 0 0 0 0 91.313402269970538 -69.891249696283921 0 -69.891249696283921 -38.250919091922697 0 0 0 0 52.513172214059523 -72.925251476617632 0 -72.925251476617632 8.4911380728553922 0 0 0 0 -29.353222082926059 -16.385155453013937 0 -16.385155453013937 -7.5730702694098966 0 0 0 0 -8.3470247323721196 -77.865300271818342 0 -77.865300271818342 95.241588059068818 0 0 0 0 -94.965798442173309 -24.729217430821336 0 -24.729217430821336 -107.25190872221356 0 0 0 0 -27.334083182136055 -109.25218794762259 0 -109.25218794762259 -94.45037897479051 0 0 0 0 -42.396670124745469 5.8591203376618068 0 5.8591203376618068 -188.19387634487066 0 0 0 0 13.508698011541128 -58.172380868432811 0 -58.172380868432811 -159.78616075626132 0 0 0 0 -17.768669483399663 -66.219533476514698 0 -66.219533476514698 -16.209723185223993 0 0 0 0 123.08140723737233 -175.22817691927958 0 -175.22817691927958 31.062060034169917 0 0 0 0 21.342895112671158 -53.572663541845031 0 -53.572663541845031 -31.912002929348091 0 0 0 0 -223.45815762773873 -170.52417099604827 0 -170.52417099604827 7.1325207268419035 0 0 0 0 -40.148860529315471 -28.38171466032145 0 -28.38171466032145 115.53224053064332 0 0 0 0 -399.20461413589646 -355.72147634887187 0 -355.72147634887187 341.2075309504944 0 0 0 0 50.07304378854792 -139.30971657848568 0 -139.30971657848568 -529.9321380040783 0 0 0 0 163.64424954869401 92.369948185005342 0 92.369948185005342 -1315.6656809379247 0 0 0 0 2.6089684917994598 -0.50657784026184061 0 -0.50657784026184061 -0.092953826478627377 0 0 0 0 -956.20094936035957 -293.24918781921588 0 -293.24918781921588 -112.58371332351453 0 0 0 0 -6.4927126199919254 -4.3901845342293697 0 -4.3901845342293697 -2.9301756964473817 0 0 0 0 244.41525583991142 142.90754421755992 0 142.90754421755992 -562.68693843038272 0 0 0 0 -635.62953681161071 -547.1437860780261 0 -547.1437860780261 244.67802708922136 0 0 0 0 238.5816789556784 -94.767521365956782 0 -94.767521365956782 -559.94974649967389 0 0 0 0 -18.884344875650271 -12.70646145772751 0 -12.70646145772751 -6.9844899017661852 0 0 0 0 35.159530556040409 -204.32556534717787 0 -204.32556534717787 228.42019463605538 0 0 0 0 23.698856489012314 -130.35627662835668 0 -130.35627662835668 -490.82587712781242 0 0 0 0 -0.10182691705745128 -165.76301194573898 0 -165.76301194573898 -511.62511849122166 0 0 0 0 8.2618919659023504 -11.479731693070789 0 -11.479731693070789 -404.96658602236494 0 0 0 0 213.55782640665802 221.49628730624136 0 221.49628730624136 -437.46864393846226 0 0 0 0 -126.19860238632555 31.84228319068643 0 31.84228319068643 -215.42373814506573 0 0 0 0 -188.0525807305836 -141.17860375811779 0 -141.17860375811779 -361.79042163064878 0 0 0 0 -35.923448233246972 -153.99642116676296 0 -153.99642116676296 -672.46083199917484 0 0 0 0 -11.87236791885395 -2.8665223305326322 0 -2.8665223305326322 1.7711721087609931 0 0 0 0 38.230146586677847 -165.38259851025759 0 -165.38259851025759 -558.60240766564675 0 0 0 0 9.8384063592271591 -4.3563571381328003 0 -4.3563571381328003 -1.3133879173566463 0 0 0 0 -17.58208724250926 -37.88387834346031 0 -37.88387834346031 -32.141941018636317 0 0 0 0 3.2835407428055987 -26.776623769776961 0 -26.776623769776961 -9.0925939437875059 0 0 0 0 0.67373590133934158 -35.132062126181154 0 -35.132062126181154 -34.902848626054038 0 0 0 0 -19.538499304221205 -35.724630695434826 0 -35.724630695434826 1.9833414906752296 0 0 0 0 -34.857199024680085 -17.544376875672242 0 -17.544376875672242 17.796973241497653 0 0 0 0 5.2196771005231835 -15.008328184430818 0 -15.008328184430818 -2.1529183336346023 0 0 0 0 -21.263771948364706 -37.79130857881637 0 -37.79130857881637 -0.16534907622553874 0 0 0 0 -11.686224710891565 -4.6538123565906062 0 -4.6538123565906062 14.205488562874962 0 0 0 0 -107.38596380967419 -175.90027021472815 0 -175.90027021472815 -186.84329549568611 0 0 0 0 -46.25603969337908 -54.234674130031635 0 -54.234674130031635 -83.953085614613883 0 0 0 0 -33.501577811608286 -22.526274059097886 0 -22.526274059097886 -36.064785612656124 0 0 0 0 -93.41982603903125 -59.497156636840373 0 -59.497156636840373 30.841630835577234 0 0 0 0 -21.070859065875993 -44.373809143104154 0 -44.373809143104154 -43.745482234789051 0 0 0 0 -94.903135572989413 -92.97119166846096 0 -92.97119166846096 -58.435791061447162 0 0 0 0 -101.95526319162082 -69.275230040699171 0 -69.275230040699171 -25.194334939529654 0 0 0 0 -159.87323615133846 -115.22301676682036 0 -115.22301676682036 -111.55036277226054 0 0 0 0 -221.80821065095279 -184.12557101957282 0 -184.12557101957282 -87.695630767612784 0 0 0 0 -8.9231684780422853 8.474005534216186 0 8.474005534216186 -8.3397799516434787 0 0 0 0 -100.99784044920393 55.71475227774674 0 55.71475227774674 61.851513719851937 0 0 0 0 -156.12035932058643 -157.80337403145677 0 -157.80337403145677 -160.12722615379607 0 0 0 0 -153.80794106079679 -155.68661109206369 0 -155.68661109206369 -160.66004515934037 0 0 0 0 -155.94577336263819 -156.89344501967025 0 -156.89344501967025 -158.01568407227751 0 0 0 0 -144.87221967444179 -119.9416649793111 0 -119.9416649793111 -136.39785614711946 0 0 0 0 -154.31196024189273 -156.38203570738006 0 -156.38203570738006 -161.56755766563219 0 0 0 0 -332.75495876206833 -90.525292052108853 0 -90.525292052108853 111.89047970709362 0 0 0 0 125.86089862021981 41.871018644433207 0 41.871018644433207 -168.98949815914966 0 0 0 0 61.247176809228677 -107.97298721515199 0 -107.97298721515199 -515.16683535264747 0 0 0 0 221.05955350978911 -133.43894263965558 0 -133.43894263965558 -983.97075838877208 0 0 0 0 35.363967886115361 30.855559365233376 0 30.855559365233376 -71.457418927166145 0 0 0 0 -6.2009397591228375 6.59345177204818 0 6.59345177204818 -7.6689322565080005 0 0 0 0 -132.34732895571665 -175.45280535811617 0 -175.45280535811617 -329.22801561979213 0 0 0 0 -79.178056654223155 -233.54647092870982 0 -233.54647092870982 -270.78788629716655 0 0 0 0 -111.13618604219209 -318.58013848061637 0 -318.58013848061637 -157.92772502042317 0 0 0 0 -294.91280729472646 -656.93339536706844 0 -656.93339536706844 -776.58835298899521 0 0 0 0 -139.83882686658109 -274.0988176286358 0 -274.0988176286358 -118.20008111985226 0 0 0 0 -368.792074848119 123.10948811207368 0 123.10948811207368 -204.5001680634341 0 0 0 0 -437.63477256485464 -94.254640231670237 0 -94.254640231670237 -102.68411480887698 0 0 0 0 -69.522837075779194 -91.732331951017841 0 -91.732331951017841 -426.23014521533401 0 0 0 0 -2.0164541331094541 2.3012077158593911 0 2.3012077158593911 -3.7692470355525529 0 0 0 0 -175.19380833132618 -124.41080350680568 0 -124.41080350680568 -132.70453780847492 0 0 0 0 -202.0689660346554 -103.66176303417365 0 -103.66176303417365 -148.35728950850898 0 0 0 0 -144.73093324306387 -117.11512109879186 0 -117.11512109879186 -165.45469419591245 0 0 0 0 -165.96918098714036 -98.732761700997798 0 -98.732761700997798 -180.1970936683756 0 0 0 0 -130.89752313460843 -167.14574422791429 0 -167.14574422791429 -216.48017934154268 0 0 0 0 -101.43885103905541 -119.71565586013094 0 -119.71565586013094 -181.38672366508877 0 0 0 0 -66.661072420487017 -116.5725706557987 0 -116.5725706557987 -215.24836972910634 0 0 0 0 -76.225835810706656 -95.668427137866729 0 -95.668427137866729 -153.44619252589473 0 0 0 0 -36.722239269688316 -74.107550978119434 0 -74.107550978119434 -256.69807288272204 0 0 0 0 -52.159240209748759 -84.996903171304439 0 -84.996903171304439 -194.10481978732423 0 0 0 0 8.9482718961414776 -6.9351850776474748 0 -6.9351850776474748 -157.90471521501968 0 0 0 0 45.84910463767801 -12.139166405145716 0 -12.139166405145716 -280.85575274636358 0 0 0 0 51.429586106882198 -8.4289169126677734 0 -8.4289169126677734 -278.42428073396877 0 0 0 0 41.874804287962661 -58.572480571676351 0 -58.572480571676351 -402.46872338660251 0 0 0 0 27.43005963381745 -45.243398136840369 0 -45.243398136840369 -325.2248397286894 0 0 0 0 -88.93210412565827 -175.84693116326707 0 -175.84693116326707 -300.45882144831012 0 0 0 0 -67.891023435905822 -126.40412242424009 0 -126.40412242424009 -241.63258047406271 0 0 0 0 -158.30586821512679 -188.62082697700498 0 -188.62082697700498 -217.14252771066822 0 0 0 0 -222.87034152605361 -247.23602291703355 0 -247.23602291703355 -208.91756940516984 0 0 0 0 -239.58333423958939 -135.81116608598336 0 -135.81116608598336 -243.71925009234837 0 0 0 0 -126.65144512104189 -205.25096207628303 0 -205.25096207628303 -409.03925033386986 0 0 0 0 -127.84817196374047 -360.16415404205782 0 -360.16415404205782 -944.38235755841743 0 0 0 0 -90.095610866482275 -195.20773407294473 0 -195.20773407294473 -406.28351910808487 0 0 0 0 -55.587836245644212 139.53381633109166 0 139.53381633109166 -417.78465668204262 0 0 0 0 5.5896847589359027 -107.80245026974762 0 -107.80245026974762 -643.42553415038128 0 0 0 0 -34.950720678939291 142.05400141845303 0 142.05400141845303 -1059.608447439834 0 0 0 0 -1.7129588944193266 -3.4189676975454262 0 -3.4189676975454262 -3.2957152681098449 0 0 0 0 -58.438757979542061 82.342714086955311 0 82.342714086955311 209.59017530007441 0 0 0 0 -237.7530743492066 -606.81597051606695 0 -606.81597051606695 636.46563610606609 0 0 0 0 -0.17922869797707452 -6.6297221305793421 0 -6.6297221305793421 -7.844727852706157 0 0 0 0 -2.0710984875981922 50.873716434318339 0 50.873716434318339 -248.70649243148227 0 0 0 0 -43.686115038124399 37.733210486250755 0 37.733210486250755 -250.03963891766034 0 0 0 0 4.2392760798911695 69.297855126347713 0 69.297855126347713 -312.40203554122854 0 0 0 0 41.982858829371253 21.760716292923462 0 21.760716292923462 -260.96286730320935 0 0 0 0 84.531123043759635 27.985528247379989 0 27.985528247379989 -295.02749961809604 0 0 0 0 54.347308109968935 56.238125763189601 0 56.238125763189601 -215.89148346794536 0 0 0 0 24.848521055707351 93.974319062155701 0 93.974319062155701 -64.138998966576764 0 0 0 0 28.339792360896809 94.492209780506528 0 94.492209780506528 -191.54816405017482 0 0 0 0 71.251052042680385 33.46325310159591 0 33.46325310159591 -203.69944890474289 0 0 0 0 61.486491038609984 -21.80799597465375 0 -21.80799597465375 -103.96581155192507 0 0 0 0 86.486030530541825 16.878385591649931 0 16.878385591649931 -214.34160258540942 0 0 0 0 63.027789237487013 52.38337886017689 0 52.38337886017689 -127.32471429735597 0 0 0 0 79.60047993539456 -6.7427295415127446 0 -6.7427295415127446 -185.21763738679874 0 0 0 0 87.809365526603415 -21.336249585023324 0 -21.336249585023324 -168.38198290950459 0 0 0 0 77.535319372660069 28.323320942570717 0 28.323320942570717 -192.80491580533999 0 0 0 0 84.916636498964522 38.962650109555398 0 38.962650109555398 -251.12646631430107 0 0 0 0 93.62604074310093 18.122511413563188 0 18.122511413563188 -242.92266869910964 0 0 0 0 95.655399849815922 28.564443548406416 0 28.564443548406416 -283.36360400006379 0 0 0 0 79.441114135757743 44.567406903945084 0 44.567406903945084 -230.59847145605272 0 0 0 0 72.554221971538482 23.374197243298113 0 23.374197243298113 -281.85091070748695 0 0 0 0 88.445556256683176 27.78880222328371 0 27.78880222328371 -297.15587412998138 0 0 0 0 58.662134989563356 -1.0911161732437904 0 -1.0911161732437904 -302.26310643841862 0 0 0 0 80.753182990416349 17.145847281520219 0 17.145847281520219 -323.4169379427185 0 0 0 0 25.592090431243946 -31.305261180742036 0 -31.305261180742036 -361.46116450861155 0 0 0 0 49.555121748933288 -4.6023472592642065 0 -4.6023472592642065 -392.98244630540648 0 0 0 0 51.966413156748331 20.12328495501788 0 20.12328495501788 -289.93326596435872 0 0 0 0 31.913829809539038 -26.153118006774093 0 -26.153118006774093 -79.732354770225356 0 0 0 0 -8.3027787379260189 -40.307539366152014 0 -40.307539366152014 -65.995105488691479 0 0 0 0 7.3684274261225475 -17.488467754131186 0 -17.488467754131186 -50.806485527278568 0 0 0 0 -21.739650915719722 -34.65073830889196 0 -34.65073830889196 -3.0378182109234331 0 0 0 0 3.6511873468122404 -19.676556197239581 0 -19.676556197239581 -7.1334371894247681 0 0 0 0 -10.744454781134664 -39.113960471859173 0 -39.113960471859173 -4.555303198783804 0 0 0 0 -2.3927643966655694 -6.9031989193220369 0 -6.9031989193220369 -7.6239572890958911 0 0 0 0 -22.530361740573881 -30.56203125520733 0 -30.56203125520733 -9.3816240128253412 0 0 0 0 2.4886125854436614 -19.52677556366325 0 -19.52677556366325 -0.052853396563023125 0 0 0 0 -68.5976659551784 -111.86030899843536 0 -111.86030899843536 -91.462014064110917 0 0 0 0 21.398871516294321 -48.728551352925933 0 -48.728551352925933 -136.21200159249929 0 0 0 0 -36.970432212067863 -22.985301953205635 0 -22.985301953205635 -27.63752838909295 0 0 0 0 -7.5808323934718489 7.2575302348924531 0 7.2575302348924531 -6.217872419448355 0 0 0 0 -118.46457171835594 -140.74750001917391 0 -140.74750001917391 -304.21932364839085 0 0 0 0 -129.59680952304939 -291.14694617517671 0 -291.14694617517671 -318.87924118521005 0 0 0 0 -147.20942719125787 -81.453066213945931 0 -81.453066213945931 -99.26732418188476 0 0 0 0 -50.66650568974319 -4.9617852140017931 0 -4.9617852140017931 84.44871321249957 0 0 0 0 0.51489580953387026 1.1197867659604839 0 1.1197867659604839 -0.25902431822759198 0 0 0 0 -175.89570701575826 -23.938620934015489 0 -23.938620934015489 -150.42812044849779 0 0 0 0 -140.28898139905868 -110.82903210639779 0 -110.82903210639779 -14.453478224022547 0 0 0 0 -140.36033017514796 -213.8937543214779 0 -213.8937543214779 -183.81341487168174 0 0 0 0 -9.1054136910140251 8.2461097282597748 0 8.2461097282597748 -8.2190558054487894 0 0 0 0 -498.88323273196511 -391.86336348308396 0 -391.86336348308396 -317.939556483876 0 0 0 0 -196.81261361977113 -238.05806681596187 0 -238.05806681596187 -407.74204069934058 0 0 0 0 -393.02695242264463 -163.79844351883003 0 -163.79844351883003 -58.164251065061762 0 0 0 0 -307.94652973242512 -108.49803337742378 0 -108.49803337742378 -505.89281464480518 0 0 0 0 -136.06408869478196 -402.67190575111272 0 -402.67190575111272 -576.58536389381334 0 0 0 0 -247.22892875592856 -422.25661722856421 0 -422.25661722856421 -119.37984734856218 0 0 0 0 -225.9059968403526 -58.294321231875074 0 -58.294321231875074 -216.40277951879943 0 0 0 0 -93.50004786466161 -530.45633525981702 0 -530.45633525981702 -323.75997680465662 0 0 0 0 -250.90576534337629 -390.04131515721019 0 -390.04131515721019 -457.67456317451797 0 0 0 0 -269.047086191689 -344.26824997531594 0 -344.26824997531594 -365.24426629485242 0 0 0 0 -278.22777485290328 -326.97945963338316 0 -326.97945963338316 -238.59290755698021 0 0 0 0 -164.48996279479366 -377.59114904602575 0 -377.59114904602575 -360.08677165645577 0 0 0 0 -68.766247403210102 2.5497733060333232 0 2.5497733060333232 -51.800262873413885 0 0 0 0 -264.1559475842933 -392.07439041934413 0 -392.07439041934413 -364.00159147509112 0 0 0 0 -261.32797581131956 -307.64506911490753 0 -307.64506911490753 -467.02930157123046 0 0 0 0 25.624353907838213 -10.800019672231883 0 -10.800019672231883 -70.192008631953286 0 0 0 0 -312.86453329761048 -226.64587757488948 0 -226.64587757488948 -330.79906664739246 0 0 0 0 -520.82640556508704 -460.50257332650654 0 -460.50257332650654 -256.8876892287808 0 0 0 0 -7.9287681164507378 1.3146164776228453 0 1.3146164776228453 -7.9901426437996932 0 0 0 0 9.2781272592348856 -10.723903537652667 0 -10.723903537652667 -50.170263450321627 0 0 0 0 -0.7918480667875879 4.541714972164181 0 4.541714972164181 1.7118005016926645 0 0 0 0 421.12697039010186 96.98064295295444 0 96.98064295295444 25.288441317446996 0 0 0 0 -148.78294310485398 -330.0007652442946 0 -330.0007652442946 -211.18765689271095 0 0 0 0 -20.025960668991047 -58.208409545437462 0 -58.208409545437462 -67.303133515884838 0 0 0 0 -463.71669568654227 -669.3727003499589 0 -669.3727003499589 -559.13140043432213 0 0 0 0 -471.59423091504789 -632.08436587378901 0 -632.08436587378901 -648.34062798690866 0 0 0 0 -474.70326214995521 -536.89513363546575 0 -536.89513363546575 -600.52935699568934 0 0 0 0 -509.79892564712372 -565.52442970605625 0 -565.52442970605625 -143.58338417078085 0 0 0 0 -444.0675190796901 -329.72989373827295 0 -329.72989373827295 -86.431054002932797 0 0 0 0 -459.06814243663558 -529.82299459797605 0 -529.82299459797605 -749.11705330772747 0 0 0 0 -396.14251813331111 -521.98722339152846 0 -521.98722339152846 -749.80651482133544 0 0 0 0 -400.84647471704375 -295.35919123691565 0 -295.35919123691565 -391.70975742819064 0 0 0 0 -179.39026127549914 -241.97703922913752 0 -241.97703922913752 -815.83111400203597 0 0 0 0 -367.27175600841122 -478.45530365720151 0 -478.45530365720151 -630.69741678699211 0 0 0 0 1.2612257025214912 -2.3509193475052612 0 -2.3509193475052612 0.21849691292496232 0 0 0 0 -213.12580413187925 -241.86282914831554 0 -241.86282914831554 578.64313801793196 0 0 0 0 -173.54302728299785 -601.79529531563821 0 -601.79529531563821 -1383.0838792237755 0 0 0 0 -192.57874495194318 -278.89892743448831 0 -278.89892743448831 -674.31166090510305 0 0 0 0 -153.83367466573645 -213.26812105994395 0 -213.26812105994395 -634.79683976203887 0 0 0 0 -32.2411845358356 -195.37224724319276 0 -195.37224724319276 -898.93097313786348 0 0 0 0 -173.10911710416985 -188.15521561022433 0 -188.15521561022433 -405.02312601203448 0 0 0 0 -90.371778565728164 -128.50735346068905 0 -128.50735346068905 -722.70766226574779 0 0 0 0 -67.16578764197584 -34.195785744042951 0 -34.195785744042951 -447.22676302978653 0 0 0 0 -165.48331355299979 -107.03323381128939 0 -107.03323381128939 -478.80391090522608 0 0 0 0 -26.078372073374339 -265.96183765814931 0 -265.96183765814931 -977.47202601560275 0 0 0 0 -92.331812362240271 7.6761339177974151 0 7.6761339177974151 -757.36033966019477 0 0 0 0 -180.98870103319769 8.7577618979848921 0 8.7577618979848921 -629.92506593496 0 0 0 0 0.65042192685472955 -1.3372175645747397 0 -1.3372175645747397 0.61950002807658677 0 0 0 0 -19.975760747246625 -90.545532012725744 0 -90.545532012725744 70.166086937362252 0 0 0 0 83.817495508061995 -32.636395212444768 0 -32.636395212444768 -367.48254995246134 0 0 0 0 4.8346026741823014 -8.176878455015288 0 -8.176878455015288 -0.71060119828805135 0 0 0 0 158.00469231622515 83.509584825272668 0 83.509584825272668 -362.92593334885896 0 0 0 0 303.5477578044206 43.097459763444022 0 43.097459763444022 -1499.8852572351479 0 0 0 0 274.5168240382568 -237.19000070597031 0 -237.19000070597031 -518.38862380026876 0 0 0 0 179.16373163957874 -184.22276739724157 0 -184.22276739724157 -528.77500948766192 0 0 0 0 244.45066793836577 -563.26471409588748 0 -563.26471409588748 -1500.6210674187623 0 0 0 0 -141.77325213531998 -487.64858275186998 0 -487.64858275186998 -480.36456775343089 0 0 0 0 -174.96725207020739 -688.93085972121207 0 -688.93085972121207 -492.38087098420237 0 0 0 0 196.46960140446527 -223.01463768418398 0 -223.01463768418398 -115.72237718607721 0 0 0 0 140.1833144257871 -292.48409585800619 0 -292.48409585800619 61.612498238973785 0 0 0 0 367.99434424597797 -160.17506486036291 0 -160.17506486036291 -99.396260866804369 0 0 0 0 168.25329111998349 -52.876934758583957 0 -52.876934758583957 -143.30401594733121 0 0 0 0 138.28546841206844 -56.174646900555672 0 -56.174646900555672 54.675156208046246 0 0 0 0 154.94339489355002 -229.56107749796138 0 -229.56107749796138 -233.43227322752864 0 0 0 0 275.695384707838 24.215330181967147 0 24.215330181967147 -210.67208806701819 0 0 0 0 115.31166020903999 -75.878428342844927 0 -75.878428342844927 281.67472335109051 0 0 0 0 95.83160803139117 -235.61599380209736 0 -235.61599380209736 331.35028983687516 0 0 0 0 158.49347111285806 -289.88078548772319 0 -289.88078548772319 35.03730943518849 0 0 0 0 69.004096609596672 -177.93785755877616 0 -177.93785755877616 -15.403315442690655 0 0 0 0 -334.03357581501859 873.69890354201198 0 873.69890354201198 -1888.5761524182599 0 0 0 0 171.35636416741681 -447.8488537422345 0 -447.8488537422345 197.2271644987959 0 0 0 0 -282.33252255032767 585.1975172066559 0 585.1975172066559 -2198.880539337144 0 0 0 0 0.87098013871664381 -2.4797338466470293 0 -2.4797338466470293 -5.0892936825538015 0 0 0 0 0.56929615273408896 -2.3255007485443429 0 -2.3255007485443429 -5.8985531511885156 0 0 0 0 11.066407684100341 -84.759641820601246 0 -84.759641820601246 47.047840876693954 0 0 0 0 115.3347659099918 -135.43626756340382 0 -135.43626756340382 -136.17903069612294 0 0 0 0 71.493157934318788 -62.273500755439272 0 -62.273500755439272 -135.00647013724665 0 0 0 0 90.689666361600302 -91.519124179307255 0 -91.519124179307255 -153.8298045261763 0 0 0 0 97.974105199408314 -112.33138526598123 0 -112.33138526598123 -96.206250342584099 0 0 0 0 57.668682677051493 -10.296632419769594 0 -10.296632419769594 -120.17789040914067 0 0 0 0 76.079084334063282 -79.916168719872076 0 -79.916168719872076 -77.659222448128276 0 0 0 0 -5.648545199223463 22.99770445163449 0 22.99770445163449 56.729335397707473 0 0 0 0 321.3860080342356 -127.52354066162297 0 -127.52354066162297 126.16139299836868 0 0 0 0 -314.55916694232951 924.70611720758825 0 924.70611720758825 -1574.1270673534891 0 0 0 0 325.31261782142894 -556.61676128824183 0 -556.61676128824183 -615.9666050172309 0 0 0 0 227.96531095528019 -447.83405633424445 0 -447.83405633424445 -93.633239993432653 0 0 0 0 645.3967723776891 -193.99142738223236 0 -193.99142738223236 -207.47287254405455 0 0 0 0 217.42914909405931 -472.03601867588259 0 -472.03601867588259 -437.00945326966394 0 0 0 0 4.6249810545040964 0.12862571869727901 0 0.12862571869727901 -0.34947792067704775 0 0 0 0 416.33427416907409 249.51948635078634 0 249.51948635078634 153.98930478656621 0 0 0 0 177.7172153437632 -210.17996703569588 0 -210.17996703569588 -894.23296615407889 0 0 0 0 11.29980733551756 0.070941229819723617 0 0.070941229819723617 -5.0552281170199223 0 0 0 0 322.6168966079843 104.19152277101693 0 104.19152277101693 -585.42534825611438 0 0 0 0 -62.371562028642018 -155.98709553427591 0 -155.98709553427591 -493.73955306733842 0 0 0 0 -193.94038963746226 -104.4314346588526 0 -104.4314346588526 -489.66137223230908 0 0 0 0 -29.966810786679162 46.95754607796971 0 46.95754607796971 -1119.6505803185792 0 0 0 0 0.30665750670803749 -7.4724916573426299 0 -7.4724916573426299 -18.517268513606261 0 0 0 0 52.696034629877317 34.310081116156653 0 34.310081116156653 13.831948517875389 0 0 0 0 156.5311934138731 21.712696270325978 0 21.712696270325978 -43.115957637217434 0 0 0 0 82.578282914564085 94.901499144318223 0 94.901499144318223 91.79213347239056 0 0 0 0 52.457482803462767 36.238751770666568 0 36.238751770666568 -1.3196210835267266 0 0 0 0 -82.678969540113314 15.912520703430346 0 15.912520703430346 -2.2692308991659047 0 0 0 0 54.630661590340992 116.29455244963719 0 116.29455244963719 -70.831955711859337 0 0 0 0 -1.6392772920713483 -2.2250828864956524 0 -2.2250828864956524 -8.0849952612133222 0 0 0 0 -71.255568840873934 622.00742028284685 0 622.00742028284685 -1496.7808422446997 0 0 0 0 281.10840348623719 -520.82928308141345 0 -520.82928308141345 -1496.8698277555741 0 0 0 0 -367.9738743639727 -314.78074638756243 0 -314.78074638756243 -102.84294526420695 0 0 0 0 -161.98793005699864 -630.56380803513821 0 -630.56380803513821 -983.46694902239688 0 0 0 0 329.92592254076845 -303.24233279219879 0 -303.24233279219879 -1161.1914418101405 0 0 0 0 356.55462915603101 -190.14708524074899 0 -190.14708524074899 -718.26288874280363 0 0 0 0 -67.718937319132152 -366.01585530350076 0 -366.01585530350076 -308.34700799606799 0 0 0 0 148.07183553088902 -119.39512673189893 0 -119.39512673189893 -249.437178928707 0 0 0 0 79.720182682637358 -186.54353457909656 0 -186.54353457909656 -242.53147946238096 0 0 0 0 298.42141236647518 -135.78460477141834 0 -135.78460477141834 -708.93639844478457 0 0 0 0 215.02272039690345 -121.93812178274811 0 -121.93812178274811 -330.50998585117486 0 0 0 0 239.95047432639137 36.787882796661506 0 36.787882796661506 -334.9938150428261 0 0 0 0 489.22594430536736 -9.4115010546220219 0 -9.4115010546220219 -1500.554677252092 0 0 0 0 425.39005872954317 112.31604944606897 0 112.31604944606897 -804.49492447538796 0 0 0 0 -712.26307839226433 666.61007295758645 0 666.61007295758645 -301.64877762016476 0 0 0 0 315.01382465943999 492.86700132309488 0 492.86700132309488 -1497.3265025918652 0 0 0 0 2.7507208839369923 -29.867601844069213 0 -29.867601844069213 -51.954668113003436 0 0 0 0 -13.957363089505662 95.90681654533546 0 95.90681654533546 -374.60784354489078 0 0 0 0 5.0211725902930677 -2.5552202231380896 0 -2.5552202231380896 -10.21259073977302 0 0 0 0 149.35000115065031 -182.72144906072208 0 -182.72144906072208 -136.30927398133929 0 0 0 0 223.46363191523471 194.91684399246515 0 194.91684399246515 -719.82282683608901 0 0 0 0 -82.74703878911501 217.29494270043688 0 217.29494270043688 -108.75117059024342 0 0 0 0 -12.703997251877354 16.317232716504805 0 16.317232716504805 -197.55074019582389 0 0 0 0 -296.81566226739812 390.60799745514487 0 390.60799745514487 -221.54404239480209 0 0 0 0 2.217737866651575 -4.9327868117534521 0 -4.9327868117534521 -10.042839923226666 0 0 0 0 155.5771929533712 -45.723929589843465 0 -45.723929589843465 -505.66247029889928 0 0 0 0 -6.6745136460870071 57.244703667165595 0 57.244703667165595 -64.233591596705082 0 0 0 0 12.118447710363171 -44.128479885546767 0 -44.128479885546767 -243.41410934770101 0 0 0 0 84.937454688086291 -19.344923331887912 0 -19.344923331887912 -323.56693534852093 0 0 0 0 80.475784216184593 -18.183732725047776 0 -18.183732725047776 -265.92325285260085 0 0 0 0 76.12021449105373 -45.436875915311248 0 -45.436875915311248 -289.93935763387344 0 0 0 0 87.378452257928927 -38.141158425782578 0 -38.141158425782578 -286.73214202046802 0 0 0 0 87.634057598388154 -37.63681664813339 0 -37.63681664813339 -317.18034670388442 0 0 0 0 78.419272950266532 -23.422785577116883 0 -23.422785577116883 -298.75682135480019 0 0 0 0 76.349235944530051 -22.194649411612772 0 -22.194649411612772 -254.43627959073638 0 0 0 0 74.883905251641409 -64.365223388027516 0 -64.365223388027516 -257.67099186374435 0 0 0 0 80.404009990645591 -24.340305915800855 0 -24.340305915800855 -261.57306684273817 0 0 0 0 80.340471590474863 -26.595982651022496 0 -26.595982651022496 -212.51528059870179 0 0 0 0 103.0813994838295 -67.069394372716488 0 -67.069394372716488 -175.29827749914057 0 0 0 0 99.244686892375057 -41.779679200535611 0 -41.779679200535611 -237.41202721030277 0 0 0 0 78.641094308585707 -53.306596551334223 0 -53.306596551334223 -226.4708650669927 0 0 0 0 165.29773531469846 -204.26374804634543 0 -204.26374804634543 -192.74820222792914 0 0 0 0 135.71446908247628 -91.333384882808787 0 -91.333384882808787 -284.78682585067145 0 0 0 0 179.69612060767798 -162.52286484286833 0 -162.52286484286833 -288.403272192023 0 0 0 0 86.616819715963175 -57.236333940090844 0 -57.236333940090844 -314.42406212240894 0 0 0 0 -88.038638686901777 -177.94448094027575 0 -177.94448094027575 -282.62076120645361 0 0 0 0 52.132702696372945 -122.28041918025156 0 -122.28041918025156 -586.22697776728455 0 0 0 0 56.44741923913648 -86.018448613995133 0 -86.018448613995133 -361.836005817353 0 0 0 0 71.722345192690682 -60.92002003937705 0 -60.92002003937705 -337.58732699846132 0 0 0 0 61.674204568635105 -51.008086910589554 0 -51.008086910589554 -307.68281490575828 0 0 0 0 13.763017443147646 -10.828145961546397 0 -10.828145961546397 -65.42488538184989 0 0 0 0 -15.293625802130919 -109.82533121436791 0 -109.82533121436791 -237.3629708814351 0 0 0 0 -9.8417144038437527 -65.479487292555177 0 -65.479487292555177 -220.50151570840535 0 0 0 0 2.8883263449377443 1.6997962740885129 0 1.6997962740885129 -8.5885197015487762 0 0 0 0 172.06953122067915 -316.35440207013801 0 -316.35440207013801 -497.0190900095331 0 0 0 0 5.3559245101133399 -1.7941400284751694 0 -1.7941400284751694 -8.6907579921200835 0 0 0 0 120.74042744717241 180.72064695351582 0 180.72064695351582 -126.97027265869838 0 0 0 0 11.001919236872482 8.3043251945182419 0 8.3043251945182419 -71.943418709733123 0 0 0 0 1.2603434882642619 -2.3943535429316398 0 -2.3943535429316398 -1495.3977606573098 0 0 0 0 -530.93732197742349 -247.75116722788152 0 -247.75116722788152 112.95034351719642 0 0 0 0 -2.1842285328081092 -2.4325419439450258 0 -2.4325419439450258 -3.8960158161436667 0 0 0 0 -0.73983074793838777 0.4514518611159879 0 0.4514518611159879 -4.6567709883808348 0 0 0 0 -464.89101898816421 -805.18028767335909 0 -805.18028767335909 -466.86972377478378 0 0 0 0 277.18719219468971 -678.72874414578473 0 -678.72874414578473 -1497.84974061715 0 0 0 0 356.54355565363369 -270.05227085929073 0 -270.05227085929073 -808.57656704738656 0 0 0 0 352.95012463103581 -315.03482514064967 0 -315.03482514064967 -914.00330516016038 0 0 0 0 -11.090795488562208 -308.01444536242525 0 -308.01444536242525 -196.26308162573696 0 0 0 0 179.60721654028498 152.18280835700534 0 152.18280835700534 -1356.2438141655803 0 0 0 0 345.70825645226387 -60.496140734197979 0 -60.496140734197979 -1499.8028098248817 0 0 0 0 101.69864893007707 126.89499417482511 0 126.89499417482511 -1005.1964688743192 0 0 0 0 256.01882181218537 -23.985162009903433 0 -23.985162009903433 -950.61303114547263 0 0 0 0 -111.51359264864433 305.95204186852789 0 305.95204186852789 -697.64346597099939 0 0 0 0 -103.9654929374327 258.34392583534463 0 258.34392583534463 -623.95990414018888 0 0 0 0 -24.945001866395085 251.47285099636929 0 251.47285099636929 -767.16310435457854 0 0 0 0 -25.970254778168631 241.36555731536623 0 241.36555731536623 -802.72843070613453 0 0 0 0 -97.435085142762659 270.76716217871217 0 270.76716217871217 -633.20004287434131 0 0 0 0 -48.183198710479246 163.28376012159788 0 163.28376012159788 -701.19484127784199 0 0 0 0 78.157640989179015 63.331960836741928 0 63.331960836741928 -794.43726733349104 0 0 0 0 -41.592239263963563 127.70033394099664 0 127.70033394099664 -532.74486887926469 0 0 0 0 -52.459068664491291 280.28017289394575 0 280.28017289394575 -541.10303764297714 0 0 0 0 -83.816848202394567 326.67462741609779 0 326.67462741609779 -486.43857202781874 0 0 0 0 -78.126685019150159 266.06859416147563 0 266.06859416147563 -507.25327182440469 0 0 0 0 -74.537103962383753 293.99644689557317 0 293.99644689557317 -586.8764651004567 0 0 0 0 -79.165390683370958 252.8592749239433 0 252.8592749239433 -615.67605543053651 0 0 0 0 -78.303359939654044 331.18462746461864 0 331.18462746461864 -626.72415233889478 0 0 0 0 -52.680309279716994 334.30127905119662 0 334.30127905119662 -633.10464463975222 0 0 0 0 -94.176826121710306 251.41589147208833 0 251.41589147208833 -663.15034522482892 0 0 0 0 38.514034898301759 305.78126049730781 0 305.78126049730781 -694.15366771530535 0 0 0 0 -120.605661664393 261.99852398157418 0 261.99852398157418 -621.7228953877493 0 0 0 0 128.08167488123843 49.897953285122639 0 49.897953285122639 186.18143267646155 0 0 0 0 475.16811250517804 147.39523786661266 0 147.39523786661266 -248.38227809245063 0 0 0 0 174.33742335835097 41.083506092118114 0 41.083506092118114 -533.25495269519888 0 0 0 0 77.942487338923343 66.891985509897495 0 66.891985509897495 -519.50573640780749 0 0 0 0 -58.827650947272843 273.5427857607956 0 273.5427857607956 -224.1834925584335 0 0 0 0 340.10995466465204 429.07933086424782 0 429.07933086424782 -547.73114297106804 0 0 0 0 -186.23397996891481 -425.14057800369483 0 -425.14057800369483 -846.91312528646813 0 0 0 0 436.60810087876644 711.31331092856635 0 711.31331092856635 -128.74245292433898 0 0 0 0 0.83022796732311077 1.0740865035107419 0 1.0740865035107419 -4.1235696962993842 0 0 0 0 62.276755483579109 83.007630516656718 0 83.007630516656718 -955.4883165661704 0 0 0 0 -143.94590953850411 260.07220513953871 0 260.07220513953871 -579.20962504543422 0 0 0 0 -197.14104177859167 102.73347005859478 0 102.73347005859478 -474.02458224624206 0 0 0 0 -39.346848093203164 231.18342634076726 0 231.18342634076726 -650.89147659589798 0 0 0 0 2.7494545579764478 -0.43868893954986987 0 -0.43868893954986987 -2.9328026473501581 0 0 0 0 -109.63479510944654 101.62953938711598 0 101.62953938711598 -476.41534674489958 0 0 0 0 -14.692936147025421 168.74436931430319 0 168.74436931430319 -257.24967773675417 0 0 0 0 114.52194346962278 90.301857420534361 0 90.301857420534361 -273.74526279014208 0 0 0 0 -137.68752428150628 168.68070496798828 0 168.68070496798828 -141.04845188043691 0 0 0 0 -73.279865171949155 183.68897575503979 0 183.68897575503979 -319.99298296826601 0 0 0 0 -25.366680667857736 267.8519329944429 0 267.8519329944429 -380.50399163010661 0 0 0 0 -29.460547821108378 116.51081186554347 0 116.51081186554347 -545.00181469095696 0 0 0 0 24.809430042886788 83.305053884621884 0 83.305053884621884 -149.35839137521543 0 0 0 0 -185.05214761479783 283.4216679577894 0 283.4216679577894 -161.80586215824587 0 0 0 0 29.342150806372274 101.59658652678081 0 101.59658652678081 -96.659792947648384 0 0 0 0 20.898832990705387 50.203440456782118 0 50.203440456782118 -90.818774415010012 0 0 0 0 1.7299921139781658 -0.06944448794214253 0 -0.06944448794214253 -1.9752205581515767 0 0 0 0 21.672325915919828 48.315223396770307 0 48.315223396770307 -164.82857338586837 0 0 0 0 -56.09441596861376 445.21074571131612 0 445.21074571131612 -640.53423696032769 0 0 0 0 -88.227128631424932 458.14622030875944 0 458.14622030875944 -528.80198803323765 0 0 0 0 2.1388859523243013 13.054548444506509 0 13.054548444506509 -152.3000719737538 0 0 0 0 -95.274252425549548 64.592655397714225 0 64.592655397714225 -143.86147697320484 0 0 0 0 21.104854828241969 18.424912084021344 0 18.424912084021344 -145.71785849965363 0 0 0 0 37.145961173765912 30.262729429094179 0 30.262729429094179 -121.76465070387349 0 0 0 0 24.034506715016889 39.735704331367742 0 39.735704331367742 -122.7218061037056 0 0 0 0 30.325874559206113 -2.6527028880827856 0 -2.6527028880827856 -67.12164781761112 0 0 0 0 27.414770577462605 -5.6440037068623496 0 -5.6440037068623496 -68.397849897690321 0 0 0 0 36.825841751098551 -11.986785382945527 0 -11.986785382945527 -112.37001190128603 0 0 0 0 7.4195328392781903 -12.264685410658785 0 -12.264685410658785 -73.256431933601561 0 0 0 0 12.246236631432907 23.365401616681993 0 23.365401616681993 -119.21551398827432 0 0 0 0 44.808047276713751 -17.184228516161966 0 -17.184228516161966 -147.64266083424172 0 0 0 0 -19.982398463998379 31.525487121252809 0 31.525487121252809 -138.88920500504173 0 0 0 0 49.79670579859237 -27.849811581601898 0 -27.849811581601898 -81.616478410989657 0 0 0 0 11.317910257045568 -41.497351728556168 0 -41.497351728556168 18.465574963956897 0 0 0 0 7.8900315227381199 0.41865122899276486 0 0.41865122899276486 -0.52699682197981446 0 0 0 0 0.5060370245300545 0.096878273005629012 0 0.096878273005629012 -0.70664365984441702 0 0 0 0 -14.848174973817095 219.33581230809796 0 219.33581230809796 -375.4616092041033 0 0 0 0 1.823133891904277 -0.49656321920743096 0 -0.49656321920743096 -2.3805009636532901 0 0 0 0 -230.51619901229537 157.11181822084473 0 157.11181822084473 -223.93868235220907 0 0 0 0 71.186919597014025 119.50026072790934 0 119.50026072790934 -260.77822488192396 0 0 0 0 -20.34773438853972 41.539427355864973 0 41.539427355864973 -95.626740843144944 0 0 0 0 41.088843213593918 43.786650849244324 0 43.786650849244324 -190.3190169579766 0 0 0 0 -15.560915749582364 98.073441985259706 0 98.073441985259706 -206.40369377192837 0 0 0 0 27.135331828261542 -81.072279619265828 0 -81.072279619265828 137.55304356592023 0 0 0 0 198.76395220972927 -55.998069343275347 0 -55.998069343275347 -152.7959701835307 0 0 0 0 173.48547486635562 105.85364080530053 0 105.85364080530053 -166.8468394398551 0 0 0 0 -12.934667323234862 24.876855563183199 0 24.876855563183199 -192.39745030346967 0 0 0 0 -36.806547576316916 115.67137346946402 0 115.67137346946402 -177.66960444393953 0 0 0 0 0.49162898610669092 0.20678924509202545 0 0.20678924509202545 -0.95255496801151907 0 0 0 0 -50.672309715902884 64.359649838123005 0 64.359649838123005 -106.79096223067791 0 0 0 0 -237.17875831403444 226.38818562473534 0 226.38818562473534 -368.55099208170031 0 0 0 0 -51.382746799848974 169.10923576525238 0 169.10923576525238 -235.19995407312672 0 0 0 0 -124.59977005778683 129.97050993469747 0 129.97050993469747 -109.0062859500274 0 0 0 0 -103.30645739805323 174.40212489853729 0 174.40212489853729 -155.96994976898168 0 0 0 0 -65.921349222776826 72.174208204032766 0 72.174208204032766 -158.74002454556467 0 0 0 0 -5.770007041710187 121.27499960095611 0 121.27499960095611 -154.48561783877085 0 0 0 0 37.966005466262231 70.97368294509215 0 70.97368294509215 -217.4425218319011 0 0 0 0 -3.2623178855607193 114.57653854032606 0 114.57653854032606 -210.72078136487835 0 0 0 0 0.70670824759145034 22.279948215073091 0 22.279948215073091 -51.436287028504012 0 0 0 0 73.277138135797941 50.988510870996834 0 50.988510870996834 -227.16176436311798 0 0 0 0 41.321215686753703 65.318848690460072 0 65.318848690460072 -168.78954157176486 0 0 0 0 32.427081755055497 92.530891981936293 0 92.530891981936293 -206.40541390639919 0 0 0 0 52.172186284281452 57.108798179280711 0 57.108798179280711 -191.44868153360585 0 0 0 0 -9.7488628004743987 86.763854957935109 0 86.763854957935109 -80.443722403571883 0 0 0 0 58.909430046882107 37.00855941134796 0 37.00855941134796 -177.89072678811499 0 0 0 0 75.768476058231499 15.080569036086672 0 15.080569036086672 -164.57298158718049 0 0 0 0 0.66164367377868416 -0.13119599042854446 0 -0.13119599042854446 -1.076825559677232 0 0 0 0 -127.54957169797854 305.56373250143588 0 305.56373250143588 -318.51658059681358 0 0 0 0 132.56812843178159 -17.550932723279402 0 -17.550932723279402 -199.33393420203356 0 0 0 0 63.71601123816481 -53.195971717224893 0 -53.195971717224893 -85.01882643036879 0 0 0 0 -60.462763669645938 85.546259644259408 0 85.546259644259408 -211.72527286893637 0 0 0 0 0.11908627593191312 -0.27686168052613169 0 -0.27686168052613169 -1.0108489785875676 0 0 0 0 90.340644826481821 -35.889899193083693 0 -35.889899193083693 -431.61380884832943 0 0 0 0 43.017451634237887 67.720896173394067 0 67.720896173394067 -244.90886329863497 0 0 0 0 50.524114383931646 24.007771307726216 0 24.007771307726216 -220.14304618024471 0 0 0 0 116.65895227003421 20.886286873057543 0 20.886286873057543 -216.76822666605585 0 0 0 0 74.178762092704346 38.624597016583721 0 38.624597016583721 -201.97857258545264 0 0 0 0 93.241744322652266 -6.3889997173828306 0 -6.3889997173828306 -172.5222566786324 0 0 0 0 50.441132281996943 25.88529043170638 0 25.88529043170638 -201.46419775948743 0 0 0 0 23.138378664523088 38.204242121213611 0 38.204242121213611 -181.18219068074723 0 0 0 0 39.261546679555977 14.803172598669335 0 14.803172598669335 -199.25392898074642 0 0 0 0 32.365491606057276 -1.5607604714678018 0 -1.5607604714678018 -237.9440323571398 0 0 0 0 52.235535710416571 22.056715492813964 0 22.056715492813964 -231.75176836368792 0 0 0 0 51.333766321995881 24.70725711302839 0 24.70725711302839 -239.25234452737641 0 0 0 0 65.616808683646013 37.586916677915724 0 37.586916677915724 -263.44120320880029 0 0 0 0 75.678327217107835 43.860157216666266 0 43.860157216666266 -262.44969905851485 0 0 0 0 41.77856500365391 2.1804687207227289 0 2.1804687207227289 -268.24092748627299 0 0 0 0 72.415788121448259 25.406487540469243 0 25.406487540469243 -262.47922604527594 0 0 0 0 79.016158101457222 31.815781474830146 0 31.815781474830146 -209.04670340545999 0 0 0 0 60.574261281838972 47.843931948773388 0 47.843931948773388 -205.85526106204634 0 0 0 0 53.899736196517551 35.05321095650288 0 35.05321095650288 -219.76902986226833 0 0 0 0 57.244483198162925 38.068519241340255 0 38.068519241340255 -232.72404657558945 0 0 0 0 66.979301997260109 44.562934994952229 0 44.562934994952229 -231.54322675403819 0 0 0 0 73.280798331396909 56.028917874114995 0 56.028917874114995 -258.77226134584635 0 0 0 0 62.615482560510372 63.084406715424848 0 63.084406715424848 -217.36923691274023 0 0 0 0 73.329919172089376 51.358852385994396 0 51.358852385994396 -248.40092346082383 0 0 0 0 76.196992303343677 66.085434913173231 0 66.085434913173231 -257.85446238145232 0 0 0 0 81.722408781483637 58.65579871047521 0 58.65579871047521 -289.41557217011723 0 0 0 0 77.487222711404911 47.534037781708321 0 47.534037781708321 -273.26886875338096 0 0 0 0 78.810558731181118 51.887333558817772 0 51.887333558817772 -262.35533504570776 0 0 0 0 88.090669894549364 46.983954785315291 0 46.983954785315291 -297.58070216937631 0 0 0 0 87.811680575163336 50.249287659036781 0 50.249287659036781 -287.48666425767169 0 0 0 0 90.183793177460075 55.670674407132537 0 55.670674407132537 -329.12319027954072 0 0 0 0 77.525932377833669 32.135355978734879 0 32.135355978734879 -283.02033363151713 0 0 0 0 79.89724939424832 40.882494600497012 0 40.882494600497012 -271.81344103597803 0 0 0 0 81.890049216927309 43.391317610308761 0 43.391317610308761 -282.18845651440643 0 0 0 0 87.486772093662466 42.931242712154926 0 42.931242712154926 -282.15368120610947 0 0 0 0 85.644315629453104 41.482508104287263 0 41.482508104287263 -283.12803856469054 0 0 0 0 84.807988643473436 38.205617477615306 0 38.205617477615306 -279.51978954897277 0 0 0 0 87.292817944404419 36.379484277251322 0 36.379484277251322 -278.22026701456343 0 0 0 0 88.811800110529475 39.193563594686566 0 39.193563594686566 -275.22224211164576 0 0 0 0 91.764459874940712 31.01315241930206 0 31.01315241930206 -277.47354243728478 0 0 0 0 78.453525418179652 30.438832573803666 0 30.438832573803666 -277.33547045904561 0 0 0 0 84.118393715471939 29.859516309326864 0 29.859516309326864 -261.66220159250952 0 0 0 0 88.870026616229552 25.938088307644648 0 25.938088307644648 -264.99773067312344 0 0 0 0 86.196681181285385 28.838419697742211 0 28.838419697742211 -280.77751575968159 0 0 0 0 84.384575285407664 7.928921452974464 0 7.928921452974464 -266.91420052646572 0 0 0 0 83.862691680319131 1.1130207995283854 0 1.1130207995283854 -292.41888256613311 0 0 0 0 84.332402289103811 2.7747446554058115 0 2.7747446554058115 -245.02995320597984 0 0 0 0 83.589269603001867 4.0404539524424763 0 4.0404539524424763 -238.31435960235831 0 0 0 0 88.491095089064174 -7.2688248532322177 0 -7.2688248532322177 -214.96770936284156 0 0 0 0 84.652912339009163 24.366599535787827 0 24.366599535787827 -233.0585936550051 0 0 0 0 96.023987891697743 30.453231599421997 0 30.453231599421997 -320.86091694032075 0 0 0 0 94.036559314761462 26.79998309327857 0 26.79998309327857 -326.87250522375689 0 0 0 0 89.278625856997678 24.98653604665742 0 24.98653604665742 -299.23566963354529 0 0 0 0 87.464530382592784 28.013523066731068 0 28.013523066731068 -281.89209962265159 0 0 0 0 87.467415447242274 -9.3211779000084789 0 -9.3211779000084789 -313.15813226882028 0 0 0 0 86.935721857343196 -7.2662568028172245 0 -7.2662568028172245 -280.88735040876054 0 0 0 0 90.636184055722879 -11.322513766772317 0 -11.322513766772317 -321.95405802679306 0 0 0 0 95.189844646996789 -13.823552194531658 0 -13.823552194531658 -359.99076603809226 0 0 0 0 91.877758957036804 -9.160438156046439 0 -9.160438156046439 -346.36450440329372 0 0 0 0 96.939520032742166 39.844672945451748 0 39.844672945451748 -392.85648253100226 0 0 0 0 79.004859402138209 58.180677076859865 0 58.180677076859865 -419.86402400771476 0 0 0 0 95.545169668516905 -4.9217322381555277 0 -4.9217322381555277 -486.92462670504028 0 0 0 0 56.150719758079049 59.531636486120988 0 59.531636486120988 -521.66156887360739 0 0 0 0 8.040253852439605 34.200244109535561 0 34.200244109535561 -487.04068029887276 0 0 0 0 57.55594820758165 32.171120063634589 0 32.171120063634589 -399.18527385309062 0 0 0 0 31.517263787775377 104.36897416285899 0 104.36897416285899 -343.3005457454492 0 0 0 0 17.112900926324073 151.24872939442503 0 151.24872939442503 -496.13354065062003 0 0 0 0 29.784144730988373 80.818574240940507 0 80.818574240940507 -362.9315492949172 0 0 0 0 -39.475899611988552 120.23748426211023 0 120.23748426211023 -315.56867729484202 0 0 0 0 -41.50022484135944 148.9062380912203 0 148.9062380912203 -298.75289921736112 0 0 0 0 8.2138221467828316 112.09704355759095 0 112.09704355759095 -256.17277013623971 0 0 0 0 55.832537621766278 75.721723792863486 0 75.721723792863486 -318.93678775802255 0 0 0 0 3.2926924257517385 83.947752408079396 0 83.947752408079396 -237.65722208134684 0 0 0 0 50.358852012668649 89.011631819408649 0 89.011631819408649 -281.27743717050544 0 0 0 0 67.504136450515034 69.546963498887635 0 69.546963498887635 -269.40733709496271 0 0 0 0 59.720533994182915 78.473758833635657 0 78.473758833635657 -239.65614597401509 0 0 0 0 80.377480521004372 64.718010211072396 0 64.718010211072396 -288.67863880360528 0 0 0 0 78.180996084891831 66.674763086615712 0 66.674763086615712 -289.37503883728277 0 0 0 0 82.113509610613505 66.969961385540046 0 66.969961385540046 -343.12411420457647 0 0 0 0 74.475004217747028 58.036644664003688 0 58.036644664003688 -337.39332489640219 0 0 0 0 -0.037565810451471587 23.698258944743429 0 23.698258944743429 -402.36750870836568 0 0 0 0 -0.69286000168902473 -0.85987605730328198 0 -0.85987605730328198 -1.3618722540284178 0 0 0 0 -72.210385974434658 -58.590373653436018 0 -58.590373653436018 -239.62769350033341 0 0 0 0 -82.083417307612095 -13.743483578382438 0 -13.743483578382438 -154.87352107063634 0 0 0 0 -64.62914702610496 41.522303903961074 0 41.522303903961074 -1364.6218108077155 0 0 0 0 37.056197381692584 -247.32713809108827 0 -247.32713809108827 -1043.1148239198117 0 0 0 0 212.76010788001537 -115.39666520939591 0 -115.39666520939591 -1498.5464506901044 0 0 0 0 0.17298833803067412 -120.37000316990938 0 -120.37000316990938 -1236.1029492423222 0 0 0 0 151.27416281968809 -886.99286257038693 0 -886.99286257038693 -2017.209628341323 0 0 0 0 0.30310939429899875 1.3900916605857532 0 1.3900916605857532 -4.1127348095951319 0 0 0 0 -103.63452933613013 -211.14611336765302 0 -211.14611336765302 -745.06810694820888 0 0 0 0 -166.17363136476439 -516.42666234626631 0 -516.42666234626631 -1255.9815117324761 0 0 0 0 -2.4406439740981973 4.0592228093822982 0 4.0592228093822982 -6.2820158116797131 0 0 0 0 -44.25506726878271 -326.76538448112706 0 -326.76538448112706 -1188.1384404478376 0 0 0 0 124.37915465419337 166.10763561467684 0 166.10763561467684 -1164.235902524817 0 0 0 0 50.090835427679622 -400.11418645779486 0 -400.11418645779486 -1434.140402296438 0 0 0 0 231.35656501356289 -553.10749453923927 0 -553.10749453923927 -1311.4681528583387 0 0 0 0 -429.97137308023321 -231.20837001915424 0 -231.20837001915424 208.60512675093196 0 0 0 0 -125.11125258108405 -510.75612164504128 0 -510.75612164504128 -418.04527687348309 0 0 0 0 -201.08791274897203 -576.1535518366727 0 -576.1535518366727 -369.7176251155397 0 0 0 0 98.484238683147623 -394.54599767415857 0 -394.54599767415857 -1232.0461271788645 0 0 0 0 57.116036888209244 -506.32777442365204 0 -506.32777442365204 -1295.3953129145011 0 0 0 0 -88.146228803377227 -360.6692988698851 0 -360.6692988698851 -644.38913535544998 0 0 0 0 79.705368133856467 122.91243184030827 0 122.91243184030827 -639.27262113533288 0 0 0 0 95.930203997630258 -127.31008263917101 0 -127.31008263917101 -529.04555957815955 0 0 0 0 -1.5591015891261177 -1.0819547675576615 0 -1.0819547675576615 -1.0488894027191042 0 0 0 0 -95.546982135728115 46.642706978662318 0 46.642706978662318 -172.48902443936095 0 0 0 0 -0.807584145057886 0.39104126516852489 0 0.39104126516852489 -0.4633020670878496 0 0 0 0 249.89210762606103 -61.632775117595884 0 -61.632775117595884 -615.92172515505081 0 0 0 0 0.91789684666491389 -0.00094393655950408828 0 -0.00094393655950408828 -38.205526795548025 0 0 0 0 192.72220134297049 -112.46444505905311 0 -112.46444505905311 -73.953794485565595 0 0 0 0 92.911116737793918 -28.084751037999013 0 -28.084751037999013 -26.685747719406208 0 0 0 0 360.89026679131462 396.77117808795447 0 396.77117808795447 -94.081247303967757 0 0 0 0 -130.59845092370205 -150.14753132132296 0 -150.14753132132296 146.56851854312117 0 0 0 0 -142.03037543416156 -63.948120775468851 0 -63.948120775468851 20.492579180128814 0 0 0 0 -180.39070553129523 172.74254298444794 0 172.74254298444794 -231.06567588646431 0 0 0 0 -149.88738047327638 137.30130309922242 0 137.30130309922242 -288.91267261945177 0 0 0 0 -258.86757543543081 516.80511941646569 0 516.80511941646569 -689.08551686053397 0 0 0 0 -0.35600011598305881 -0.82244292561698451 0 -0.82244292561698451 -15.762074118530549 0 0 0 0 -195.20069505024821 473.76344620210511 0 473.76344620210511 -799.88286064972999 0 0 0 0 -380.73162343852096 -744.51463274094021 0 -744.51463274094021 -686.56728901496899 0 0 0 0 -300.6373629302891 205.47268753296476 0 205.47268753296476 26.771209580037976 0 0 0 0 -176.13913430741286 -178.98262312656516 0 -178.98262312656516 362.83881360446685 0 0 0 0 -182.69778116354928 -620.7709757565699 0 -620.7709757565699 -1500.3072714535483 0 0 0 0 223.73186744455916 -651.01377056763886 0 -651.01377056763886 -2135.5793903432277 0 0 0 0 -133.90236371123092 -856.17930308455107 0 -856.17930308455107 -1475.3200524210697 0 0 0 0 235.22038652662241 283.4643861746481 0 283.4643861746481 -2232.6994287983503 0 0 0 0 -1186.8944611787915 -439.50678466799582 0 -439.50678466799582 -104.79272734037659 0 0 0 0 -3.5412151798725713 1.5319702693295056 0 1.5319702693295056 -3.5851236415921051 0 0 0 0 -671.81434988756121 343.09078269279098 0 343.09078269279098 -1197.3213879481409 0 0 0 0 -871.98739820939682 -319.25397326702114 0 -319.25397326702114 -1495.0716124793398 0 0 0 0 -78.228337986911015 203.5899332349145 0 203.5899332349145 -1484.369275508092 0 0 0 0 -401.25671394756154 346.36851749786911 0 346.36851749786911 -744.41779090149066 0 0 0 0 -93.762434148160366 358.45468037814862 0 358.45468037814862 -1277.592861241963 0 0 0 0 -165.72551832888027 415.7859403360435 0 415.7859403360435 -897.54881207685685 0 0 0 0 -135.84299780755478 398.88136169115023 0 398.88136169115023 -1498.4221721611175 0 0 0 0 13.820679902527228 210.88502975998927 0 210.88502975998927 -1280.768396271139 0 0 0 0 168.25139523818751 264.14123838614978 0 264.14123838614978 -1500.0608864139831 0 0 0 0 -25.400646672223672 313.36109570816552 0 313.36109570816552 -934.29839101468315 0 0 0 0 23.961743938915532 302.38659215716689 0 302.38659215716689 -1307.1972780975975 0 0 0 0 13.368999906186772 209.66520202795982 0 209.66520202795982 -917.44404873276653 0 0 0 0 -113.70177606749297 289.80015479995564 0 289.80015479995564 -654.0399852554583 0 0 0 0 -104.88972922990982 362.39733906856782 0 362.39733906856782 -749.96098967276339 0 0 0 0 -113.85006549504867 285.27073448011583 0 285.27073448011583 -794.72577211821408 0 0 0 0 -112.71609169151725 425.44163288612253 0 425.44163288612253 -684.75964899759856 0 0 0 0 -271.23851011666829 325.65491178656157 0 325.65491178656157 -407.78426896996098 0 0 0 0 61.018081749578471 -5.62536373491821 0 -5.62536373491821 -323.63903782815669 0 0 0 0 -9.9235542999635982 234.80220541341987 0 234.80220541341987 -560.98510869952588 0 0 0 0 -148.56399590150346 257.36202789907111 0 257.36202789907111 -545.54320735119109 0 0 0 0 -105.14215301622573 265.25952740350476 0 265.25952740350476 -545.09782986184473 0 0 0 0 -1.8382632228974098 0.44671168234575731 0 0.44671168234575731 1.0318472538050685 0 0 0 0 -152.35101134965259 319.77000548187425 0 319.77000548187425 -602.02001967607066 0 0 0 0 -134.11749100084569 252.24460299585917 0 252.24460299585917 -520.25878214260592 0 0 0 0 -30.973354338723311 89.899898665567889 0 89.899898665567889 66.110470821869967 0 0 0 0 26.111663338405378 36.899015700259042 0 36.899015700259042 -67.412138298939681 0 0 0 0 20.682521980550177 98.538400497478506 0 98.538400497478506 -23.457375902456988 0 0 0 0 28.956694152504554 13.403204415507616 0 13.403204415507616 -50.560138733555505 0 0 0 0 25.157757811207489 2.0887116154899559 0 2.0887116154899559 -1.6823235749379819 0 0 0 0 24.186269602972743 28.559318185883967 0 28.559318185883967 -62.623782988572202 0 0 0 0 33.408377374371071 8.7239653869801259 0 8.7239653869801259 -57.683420511993063 0 0 0 0 37.109374545237685 32.59192514758297 0 32.59192514758297 -74.292668918838899 0 0 0 0 33.275952256526466 11.030714510774487 0 11.030714510774487 -97.756980930495047 0 0 0 0 27.460738277153609 -7.0435549950580025 0 -7.0435549950580025 -49.999687512379751 0 0 0 0 12.741774293482344 1.2521743555565266 0 1.2521743555565266 1.0209158612514422 0 0 0 0 4.6389647461439836 17.259184443269987 0 17.259184443269987 -65.766898961701372 0 0 0 0 12.142596190435142 15.118131272563915 0 15.118131272563915 -108.94298794116094 0 0 0 0 20.472662606836593 16.027432895394213 0 16.027432895394213 -56.985382445011055 0 0 0 0 27.364052478288954 3.4534208463564937 0 3.4534208463564937 -62.277520478248334 0 0 0 0 19.046845810402374 11.631676679844531 0 11.631676679844531 -67.457600479086977 0 0 0 0 17.465592943392348 3.6268804228230209 0 3.6268804228230209 -10.708055321331841 0 0 0 0 16.549823667889541 1.2133316138097143 0 1.2133316138097143 -70.033254032201512 0 0 0 0 37.708103471391041 9.6796432056980848 0 9.6796432056980848 -81.342369905085434 0 0 0 0 2.2287432093026687 -4.4248225313639127 0 -4.4248225313639127 -51.963127131706827 0 0 0 0 216.45193622380634 -44.803967279869539 0 -44.803967279869539 -206.12456563831074 0 0 0 0 245.53712895205655 -19.992823911914456 0 -19.992823911914456 -272.1454685667486 0 0 0 0 43.081922335426043 15.978359445029128 0 15.978359445029128 -73.977014239018899 0 0 0 0 50.394227289771841 25.539301741299511 0 25.539301741299511 -58.393922396862763 0 0 0 0 3.731292427613591 5.0581528347985305 0 5.0581528347985305 -51.423734114242677 0 0 0 0 2.2182882071494849 -0.50544301408484671 0 -0.50544301408484671 -17.238793807404363 0 0 0 0 162.98041238978681 -153.61146067139271 0 -153.61146067139271 295.63560536771547 0 0 0 0 8.36571515033582 7.8954403354733316 0 7.8954403354733316 -55.006655961820798 0 0 0 0 1.1103215089643053 4.2469227614301204 0 4.2469227614301204 -48.645347614532966 0 0 0 0 26.961554558813127 2.1646037880051807 0 2.1646037880051807 -52.188932322504115 0 0 0 0 140.37057937982632 -58.611549859422666 0 -58.611549859422666 -37.15294106244346 0 0 0 0 -3.002829998249581 9.107720285994219 0 9.107720285994219 -43.524008155252886 0 0 0 0 14.571019745500507 10.224276498654945 0 10.224276498654945 -50.978324934876582 0 0 0 0 14.324123226459506 13.316311861141003 0 13.316311861141003 -51.418046508742918 0 0 0 0 12.038573071603651 18.011060782766435 0 18.011060782766435 -38.418462605208333 0 0 0 0 -43.674349889737186 4.2369201503479417 0 4.2369201503479417 61.808201090278089 0 0 0 0 -2.3303819938192252 0.53171754151957629 0 0.53171754151957629 -8.5538218263021371 0 0 0 0 4.0943982563591153 0.022887963007974577 0 0.022887963007974577 -12.434074253513806 0 0 0 0 -29.927770715869542 178.20560845242653 0 178.20560845242653 265.0831859611244 0 0 0 0 127.74504751171588 -68.486171633478079 0 -68.486171633478079 -49.209748393801419 0 0 0 0 446.52988956190768 29.867116812771201 0 29.867116812771201 -176.59186146442516 0 0 0 0 -94.873753401790111 21.748205374069585 0 21.748205374069585 170.44025789636362 0 0 0 0 120.14869500559465 160.4483210451599 0 160.4483210451599 -0.69604299475031439 0 0 0 0 214.11119539605238 15.794074588384319 0 15.794074588384319 -53.486719129090488 0 0 0 0 112.60344465564697 -73.381009586133587 0 -73.381009586133587 60.566543454544444 0 0 0 0 22.218369185308575 41.050331770718913 0 41.050331770718913 -53.478924260565691 0 0 0 0 -115.52324150848341 66.202186786169477 0 66.202186786169477 64.077679343555133 0 0 0 0 201.06932748310152 -154.65401914323229 0 -154.65401914323229 -360.36371007512207 0 0 0 0 156.09212838918586 152.09082439026315 0 152.09082439026315 -421.13444785076717 0 0 0 0 128.15371470197869 -58.189743311566417 0 -58.189743311566417 -173.67238899170934 0 0 0 0 0.19063749927824378 0.084067450526575271 0 0.084067450526575271 -0.30738030066480349 0 0 0 0 6.6922390405575669 137.55257768014417 0 137.55257768014417 -92.522774842233048 0 0 0 0 50.396241573855491 64.072090700074114 0 64.072090700074114 -47.541758748579014 0 0 0 0 -21.663345055776858 91.072788023062458 0 91.072788023062458 -10.630883477606403 0 0 0 0 -18.741360521638605 29.682890889140253 0 29.682890889140253 -40.572729034251097 0 0 0 0 0.30832206207257928 0.19485399946695026 0 0.19485399946695026 -0.61187137038962192 0 0 0 0 -6.7008443506281239 20.656252228049198 0 20.656252228049198 -49.34737205501915 0 0 0 0 -4.6743002688240729 20.235434705562511 0 20.235434705562511 -49.308210073773807 0 0 0 0 -0.0038816460749026387 14.782940781033176 0 14.782940781033176 -43.194589569131494 0 0 0 0 -16.150751406138816 19.695374570725107 0 19.695374570725107 -19.444560689138598 0 0 0 0 -0.022268668216036132 4.2278756626456016 0 4.2278756626456016 -10.361373470506805 0 0 0 0 -97.47410672826652 39.837086482722952 0 39.837086482722952 5.7998209283923643 0 0 0 0 -19.230519168620617 75.451832237606141 0 75.451832237606141 -29.177940382782253 0 0 0 0 -37.952871373040352 1.2794056852144422 0 1.2794056852144422 -167.39414558984572 0 0 0 0 0.072075745439551975 0.14844512786537933 0 0.14844512786537933 -0.3348948641175582 0 0 0 0 -92.083209400547943 59.003968559972236 0 59.003968559972236 -195.60954136574583 0 0 0 0 -1.4936012102800755 15.440916113129788 0 15.440916113129788 -44.796561251634557 0 0 0 0 -1.4936012102792897 15.440916113140702 0 15.440916113140702 -44.796561251603634 0 0 0 0 -1.4936012102815255 15.440916113158892 0 15.440916113158892 -44.796561251605453 0 0 0 0 0.59409285763478081 0.050747080409024647 0 0.050747080409024647 -0.12445468186956532 0 0 0 0 2.1403041762328598 1.8629902046886855 0 1.8629902046886855 -0.47494946242659353 0 0 0 0 2.2673894993149091 2.3330833625950618 0 2.3330833625950618 0.40069994022633182 0 0 0 0 1.8346326828257347 1.722645257007116 0 1.722645257007116 0.41863353651569923 0 0 0 0 1.988271410595587 1.4040083616964694 0 1.4040083616964694 -0.41470637863221782 0 0 0 0 -0.60785682893866744 0.38221222460116167 0 0.38221222460116167 -0.16608581525602517 0 0 0 0 -9.456978108591386 33.576172969318577 0 33.576172969318577 16.475437602690363 0 0 0 0 0.45349074586558896 26.135306377016605 0 26.135306377016605 14.290136984280252 0 0 0 0 6.2780973329345322 11.04123763869211 0 11.04123763869211 -45.993984028104023 0 0 0 0 -0.00097513188093808221 21.571219265261856 0 21.571219265261856 -53.610601139451319 0 0 0 0 -29.693324884929009 69.27159438425133 0 69.27159438425133 -103.07330619658751 0 0 0 0 2.7574226781749047 -2.1919169398715894 0 -2.1919169398715894 18.81128072597221 0 0 0 0 17.276449163305585 20.955510286561548 0 20.955510286561548 -50.927926065924112 0 0 0 0 -0.2114487037943602 0.20867982897100035 0 0.20867982897100035 -0.14971195870053577 0 0 0 0 16.443636925136843 9.7227752955222968 0 9.7227752955222968 4.7699599303959985 0 0 0 0 2.0642892805379631 27.287041124784082 0 27.287041124784082 -27.267678707561572 0 0 0 0 8.9415464308670778 1.6922701568510092 0 1.6922701568510092 -64.168316393275745 0 0 0 0 -9.4722432177553912 5.2561043110417813 0 5.2561043110417813 -31.88604253725498 0 0 0 0 44.442590322152824 -52.507400734333714 0 -52.507400734333714 -57.647688538811053 0 0 0 0 -0.060566799162445138 0.7644556182168627 0 0.7644556182168627 -4.008924068516194 0 0 0 0 -189.44448506054761 124.60866596629603 0 124.60866596629603 -42.836534349728026 0 0 0 0 3.8694633155795373 34.209174303738109 0 34.209174303738109 30.088079815624951 0 0 0 0 22.841105033889043 22.909037691289427 0 22.909037691289427 -32.581191498822591 0 0 0 0 0.097765287616753599 1.243171228438253 0 1.243171228438253 -11.791141065546896 0 0 0 0 64.994678607640282 37.875026520832762 0 37.875026520832762 -67.822504073301388 0 0 0 0 22.357343329313665 4.467332813061148 0 4.467332813061148 1.0605070120800519 0 0 0 0 11.595229839042133 8.4059746268612798 0 8.4059746268612798 4.7988466918326367 0 0 0 0 14.142825771592697 2.2866602792528283 0 2.2866602792528283 0.75499687203682697 0 0 0 0 15.371910898245858 -1.2834712991389097 0 -1.2834712991389097 -1.5797418462316273 0 0 0 0 -0.041997576403875483 1.1500241407979988 0 1.1500241407979988 -19.045073721973807 0 0 0 0 24.628963875996078 -12.700780760154885 0 -12.700780760154885 -24.646389332269564 0 0 0 0 10.25215430689164 9.6083210345605039 0 9.6083210345605039 -7.8706464883798617 0 0 0 0 52.712705313556292 2.406665759559246 0 2.406665759559246 -37.428776912522153 0 0 0 0 21.77256859167224 2.0454363381759322 0 2.0454363381759322 -23.85908023979573 0 0 0 0 34.953715319605166 19.675191935144539 0 19.675191935144539 -37.327649199590269 0 0 0 0 12.616636313622053 -25.019304501227452 0 -25.019304501227452 -24.469309671226256 0 0 0 0 8.9234089386091 -31.923302792711183 0 -31.923302792711183 -34.515053528146382 0 0 0 0 27.870095769198088 -8.9575517324519751 0 -8.9575517324519751 -28.264560791508302 0 0 0 0 2.7191132857387856 -17.698918766593124 0 -17.698918766593124 -26.027143304904712 0 0 0 0 13.457824406800228 -26.380241805200058 0 -26.380241805200058 -43.377385820465861 0 0 0 0 30.533753037680526 -19.681602260865475 0 -19.681602260865475 -37.811359777439066 0 0 0 0 24.443301883613685 -12.337705985355569 0 -12.337705985355569 -42.002916220444604 0 0 0 0 -2.4835988205630302 6.6930430526182079 0 6.6930430526182079 -11.872378524989472 0 0 0 0 44.706344848133995 -13.598610099767029 0 -13.598610099767029 -43.991731298316154 0 0 0 0 0.052965238879890422 -3.4523618257384863 0 -3.4523618257384863 -35.520281621481928 0 0 0 0 19.777467427825712 -15.831144114526978 0 -15.831144114526978 -7.392068070546884 0 0 0 0 59.614319470476993 -5.5197553504869816 0 -5.5197553504869816 -55.588623962572456 0 0 0 0 -0.10221191263469 -3.6826486503159304 0 -3.6826486503159304 -44.565648273306181 0 0 0 0 76.225034132140365 55.326277586313154 0 55.326277586313154 -33.28520347859012 0 0 0 0 -75.947477877860706 -26.627855178627215 0 -26.627855178627215 86.000384993480111 0 0 0 0 29.367404934559545 16.043929884202953 0 16.043929884202953 -52.881404503699741 0 0 0 0 27.641763388249274 -10.516049298053986 0 -10.516049298053986 -46.005994496266794 0 0 0 0 25.775518362821401 -6.2427990956243775 0 -6.2427990956243775 -56.80990184568509 0 0 0 0 25.4324868424128 -5.6304449370363727 0 -5.6304449370363727 -35.557863588908276 0 0 0 0 6.2958118358151296 -7.9472192404573434 0 -7.9472192404573434 -52.508918284289393 0 0 0 0 24.21028819689468 3.3029456213025696 0 3.3029456213025696 -73.687305889397976 0 0 0 0 1.8569314662674969 1.8724472416415665 0 1.8724472416415665 -76.063681442248708 0 0 0 0 -9.1841806774709767 -21.508537005915059 0 -21.508537005915059 -61.003778704838624 0 0 0 0 6.4486382988753448 -2.3279880484183195 0 -2.3279880484183195 -81.148993133851036 0 0 0 0 1.2746747673049867 -20.603006948957045 0 -20.603006948957045 -62.457505180791486 0 0 0 0 14.846183288389511 -22.063517475089611 0 -22.063517475089611 -49.780748637443139 0 0 0 0 3.2118752286437484 -15.067317665670998 0 -15.067317665670998 -46.742597785236285 0 0 0 0 14.555824550475791 -33.123936175212293 0 -33.123936175212293 -55.562581678764218 0 0 0 0 12.609291065283287 -29.432505075412337 0 -29.432505075412337 -32.912204160245892 0 0 0 0 -0.3793182272024751 -27.060205161042177 0 -27.060205161042177 -24.78355553693109 0 0 0 0 -23.625496623978961 -8.6853569677896303 0 -8.6853569677896303 -56.981990179672721 0 0 0 0 0.2724932188054936 -37.424521630021445 0 -37.424521630021445 -85.447548555908725 0 0 0 0 -22.853326887849519 -17.710126122361203 0 -17.710126122361203 27.58203808216058 0 0 0 0 -18.513071953023882 -54.150842156050203 0 -54.150842156050203 -28.748296885290074 0 0 0 0 -0.34882667475410489 -2.1253923656719778 0 -2.1253923656719778 -3.5079218978135316 0 0 0 0 13.046347785662988 -33.179526678989532 0 -33.179526678989532 -21.991266859418829 0 0 0 0 -2.8688824447406205 -8.1536267599221901 0 -8.1536267599221901 -21.530504611058859 0 0 0 0 -8.284582316375813 -14.517891382253623 0 -14.517891382253623 4.7433790138432954 0 0 0 0 -29.118595111708686 9.2115422701081116 0 9.2115422701081116 122.5741818234892 0 0 0 0 -3.9581925453048825 12.14247539974167 0 12.14247539974167 119.27872930002559 0 0 0 0 -0.16821521234943582 1.9989520982469458 0 1.9989520982469458 4.1499461951791874 0 0 0 0 -4.95310309292271 35.042162284692495 0 35.042162284692495 47.23215356800938 0 0 0 0 2.3489227082584421 17.454445778090303 0 17.454445778090303 56.125486698758323 0 0 0 0 -0.45165932404597697 19.156621643487597 0 19.156621643487597 131.79934360188417 0 0 0 0 -3.3589333347586035 6.9476597151515307 0 6.9476597151515307 56.803233964950778 0 0 0 0 13.243505190005067 13.943524174370395 0 13.943524174370395 59.144199084039428 0 0 0 0 -22.047222809242726 26.536890600211336 0 26.536890600211336 73.281751793183503 0 0 0 0 -15.659990587613374 -28.482914908163139 0 -28.482914908163139 47.687789477684419 0 0 0 0 -11.616655330661047 -3.7720400132166105 0 -3.7720400132166105 18.080979459184164 0 0 0 0 -51.182140425714408 7.9039858485120931 0 7.9039858485120931 14.964343605723116 0 0 0 0 -31.155775996530238 -8.7676271465934406 0 -8.7676271465934406 -50.538622616273642 0 0 0 0 -75.570892361613517 -16.316049444500095 0 -16.316049444500095 -49.070819456585923 0 0 0 0 -41.839832864429894 9.0366962332991534 0 9.0366962332991534 -126.87280706282036 0 0 0 0 -47.767317777153266 -44.789445484166208 0 -44.789445484166208 -88.858369486370066 0 0 0 0 -32.674411827144695 25.635605683341964 0 25.635605683341964 -26.878315174566524 0 0 0 0 -55.938764595094653 -15.693104071207927 0 -15.693104071207927 -39.746116778631404 0 0 0 0 -18.93843385558057 18.585285346154706 0 18.585285346154706 -33.063500378739263 0 0 0 0 -2.9587518569118174 24.419687649819025 0 24.419687649819025 -30.011542568856385 0 0 0 0 -0.043855887658764914 22.37934714990115 0 22.37934714990115 7.8827048109505995 0 0 0 0 -32.055492051627652 15.680599527917366 0 15.680599527917366 8.7007171202421887 0 0 0 0 -21.169617179257926 26.715274839020822 0 26.715274839020822 38.87424291681964 0 0 0 0 -11.832877630693588 23.261633192261797 0 23.261633192261797 36.58377792747342 0 0 0 0 1.077725781826075 36.803309546266973 0 36.803309546266973 13.962851011563544 0 0 0 0 7.2618978712689568 26.804227464748692 0 26.804227464748692 29.552098851760093 0 0 0 0 2.0894256660744759 39.704094003503997 0 39.704094003503997 11.190198311000131 0 0 0 0 30.786981859190291 31.650052504361156 0 31.650052504361156 4.3595159872493241 0 0 0 0 -7.5151600227582094 17.955975197859516 0 17.955975197859516 9.309133281342838 0 0 0 0 14.081498043452484 -15.532882046609302 0 -15.532882046609302 9.0676056256788797 0 0 0 0 37.677626976486636 47.062875836920284 0 47.062875836920284 -2.7429865987724042 0 0 0 0 23.048944374809253 7.9307377621116757 0 7.9307377621116757 -50.013208459728048 0 0 0 0 -2.8082285482873885 14.125005125759344 0 14.125005125759344 -20.801151410945749 0 0 0 0 -0.30359346343942667 -0.79449444036571792 0 -0.79449444036571792 -4.0571682805899627 0 0 0 0 -3.814785502608629 -3.5514300418690254 0 -3.5514300418690254 -6.97339564711001 0 0 0 0 -11.028192023141173 4.3432250002551882 0 4.3432250002551882 -8.419391253584763 0 0 0 0 68.280438536608472 30.226725505215654 0 30.226725505215654 -10.772989111552306 0 0 0 0 2.5599037672218401 4.1020660982758272 0 4.1020660982758272 -12.891004562057788 0 0 0 0 0.63242607555820385 -0.10308343372957296 0 -0.10308343372957296 -1.4136250103224484 0 0 0 0 35.034926006907369 13.307957998487836 0 13.307957998487836 14.766836721770233 0 0 0 0 -1.8913057676336393 -7.392965161408938 0 -7.392965161408938 -6.6452296416828176 0 0 0 0 -0.1165046005457846 -2.8888189444083352 0 -2.8888189444083352 -4.2632129201813314 0 0 0 0 -3.5604525498638395 -5.344560404184449 0 -5.344560404184449 -6.4623404090643817 0 0 0 0 -0.019542968344070211 -0.3615755233501261 0 -0.3615755233501261 -3.3592419037789121 0 0 0 0 -2.2730455594983141 -6.5725639221309393 0 -6.5725639221309393 -5.2947279339277884 0 0 0 0 2.1841168572082097 -11.86552544269216 0 -11.86552544269216 -31.483648560213624 0 0 0 0 -0.67515771963053339 -5.9700456143182237 0 -5.9700456143182237 -25.847767712344648 0 0 0 0 -2.7809433820648337 -10.815346114504791 0 -10.815346114504791 -19.44442508022621 0 0 0 0 5.0242915579330765 -5.3699277499381353 0 -5.3699277499381353 -15.191012506119144 0 0 0 0 14.017700015304342 -0.40835787214382435 0 -0.40835787214382435 -25.514814491165453 0 0 0 0 -4.286549735047565 -9.4982507336784465 0 -9.4982507336784465 -5.9607856262367402 0 0 0 0 -0.90373143252327282 -8.2056596026886837 0 -8.2056596026886837 -30.031179447395061 0 0 0 0 -2.5281913013361885 -5.9137997541950256 0 -5.9137997541950256 -8.0843483374046627 0 0 0 0 -1.2028897354427421 -4.6894366922030102 0 -4.6894366922030102 -3.0701797784348805 0 0 0 0 -1.1014310848378415 -8.6390605508594689 0 -8.6390605508594689 -14.361943213443737 0 0 0 0 -1.6772895079943986 -3.6795474805413519 0 -3.6795474805413519 -2.7755339052700947 0 0 0 0 12.873208409354902 11.432026771741221 0 11.432026771741221 14.87678864616646 0 0 0 0 -1.073090909757985 -9.382820342254421 0 -9.382820342254421 -13.620131527626512 0 0 0 0 -1.2653160015522034 -5.0630851309852165 0 -5.0630851309852165 -5.5912896606461828 0 0 0 0 -6.8245045746507458 23.158707739785314 0 23.158707739785314 54.858962288097246 0 0 0 0 12.727374003418561 12.337541868316521 0 12.337541868316521 40.197523198410636 0 0 0 0 -3.0965591801985357 -5.7964467028786686 0 -5.7964467028786686 0.3165908001981137 0 0 0 0 -1.3588079183209629 -5.2275672252580989 0 -5.2275672252580989 -5.5234915170367458 0 0 0 0 -4.9159477047469444 -8.4199486964342753 0 -8.4199486964342753 5.9547516301822121 0 0 0 0 -1.4187564023777668 -8.879145668601268 0 -8.879145668601268 -14.526727530545031 0 0 0 0 -2.2352460241943675 -8.6333858030366741 0 -8.6333858030366741 -14.935533857054494 0 0 0 0 -11.513356544137016 -15.634023132332356 0 -15.634023132332356 -27.181938001609524 0 0 0 0 -11.536772840707727 -37.004084905995114 0 -37.004084905995114 -33.347935061534372 0 0 0 0 -0.051037990488783928 -5.1711622807495017 0 -5.1711622807495017 -26.696203985938666 0 0 0 0 10.370423917337504 -14.886352373230906 0 -14.886352373230906 -35.031715082703158 0 0 0 0 -2.7890945167548296 -12.678587892491748 0 -12.678587892491748 -17.360223862109706 0 0 0 0 4.123066033053874 -20.583495037226385 0 -20.583495037226385 -30.395626109660952 0 0 0 0 0.57912389189064584 0.73277874903396878 0 0.73277874903396878 -17.831019224038755 0 0 0 0 31.305187017601611 -13.131513152517073 0 -13.131513152517073 -31.80823934062937 0 0 0 0 18.936241141231534 2.7697771177772665 0 2.7697771177772665 -48.412316047273634 0 0 0 0 1.7193931828567997 0.77241924786702021 0 0.77241924786702021 -25.895610048853712 0 0 0 0 19.534110231281545 -16.791589103664592 0 -16.791589103664592 -0.059122850067524269 0 0 0 0 0.21657372954870702 0.026171306217406709 0 0.026171306217406709 -0.060314277732473442 0 0 0 0 1.6650002081787818 17.738190974272584 0 17.738190974272584 -55.877994588383444 0 0 0 0 0.33913225109613876 2.5905701009783115 0 2.5905701009783115 -17.134768400530447 0 0 0 0 -0.36497905572038636 2.8038361204203426 0 2.8038361204203426 -0.77101571697141846 0 0 0 0 1.0659866405084559 -2.3419600833568026 0 -2.3419600833568026 -4.0959942397398805 0 0 0 0 0.29138228608863947 0.75099376137416129 0 0.75099376137416129 -15.639464407635387 0 0 0 0 1.0959299123337587 -8.4170947635284392 0 -8.4170947635284392 -23.938568450743333 0 0 0 0 0.41162267478737175 -3.793094196706436 0 -3.793094196706436 -11.870145382207511 0 0 0 0 0.7758554280358112 -2.8643899169801443 0 -2.8643899169801443 -12.093016683196765 0 0 0 0 2.4396763872255733 2.107029641813142 0 2.107029641813142 -6.7114942405547131 0 0 0 0 0.1060036131925699 -14.40967750040727 0 -14.40967750040727 -25.275065800051379 0 0 0 0 0.66622838127204886 -6.587691172338964 0 -6.587691172338964 -6.5654924978516647 0 0 0 0 -0.14125434520788038 -3.7178900411516906 0 -3.7178900411516906 -6.6114910088744239 0 0 0 0 -1.9828282114090712 -6.4913252245960393 0 -6.4913252245960393 -6.034137019130867 0 0 0 0 -3.2766335305819894 -6.3748483874082922 0 -6.3748483874082922 -10.78130292208516 0 0 0 0 0.89361299008386275 -3.8419742986183745 0 -3.8419742986183745 -8.9551299970570142 0 0 0 0 2.5419167293493956 -3.3282925199382589 0 -3.3282925199382589 -6.4737217141300789 0 0 0 0 2.9415892801615087 5.7632069353967381 0 5.7632069353967381 -17.643780200087349 0 0 0 0 -1.1151508438934736 -3.217839726507826 0 -3.217839726507826 -7.9714674106278665 0 0 0 0 0.86418073196466505 -1.4398554739771185 0 -1.4398554739771185 -10.961159932237109 0 0 0 0 0.55562291338441494 -0.29150319188650742 0 -0.29150319188650742 -15.738741897099004 0 0 0 0 23.706174763377021 -6.7562679368966201 0 -6.7562679368966201 -28.326066760440881 0 0 0 0 1.7326856927049323 -3.3660455080580931 0 -3.3660455080580931 0.024263738203842422 0 0 0 0 13.349379689884032 -4.8450989766679413 0 -4.8450989766679413 -11.184441387760671 0 0 0 0 15.182233735609515 -10.213317898600508 0 -10.213317898600508 -20.270999418054998 0 0 0 0 5.1988018211046141 -7.9112932016516879 0 -7.9112932016516879 -4.9393149994284613 0 0 0 0 5.6779846562759531 -5.0011154758904013 0 -5.0011154758904013 -13.34597024134564 0 0 0 0 14.444540792856571 -16.791517877474689 0 -16.791517877474689 -11.557273536076536 0 0 0 0 0.022838600921996636 -35.680970253908527 0 -35.680970253908527 -18.488752284582006 0 0 0 0 16.049917156697724 -21.37108208712516 0 -21.37108208712516 -5.8607709212301415 0 0 0 0 8.5643611885635238 -21.287115981889656 0 -21.287115981889656 -5.5655552385469491 0 0 0 0 0.11240818504735532 0.064109865437373514 0 0.064109865437373514 -0.62331169637733286 0 0 0 0 -1.7708818916998723 -16.765075055267516 0 -16.765075055267516 26.528692134794255 0 0 0 0 0.0037544499746232363 -23.231014527873413 0 -23.231014527873413 11.919640363448707 0 0 0 0 8.4694588349061775 -11.63476612150771 0 -11.63476612150771 10.264526595303323 0 0 0 0 8.4072003015180456 -10.5488468757394 0 -10.5488468757394 -2.9469812485476723 0 0 0 0 -6.8295423017730483 14.915338517138991 0 14.915338517138991 -44.162291602944606 0 0 0 0 -6.9027495213799028 17.830486574341194 0 17.830486574341194 -40.399917357579398 0 0 0 0 -0.0044008744932599562 0.98031204241124215 0 0.98031204241124215 -4.4162026883232102 0 0 0 0 0.066134636143922801 0.21966429885425498 0 0.21966429885425498 -0.481284680157259 0 0 0 0 -23.168963959478788 19.513861104356693 0 19.513861104356693 -171.21601153809024 0 0 0 0 2.9023972848151516 38.569578006392476 0 38.569578006392476 -153.28799931136746 0 0 0 0 -48.971183730261828 -61.107799147393962 0 -61.107799147393962 -196.504967825937 0 0 0 0 -7.1734713810284347 -52.721954797752915 0 -52.721954797752915 -247.91918943540986 0 0 0 0 58.936208734219008 -10.078022445772149 0 -10.078022445772149 -273.1655869567453 0 0 0 0 -119.43591586501975 153.3227259862706 0 153.3227259862706 -338.17998226968484 0 0 0 0 -115.90167297280345 37.954578085726098 0 37.954578085726098 -186.83764143151166 0 0 0 0 -99.728685507543787 51.578821970497302 0 51.578821970497302 -258.52437344104828 0 0 0 0 -30.535097539627031 0.035133910394506529 0 0.035133910394506529 -220.700661795825 0 0 0 0 -65.340286904342918 55.546766541371198 0 55.546766541371198 -196.61549427804857 0 0 0 0 -95.798296591566213 -2.2469924906090455 0 -2.2469924906090455 -273.3509496104416 0 0 0 0 -194.70539328748367 -4.3804389921994016 0 -4.3804389921994016 -205.42429526046908 0 0 0 0 -57.464067031495347 -38.922202482809553 0 -38.922202482809553 -3.0115623409219552 0 0 0 0 -43.924402409449385 71.344117192642443 0 71.344117192642443 -289.070911902425 0 0 0 0 -0.10827833130047892 -0.22109178469116131 0 -0.22109178469116131 -0.50794567816470959 0 0 0 0 -63.687263497163599 96.597949496574529 0 96.597949496574529 -175.54884576076802 0 0 0 0 -69.310151924989896 95.666243793912145 0 95.666243793912145 -173.64227799320042 0 0 0 0 -73.246070467712343 103.19470644646208 0 103.19470644646208 -172.67233110919915 0 0 0 0 -67.661142945284155 82.961767626504297 0 82.961767626504297 -156.79908543149759 0 0 0 0 -84.879925011618525 95.345344885041413 0 95.345344885041413 -158.15915682492778 0 0 0 0 -58.386921621072361 82.825257321601384 0 82.825257321601384 -162.66098409693222 0 0 0 0 -47.193984692951062 64.845967372586529 0 64.845967372586529 -208.71303430520675 0 0 0 0 -36.929622999808771 40.201311257222187 0 40.201311257222187 -149.64019306490081 0 0 0 0 26.735598664306025 14.864872425731846 0 14.864872425731846 -136.27213811518595 0 0 0 0 25.002171888924295 -2.2472046847960883 0 -2.2472046847960883 -171.11223908944521 0 0 0 0 -47.030479598596685 36.851518959916575 0 36.851518959916575 -115.14944474410731 0 0 0 0 -18.682917385540804 54.836082960058775 0 54.836082960058775 -136.72299248103809 0 0 0 0 -68.334000185186142 103.33321143488138 0 103.33321143488138 -114.38781879849557 0 0 0 0 -45.268556720663923 45.985560515828183 0 45.985560515828183 -125.77450329621206 0 0 0 0 -14.584022172422408 -7.1422849529678274 0 -7.1422849529678274 0.56771728389139753 0 0 0 0 170.26917629995069 -38.878162733437421 0 -38.878162733437421 -135.90042925285707 0 0 0 0 -0.13847591652825031 127.66983990998233 0 127.66983990998233 -28.855526550385548 0 0 0 0 135.51337637334791 25.216308428442062 0 25.216308428442062 -151.69814058371776 0 0 0 0 34.350452593344926 71.358823256305186 0 71.358823256305186 -171.49151128291487 0 0 0 0 2.699331901395178 0.032648536626957991 0 0.032648536626957991 -0.15357363232146426 0 0 0 0 81.071199269176759 24.360918498899991 0 24.360918498899991 -148.92082993770873 0 0 0 0 76.293272070737657 -11.660517799104127 0 -11.660517799104127 -141.32266040028389 0 0 0 0 11.663557249773248 8.435392178260372 0 8.435392178260372 -143.77793232870317 0 0 0 0 5.1769215696822926 -8.5503533896603585 0 -8.5503533896603585 -99.230118808267434 0 0 0 0 38.656593581598827 -30.032534592131924 0 -30.032534592131924 -101.6777624032984 0 0 0 0 27.237327114020445 -19.410845859050823 0 -19.410845859050823 -98.66078056562003 0 0 0 0 -2.2869366885743148 -32.810961501134443 0 -32.810961501134443 -55.898993554081244 0 0 0 0 -42.842449164161735 -37.032524046779145 0 -37.032524046779145 -56.265643107210281 0 0 0 0 98.694936487976975 -46.649243180705525 0 -46.649243180705525 -97.079164437451254 0 0 0 0 55.816707128815324 -49.395790094273252 0 -49.395790094273252 -85.230724348934018 0 0 0 0 63.362491072647117 -73.932793339856289 0 -73.932793339856289 -61.380482188365022 0 0 0 0 116.26498154741512 -85.383937769547629 0 -85.383937769547629 -64.591799267964234 0 0 0 0 88.572513079045166 -42.392197253702761 0 -42.392197253702761 -27.236624317953101 0 0 0 0 15.343497910252381 -87.172247378921384 0 -87.172247378921384 -55.837005253724783 0 0 0 0 146.56617593464625 -7.2826563470644032 0 -7.2826563470644032 -171.88724034776533 0 0 0 0 89.991357285167396 20.268119506012226 0 20.268119506012226 -169.1341428907981 0 0 0 0 151.9833579889555 -28.907617609900626 0 -28.907617609900626 -164.25985494036422 0 0 0 0 145.15279122229754 -11.284846388793085 0 -11.284846388793085 -138.06307069720424 0 0 0 0 100.02124462120888 -20.473414386736863 0 -20.473414386736863 -131.43250150855965 0 0 0 0 149.25845423861938 -56.501236853164301 0 -56.501236853164301 -114.57013144188386 0 0 0 0 123.98223917418636 -26.141711992797354 0 -26.141711992797354 -94.329990326557891 0 0 0 0 140.79137627525779 -37.341220366011839 0 -37.341220366011839 -92.983840658595 0 0 0 0 168.0731934632804 -92.37568709529296 0 -92.37568709529296 -36.878765893707168 0 0 0 0 118.47740517738021 -98.638550878729802 0 -98.638550878729802 78.386612051224802 0 0 0 0 133.96249444859313 -33.217957234097412 0 -33.217957234097412 53.61439163605246 0 0 0 0 159.2179371250258 -40.224221776616332 0 -40.224221776616332 -104.33163585151487 0 0 0 0 193.30749183182797 -178.48646407109482 0 -178.48646407109482 23.32411849696291 0 0 0 0 196.94599828821433 -49.008325390813837 0 -49.008325390813837 -237.67993704585024 0 0 0 0 250.24989056844413 -3.518546113843513 0 -3.518546113843513 294.88832350557641 0 0 0 0 93.964933712611128 -334.15950899304153 0 -334.15950899304153 191.28172262714043 0 0 0 0 101.39855124914584 -86.603316032418661 0 -86.603316032418661 143.62737487123377 0 0 0 0 3.7092455379207081 -1.1134483633946601 0 -1.1134483633946601 -2.9294133540913734 0 0 0 0 179.90267729288462 -70.60407805768773 0 -70.60407805768773 143.18638825940707 0 0 0 0 186.09754028924363 -68.594836166979803 0 -68.594836166979803 65.081109867882333 0 0 0 0 266.06145076778466 -168.94803634002528 0 -168.94803634002528 110.61568660376361 0 0 0 0 -2.6515432503490324 -6.2981067799826462 0 -6.2981067799826462 3.7289364801866256 0 0 0 0 -4.1816761351110472 -9.3817294482578291 0 -9.3817294482578291 10.602524082874879 0 0 0 0 -10.234273411179903 -6.0719344567817721 0 -6.0719344567817721 16.112137049586053 0 0 0 0 2.6870728477065846 -13.028915254021904 0 -13.028915254021904 -17.17127138003719 0 0 0 0 41.801114077334205 -11.833173664623246 0 -11.833173664623246 -47.012120097097068 0 0 0 0 -6.0412606410956773 -14.263122520294111 0 -14.263122520294111 -20.545673796720507 0 0 0 0 22.000090647831712 -27.413045603445426 0 -27.413045603445426 -7.2198072530063655 0 0 0 0 34.198625864400057 -91.685483599539111 0 -91.685483599539111 49.728910583340621 0 0 0 0 -60.243867595384472 -57.506220488463441 0 -57.506220488463441 -4.5855820595825207 0 0 0 0 -8.0543477157384533 -14.340718930992445 0 -14.340718930992445 6.6786283318578299 0 0 0 0 -4.0087459824699181 -7.4750598711088969 0 -7.4750598711088969 24.054197566540097 0 0 0 0 -0.49925722392254102 -5.1532265447749523 0 -5.1532265447749523 -0.71282820349733811 0 0 0 0 -3.8294148968906256 -37.456939515941485 0 -37.456939515941485 35.709870964883521 0 0 0 0 -12.917421967467817 4.7354258467094041 0 4.7354258467094041 16.819181154438411 0 0 0 0 -0.99250798128025686 -0.83515482868750013 0 -0.83515482868750013 1.6771586205992151 0 0 0 0 -7.5513643298323601 -15.498628238627887 0 -15.498628238627887 3.3380746182763659 0 0 0 0 -1.6927945002686613 -1.9422686376059382 0 -1.9422686376059382 2.4324942991071907 0 0 0 0 -12.431587525776493 -46.819036262260852 0 -46.819036262260852 50.34489311719517 0 0 0 0 3.3753278288197066 -41.034146710953792 0 -41.034146710953792 36.2279036070031 0 0 0 0 -38.154673578241272 -7.5813151516776998 0 -7.5813151516776998 95.08227913153496 0 0 0 0 -23.225580566685039 -40.41012457870238 0 -40.41012457870238 47.680215246862645 0 0 0 0 -72.153001408264061 -5.7085019843834743 0 -5.7085019843834743 38.553819222885068 0 0 0 0 -38.010870884979752 -32.388635476618219 0 -32.388635476618219 -25.855992063115991 0 0 0 0 -25.520065826489869 -60.34546773247439 0 -60.34546773247439 3.8458796664635884 0 0 0 0 -55.766678217625568 -35.149412040813331 0 -35.149412040813331 48.498607362586881 0 0 0 0 -40.276887623941292 -55.763009162990784 0 -55.763009162990784 -105.69517269397329 0 0 0 0 -18.29319591619263 -4.750219323883357 0 -4.750219323883357 -40.262343800353847 0 0 0 0 -98.049077914039117 -5.9176673136134923 0 -5.9176673136134923 -29.302966064988595 0 0 0 0 -48.75536753193407 -11.522356744892022 0 -11.522356744892022 -183.78964304250258 0 0 0 0 -51.166391810400455 -86.411161518754852 0 -86.411161518754852 -35.566638983476878 0 0 0 0 -13.407215219948057 9.7296420804359514 0 9.7296420804359514 -5.6615259258032893 0 0 0 0 -24.837425443220241 -18.425269223982468 0 -18.425269223982468 21.915984379484144 0 0 0 0 -36.264021733857028 -66.44308935103254 0 -66.44308935103254 76.640735767286969 0 0 0 0 118.84986723901896 -160.74099105754249 0 -160.74099105754249 -37.95187223308676 0 0 0 0 -4.9912262975650385 -8.9624744657561486 0 -8.9624744657561486 -16.582704946960007 0 0 0 0 -47.815975657278614 -103.90973522101194 0 -103.90973522101194 26.58079031723355 0 0 0 0 -55.328719351501604 -79.316795827236092 0 -79.316795827236092 -17.801808026801154 0 0 0 0 -40.037142982904527 -4.7651659150051273 0 -4.7651659150051273 144.48694670739405 0 0 0 0 9.9966032057247052 -198.68771143499043 0 -198.68771143499043 241.62842399468354 0 0 0 0 219.59221188271744 -297.159932289994 0 -297.159932289994 47.45422103627061 0 0 0 0 179.68670296943566 -57.712619428326434 0 -57.712619428326434 -58.593332132862997 0 0 0 0 -23.889049784503186 -96.950400992101095 0 -96.950400992101095 -7.1758425643856754 0 0 0 0 35.93867117314619 -269.69272088557045 0 -269.69272088557045 74.859602906617511 0 0 0 0 20.740101611066621 -186.45174205538569 0 -186.45174205538569 -132.73319292214728 0 0 0 0 -0.32142309419246118 -0.14140990383383212 0 -0.14140990383383212 0.55677295582172803 0 0 0 0 5.5070211541465142 -6.7473678597707476 0 -6.7473678597707476 -237.2618164547348 0 0 0 0 -132.00072344513046 -360.60695830010445 0 -360.60695830010445 460.96841390784539 0 0 0 0 266.8388314971254 -164.50977891408547 0 -164.50977891408547 25.183553421084071 0 0 0 0 -1.7184261123464364 -2.4937425615937947 0 -2.4937425615937947 -1.9813484070065073 0 0 0 0 -198.4995603206039 -59.330640023981687 0 -59.330640023981687 332.45646597294035 0 0 0 0 366.02656337647159 -39.623864776241135 0 -39.623864776241135 -166.14766842652898 0 0 0 0 144.63340827175921 -175.41513489261888 0 -175.41513489261888 -249.37275810087309 0 0 0 0 -167.89697443647628 -384.93009028334927 0 -384.93009028334927 12.043346264475986 0 0 0 0 -274.92393999447125 -172.71344990742273 0 -172.71344990742273 -388.07530167995355 0 0 0 0 -11.137698383592578 40.935685765409289 0 40.935685765409289 -215.03439899971636 0 0 0 0 -27.461862263673254 49.824795105349949 0 49.824795105349949 16.277972658637736 0 0 0 0 106.64163706551784 -43.457914254174284 0 -43.457914254174284 -165.67471776728053 0 0 0 0 54.462790058066275 -120.3027732155897 0 -120.3027732155897 185.29659067506145 0 0 0 0 -148.90656070536556 -188.47143772085838 0 -188.47143772085838 -136.33867540513984 0 0 0 0 -78.903063524679851 -62.242718319113919 0 -62.242718319113919 35.935397816552722 0 0 0 0 -308.57256799981496 -285.8385152248411 0 -285.8385152248411 -34.266329667920672 0 0 0 0 -3.420403503241507 -5.6833095194268886 0 -5.6833095194268886 -5.3309533811347904 0 0 0 0 272.70177415176954 -88.331503265848369 0 -88.331503265848369 -72.773929565568324 0 0 0 0 328.15641224999149 -333.15532535168495 0 -333.15532535168495 -1.5624301523621398 0 0 0 0 -2.4285151471661162 -3.5280000353584313 0 -3.5280000353584313 -2.7895349480352536 0 0 0 0 -442.76787382756714 -414.08036928958063 0 -414.08036928958063 13.85487454122358 0 0 0 0 -192.2495221107331 -52.436491895745348 0 -52.436491895745348 178.42970738639269 0 0 0 0 -72.16182132960148 -258.72282703353994 0 -258.72282703353994 -636.73768948792713 0 0 0 0 -261.84288363139103 -544.06055920368726 0 -544.06055920368726 -493.72679493374017 0 0 0 0 354.2723101342059 -324.50307607405375 0 -324.50307607405375 -577.27955029752775 0 0 0 0 29.390988755441072 -408.79147336613732 0 -408.79147336613732 -584.54093354086945 0 0 0 0 -318.88640979960803 -211.69208783558497 0 -211.69208783558497 -323.77028975510984 0 0 0 0 -104.75825524051521 -221.55329006568718 0 -221.55329006568718 -351.21849197788652 0 0 0 0 -24.042200397296511 -39.886433878331445 0 -39.886433878331445 -263.65649711091191 0 0 0 0 -86.349044114670889 -63.790244227377116 0 -63.790244227377116 -149.27933829815447 0 0 0 0 -22.396159490113291 99.915889432513723 0 99.915889432513723 -90.887162279577751 0 0 0 0 -115.12566300692856 -27.870678983359539 0 -27.870678983359539 -52.793918991497776 0 0 0 0 -26.152114987431105 43.000166645251738 0 43.000166645251738 -50.306830027348042 0 0 0 0 -57.302586888081805 -13.399953721294878 0 -13.399953721294878 -75.235533939239758 0 0 0 0 88.293880102046501 -77.836586753717711 0 -77.836586753717711 -384.88929779820228 0 0 0 0 28.706838553055377 29.297355521481222 0 29.297355521481222 -263.21352646070773 0 0 0 0 -127.98742878129008 69.813396378769539 0 69.813396378769539 -596.08298873780404 0 0 0 0 -42.706381210433847 -138.43732596748305 0 -138.43732596748305 -319.37897885974235 0 0 0 0 -347.15973478265903 -256.11875345045019 0 -256.11875345045019 -332.70937955918635 0 0 0 0 -6.7885536853286794 -0.045252188479935285 0 -0.045252188479935285 -42.003160626845784 0 0 0 0 -478.76410871601172 -375.08081682905322 0 -375.08081682905322 -255.96286066710309 0 0 0 0 179.63590648299004 -288.33761949967266 0 -288.33761949967266 -811.13105477790305 0 0 0 0 -2.137388287620587 -3.6432711604422501 0 -3.6432711604422501 -6.3522360921498091 0 0 0 0 12.585446946813079 -238.78447518976463 0 -238.78447518976463 -734.53454186232921 0 0 0 0 169.08248830039869 114.00486285682928 0 114.00486285682928 -566.24630056479145 0 0 0 0 -87.659120850739185 -41.730980952761456 0 -41.730980952761456 -28.516548832965327 0 0 0 0 -22.582580092690769 17.577094635502363 0 17.577094635502363 -349.4404308557132 0 0 0 0 47.520054884701551 -57.593519521784401 0 -57.593519521784401 -551.74671066394512 0 0 0 0 -41.318761312849325 -25.410840749475028 0 -25.410840749475028 -346.70250089347246 0 0 0 0 -78.291561856492478 -7.274796371649245 0 -7.274796371649245 -184.17904445467138 0 0 0 0 -122.15521375320051 8.124387038344139 0 8.124387038344139 -125.6264511434556 0 0 0 0 -120.03836585308773 -85.903868913566839 0 -85.903868913566839 -363.90443065216732 0 0 0 0 -126.97708615289257 56.972138049728528 0 56.972138049728528 -397.98340681936315 0 0 0 0 -18.626876032494238 -59.138173660252505 0 -59.138173660252505 -581.80815867391721 0 0 0 0 -269.47510342320163 -152.75662845082979 0 -152.75662845082979 -568.59899801531355 0 0 0 0 -142.36029498153783 141.66827316352192 0 141.66827316352192 -831.82029075994797 0 0 0 0 -102.89714274359361 -392.82596337373798 0 -392.82596337373798 -1040.6849401714671 0 0 0 0 -121.03879244288845 -304.94494588492853 0 -304.94494588492853 -666.13822462111966 0 0 0 0 -66.621182258614795 -235.91743763759951 0 -235.91743763759951 -580.63134576303855 0 0 0 0 -363.6138986422626 71.364763096706156 0 71.364763096706156 -563.30407186553816 0 0 0 0 -133.84598788805101 210.39634599976125 0 210.39634599976125 -885.44673174959098 0 0 0 0 -5.4742510729339697 0.92406809112221566 0 0.92406809112221566 -0.62414053368033429 0 0 0 0 -183.13159152911237 -202.8992423407708 0 -202.8992423407708 -190.04384466737247 0 0 0 0 -363.01648451034362 -247.31276586740478 0 -247.31276586740478 -198.96583946166356 0 0 0 0 -155.81845829190866 -97.041881915727572 0 -97.041881915727572 -300.83802041618401 0 0 0 0 -512.80806559575035 124.88048862029063 0 124.88048862029063 -356.07996984364581 0 0 0 0 -92.944452965989967 87.3610667893754 0 87.3610667893754 -457.98905406711128 0 0 0 0 -62.150565808435431 6.9751654457013501 0 6.9751654457013501 -528.87759490501776 0 0 0 0 43.092209328019237 180.89170975762681 0 180.89170975762681 -793.61453386299036 0 0 0 0 0.41222692223538937 1.1422649669549543 0 1.1422649669549543 -4.3843689688657008 0 0 0 0 49.483709391988526 365.07088949814352 0 365.07088949814352 5.9852243856221321 0 0 0 0 -80.470171702969083 -129.33368870367849 0 -129.33368870367849 -313.37351656500687 0 0 0 0 -11.944801752384677 -251.58380333937203 0 -251.58380333937203 -218.04012299929309 0 0 0 0 126.21543155821387 -58.245069260177843 0 -58.245069260177843 -181.20052361965281 0 0 0 0 1.0458622370702608 2.4933448352161136 0 2.4933448352161136 -8.5295298488194646 0 0 0 0 -26.43516850493225 -185.76306217934734 0 -185.76306217934734 -221.17935966415826 0 0 0 0 -55.635161046169742 -172.14283288868137 0 -172.14283288868137 -219.38390191258441 0 0 0 0 -157.13181607884394 -202.66792032205194 0 -202.66792032205194 -194.22321126003226 0 0 0 0 -64.005974887282264 -202.73119844427129 0 -202.73119844427129 -201.42465540664853 0 0 0 0 -29.287411798011931 -172.85710650168039 0 -172.85710650168039 -187.30581667086517 0 0 0 0 -45.629003511460283 -141.89239797851587 0 -141.89239797851587 -135.55865014652227 0 0 0 0 -15.236930637067644 -132.46656626696858 0 -132.46656626696858 -179.50674838767918 0 0 0 0 -14.052107516185231 -146.94831692925072 0 -146.94831692925072 -221.74528628046608 0 0 0 0 -227.92331644162516 -23.867509620136843 0 -23.867509620136843 -219.63746799547516 0 0 0 0 -53.07708881628605 -42.945287885489961 0 -42.945287885489961 -224.56504277647218 0 0 0 0 -197.14621411597443 -88.118037278381962 0 -88.118037278381962 -206.55063523434364 0 0 0 0 -80.141376453221255 -134.30631614131562 0 -134.30631614131562 -197.36309886051185 0 0 0 0 -123.15637454717364 -74.374545668981227 0 -74.374545668981227 -124.57485683275445 0 0 0 0 -94.876492772504548 -125.41708204851329 0 -125.41708204851329 -140.29673535235634 0 0 0 0 -15.039274145690797 -104.58725810357282 0 -104.58725810357282 -145.25450399871534 0 0 0 0 -10.369796073292491 -62.619888894932956 0 -62.619888894932956 -126.13728735446057 0 0 0 0 -59.962720511446378 -71.06586549716485 0 -71.06586549716485 -66.39191824223235 0 0 0 0 -43.812085337536018 -50.723522038228111 0 -50.723522038228111 -37.891815095230413 0 0 0 0 -91.057450643098946 -29.906847434684096 0 -29.906847434684096 -105.50512924283248 0 0 0 0 21.356378999465505 4.0013413454726106 0 4.0013413454726106 -105.55161523724604 0 0 0 0 -16.581120082818188 16.228382512530516 0 16.228382512530516 7.4548779565448058 0 0 0 0 42.672618963301829 15.663980539267868 0 15.663980539267868 49.455340366374003 0 0 0 0 58.628153005547574 34.714668875871212 0 34.714668875871212 -102.79938785324339 0 0 0 0 -5.435566083941012 -5.1389234346352168 0 -5.1389234346352168 -106.86052652097442 0 0 0 0 16.278260990011859 -2.7250289902185614 0 -2.7250289902185614 -229.72328938577266 0 0 0 0 1.1316759130113496 28.037907963962425 0 28.037907963962425 -222.35109348376136 0 0 0 0 67.805006057578794 93.482641269834858 0 93.482641269834858 -198.78309835557593 0 0 0 0 32.624694739885399 36.725446330452542 0 36.725446330452542 -479.77187505812617 0 0 0 0 -57.240262306708246 -10.29613837665238 0 -10.29613837665238 -234.11968536438144 0 0 0 0 91.407083871660689 77.696146527518067 0 77.696146527518067 -490.19834231483401 0 0 0 0 34.61067714049932 90.733939115521935 0 90.733939115521935 -336.66315963675879 0 0 0 0 14.342126514129632 -2.5970698608580278 0 -2.5970698608580278 -220.41149062990337 0 0 0 0 -5.1739678850372002 3.7067021675247815 0 3.7067021675247815 -220.41807183945997 0 0 0 0 -13.52126806092383 -12.353785807750683 0 -12.353785807750683 -207.39534222558723 0 0 0 0 -18.966018569606604 -19.07267836828396 0 -19.07267836828396 -125.37333859910723 0 0 0 0 -0.57997147017451134 -0.44022864171979004 0 -0.44022864171979004 0.63694871723211577 0 0 0 0 -0.1170416023322538 0.10640768430990022 0 0.10640768430990022 -0.34288468053401289 0 0 0 0 -3.2964993129639879 5.3247074274768238 0 5.3247074274768238 -62.742446203512372 0 0 0 0 135.48819544811158 18.223084718116297 0 18.223084718116297 -117.44276000436366 0 0 0 0 -27.621606717635586 -7.1833411855477607 0 -7.1833411855477607 107.33308924967423 0 0 0 0 7.8443324276449857 9.7822371100774035 0 9.7822371100774035 3.4812374401662964 0 0 0 0 1.2183990622100183 4.1937223329848834 0 4.1937223329848834 -5.7490326556504243 0 0 0 0 -24.643097752594258 2.4324619633189286 0 2.4324619633189286 -13.009832104900852 0 0 0 0 -5.1289694868633209 7.555965806358337 0 7.555965806358337 -4.4439516699060846 0 0 0 0 -22.865440681889595 8.0306247798071126 0 8.0306247798071126 -21.93853133828452 0 0 0 0 -25.209532857981685 -16.986590811920905 0 -16.986590811920905 -37.946523259448441 0 0 0 0 -22.087879967435583 15.527528473481652 0 15.527528473481652 -3.3257300093919184 0 0 0 0 -68.804688428041118 3.6957021083580912 0 3.6957021083580912 54.735283972229809 0 0 0 0 -103.09711070991398 -36.013513590594812 0 -36.013513590594812 -16.323307616425154 0 0 0 0 -5.4249337819197905 6.1563532868219539 0 6.1563532868219539 -5.8349111185363114 0 0 0 0 -60.495746210941434 -19.050755382733769 0 -19.050755382733769 1.9525342166343762 0 0 0 0 -70.760114312836436 61.509364393852593 0 61.509364393852593 17.303185548007605 0 0 0 0 49.084436141967672 41.934907992461376 0 41.934907992461376 -0.7817838234550436 0 0 0 0 -54.766960511446086 47.522220271886908 0 47.522220271886908 12.659869090777647 0 0 0 0 -183.60419563834876 79.964877729988075 0 79.964877729988075 14.505732587756938 0 0 0 0 60.893243651313242 89.007865388724895 0 89.007865388724895 1.6857435978388366 0 0 0 0 156.19062821160878 15.536449619561608 0 15.536449619561608 4.9998679341929346 0 0 0 0 61.291925485787942 124.0529427552683 0 124.0529427552683 -65.721346470716526 0 0 0 0 -1.373965441307206 1.8988501798328983 0 1.8988501798328983 -2.7938573593862515 0 0 0 0 0.60115709050685995 -1.492421781216601 0 -1.492421781216601 0.43956390554369307 0 0 0 0 -15.424258192066191 -158.38275909510412 0 -158.38275909510412 -624.76303885436209 0 0 0 0 2.4353252635355602 -260.30002720937955 0 -260.30002720937955 -50.579281859318144 0 0 0 0 -27.752039838575001 -94.178181833057351 0 -94.178181833057351 50.885096053651068 0 0 0 0 -297.30735886346883 -231.33447784429154 0 -231.33447784429154 1060.7847466292878 0 0 0 0 0.4925984803251886 2.0922931007785657 0 2.0922931007785657 -16.904790771347237 0 0 0 0 395.88147049640247 100.8096304289902 0 100.8096304289902 -45.948510019064997 0 0 0 0 0.5460413746368431 -124.28880624948943 0 -124.28880624948943 -651.58147500062478 0 0 0 0 0.095489818606438348 -117.02391332091429 0 -117.02391332091429 -694.72441958962008 0 0 0 0 36.347319868347768 -319.65477596729397 0 -319.65477596729397 -1526.2910989308584 0 0 0 0 -769.34741323071194 343.68104709502677 0 343.68104709502677 -207.60975265013985 0 0 0 0 -18.128470769192063 18.593218982809049 0 18.593218982809049 -224.31142663849096 0 0 0 0 -17.131056025569706 134.16577913731453 0 134.16577913731453 -53.248052425296919 0 0 0 0 -34.97875028145063 -183.49547982962395 0 -183.49547982962395 -532.57845793524757 0 0 0 0 -42.260017023798355 -168.04774501320935 0 -168.04774501320935 -442.80334362172289 0 0 0 0 79.755863510199561 -16.230491512993467 0 -16.230491512993467 -711.65123066162778 0 0 0 0 18.743320350207796 -95.147896515016328 0 -95.147896515016328 -511.43865579492558 0 0 0 0 10.836273747510859 -123.98421561113355 0 -123.98421561113355 -596.12092232450232 0 0 0 0 3.1747803825619485 -77.993499370983045 0 -77.993499370983045 -567.65867030713707 0 0 0 0 86.774940305245764 42.345009414915694 0 42.345009414915694 -513.24366597475637 0 0 0 0 13.388842819484125 -100.34400023666967 0 -100.34400023666967 -468.91879563109251 0 0 0 0 72.580710139396615 166.98162641784438 0 166.98162641784438 -608.92298540856791 0 0 0 0 -5.4446753022161829 132.31401666385682 0 132.31401666385682 -557.98481335926772 0 0 0 0 88.529707659026826 47.738359941555245 0 47.738359941555245 -527.97049189091194 0 0 0 0 84.862806048764469 -51.534327082918026 0 -51.534327082918026 -798.43677718551771 0 0 0 0 239.97642346001703 126.63905206597701 0 126.63905206597701 -734.75754238256195 0 0 0 0 22.670935599902805 -298.27958784098155 0 -298.27958784098155 -861.89690694273668 0 0 0 0 -0.21420098252572806 0.21780272703833248 0 0.21780272703833248 -6.9161034729867197 0 0 0 0 -574.96490632147652 627.29665355747784 0 627.29665355747784 -538.42781313282467 0 0 0 0 202.3449833501154 -34.90356749926832 0 -34.90356749926832 -1270.2924979859454 0 0 0 0 261.87336197875993 484.47368975927384 0 484.47368975927384 -1027.0028037034972 0 0 0 0 -30.191412809009108 73.899874847748833 0 73.899874847748833 9.5051178778157919 0 0 0 0 35.185641232272701 320.97396357964317 0 320.97396357964317 -425.24234774935758 0 0 0 0 -68.216185442088417 -16.247162094060059 0 -16.247162094060059 98.7522597674797 0 0 0 0 -22.833650565108648 4.3831325917737018 0 4.3831325917737018 0.73906571329476556 0 0 0 0 54.864442313019936 89.660305263081682 0 89.660305263081682 -743.24942698076211 0 0 0 0 -166.43297486552933 -74.029143810498681 0 -74.029143810498681 81.206658310471539 0 0 0 0 -15.105942558109042 2.7337151452516437 0 2.7337151452516437 -0.2048575139785207 0 0 0 0 -64.597294319676422 78.952394394251826 0 78.952394394251826 -489.15736393915722 0 0 0 0 5.2113291730465789 25.32207801273762 0 25.32207801273762 -508.40280118723604 0 0 0 0 92.152904438936503 -87.457784722722863 0 -87.457784722722863 -536.396762469235 0 0 0 0 117.77424638234149 -131.07999670799563 0 -131.07999670799563 -579.97858698296477 0 0 0 0 80.693252080017331 -92.611957575183396 0 -92.611957575183396 -340.88998033594544 0 0 0 0 104.0703720452957 52.042289214405173 0 52.042289214405173 -277.62222415930228 0 0 0 0 0.2338884749942175 -125.9817657512649 0 -125.9817657512649 -450.95897954961401 0 0 0 0 -0.06675240876532465 -68.033713381010372 0 -68.033713381010372 -123.93823305432306 0 0 0 0 47.507347530206033 -10.228616376925856 0 -10.228616376925856 -61.324427271692912 0 0 0 0 0.43577809880231488 -0.50143691194559636 0 -0.50143691194559636 1.20377812477426 0 0 0 0 47.985397316360576 20.395407030277511 0 20.395407030277511 0.00016094697639346123 0 0 0 0 -67.044589604457315 116.95757117023095 0 116.95757117023095 -150.96803670435474 0 0 0 0 -91.744124177837051 28.484501145012928 0 28.484501145012928 -13.210002494466607 0 0 0 0 -24.750788744205238 36.811469284672057 0 36.811469284672057 -117.78167959554048 0 0 0 0 -33.915987221119934 -57.214715429845455 0 -57.214715429845455 12.159601889725309 0 0 0 0 43.424879418399868 21.286472148351663 0 21.286472148351663 1.0359685836301651 0 0 0 0 31.042717904798451 -41.14790847635777 0 -41.14790847635777 8.9055581889660971 0 0 0 0 -43.984722161939885 194.21657987658364 0 194.21657987658364 -358.25887913535553 0 0 0 0 -0.23697012662156475 -0.2008114869064781 0 -0.2008114869064781 -6.2493073043196432 0 0 0 0 -171.73972104288646 -186.7619512237352 0 -186.7619512237352 -371.14750474928587 0 0 0 0 104.85429612412963 29.812190985459893 0 29.812190985459893 -536.27198854918242 0 0 0 0 104.25558068458417 -50.69605456026693 0 -50.69605456026693 -848.24411757756752 0 0 0 0 54.341891269780206 -160.37298632617603 0 -160.37298632617603 -629.02169725651038 0 0 0 0 67.389148127638578 -181.06848665081634 0 -181.06848665081634 -597.9096015258956 0 0 0 0 -98.287727491572923 -296.05507172008947 0 -296.05507172008947 -749.38903608634064 0 0 0 0 -395.70741623593608 12.360059770659063 0 12.360059770659063 -660.00294017192937 0 0 0 0 -56.393992335141775 -127.86030220369503 0 -127.86030220369503 -604.506638635321 0 0 0 0 -151.54539425498285 -66.270849144277236 0 -66.270849144277236 -459.45110353056225 0 0 0 0 49.021067078274655 -60.299957039353103 0 -60.299957039353103 -549.42801207800949 0 0 0 0 48.848971043792631 -54.03314853955635 0 -54.03314853955635 -701.90002484804245 0 0 0 0 67.786397720668674 -182.38082172625946 0 -182.38082172625946 -783.1822539379682 0 0 0 0 63.525914055256465 -139.28457027281911 0 -139.28457027281911 -520.76488074562076 0 0 0 0 -71.376487472114604 -83.640327946155594 0 -83.640327946155594 -652.65926107657288 0 0 0 0 -12.247783989878826 -299.79808109656733 0 -299.79808109656733 -840.95645580716518 0 0 0 0 -72.714792691821003 -182.87195579704712 0 -182.87195579704712 -960.23453436941782 0 0 0 0 64.046053089128691 -69.836431651438033 0 -69.836431651438033 -374.25050221287529 0 0 0 0 -0.069324924506828658 -1.0579039239105557 0 -1.0579039239105557 -2.0162459948369644 0 0 0 0 -191.42127078439287 -339.87707140191526 0 -339.87707140191526 -387.79622198863945 0 0 0 0 -134.6842947196667 -14.564059179356263 0 -14.564059179356263 137.42456360805227 0 0 0 0 0.074463619423661684 -0.90612026946435442 0 -0.90612026946435442 -4.102194763211088 0 0 0 0 -19.41618471930542 54.192557908085291 0 54.192557908085291 137.20198130143169 0 0 0 0 142.44843727250569 17.468719997915557 0 17.468719997915557 -79.307804662508715 0 0 0 0 -50.601014494219797 1.3937566659646734 0 1.3937566659646734 52.0180040661362 0 0 0 0 -5.2754156303134891 21.193387609133424 0 21.193387609133424 -59.570479072906892 0 0 0 0 -20.728176454251525 30.75606684459126 0 30.75606684459126 25.086851752574148 0 0 0 0 -75.084584874981317 -117.76095696092398 0 -117.76095696092398 -127.12275249193044 0 0 0 0 -24.119363572130624 -104.82717517629135 0 -104.82717517629135 -200.43185439488298 0 0 0 0 -117.17881495074971 -166.78124114139791 0 -166.78124114139791 -64.982602943186066 0 0 0 0 -35.553034495818224 -258.48766852294466 0 -258.48766852294466 -515.69238977634086 0 0 0 0 -22.976800163165194 -138.68908093511345 0 -138.68908093511345 -322.11014098906526 0 0 0 0 31.249317148184474 -62.166658546222607 0 -62.166658546222607 -465.49558210941541 0 0 0 0 -28.396660559035212 -17.121072891801305 0 -17.121072891801305 -162.63199262253329 0 0 0 0 -44.33488811428245 -53.674892433376954 0 -53.674892433376954 -168.95208001889114 0 0 0 0 -26.795425606729509 7.7015782493363076 0 7.7015782493363076 -363.2116950044674 0 0 0 0 28.215163538861361 -80.74472231665095 0 -80.74472231665095 -428.21380423756455 0 0 0 0 -7.3208859548791558 22.429757022293416 0 22.429757022293416 -602.38817994735291 0 0 0 0 82.598213920940154 -140.90756623889501 0 -140.90756623889501 -644.72548802992605 0 0 0 0 111.45965072057606 -119.36145694000334 0 -119.36145694000334 -576.83702558207733 0 0 0 0 112.39415928893732 -87.240613591322472 0 -87.240613591322472 -655.22748669690918 0 0 0 0 111.33720421440211 -123.60592654038555 0 -123.60592654038555 -723.92690867207602 0 0 0 0 -60.382169760512468 -214.59073975635556 0 -214.59073975635556 -418.99242725507065 0 0 0 0 42.880102196588382 -49.180593600060092 0 -49.180593600060092 -325.47038053484175 0 0 0 0 49.247390094131106 -96.922596697122572 0 -96.922596697122572 -474.05297762575719 0 0 0 0 61.435664317795556 -77.034022640067633 0 -77.034022640067633 -477.97800075399573 0 0 0 0 7.641168074962053 -102.81868840790594 0 -102.81868840790594 -183.16481355520955 0 0 0 0 -79.84029357478471 -206.72585435259953 0 -206.72585435259953 -250.78425403564324 0 0 0 0 -71.884685961402681 -136.05781104099879 0 -136.05781104099879 -245.39724099872228 0 0 0 0 74.02269708107923 -54.530173504046161 0 -54.530173504046161 -185.9379017709216 0 0 0 0 95.170278028919711 105.66280065971296 0 105.66280065971296 -49.579282138836788 0 0 0 0 0.86175611447472744 2.0730559666360691 0 2.0730559666360691 -7.1596615899840117 0 0 0 0 -47.882706291356726 -5.3098802586137026 0 -5.3098802586137026 30.15454453368875 0 0 0 0 0.23782808118855403 0.7538274857046261 0 0.7538274857046261 -2.9699814068451929 0 0 0 0 80.548553142705259 194.29211163038417 0 194.29211163038417 4.0305846260766884 0 0 0 0 -88.172562663331178 10.127302832168425 0 10.127302832168425 -92.136825953948573 0 0 0 0 -47.569536588440656 7.1448423778238066 0 7.1448423778238066 -92.031666660863266 0 0 0 0 -45.555830141147652 -3.6775303688446002 0 -3.6775303688446002 -169.85356655227952 0 0 0 0 -81.202987501241068 -32.413148563016875 0 -32.413148563016875 -149.18557124761719 0 0 0 0 -56.638424687172289 -40.040025466923908 0 -40.040025466923908 -323.96972507509781 0 0 0 0 -32.584356601715285 -37.31567832498331 0 -37.31567832498331 -180.91208218498105 0 0 0 0 -18.765554359385078 -70.445271577602398 0 -70.445271577602398 -359.78423230776752 0 0 0 0 -105.86258805200441 -47.263983159560667 0 -47.263983159560667 -312.60458100202959 0 0 0 0 -24.419794949449397 -15.047656511134846 0 -15.047656511134846 -452.84970631398028 0 0 0 0 -39.201576723382686 -98.60885181302001 0 -98.60885181302001 -460.22656612507126 0 0 0 0 -144.57112933311612 -71.063545231241733 0 -71.063545231241733 -466.67455535630506 0 0 0 0 -38.002963383260607 -203.08223368733161 0 -203.08223368733161 -593.03979380978126 0 0 0 0 80.506872918397903 -105.64676848144882 0 -105.64676848144882 -517.91711699293955 0 0 0 0 15.879852534724932 -1.7894509072684741 0 -1.7894509072684741 -361.19339423025212 0 0 0 0 -67.381730659993764 -94.427671353536425 0 -94.427671353536425 -379.77083633228176 0 0 0 0 -82.09077047552978 4.6961635986499459 0 4.6961635986499459 -160.94316851910844 0 0 0 0 -69.629708663203417 -5.1740972803836485 0 -5.1740972803836485 -157.75170763381175 0 0 0 0 -45.805675136705872 51.823212732680986 0 51.823212732680986 -72.318291113217128 0 0 0 0 -33.82442253060924 -10.767587655798707 0 -10.767587655798707 -176.86114865979107 0 0 0 0 41.403548703403942 -112.33629542752897 0 -112.33629542752897 -118.10577549944719 0 0 0 0 118.65279282954015 -51.174465641194729 0 -51.174465641194729 -177.70219996646847 0 0 0 0 -0.36940156631996968 -2.1505265485576572 0 -2.1505265485576572 -4.482428999947615 0 0 0 0 12.675511122999126 34.755400611808 0 34.755400611808 -44.948756577996392 0 0 0 0 0.21248294614162941 -67.683622193640986 0 -67.683622193640986 60.236080984786895 0 0 0 0 80.548568257609588 80.597159769698919 0 80.597159769698919 -891.65438844421442 0 0 0 0 -0.031983722422613714 -0.87976067150162152 0 -0.87976067150162152 -2.6727781013153873 0 0 0 0 80.837096428381614 69.291582561991163 0 69.291582561991163 -448.85918931136621 0 0 0 0 71.564272831860535 -145.84022721360225 0 -145.84022721360225 -654.36005874897819 0 0 0 0 61.704681846547544 -176.52059632460805 0 -176.52059632460805 -599.90271424206549 0 0 0 0 -0.24942434684536691 -187.12584446910034 0 -187.12584446910034 -613.86361194896745 0 0 0 0 59.960273557332641 -122.19272583470229 0 -122.19272583470229 -543.91898980207952 0 0 0 0 5.769959108265148 -2.5904270397440996 0 -2.5904270397440996 1.3969981921363797 0 0 0 0 2.2560514179674103 -6.5367172828046023 0 -6.5367172828046023 2.7647463786561275 0 0 0 0 -0.50062828184995567 5.9876104980985474 0 5.9876104980985474 -4.5489112878858577 0 0 0 0 4.4177336404528038 -11.38363829643913 0 -11.38363829643913 -3.723117997054942 0 0 0 0 -0.70771563586050346 -19.562399406965824 0 -19.562399406965824 -97.008408330133534 0 0 0 0 -2.5987650618400266 -4.0171323325521371 0 -4.0171323325521371 5.9179897202684515 0 0 0 0 7.0181920494114109 70.794198524436979 0 70.794198524436979 -150.36962302366737 0 0 0 0 -0.21365968311806005 -1.8819747553731645 0 -1.8819747553731645 -3.802154237721652 0 0 0 0 0.0076062226816148489 -4.4408554552064743 0 -4.4408554552064743 2.7524859136392479 0 0 0 0 2.5106402739667177 -1.8354530201313537 0 -1.8354530201313537 0.045008783476077951 0 0 0 0 4.4795576992531352 -6.200915125245956 0 -6.200915125245956 1.4571360544869094 0 0 0 0 -0.27823160961271381 -0.65195087584203293 0 -0.65195087584203293 -0.34328569846724122 0 0 0 0 0.20508860674776172 0.29087695384625789 0 0.29087695384625789 -1.0162067131014965 0 0 0 0 0.012012058416692666 -1.6236890142135962 0 -1.6236890142135962 -4.4873217158165062 0 0 0 0 -154.56206815499991 294.73630706225595 0 294.73630706225595 -462.57706680661067 0 0 0 0 0.16207683534518283 -0.17934925648542333 0 -0.17934925648542333 -2.4556230362764779 0 0 0 0 89.609205845522254 96.68788205716919 0 96.68788205716919 -654.6009403340795 0 0 0 0 -0.59071270874432524 -76.248506176584399 0 -76.248506176584399 -253.27872960927925 0 0 0 0 81.519876053838345 37.02037562819396 0 37.02037562819396 -448.20168408036261 0 0 0 0 8.2739664733259133 140.81849747509114 0 140.81849747509114 -200.08839643721058 0 0 0 0 -84.334046278904907 143.95768452266202 0 143.95768452266202 -143.88795716694312 0 0 0 0 38.409745266502682 78.136031813759473 0 78.136031813759473 -465.78837951998867 0 0 0 0 25.014796479860536 69.918935882769802 0 69.918935882769802 -260.34748152425891 0 0 0 0 -6.7406935535869934 -40.290176755708671 0 -40.290176755708671 -544.21765420216366 0 0 0 0 2.8293244836935827 187.70014881312568 0 187.70014881312568 -521.62376945448341 0 0 0 0 -0.12896125712329365 -0.96878109638073084 0 -0.96878109638073084 -2.4775150595364721 0 0 0 0 -9.1650461359213296 -143.96914235511395 0 -143.96914235511395 1.2890771945521919 0 0 0 0 -34.991788545677082 -37.530349204007507 0 -37.530349204007507 -359.75299502037524 0 0 0 0 -120.99805356024552 34.782886781102206 0 34.782886781102206 -213.43278177631146 0 0 0 0 -53.121753791089873 27.325044618222819 0 27.325044618222819 -401.76853867013051 0 0 0 0 -71.402491930589463 13.051410365951597 0 13.051410365951597 -206.26628106884891 0 0 0 0 -112.05166575830253 30.027094206181573 0 30.027094206181573 -93.247566453610489 0 0 0 0 22.017808815516673 28.744091757464048 0 28.744091757464048 -269.71500792353254 0 0 0 0 -66.037410781820881 47.23115495163438 0 47.23115495163438 17.199561621397152 0 0 0 0 -63.655182585029479 -12.974279771402507 0 -12.974279771402507 -131.47290513489861 0 0 0 0 -80.098458991575285 50.553844390506129 0 50.553844390506129 -90.323546088693547 0 0 0 0 -36.970978063720963 -38.463926057862409 0 -38.463926057862409 27.508945285261689 0 0 0 0 -1.1401198279243232 -17.870491750378278 0 -17.870491750378278 3.0964317367906915 0 0 0 0 -12.304984644904835 -8.485134977629059 0 -8.485134977629059 -63.346421327107237 0 0 0 0 -1.5838701218055977 -3.0584565332076963 0 -3.0584565332076963 -4.2707588204315527 0 0 0 0 9.0250183131856829 35.264503259197227 0 35.264503259197227 19.335611528833397 0 0 0 0 -0.31853401901781342 -1.3463038818675734 0 -1.3463038818675734 -0.45077927806204343 0 0 0 0 -172.40103111964424 31.322717501003353 0 31.322717501003353 28.441377056027704 0 0 0 0 -28.886135945472461 21.723124861426186 0 21.723124861426186 -23.319465368127567 0 0 0 0 -177.70433249483085 -4.830704871135822 0 -4.830704871135822 -24.792761727865582 0 0 0 0 -129.94862771751684 15.439475885730644 0 15.439475885730644 -91.006990794259764 0 0 0 0 -155.75761063340315 11.62114279843081 0 11.62114279843081 -18.773220974282594 0 0 0 0 -78.151740532319138 76.202806250299545 0 76.202806250299545 -20.373586391986464 0 0 0 0 -148.52856463651779 6.8600002279672481 0 6.8600002279672481 -93.563026561663719 0 0 0 0 -150.8712753434221 -24.993039092289109 0 -24.993039092289109 -46.061329211283009 0 0 0 0 -175.75997158058988 -18.474121269173338 0 -18.474121269173338 -2.4925018481299048 0 0 0 0 -158.45845019651244 -6.1742310786685266 0 -6.1742310786685266 -39.333794145224601 0 0 0 0 -126.71767896559493 -54.328808041726006 0 -54.328808041726006 -88.94568100298784 0 0 0 0 -125.29775674996657 -7.2184596330216664 0 -7.2184596330216664 -183.59066956547031 0 0 0 0 -140.90665441437932 -21.091486954392167 0 -21.091486954392167 -99.171462990175769 0 0 0 0 -107.35289063942963 9.7393738168839263 0 9.7393738168839263 -250.95195562563458 0 0 0 0 -41.936625388529706 -20.996850647625251 0 -20.996850647625251 -244.34621134389727 0 0 0 0 -92.520922384630182 -109.58105893256197 0 -109.58105893256197 -378.07836773414601 0 0 0 0 26.921888490548668 41.156590210548529 0 41.156590210548529 -412.52881672308285 0 0 0 0 -205.80734909194763 -47.692898471730587 0 -47.692898471730587 -192.03365167888478 0 0 0 0 -97.361811655716195 22.097432991737151 0 22.097432991737151 -365.31435918906209 0 0 0 0 -208.92184109687631 -312.32787292722514 0 -312.32787292722514 -447.45945586295784 0 0 0 0 -46.753045628500693 6.9497266623534415 0 6.9497266623534415 -125.64459909215657 0 0 0 0 -78.020664988776218 -80.566304914849752 0 -80.566304914849752 -182.23358192778323 0 0 0 0 -117.67251158009725 35.329867313392242 0 35.329867313392242 -95.011436825581768 0 0 0 0 -13.963792413886466 -19.192713329917751 0 -19.192713329917751 -67.611359778104088 0 0 0 0 -111.71402901532258 18.975460957923133 0 18.975460957923133 16.789556971318234 0 0 0 0 0.21056920158468984 25.089186701823564 0 25.089186701823564 -0.99402465045568533 0 0 0 0 -36.886876496395359 53.23276014422845 0 53.23276014422845 24.265001624953584 0 0 0 0 -23.221979466016066 29.203317432032236 0 29.203317432032236 66.183559480745316 0 0 0 0 11.227550021314087 6.5538393608021579 0 6.5538393608021579 29.527505936777743 0 0 0 0 -2.1735337742230554 5.5097023710026178 0 5.5097023710026178 -9.4387810930019072 0 0 0 0 133.53270812127113 95.701930661609367 0 95.701930661609367 50.443260670817835 0 0 0 0 45.56491270449726 93.260977522921166 0 93.260977522921166 -95.751796865763026 0 0 0 0 48.530931656620851 -72.22278709805687 0 -72.22278709805687 -370.20997114990496 0 0 0 0 -38.446325005606468 -101.15309988923582 0 -101.15309988923582 -145.52640595384582 0 0 0 0 29.284421917462225 226.2360987996326 0 226.2360987996326 5.636361039505573 0 0 0 0 -34.992463612134713 95.483337663623388 0 95.483337663623388 121.71320573639605 0 0 0 0 -0.69019641268021414 2.0266895056720529 0 2.0266895056720529 -4.2394091846384754 0 0 0 0 -45.914162731262536 -25.404491766277715 0 -25.404491766277715 81.203707029206271 0 0 0 0 -65.925858828786346 17.0136078415062 0 17.0136078415062 2.853038453074987 0 0 0 0 -170.62114472200875 3.2276605243459926 0 3.2276605243459926 49.87681941405026 0 0 0 0 -194.19547912732691 19.295312039455894 0 19.295312039455894 6.2159793225873727 0 0 0 0 -48.608568621242675 28.398212992651679 0 28.398212992651679 -136.92513209215394 0 0 0 0 -186.8043124756924 44.98515813002814 0 44.98515813002814 -62.878473877317447 0 0 0 0 -157.30654628171908 26.16171628336815 0 26.16171628336815 -157.9356569341453 0 0 0 0 -171.29541537408249 22.043940251649587 0 22.043940251649587 17.384750474986504 0 0 0 0 -132.68632814439451 -8.3078303497641173 0 -8.3078303497641173 -22.996027590161248 0 0 0 0 -179.96032106922934 23.059189090565269 0 23.059189090565269 19.04420485110677 0 0 0 0 -81.21510415013779 -23.016653431721352 0 -23.016653431721352 12.538971814381512 0 0 0 0 -88.853269947587478 -28.795483124273233 0 -28.795483124273233 -35.975681946052646 0 0 0 0 -157.63055685931675 -1.4200402693131764 0 -1.4200402693131764 20.177135606780212 0 0 0 0 -225.5210971489721 -25.040517955647374 0 -25.040517955647374 -3.314505092719628 0 0 0 0 -158.5702915680921 -20.466461221550958 0 -20.466461221550958 -40.141890875791432 0 0 0 0 -6.2657295656860725 -11.651710197340435 0 -11.651710197340435 -33.367074710851739 0 0 0 0 -0.36816703551769292 -0.15194256735738065 0 -0.15194256735738065 -1.2023878019856227 0 0 0 0 -196.27843802618312 49.506507879368655 0 49.506507879368655 -23.618381753352878 0 0 0 0 -0.15746985571091446 0.080112496958022916 0 0.080112496958022916 -6.0795451902821185 0 0 0 0 24.642748357637132 4.8692199916185928 0 4.8692199916185928 -20.966823580805794 0 0 0 0 4.1454460926953303 -2.6165023391513387 0 -2.6165023391513387 5.9982550462755171 0 0 0 0 20.898094547337017 -4.0615270261314436 0 -4.0615270261314436 -28.289727547467919 0 0 0 0 -166.35135152530822 -19.699262670026656 0 -19.699262670026656 17.870353368682117 0 0 0 0 -133.82919271094215 23.172799290052353 0 23.172799290052353 0.51150210292689735 0 0 0 0 -69.017385465748248 -62.857786368160305 0 -62.857786368160305 -50.711106868460774 0 0 0 0 -5.9518115423821882 -1.2672251271051209 0 -1.2672251271051209 -12.903430033302357 0 0 0 0 0.15138832857746676 0.66301205921546824 0 0.66301205921546824 -6.4793521076208549 0 0 0 0 33.690307362870172 0.39588513673970738 0 0.39588513673970738 -5.9206378176095313 0 0 0 0 9.1634089423927847 -17.527265106262348 0 -17.527265106262348 -9.3782875398737815 0 0 0 0 50.40483172958622 -3.9670704527270573 0 -3.9670704527270573 -14.365958450307517 0 0 0 0 0.16234043894867306 0.4343706101597391 0 0.4343706101597391 -5.9481168209585178 0 0 0 0 0.051404440443953835 -14.156732072680466 0 -14.156732072680466 -3.1802239863172872 0 0 0 0 4.8415278569723146 -15.225728380588407 0 -15.225728380588407 -4.2355671090554097 0 0 0 0 4.7149975155905013 -17.571379212289685 0 -17.571379212289685 -17.077403248636983 0 0 0 0 -5.9459978287698867 -5.6332024980365532 0 -5.6332024980365532 -1.1730204211144155 0 0 0 0 -0.055456596650353601 -0.091129434237743112 0 -0.091129434237743112 -0.22883051168477664 0 0 0 0 -23.934706061583618 2.1258751339046285 0 2.1258751339046285 2.1366533094915212 0 0 0 0 9.7120572580510203 -6.6264609459267376 0 -6.6264609459267376 -13.951522025447048 0 0 0 0 -24.428285913027288 -13.154384105771896 0 -13.154384105771896 0.43780447783501586 0 0 0 0 -6.8430767103675763 -22.340815660942098 0 -22.340815660942098 -21.726138927726424 0 0 0 0 -0.0039837224966954958 -10.327019148682846 0 -10.327019148682846 -8.8905041151519981 0 0 0 0 4.4915697096539589 30.221565599138557 0 30.221565599138557 -25.313613517610065 0 0 0 0 15.289036982880466 3.8998488092188381 0 3.8998488092188381 -1.2960378935131587 0 0 0 0 15.218692140145777 -3.3902322368048772 0 -3.3902322368048772 -19.783249004860409 0 0 0 0 -10.572059575284129 16.571051723985875 0 16.571051723985875 -4.6450100272195414 0 0 0 0 4.1050894195245746 7.7603718956543162 0 7.7603718956543162 -8.7215924657139112 0 0 0 0 -2.9432329188430231 5.8186065277186572 0 5.8186065277186572 7.6971653045220592 0 0 0 0 2.870826400791664 4.8162222342632361 0 4.8162222342632361 -1.6929872345033985 0 0 0 0 -3.0091660318632876 14.661388530994373 0 14.661388530994373 -25.725718268520723 0 0 0 0 2.3328335630517527 0.23084523953823899 0 0.23084523953823899 -1.7121208367482836 0 0 0 0 -0.15237013037040015 -2.549472331214929 0 -2.549472331214929 -34.210572168911312 0 0 0 0 5.253826559621757 9.3326522444731381 0 9.3326522444731381 -71.630668124336808 0 0 0 0 76.079089206031767 -1.2854265563692024 0 -1.2854265563692024 -110.52760315038904 0 0 0 0 -5.1864706966930498 -31.487562472719219 0 -31.487562472719219 -56.397645980796369 0 0 0 0 17.870439292635183 1.6192037591754342 0 1.6192037591754342 -44.456695284941816 0 0 0 0 17.57821768861595 1.2707083662498917 0 1.2707083662498917 -44.073901597115764 0 0 0 0 10.761825692071397 0.11755871205787116 0 0.11755871205787116 -39.090200999580702 0 0 0 0 9.4794422950781154 5.7473937433769606 0 5.7473937433769606 -58.355863608354412 0 0 0 0 4.0928738232591328 2.1104730320152179 0 2.1104730320152179 -42.509706242967269 0 0 0 0 1.2162771635427845 0.26148427965902954 0 0.26148427965902954 -10.986912857423789 0 0 0 0 33.374277320768442 4.8628860144785904 0 4.8628860144785904 -92.123712084714498 0 0 0 0 4.4604072330866984 2.5904800694370351 0 2.5904800694370351 -39.83571378763736 0 0 0 0 18.906997221610254 -21.838034555501508 0 -21.838034555501508 -10.053160366074735 0 0 0 0 3.3316286910523227 1.3070653601557458 0 1.3070653601557458 -36.7388413150357 0 0 0 0 12.727474580998969 2.5807292444561085 0 2.5807292444561085 -11.275386900098169 0 0 0 0 4.1553049843078043 32.45077952644715 0 32.45077952644715 9.7953530154045438 0 0 0 0 30.355114212054104 18.727537482365733 0 18.727537482365733 -63.877613936987473 0 0 0 0 51.740185564574858 9.9104356478928821 0 9.9104356478928821 -60.387295582680963 0 0 0 0 -0.46591911911491479 27.833916455620056 0 27.833916455620056 7.1304485484361066 0 0 0 0 50.483072816678259 25.170373076085525 0 25.170373076085525 -5.585899511432217 0 0 0 0 10.053885645402261 3.8170475190972866 0 3.8170475190972866 -11.574416310701054 0 0 0 0 52.478376775003881 45.711328942374166 0 45.711328942374166 -0.57215982437628554 0 0 0 0 0.0581955268891865 4.3197985651442874 0 4.3197985651442874 -14.345641274752921 0 0 0 0 2.535156231706571 3.7952184415122261 0 3.7952184415122261 -7.6174737818119098 0 0 0 0 -3.3605679565553146 20.333932669713249 0 20.333932669713249 9.2788882936365553 0 0 0 0 7.5123227733470976 7.8571185587413197 0 7.8571185587413197 -18.756351565187892 0 0 0 0 0.28723454497117373 -0.10790204762956535 0 -0.10790204762956535 -8.3267086302710336 0 0 0 0 26.36365264696451 -12.046168461138222 0 -12.046168461138222 -32.096633843080781 0 0 0 0 43.015357240974481 48.216245430736308 0 48.216245430736308 16.272263236221079 0 0 0 0 26.224196629149901 -13.295343820796916 0 -13.295343820796916 -10.286283897265093 0 0 0 0 17.072375629916678 18.075898136190517 0 18.075898136190517 -12.439568385825055 0 0 0 0 0.29619237444061297 2.5305121664543186 0 2.5305121664543186 -8.5487617741288062 0 0 0 0 165.62486252207691 59.770518852638361 0 59.770518852638361 -26.918574304341746 0 0 0 0 0.75845787058508263 -0.7474865297242923 0 -0.7474865297242923 -11.604439343167172 0 0 0 0 55.341477377416595 35.451334097826475 0 35.451334097826475 7.3525856626474706 0 0 0 0 12.623958560878236 24.50605839061609 0 24.50605839061609 2.7998068594388315 0 0 0 0 -10.852683293611335 48.197027762711514 0 48.197027762711514 17.175055271545716 0 0 0 0 43.914047122385455 54.601989075321399 0 54.601989075321399 0.26138505908602383 0 0 0 0 -7.0478737401754188 31.593238629629923 0 31.593238629629923 11.798993846445228 0 0 0 0 -21.491112207140304 12.831231726733677 0 12.831231726733677 1.8515621398837538 0 0 0 0 -3.7422206124614243 7.903470971336187 0 7.903470971336187 -4.615580619275903 0 0 0 0 -20.415782787200442 14.916346356287249 0 14.916346356287249 -2.4123827129078563 0 0 0 0 -25.458402580637085 0.042301721508920309 0 0.042301721508920309 -10.148218304719194 0 0 0 0 -24.14018470794781 10.747094409560304 0 10.747094409560304 1.6859196973309736 0 0 0 0 -19.837879251726918 7.0756599214364542 0 7.0756599214364542 -14.091744014713186 0 0 0 0 -7.2568377313292434 8.2772441061292827 0 8.2772441061292827 -1.5191673580374072 0 0 0 0 -17.497416244324995 12.149426715677691 0 12.149426715677691 0.19826804166950751 0 0 0 0 2.1708831394680601 25.160168596172298 0 25.160168596172298 1.5295134610814785 0 0 0 0 -12.594895406673459 7.7701956902692473 0 7.7701956902692473 -4.9568668562715175 0 0 0 0 -5.4795338510484726 20.898635788871616 0 20.898635788871616 0.53526251425500959 0 0 0 0 2.7531068728620323 7.4349648015636589 0 7.4349648015636589 -7.6141151087381616 0 0 0 0 3.0089883798412984 7.4501517716512353 0 7.4501517716512353 -7.1725000489823287 0 0 0 0 4.1204257077748707 6.7847162133284655 0 6.7847162133284655 -8.1513926489205915 0 0 0 0 3.6830173715698038 5.9842280540069623 0 5.9842280540069623 -5.2745211258588824 0 0 0 0 15.584192235413909 -59.01087294353681 0 -59.01087294353681 -17.511992248641036 0 0 0 0 7.8956527482788488 9.3429164176263839 0 9.3429164176263839 -3.6074426583654713 0 0 0 0 0.50989924363888495 3.8204042160309868 0 3.8204042160309868 -7.5893320924598981 0 0 0 0 19.288412331001382 29.773493042048358 0 29.773493042048358 -29.503085781238042 0 0 0 0 56.019276585089756 110.50907880896193 0 110.50907880896193 79.685079801853135 0 0 0 0 2.721565089150749 0.93004519417272036 0 0.93004519417272036 -2.2873924065749236 0 0 0 0 8.1342717232424775 -0.0050663712831919838 0 -0.0050663712831919838 1.5488914680463495 0 0 0 0 82.549670278897906 27.513357659815483 0 27.513357659815483 -10.100435442713206 0 0 0 0 79.929679738149844 19.237660545630206 0 19.237660545630206 -34.360282443172764 0 0 0 0 48.076553532221169 111.36810117494315 0 111.36810117494315 121.40705766489191 0 0 0 0 0.86298058438740011 0.33156604108695831 0 0.33156604108695831 -0.76248439149343028 0 0 0 0 47.690521019242283 30.813013156705438 0 30.813013156705438 11.112084819324082 0 0 0 0 -0.71644004247855264 23.087408954252169 0 23.087408954252169 -1.119541789208597 0 0 0 0 16.160120613300478 -57.672778525040485 0 -57.672778525040485 -85.712571770873183 0 0 0 0 11.326648564877587 -14.772688631041092 0 -14.772688631041092 -39.833922822890599 0 0 0 0 55.510003985554135 -27.107173583592612 0 -27.107173583592612 -44.478584361335379 0 0 0 0 53.819589138518495 25.864531343380804 0 25.864531343380804 -7.4179420463296992 0 0 0 0 32.053615825811022 -12.805901172004269 0 -12.805901172004269 11.966742497985251 0 0 0 0 78.804162102929922 -2.1405766805837629 0 -2.1405766805837629 23.950705300027039 0 0 0 0 57.419765161010218 94.981115574009891 0 94.981115574009891 106.04447124960279 0 0 0 0 -0.23448203558314429 1.2665619652228486 0 1.2665619652228486 -2.8142031638614355 0 0 0 0 -1.7718002241243571 4.9019444492259794 0 4.9019444492259794 -6.5656839184669309 0 0 0 0 55.134784403015146 66.572367511380435 0 66.572367511380435 -30.14416846819222 0 0 0 0 132.14420563144449 53.157380242704676 0 53.157380242704676 -8.6802306635145214 0 0 0 0 -60.989927242693682 -159.02942879656621 0 -159.02942879656621 -197.01516951829399 0 0 0 0 6.5851605528463466 -89.573640636983328 0 -89.573640636983328 -251.67988759665423 0 0 0 0 -12.847067025800136 -63.13044596187865 0 -63.13044596187865 -85.365936063608387 0 0 0 0 13.986166133916754 -63.342575158054387 0 -63.342575158054387 -141.52764517109017 0 0 0 0 -2.2853797196109156 -83.159846183431455 0 -83.159846183431455 -71.98690057254862 0 0 0 0 24.152520696477918 -47.888487868865013 0 -47.888487868865013 -121.45831719184207 0 0 0 0 41.845845445949521 1.3170685741279158 0 1.3170685741279158 -59.320293231475262 0 0 0 0 9.6754489612545171 -34.679443237730084 0 -34.679443237730084 -98.731673382091685 0 0 0 0 48.580083847921287 19.675016644610878 0 19.675016644610878 9.4552808609478234 0 0 0 0 33.600306753358069 47.536598772192519 0 47.536598772192519 -39.597574450481261 0 0 0 0 110.87356816428036 134.54366422406019 0 134.54366422406019 37.901595431699207 0 0 0 0 -2.767856139409822 6.8275730286916101 0 6.8275730286916101 -11.731827912495305 0 0 0 0 -30.631926090794497 62.539275157889733 0 62.539275157889733 -2.7306723454603343 0 0 0 0 -1.3716394225815076 6.1443934532040601 0 6.1443934532040601 -10.970255706491344 0 0 0 0 131.53517705751915 70.9315407947106 0 70.9315407947106 19.01045311893904 0 0 0 0 2.8863116450884263 22.130820566970215 0 22.130820566970215 4.5894484755990561 0 0 0 0 5.6471518187424863 14.37453714836829 0 14.37453714836829 -12.606737198540941 0 0 0 0 103.25827594379871 94.918399999089161 0 94.918399999089161 40.866022023021742 0 0 0 0 104.49295213106268 57.864224214818023 0 57.864224214818023 -31.145803033979064 0 0 0 0 -10.099295697373236 2.4625201628514333 0 2.4625201628514333 2.6011186399891812 0 0 0 0 -2.0036533076113301 -1.2570595628603769 0 -1.2570595628603769 -14.506180569798744 0 0 0 0 -1.4359396550516976 2.7945622160514176 0 2.7945622160514176 -4.9809149981683731 0 0 0 0 -10.113944660328116 -38.821804428458563 0 -38.821804428458563 -0.41604447799909394 0 0 0 0 -23.325749321269086 -30.931385273750493 0 -30.931385273750493 -15.60070131779139 0 0 0 0 -20.608587290085211 -23.455883684567198 0 -23.455883684567198 -4.5541698297965922 0 0 0 0 17.178348689504446 33.692602009758048 0 33.692602009758048 15.607009503077279 0 0 0 0 -32.403700449090195 7.6622806542343369 0 7.6622806542343369 30.357717311337183 0 0 0 0 -43.527508052351209 -29.305835349357949 0 -29.305835349357949 0.018973561443999643 0 0 0 0 -22.739527303318482 -11.330471194283746 0 -11.330471194283746 -68.40807516087807 0 0 0 0 -34.535953815195626 -42.448650159371027 0 -42.448650159371027 -56.022413664028136 0 0 0 0 -19.928215923109747 -19.229146157062587 0 -19.229146157062587 -11.59973594587791 0 0 0 0 -18.127533545808546 -15.136193576810911 0 -15.136193576810911 -32.415937871326605 0 0 0 0 103.19149826397145 123.54921010225007 0 123.54921010225007 52.531779337334228 0 0 0 0 52.09807200473773 16.840757137977562 0 16.840757137977562 15.601736178010469 0 0 0 0 -24.862160387663607 -34.030782996816924 0 -34.030782996816924 -54.114310951910738 0 0 0 0 -3.1059936951608389 6.9351769182983958 0 6.9351769182983958 -11.274943891769809 0 0 0 0 -8.6473525692581461 73.763681866004845 0 73.763681866004845 41.7840643469317 0 0 0 0 -60.460425779575644 -47.667252457387804 0 -47.667252457387804 -56.67704537519603 0 0 0 0 63.891593543771592 24.564433658406415 0 24.564433658406415 -251.42790765519021 0 0 0 0 -162.44305076244589 -103.03926849433515 0 -103.03926849433515 -162.74547509360127 0 0 0 0 -136.099789139753 71.736718836055388 0 71.736718836055388 -244.05466248773155 0 0 0 0 14.616931881758319 39.109015153764631 0 39.109015153764631 -520.76102899522357 0 0 0 0 37.342835012941237 -62.008252834790255 0 -62.008252834790255 -240.72506950632669 0 0 0 0 10.443526880406125 -4.6290281286710524 0 -4.6290281286710524 -113.73422543358538 0 0 0 0 -5.9011079983889658 -56.834383893231461 0 -56.834383893231461 -191.0206002531886 0 0 0 0 -34.411013589183085 -4.3909752709696477 0 -4.3909752709696477 -94.158829955278634 0 0 0 0 -53.312484425137882 -37.61123218063949 0 -37.61123218063949 -83.202724724098516 0 0 0 0 52.616631399785547 -70.152377677941331 0 -70.152377677941331 -506.16117001919702 0 0 0 0 47.356003947833202 4.5489214599476782 0 4.5489214599476782 -232.44335917815624 0 0 0 0 33.682436447939153 13.400577310269 0 13.400577310269 -198.27650725901913 0 0 0 0 42.528604196826109 22.922719141703055 0 22.922719141703055 -228.65634660499563 0 0 0 0 41.683624835823252 28.523954717044262 0 28.523954717044262 -184.39177520193334 0 0 0 0 3.6984606556177368 20.677250342756452 0 20.677250342756452 -156.945575754522 0 0 0 0 24.488630902950263 0.12658673146870569 0 0.12658673146870569 -162.37404102487267 0 0 0 0 8.3506988372098476 -13.872157336480086 0 -13.872157336480086 -129.58894855670223 0 0 0 0 17.852200516244011 3.0151230703122565 0 3.0151230703122565 -81.502270595501614 0 0 0 0 37.748070433965722 -13.261111410554804 0 -13.261111410554804 -130.32361550016503 0 0 0 0 35.239822345238281 -11.062358031093027 0 -11.062358031093027 -147.03868642312045 0 0 0 0 7.8387634569538136 -13.742762393444082 0 -13.742762393444082 -90.257596072362503 0 0 0 0 22.951796890893604 -22.458628387432327 0 -22.458628387432327 -61.863130557525437 0 0 0 0 32.868028207235511 11.725518044968339 0 11.725518044968339 -75.348398973881558 0 0 0 0 95.368026449135414 15.957882849270391 0 15.957882849270391 -43.780173367333191 0 0 0 0 1.390193636385936 0.31969957465476284 0 0.31969957465476284 -0.012244035986100243 0 0 0 0 34.075060874844439 71.799899725478099 0 71.799899725478099 40.831671271262167 0 0 0 0 16.132711543931919 -26.939177413874859 0 -26.939177413874859 25.249329142934585 0 0 0 0 28.06467393521234 22.025160083241644 0 22.025160083241644 -15.45203005100484 0 0 0 0 111.12267263501917 78.317257575043186 0 78.317257575043186 -87.052924771087419 0 0 0 0 -55.089909900184921 -112.35794680252729 0 -112.35794680252729 58.454714512001374 0 0 0 0 -5.4422590994709026 -75.291710147117556 0 -75.291710147117556 -85.86069813598624 0 0 0 0 -30.791955534814406 -21.041790417042648 0 -21.041790417042648 -11.028705910084682 0 0 0 0 -21.688106943173807 17.2883834257118 0 17.2883834257118 105.00677526489744 0 0 0 0 10.559430753497729 -21.102748642131388 0 -21.102748642131388 -3.4480821656794003 0 0 0 0 -15.957141543829948 -13.127409765638731 0 -13.127409765638731 16.129031967167975 0 0 0 0 4.0718074391473635 -0.33554453029824316 0 -0.33554453029824316 -6.5376065879649268 0 0 0 0 14.138961849836051 6.5405973156030086 0 6.5405973156030086 -28.68200459536456 0 0 0 0 18.551493411521733 5.1298726947134128 0 5.1298726947134128 -43.11956365405149 0 0 0 0 3.245042913402358 -1.0711456459321198 0 -1.0711456459321198 -17.739699391490603 0 0 0 0 15.727342606468937 -4.1528404816735929 0 -4.1528404816735929 -65.948160259697033 0 0 0 0 11.445667549401605 -20.101583119201678 0 -20.101583119201678 -88.555715032118769 0 0 0 0 -19.732836207432683 -42.005017385221436 0 -42.005017385221436 -33.150717861302837 0 0 0 0 0.84918918009438515 -3.0325581668125219 0 -3.0325581668125219 -1.1038272656523986 0 0 0 0 -13.123351260507889 -0.26187821536041156 0 -0.26187821536041156 -86.133110317048704 0 0 0 0 -2.3880561494913763 -3.7283638954268099 0 -3.7283638954268099 -126.43258814738874 0 0 0 0 8.3684440323172566 -28.487360026592796 0 -28.487360026592796 -83.208113853339455 0 0 0 0 22.943426903204113 -6.0786845293687293 0 -6.0786845293687293 -151.69924366319901 0 0 0 0 22.53365697391655 -8.408232779987884 0 -8.408232779987884 -164.20765472969833 0 0 0 0 -14.718156869036193 24.284104570827367 0 24.284104570827367 -145.54531182692881 0 0 0 0 -2.7299683329640629 -7.6913210900384001 0 -7.6913210900384001 -117.39422875537275 0 0 0 0 -5.1530839845268019 4.7627931594470283 0 4.7627931594470283 -147.03974810982072 0 0 0 0 -10.20642396006906 13.684394566485935 0 13.684394566485935 -112.68378617567214 0 0 0 0 0.67870438108184317 0.73652977090387139 0 0.73652977090387139 -124.90312392227747 0 0 0 0 -5.3750463888127342 6.4442620932968566 0 6.4442620932968566 -96.443655643706734 0 0 0 0 0.90440163783250682 -8.1066507370796899 0 -8.1066507370796899 -89.777832144784043 0 0 0 0 -0.83058037656610395 -22.40354038462101 0 -22.40354038462101 -77.537398748245323 0 0 0 0 2.4770025275029184 -10.878088324239798 0 -10.878088324239798 -65.449005720485729 0 0 0 0 7.8750468554057989 -6.3297788733434572 0 -6.3297788733434572 -110.55399842022462 0 0 0 0 8.9134411634712478 -17.512711810129076 0 -17.512711810129076 -60.561971478404303 0 0 0 0 20.98163719212107 -10.702006510091451 0 -10.702006510091451 -57.205029622005895 0 0 0 0 -2.4163266845771432 5.4074226525672202 0 5.4074226525672202 -82.459834351699101 0 0 0 0 6.0866356756764617 -20.089486288481567 0 -20.089486288481567 -55.758636545109766 0 0 0 0 -0.14262359571534944 -4.5551975596245029 0 -4.5551975596245029 -77.300152443574916 0 0 0 0 10.292325267051638 2.5857451585106901 0 2.5857451585106901 -109.38397582800644 0 0 0 0 8.4446047216351872 -28.384276820288505 0 -28.384276820288505 -56.862229184429452 0 0 0 0 13.053402046847168 -21.242268914214947 0 -21.242268914214947 -60.280376307924598 0 0 0 0 4.4286314932080586 -24.756027181023455 0 -24.756027181023455 -36.624748352114693 0 0 0 0 20.409991797216207 -29.940487128311361 0 -29.940487128311361 -46.170816361620382 0 0 0 0 10.323362345966643 -25.342877615566977 0 -25.342877615566977 -34.497345363692148 0 0 0 0 6.378636082421238 -14.106504830616309 0 -14.106504830616309 -33.081601896266811 0 0 0 0 16.983293245235018 -33.165143451274162 0 -33.165143451274162 -16.648145859253418 0 0 0 0 25.867250334320033 -32.580188064715912 0 -32.580188064715912 -26.772382457473213 0 0 0 0 23.312422834525023 -42.366241404427456 0 -42.366241404427456 -23.345810737118882 0 0 0 0 19.319371737915958 -31.451353170140464 0 -31.451353170140464 -39.753162303248246 0 0 0 0 11.495968545712458 -35.275993908522651 0 -35.275993908522651 -26.604344667797704 0 0 0 0 9.3328663329502888 -35.022727314244548 0 -35.022727314244548 -23.80306814731739 0 0 0 0 15.504822554419889 -28.578573521789622 0 -28.578573521789622 -38.051945032901131 0 0 0 0 17.676929104381998 -18.98956360997181 0 -18.98956360997181 -185.26601203311748 0 0 0 0 9.9555534789071949 -22.006078288838104 0 -22.006078288838104 -3.0827333074745553 0 0 0 0 1.8985105669844415 -43.298023895618826 0 -43.298023895618826 -178.24800876259178 0 0 0 0 12.158959607046427 -28.455198840165394 0 -28.455198840165394 -13.962427336155088 0 0 0 0 1.5593926915947769 0.36897243898967957 0 0.36897243898967957 -8.1294907889784369 0 0 0 0 24.475901639224048 -4.7165492940712284 0 -4.7165492940712284 -251.2536307978844 0 0 0 0 -7.2215936933480407 14.783670611432171 0 14.783670611432171 -249.28755301242927 0 0 0 0 -1.9867810852514864 -1.5449732497240163 0 -1.5449732497240163 4.0386343657685728 0 0 0 0 22.572126913768898 -26.990927936691151 0 -26.990927936691151 -34.823776092303092 0 0 0 0 -7.6340767575798054 -19.340148512132146 0 -19.340148512132146 -35.120248013066885 0 0 0 0 8.793668621131701 -20.933556894178764 0 -20.933556894178764 -28.826838640186907 0 0 0 0 11.506863724965342 -36.687494293686541 0 -36.687494293686541 -47.739087746740552 0 0 0 0 20.449237653059754 -18.427798122726017 0 -18.427798122726017 -141.14572374335103 0 0 0 0 10.162689531065979 -22.785617844962104 0 -22.785617844962104 2.7182481391052873 0 0 0 0 1.4775551665065905 -32.726683189266623 0 -32.726683189266623 2.1576311743920087 0 0 0 0 38.49538692051101 5.5177413156688999 0 5.5177413156688999 -99.901212691887849 0 0 0 0 19.19764427229984 31.267094637963964 0 31.267094637963964 -53.583235785368743 0 0 0 0 7.3307620769337518 -33.060692740364175 0 -33.060692740364175 -67.380947250683676 0 0 0 0 13.153478280333729 25.407854150922503 0 25.407854150922503 -59.180776433837309 0 0 0 0 35.612149780128675 31.784452350811989 0 31.784452350811989 -69.842198201622523 0 0 0 0 10.224246630419202 14.927813996271652 0 14.927813996271652 -46.960466452264882 0 0 0 0 30.299691580042236 26.194422648262844 0 26.194422648262844 -75.717243015373242 0 0 0 0 19.131577011818081 -6.8647916780500964 0 -6.8647916780500964 -90.491535295039284 0 0 0 0 2.9395102996706193 6.6502787748467149 0 6.6502787748467149 -0.96939929308599915 0 0 0 0 15.386794833038948 22.555495418017017 0 22.555495418017017 -71.955123621767598 0 0 0 0 3.5139536450819833 4.0351001344592987 0 4.0351001344592987 -83.245761489171855 0 0 0 0 8.7113761730024635 16.049399561528844 0 16.049399561528844 -98.432883996227247 0 0 0 0 1.3349784800766429 -21.575934607559248 0 -21.575934607559248 -116.21470010161283 0 0 0 0 -2.81424589424023 14.359623324180575 0 14.359623324180575 -143.14152339931024 0 0 0 0 -1.0093798270313528 -9.0374376450549789 0 -9.0374376450549789 -123.35022069561091 0 0 0 0 -13.09006148881781 -24.437775309701465 0 -24.437775309701465 -179.31589576075567 0 0 0 0 -8.6205509011324466 18.242990164908406 0 18.242990164908406 -127.59532980058793 0 0 0 0 -16.164029867161844 16.990488182296758 0 16.990488182296758 -65.833850241571781 0 0 0 0 29.883747237343869 -2.6862743488200067 0 -2.6862743488200067 -62.552531251109031 0 0 0 0 3.2580986789389499 -6.4355646558178705 0 -6.4355646558178705 -104.6346055356953 0 0 0 0 1.3539687755396699 -1.0808122712642216 0 -1.0808122712642216 -58.297625044026063 0 0 0 0 1.030899572105227 31.38828336732513 0 31.38828336732513 -88.86150672241456 0 0 0 0 -10.776467049968687 29.12386261500933 0 29.12386261500933 -16.601972191916502 0 0 0 0 -43.331081054835522 25.747956977575086 0 25.747956977575086 29.847072222062707 0 0 0 0 4.6053184417226269 7.0026920650161131 0 7.0026920650161131 -0.26593896899006619 0 0 0 0 31.150718716179199 -10.632217054651164 0 -10.632217054651164 -11.719111929734936 0 0 0 0 32.491412526368833 -17.16421545780122 0 -17.16421545780122 -130.04332245980913 0 0 0 0 9.8614929247969485 115.93228325629025 0 115.93228325629025 -282.78539031791661 0 0 0 0 -16.163950953015046 46.612558425396855 0 46.612558425396855 -90.902760368822783 0 0 0 0 15.083913144464532 46.188657017062724 0 46.188657017062724 -95.657007678757509 0 0 0 0 2.1261804403311544 -20.780070800250542 0 -20.780070800250542 -14.83868846819496 0 0 0 0 -12.594227912553833 52.817395661722912 0 52.817395661722912 -97.864084463388281 0 0 0 0 -18.645276398883652 6.3675062668371538 0 6.3675062668371538 2.9152051700202719 0 0 0 0 7.5886834774880647 6.7713966916137949 0 6.7713966916137949 -2.4460924091119454 0 0 0 0 -10.931087878275321 -2.3173874722979235 0 -2.3173874722979235 28.721642101121688 0 0 0 0 43.722270766673319 -13.35571635317865 0 -13.35571635317865 -13.741993723467203 0 0 0 0 -243.85087107381423 72.288975266767011 0 72.288975266767011 -16.305117326130585 0 0 0 0 -85.957718127353928 200.78776292533439 0 200.78776292533439 -293.11471747760152 0 0 0 0 -128.33132922599088 49.851345358183607 0 49.851345358183607 -252.41607673878661 0 0 0 0 -284.23124870660376 222.48927591142092 0 222.48927591142092 -256.06810878049146 0 0 0 0 -58.445261842630771 158.63190338609456 0 158.63190338609456 -229.85428045194567 0 0 0 0 -73.501385854043747 144.61204435724267 0 144.61204435724267 -157.81331366315862 0 0 0 0 15.01650544971676 58.743775326634932 0 58.743775326634932 -187.38754138148215 0 0 0 0 -32.6696244066693 38.349493301133407 0 38.349493301133407 -118.43712497751403 0 0 0 0 -42.88258969869554 102.7844412681236 0 102.7844412681236 -229.7682547193981 0 0 0 0 14.362180383947816 49.804108576503495 0 49.804108576503495 -144.58291988645578 0 0 0 0 -81.604208660551194 12.441612038153835 0 12.441612038153835 -128.35589239700857 0 0 0 0 -89.919342004663122 114.5550095051367 0 114.5550095051367 -242.37547152996558 0 0 0 0 -120.17262992038468 116.5486930104671 0 116.5486930104671 -198.92306627603102 0 0 0 0 -88.163555703932616 190.31131077351711 0 190.31131077351711 -322.70570995336675 0 0 0 0 -152.38680749306104 177.53317831717686 0 177.53317831717686 -262.65318924424355 0 0 0 0 -181.86842274137052 301.24385148240617 0 301.24385148240617 -432.56731847747574 0 0 0 0 0.32547009123022796 -0.41802240103672261 0 -0.41802240103672261 -1.6499734356609395 0 0 0 0 10.885054904279968 4.1044986978504312 0 4.1044986978504312 -22.105829265627108 0 0 0 0 3.1336771548403988 7.1521477564507094 0 7.1521477564507094 -0.19954364402054692 0 0 0 0 -26.612479157393864 8.7104350805893773 0 8.7104350805893773 15.169613176427674 0 0 0 0 0.88090604697990393 -0.95672381953316687 0 -0.95672381953316687 -5.7146641541567647 0 0 0 0 -89.719328960695748 184.52612892522666 0 184.52612892522666 -322.30215359453359 0 0 0 0 -103.08113654907356 232.80244028660491 0 232.80244028660491 -488.1080395180179 0 0 0 0 -1.4055339574981218 0.080595721983506508 0 0.080595721983506508 0.18322000423428353 0 0 0 0 3.0270642780620154 3.8982957509287743 0 3.8982957509287743 1.2074860748274361 0 0 0 0 6.172103392637041 1.9652658168180324 0 1.9652658168180324 8.0537845010512683 0 0 0 0 11.116305867026313 18.847474119173057 0 18.847474119173057 -112.95505813870113 0 0 0 0 2.9911729882514919 -5.9287628538622812 0 -5.9287628538622812 -101.99965896102549 0 0 0 0 3.0168656801608336 37.488953851595852 0 37.488953851595852 -55.092216277917032 0 0 0 0 0.15623552120769091 -10.586882704814798 0 -10.586882704814798 -148.82832430299459 0 0 0 0 5.5400034583244633 28.178718399842182 0 28.178718399842182 -187.07414147450982 0 0 0 0 80.053529209136286 40.776863775430684 0 40.776863775430684 -249.51891720650019 0 0 0 0 3.6824658502223429 132.71221780563064 0 132.71221780563064 -55.959866201970726 0 0 0 0 74.538156392517067 23.199884533256409 0 23.199884533256409 -179.71217452115343 0 0 0 0 36.677604572687414 165.97667181653014 0 165.97667181653014 -300.807991517765 0 0 0 0 39.154767170912237 -66.251590791471244 0 -66.251590791471244 -443.00261282946303 0 0 0 0 -152.06873903161068 229.14977111250664 0 229.14977111250664 -222.382111015384 0 0 0 0 -135.67764180636414 205.02660976205152 0 205.02660976205152 -159.18230138762056 0 0 0 0 -130.58303922610958 191.39597984530337 0 191.39597984530337 -156.04314826033806 0 0 0 0 1.4129274994162753 0.67681510355820507 0 0.67681510355820507 0.049682862993442711 0 0 0 0 -225.85628001220334 -175.91075960291982 0 -175.91075960291982 -14.772177647042554 0 0 0 0 -140.95132745349554 140.9295276427323 0 140.9295276427323 -135.41761087564373 0 0 0 0 74.858063216098572 182.3317014363256 0 182.3317014363256 -179.93767415356342 0 0 0 0 -195.52576566842049 113.65296846734964 0 113.65296846734964 -173.75569477746467 0 0 0 0 51.530562179381377 214.32256928953939 0 214.32256928953939 -156.8074356614261 0 0 0 0 -169.09831899807068 -177.34255041732467 0 -177.34255041732467 -155.01075352572479 0 0 0 0 -0.37327566047877436 1.3617730781604394 0 1.3617730781604394 -3.7960383877117039 0 0 0 0 210.29736629423655 317.94968723830425 0 317.94968723830425 -242.34072501684022 0 0 0 0 23.837014037132121 363.07524861024285 0 363.07524861024285 -163.54467019026197 0 0 0 0 -115.01288638147321 -186.10838589306877 0 -186.10838589306877 -17.578866742652735 0 0 0 0 0.58971739990667871 -0.22459897035108867 0 -0.22459897035108867 -0.28305921509880516 0 0 0 0 16.444010651277495 -11.120867325185827 0 -11.120867325185827 -39.191467842619659 0 0 0 0 25.643059593097291 -34.840388620656313 0 -34.840388620656313 -243.69401449010184 0 0 0 0 58.300891354761006 27.523700822701358 0 27.523700822701358 -39.315902513041465 0 0 0 0 38.305801066407668 20.743893662458859 0 20.743893662458859 -130.70274592890928 0 0 0 0 68.919253600145566 -82.620739240246621 0 -82.620739240246621 -196.81685283959087 0 0 0 0 -102.87715437977022 -53.204428584519519 0 -53.204428584519519 -52.106007448757737 0 0 0 0 -0.65985088311936124 -17.4020382444196 0 -17.4020382444196 -39.911666104735559 0 0 0 0 -3.4992286359795344 -25.186246748213307 0 -25.186246748213307 -21.206963515549432 0 0 0 0 18.133786273685018 -5.9766137564220116 0 -5.9766137564220116 -67.217263218564767 0 0 0 0 36.647655860989971 -27.759051149647348 0 -27.759051149647348 -42.96929208668007 0 0 0 0 35.928475281904412 -28.599223839522892 0 -28.599223839522892 -33.019281293665699 0 0 0 0 26.423679247396649 -19.044488891788205 0 -19.044488891788205 -29.91616328091186 0 0 0 0 4.4171009674571362 -11.18520733218611 0 -11.18520733218611 -36.528760140235605 0 0 0 0 -13.205735406978874 -28.379822968490771 0 -28.379822968490771 -24.602883292840488 0 0 0 0 -4.0271900380098486 -6.1991159358540244 0 -6.1991159358540244 -15.463882021183963 0 0 0 0 7.3226193393466019 -38.266317448598784 0 -38.266317448598784 -25.496904967469163 0 0 0 0 26.298381456008428 -10.706790232470667 0 -10.706790232470667 -19.347443369988468 0 0 0 0 4.1985032422507516 -3.756743831303325 0 -3.756743831303325 -29.427954649406189 0 0 0 0 2.6583708515159508 5.2259599152609724 0 5.2259599152609724 -27.442008218026402 0 0 0 0 5.6167294818086972 -11.383115576202368 0 -11.383115576202368 -35.147907278137822 0 0 0 0 -7.8888343188830277 46.062698382631424 0 46.062698382631424 -32.632291053821973 0 0 0 0 42.566028662768531 -8.0069971992343199 0 -8.0069971992343199 -36.351843787313555 0 0 0 0 33.16395826732969 -16.450949484500597 0 -16.450949484500597 -39.963090781129722 0 0 0 0 34.229273280551297 -19.026298622426111 0 -19.026298622426111 -35.099350755437627 0 0 0 0 34.702134422018844 -17.794126818087534 0 -17.794126818087534 -39.345112929577226 0 0 0 0 40.455544281339826 -17.615527542072414 0 -17.615527542072414 -51.182407473366766 0 0 0 0 23.908263091206663 -25.468560192661243 0 -25.468560192661243 -43.728490843932377 0 0 0 0 0.0057591039917279652 0.81760805040371931 0 0.81760805040371931 -3.2999065761865154 0 0 0 0 157.29231451494752 -60.46252318923689 0 -60.46252318923689 -68.516774192095909 0 0 0 0 186.39043088289645 4.2381680271787445 0 4.2381680271787445 -27.906343114522315 0 0 0 0 0.71473041510473934 0.43556112139272507 0 0.43556112139272507 -10.365977855595702 0 0 0 0 87.966933002719998 -60.737543620703946 0 -60.737543620703946 -76.989225104171055 0 0 0 0 1.2967337331917346 2.4808641175486166 0 2.4808641175486166 -5.6483306176317853 0 0 0 0 87.343118696041529 -72.494828497925482 0 -72.494828497925482 -28.160639628651303 0 0 0 0 0.23065237681687165 -0.11320271480414767 0 -0.11320271480414767 -7.5887577999030711 0 0 0 0 37.489661956261955 -87.548619250950992 0 -87.548619250950992 -37.781184310948447 0 0 0 0 204.57070510674043 26.008583636688854 0 26.008583636688854 -136.02838959852306 0 0 0 0 -336.88637702745262 -215.29173198338958 0 -215.29173198338958 -55.160061645681708 0 0 0 0 -69.699090543936109 230.54532209454555 0 230.54532209454555 -164.46020134914988 0 0 0 0 -287.7342796975355 20.714974573383188 0 20.714974573383188 -215.2794018570039 0 0 0 0 -1.0728782899400648 1.4904878040520266 0 1.4904878040520266 -2.0805050180524773 0 0 0 0 -50.080219944788439 135.63383393698768 0 135.63383393698768 -5.6612513937366202 0 0 0 0 -87.988281820784323 131.85708480929588 0 131.85708480929588 -72.099117916864998 0 0 0 0 -41.878300698612065 93.802091925164405 0 93.802091925164405 -243.25470029488861 0 0 0 0 -79.909631624233953 101.11389722264494 0 101.11389722264494 -198.29022656416782 0 0 0 0 -103.77169895157749 137.47635481242924 0 137.47635481242924 -41.440245652513113 0 0 0 0 -185.25695052827211 -45.211892045719651 0 -45.211892045719651 -231.37995214285934 0 0 0 0 -132.90286119772918 56.337796115842139 0 56.337796115842139 -130.28771036978469 0 0 0 0 -219.36019038760924 -45.757618469186127 0 -45.757618469186127 -203.75942973415113 0 0 0 0 -169.66462533195886 94.724705355389915 0 94.724705355389915 -122.82551362730374 0 0 0 0 57.209952221927779 -43.22860861193476 0 -43.22860861193476 -411.14488222698128 0 0 0 0 -25.121291257382268 114.68605595990084 0 114.68605595990084 -351.26613154789266 0 0 0 0 -149.34897487023306 -43.036474291969171 0 -43.036474291969171 -333.17961086015748 0 0 0 0 -86.949847006146001 73.240576982978382 0 73.240576982978382 -229.65553541455029 0 0 0 0 -57.58443381091729 90.997713459950319 0 90.997713459950319 -232.31403712015708 0 0 0 0 -70.274898029962287 64.196723713851497 0 64.196723713851497 -332.78312457497304 0 0 0 0 148.76399794677414 151.06064373534048 0 151.06064373534048 -302.84674344191444 0 0 0 0 -70.620291316793214 53.2507951442376 0 53.2507951442376 -215.64841246039578 0 0 0 0 10.148245254206131 0.27769949073262978 0 0.27769949073262978 -45.810922380755073 0 0 0 0 15.196746470249309 13.572897993291917 0 13.572897993291917 -6.1326185518664715 0 0 0 0 19.970837111154651 11.392218429683453 0 11.392218429683453 -20.709561464482249 0 0 0 0 2.1851019989205032 2.8743072177181412 0 2.8743072177181412 -10.610966551894414 0 0 0 0 26.334609643907243 2.6492104541666777 0 2.6492104541666777 -8.501981949317269 0 0 0 0 55.075325196820245 0.67794041648937764 0 0.67794041648937764 -18.222013147165853 0 0 0 0 16.039265588595299 2.8016002717267838 0 2.8016002717267838 -12.269433323112025 0 0 0 0 8.147654513993114 6.6762163041227094 0 6.6762163041227094 -8.8583068355880243 0 0 0 0 -21.19590273819631 -10.753852911635477 0 -10.753852911635477 -2.5938620932865888 0 0 0 0 -1.8561130924407401 -9.2822815520128152 0 -9.2822815520128152 -11.121086716020294 0 0 0 0 14.904773153420846 12.64763823505133 0 12.64763823505133 -16.576245966788882 0 0 0 0 4.4533809776972113 4.2519727603366082 0 4.2519727603366082 -0.46664480430492716 0 0 0 0 -36.41998031032017 -24.882495932890379 0 -24.882495932890379 1.0121255172234669 0 0 0 0 -6.2344737485318547 98.244130404338648 0 98.244130404338648 -89.630158818914424 0 0 0 0 -10.448412946094322 83.120685288693494 0 83.120685288693494 -109.9879620370084 0 0 0 0 -6.3020120804339967 -26.027376654030377 0 -26.027376654030377 15.83214199219583 0 0 0 0 2.1149347307346034 94.481055297917919 0 94.481055297917919 104.71156775088457 0 0 0 0 2.4060871743984187 1.0390509481564223 0 1.0390509481564223 -0.10920527604736208 0 0 0 0 103.17656250547498 166.17726470769412 0 166.17726470769412 -91.856119357506486 0 0 0 0 159.89688455950727 0.37347552715982602 0 0.37347552715982602 -29.239626531555587 0 0 0 0 28.153271158002099 164.19969080865849 0 164.19969080865849 -170.97217812672397 0 0 0 0 -20.715969465570652 88.176603204979074 0 88.176603204979074 -82.801404532521701 0 0 0 0 -19.551304263517522 100.90547529804553 0 100.90547529804553 -67.408286609879724 0 0 0 0 -35.04577781303442 151.92545818281178 0 151.92545818281178 -105.52950846512203 0 0 0 0 -32.972668499706288 162.93133913987822 0 162.93133913987822 -86.40229925192034 0 0 0 0 -57.920299866630103 64.142189155078995 0 64.142189155078995 -178.83505141098249 0 0 0 0 -64.077543156422678 107.00398500152176 0 107.00398500152176 127.66825701698326 0 0 0 0 31.846704493865218 -68.26121063618848 0 -68.26121063618848 -307.27882630555177 0 0 0 0 -13.904586190520604 -85.468828424860476 0 -85.468828424860476 -94.762158830944827 0 0 0 0 22.886062328117077 -120.15993674022502 0 -120.15993674022502 -21.156031766848173 0 0 0 0 25.759788180399482 -222.72160855553375 0 -222.72160855553375 -320.56817923326889 0 0 0 0 129.46617211375997 -67.519327216577949 0 -67.519327216577949 -130.48588167713297 0 0 0 0 35.322079164426896 139.41619290808012 0 139.41619290808012 179.10109464131892 0 0 0 0 330.75286366925138 209.8282771059703 0 209.8282771059703 98.741213592653367 0 0 0 0 83.092576517065027 168.43072313658013 0 168.43072313658013 127.50325864031856 0 0 0 0 106.59041469333715 53.711323506695408 0 53.711323506695408 32.515720589825378 0 0 0 0 -116.42105381313013 -65.942929749926407 0 -65.942929749926407 -40.62826498692084 0 0 0 0 44.673647511261152 -501.65908236408541 0 -501.65908236408541 -833.35826803537566 0 0 0 0 -376.85944265767102 -633.41277900685964 0 -633.41277900685964 537.57080072784083 0 0 0 0 -20.513246480757516 288.60599143961736 0 288.60599143961736 607.48785254971153 0 0 0 0 -24.250205517157156 -2.0403032608137437 0 -2.0403032608137437 -17.652416575636835 0 0 0 0 -5.8392536059163831 8.1704988426936325 0 8.1704988426936325 -22.311364762728772 0 0 0 0 -11.015455358025065 11.036487166807092 0 11.036487166807092 -11.772733807883924 0 0 0 0 -3.8733452803480759 5.3460274574899813 0 5.3460274574899813 -14.828201046971117 0 0 0 0 0.39323197292585443 0.47488239157478063 0 0.47488239157478063 -19.221925549543478 0 0 0 0 -37.25848002118255 102.24807205758134 0 102.24807205758134 -244.87391035899418 0 0 0 0 -109.0027443691115 40.152903318329663 0 40.152903318329663 -5.8206265162684758 0 0 0 0 0.28456580620053717 -2.089410696367235 0 -2.089410696367235 -20.388709868481769 0 0 0 0 -18.761553413066395 -6.8023195702903649 0 -6.8023195702903649 -16.849208108316816 0 0 0 0 -57.580051000953972 22.321285478320533 0 22.321285478320533 -16.025619667296269 0 0 0 0 -12.275349688879032 12.483958600281767 0 12.483958600281767 -14.6060420630929 0 0 0 0 -40.245518692653604 -11.846275967556721 0 -11.846275967556721 -1.9341476399822568 0 0 0 0 20.133850040518155 177.58110654800112 0 177.58110654800112 -755.64376937024281 0 0 0 0 345.5388445561257 291.00392787209057 0 291.00392787209057 -121.99758390632633 0 0 0 0 585.41279700104678 -319.6380503139344 0 -319.6380503139344 -1379.2265173476735 0 0 0 0 59.202166784079054 -37.386818919302641 0 -37.386818919302641 -6.077444346210541 0 0 0 0 -6.1923881560225986 -4.6576783896382796 0 -4.6576783896382796 -5.2974900602180455 0 0 0 0 -175.13959177166453 -164.60400762537711 0 -164.60400762537711 187.55516443885062 0 0 0 0 -2.2318845820725244 0.21767859118142852 0 0.21767859118142852 -2.4072489377237432 0 0 0 0 -170.90175389339129 -312.30643405450337 0 -312.30643405450337 179.9675807876647 0 0 0 0 -153.84923652531597 -73.515936851961669 0 -73.515936851961669 576.13386835019628 0 0 0 0 147.31986643073651 -121.03029056284868 0 -121.03029056284868 82.98050188189427 0 0 0 0 -47.539098078785173 -17.2390501029804 0 -17.2390501029804 -58.448067763332801 0 0 0 0 -40.968003727028417 63.855720460201155 0 63.855720460201155 -281.57349076680111 0 0 0 0 78.997442297265479 -90.780515530805133 0 -90.780515530805133 -469.32336755868528 0 0 0 0 64.992585442597601 -117.66714053446321 0 -117.66714053446321 -326.51150201571363 0 0 0 0 -23.204608209338403 -119.82689024841602 0 -119.82689024841602 -265.90392003250236 0 0 0 0 -9.8974553511760526 -9.2025839508071385 0 -9.2025839508071385 -10.260524224650339 0 0 0 0 -62.399070127255982 -25.140568872819131 0 -25.140568872819131 -53.617560052520275 0 0 0 0 -37.485757258863487 -42.334647074945678 0 -42.334647074945678 -56.419994529751875 0 0 0 0 -34.298343160617151 -14.991328102994885 0 -14.991328102994885 -157.99227064058505 0 0 0 0 -1.2352163732814461 12.617381292786376 0 12.617381292786376 -36.192917390362709 0 0 0 0 -3.9784155324644779 -11.056712615272868 0 -11.056712615272868 -11.561050301446933 0 0 0 0 -15.330185254017124 36.889387851068022 0 36.889387851068022 2.1412901172298007 0 0 0 0 -3.1653707783380014 -52.797510632942249 0 -52.797510632942249 -228.17706490245473 0 0 0 0 2.9648974754077742 -1.183446278668022 0 -1.183446278668022 -10.87680609647488 0 0 0 0 21.343354004412813 -6.8430290392494086 0 -6.8430290392494086 59.72683785238678 0 0 0 0 221.67064074778136 94.410367731154111 0 94.410367731154111 40.564063452271512 0 0 0 0 14.830584240461985 -11.799134653161637 0 -11.799134653161637 -0.92719172720582321 0 0 0 0 267.52592686711182 46.980393459898778 0 46.980393459898778 -442.2818805868701 0 0 0 0 148.00015737830472 -122.92900651637046 0 -122.92900651637046 -41.016849199939315 0 0 0 0 13.472568824143309 -367.56747362287479 0 -367.56747362287479 -275.91152016228807 0 0 0 0 -0.52927039252711072 -2.5358472266210512 0 -2.5358472266210512 -8.343095735207875 0 0 0 0 -71.95453831200939 427.02026091903826 0 427.02026091903826 241.09592361788401 0 0 0 0 -374.61220827223951 263.757598078716 0 263.757598078716 245.44617039966033 0 0 0 0 203.12614437317279 102.58232165015761 0 102.58232165015761 29.909427684568783 0 0 0 0 -455.67152308947334 -116.72788942572583 0 -116.72788942572583 27.038023489079933 0 0 0 0 -77.8900163987837 -305.94124733124772 0 -305.94124733124772 -396.30986903942721 0 0 0 0 21.849123424428399 -68.653944901576324 0 -68.653944901576324 -43.791404217430681 0 0 0 0 -155.76082836355647 144.20444729085818 0 144.20444729085818 -215.2233100483827 0 0 0 0 36.840041846814529 32.338968130757166 0 32.338968130757166 -606.9328607811558 0 0 0 0 52.997805597876322 -51.012667974964643 0 -51.012667974964643 -226.70342480299223 0 0 0 0 15.998268881081913 47.786310706096629 0 47.786310706096629 -96.221947624637579 0 0 0 0 -52.572552487982421 112.03853508477732 0 112.03853508477732 -95.358448906667121 0 0 0 0 -15.73865428205545 98.407957085259113 0 98.407957085259113 -140.74536780276958 0 0 0 0 -76.926561981557825 156.28568836405975 0 156.28568836405975 -155.11951484760266 0 0 0 0 -35.718123815509045 119.61323622312011 0 119.61323622312011 -165.20120300702911 0 0 0 0 -83.236184037541307 123.71275750608083 0 123.71275750608083 -161.53402013641607 0 0 0 0 -58.113241006977432 125.04381329948046 0 125.04381329948046 -181.46337848369149 0 0 0 0 -85.203093492491917 118.13499697649968 0 118.13499697649968 -138.10322637488207 0 0 0 0 -60.186347609982931 85.6562895064435 0 85.6562895064435 -149.08743948202755 0 0 0 0 -24.368697654601704 116.6943736074254 0 116.6943736074254 -166.78243794124865 0 0 0 0 -72.992143935679962 92.462183077104783 0 92.462183077104783 -176.65203334261241 0 0 0 0 0.51051532774951269 0.53789490184546729 0 0.53789490184546729 -3.8458523713315742 0 0 0 0 -127.49513697892257 187.80308635929759 0 187.80308635929759 -195.78892410330081 0 0 0 0 -53.072593544712731 -78.735379413103828 0 -78.735379413103828 -72.088509269875431 0 0 0 0 -118.4382822957532 -213.93956000047729 0 -213.93956000047729 -245.74003671995888 0 0 0 0 -6.427883820993884 19.031255200086889 0 19.031255200086889 -58.662229898920486 0 0 0 0 12.310252581539316 2.4776161605186644 0 2.4776161605186644 -45.818992125619843 0 0 0 0 64.614843934584997 16.665516492346796 0 16.665516492346796 -77.953980032394611 0 0 0 0 0.47911585229882903 -0.49090608670042712 0 -0.49090608670042712 -8.5321666305313499 0 0 0 0 -75.380505567008754 39.288496697378378 0 39.288496697378378 -11.803679475699028 0 0 0 0 21.959280994214168 -13.824538960345308 0 -13.824538960345308 -22.396752757944341 0 0 0 0 -9.6425909210524878 1.7685465366394055 0 1.7685465366394055 -1.2658739620001143 0 0 0 0 -55.845548958323889 -2.0833611166326591 0 -2.0833611166326591 -62.387316825936068 0 0 0 0 -8.4814040387987006 9.192112834090949 0 9.192112834090949 -9.1504488173195568 0 0 0 0 -5.6669980245770297 -5.9141361742174681 0 -5.9141361742174681 -5.0657741939008929 0 0 0 0 -15.838809695105283 5.5709360028085939 0 5.5709360028085939 -2.0471780860731315 0 0 0 0 -46.170986933053427 -49.519254496335634 0 -49.519254496335634 -108.27466620557243 0 0 0 0 -17.30886133161448 18.743592450349752 0 18.743592450349752 -16.363644777899026 0 0 0 0 -23.490020001973335 13.513872930581783 0 13.513872930581783 -2.1288040486979298 0 0 0 0 -20.798755504588371 40.645241266489393 0 40.645241266489393 -43.815767815463005 0 0 0 0 9.0065375185263079 -15.781379379534552 0 -15.781379379534552 -40.783785688155923 0 0 0 0 20.178035417907594 -108.72230274976197 0 -108.72230274976197 73.422768238424396 0 0 0 0 0.89226787002077579 -1.6609682667600794 0 -1.6609682667600794 -5.0431333749962732 0 0 0 0 0.41028763869695917 -1.6478083259973992 0 -1.6478083259973992 -10.751420316786437 0 0 0 0 13.081885544519082 4.8971872957290543 0 4.8971872957290543 -20.243502530905971 0 0 0 0 -17.306672570199225 22.748086679421249 0 22.748086679421249 -99.930453084562032 0 0 0 0 37.925862044396467 6.9292415721693033 0 6.9292415721693033 -30.297598477449355 0 0 0 0 91.164924243197618 -45.069388054080264 0 -45.069388054080264 -32.83931604602185 0 0 0 0 -9.298142805218049 31.637224741305545 0 31.637224741305545 -0.57479868070731754 0 0 0 0 6.4404967065897836 67.393371932053924 0 67.393371932053924 -124.83159661696118 0 0 0 0 -32.304981681407753 92.675154621018009 0 92.675154621018009 -107.92926076260483 0 0 0 0 45.391702645056057 -4.7148180921412859 0 -4.7148180921412859 -66.3522156373092 0 0 0 0 29.100727616512359 -14.612017596497026 0 -14.612017596497026 -46.898607602586708 0 0 0 0 80.65935699872216 7.7253367057674041 0 7.7253367057674041 -51.129322787644924 0 0 0 0 7.9671149811138093 -4.2139088494623138 0 -4.2139088494623138 45.442712242005655 0 0 0 0 38.795787409122539 119.89669110378668 0 119.89669110378668 -288.24446216649085 0 0 0 0 0.92042155376241563 -1.2929496917453278 0 -1.2929496917453278 -1.9218878138956512 0 0 0 0 106.0039763536895 60.850472944002831 0 60.850472944002831 -282.18666829034919 0 0 0 0 27.588337155833386 31.057938113404134 0 31.057938113404134 -200.66358079812926 0 0 0 0 136.97004567639476 -10.920592139211294 0 -10.920592139211294 -250.71140367289991 0 0 0 0 -178.68323395275365 -289.93802130107542 0 -289.93802130107542 110.49589219338395 0 0 0 0 5.7772911062253849 -21.564470923367441 0 -21.564470923367441 -46.875604772394453 0 0 0 0 -25.892593040103975 335.20022376774068 0 335.20022376774068 -215.96721077495022 0 0 0 0 0.99308611691945914 0.81594232804311417 0 0.81594232804311417 -4.0647038393114201 0 0 0 0 1.5568738443203778 -2.0284791174212629 0 -2.0284791174212629 -5.316062061212989 0 0 0 0 -26.757479269636391 -45.919118756854004 0 -45.919118756854004 -79.600332343841728 0 0 0 0 97.74229242007641 -91.5037359824546 0 -91.5037359824546 27.042823054951441 0 0 0 0 123.09677250735811 -186.78963296212376 0 -186.78963296212376 1.8168053419067292 0 0 0 0 3.8826097258883987 -18.306764883285311 0 -18.306764883285311 -46.223468432406769 0 0 0 0 37.17297972265078 -6.1783676942923194 0 -6.1783676942923194 -92.962679123809266 0 0 0 0 16.644475685967336 -125.9229947970116 0 -125.9229947970116 -61.173159123125515 0 0 0 0 -43.958827293607101 -58.184522982478484 0 -58.184522982478484 84.984297483291812 0 0 0 0 118.02198287319516 -46.133446843360616 0 -46.133446843360616 -8.7620140476656161 0 0 0 0 -0.11369993848597915 -51.475622399460008 0 -51.475622399460008 -50.876793675264707 0 0 0 0 44.512159811176844 -141.15699213618973 0 -141.15699213618973 -113.43227974667752 0 0 0 0 128.74612931259128 -46.807548131961994 0 -46.807548131961994 -114.83036337035264 0 0 0 0 58.16810168310576 -70.378947650235204 0 -70.378947650235204 37.502460370279096 0 0 0 0 77.034533533133754 16.505311961742336 0 16.505311961742336 -166.576384331187 0 0 0 0 83.697110467205547 -34.458992422303595 0 -34.458992422303595 -69.971130648995313 0 0 0 0 140.39759772161733 -14.444792598438653 0 -14.444792598438653 -163.70869953165351 0 0 0 0 63.72075592605205 -1.616539880810933 0 -1.616539880810933 -191.08915471970431 0 0 0 0 51.657355887161884 36.771023181298233 0 36.771023181298233 -303.74586680891116 0 0 0 0 12.83886012874359 73.986830238656694 0 73.986830238656694 -192.19467405764772 0 0 0 0 34.42725357880181 95.766328742068254 0 95.766328742068254 -280.81131340609136 0 0 0 0 56.916600231201301 65.970237229213126 0 65.970237229213126 -229.2321033401895 0 0 0 0 51.882279964506552 22.016847586823133 0 22.016847586823133 -182.90508490996035 0 0 0 0 57.441335456566634 35.677265003158027 0 35.677265003158027 -163.23590159914966 0 0 0 0 79.995184342835273 -21.189024589995824 0 -21.189024589995824 -140.91596286653657 0 0 0 0 -1.1293641221716371 -6.2963269469146326 0 -6.2963269469146326 -83.780426611792791 0 0 0 0 15.056998985874088 30.746757128703393 0 30.746757128703393 -170.48407484259405 0 0 0 0 -3.2619242622114371 2.4028275457346808 0 2.4028275457346808 -109.90520903721699 0 0 0 0 -12.255932205649929 -25.390850926796837 0 -25.390850926796837 -33.762147575876618 0 0 0 0 2.1726559005111312 4.6025210508526015 0 4.6025210508526015 -109.21185899862212 0 0 0 0 25.732300660803087 -3.9780525925488988 0 -3.9780525925488988 -12.851498688997374 0 0 0 0 54.662574794022589 -80.974725572135867 0 -80.974725572135867 -14.114609744417976 0 0 0 0 127.79360591367595 -52.092852924560248 0 -52.092852924560248 -88.288424236743595 0 0 0 0 2.3806985764772914 -3.467705175931119 0 -3.467705175931119 -17.184792755564246 0 0 0 0 21.858690827417377 40.204742102890123 0 40.204742102890123 -5.5488690478250646 0 0 0 0 -53.287747657587715 139.37748091013964 0 139.37748091013964 124.83489213419307 0 0 0 0 4.9602841727513791 1.9514120422774717 0 1.9514120422774717 -0.7858139381078213 0 0 0 0 62.437047902375525 262.49086445796456 0 262.49086445796456 -230.01749795212891 0 0 0 0 5.8868959900765958 129.29447125397337 0 129.29447125397337 256.66274803986926 0 0 0 0 -7.856551995095149 4.1698217385587384 0 4.1698217385587384 -0.21975039421075238 0 0 0 0 31.693272955056273 -168.08573909564166 0 -168.08573909564166 54.859525835890963 0 0 0 0 19.013845861155204 -18.948755635224941 0 -18.948755635224941 -44.298684990022593 0 0 0 0 10.018607874301779 41.842018696146624 0 41.842018696146624 18.782789917759146 0 0 0 0 1.4268165499576959 -1.0689587158171641 0 -1.0689587158171641 2.4475872404216794 0 0 0 0 -0.21850252009510385 -0.11642886265375196 0 -0.11642886265375196 0.30484237045157858 0 0 0 0 -142.3241698531383 29.369440023783682 0 29.369440023783682 343.02970181147612 0 0 0 0 7.5030955875712664 -10.671475312993977 0 -10.671475312993977 -32.634238060851203 0 0 0 0 -59.481394356511373 -11.536390970319189 0 -11.536390970319189 61.620600395168367 0 0 0 0 -13.030283704378235 30.111478367044583 0 30.111478367044583 -97.947077703982359 0 0 0 0 -94.667439221942914 43.787278565922861 0 43.787278565922861 -5.5439982946809323 0 0 0 0 -107.02709596787281 -99.073599101423497 0 -99.073599101423497 69.481184178923286 0 0 0 0 -113.08284002563823 -181.91503797353289 0 -181.91503797353289 -201.48383662132255 0 0 0 0 -1.1012554232611862 -0.93105984471135983 0 -0.93105984471135983 0.21881507919320509 0 0 0 0 -136.92932931960968 -95.191613224807952 0 -95.191613224807952 182.95033106821916 0 0 0 0 50.565595746357417 123.58663316876022 0 123.58663316876022 -733.11931992630161 0 0 0 0 56.265699645890436 66.257674510048673 0 66.257674510048673 -247.9026190703953 0 0 0 0 -142.08442678343363 321.34442773576393 0 321.34442773576393 -250.12905813622638 0 0 0 0 -207.01006751934892 -383.48781144281566 0 -383.48781144281566 -296.71821582987468 0 0 0 0 -236.02512428592567 391.51542971602339 0 391.51542971602339 -293.62531979563391 0 0 0 0 189.64289233760337 -46.186825168331779 0 -46.186825168331779 -919.96996835651771 0 0 0 0 -179.7510894676725 -416.21294456902069 0 -416.21294456902069 -647.96563260893026 0 0 0 0 -3.8446909639498941 4.8277209693309757 0 4.8277209693309757 -7.0900619743500926 0 0 0 0 -159.38900653398377 173.47560366774906 0 173.47560366774906 -31.861415343068074 0 0 0 0 -101.49113193390031 -101.00879915962764 0 -101.00879915962764 -400.18609039075272 0 0 0 0 74.665977306522109 8.0790630540141137 0 8.0790630540141137 -419.95433013074944 0 0 0 0 -67.181436215078975 -192.57970899513475 0 -192.57970899513475 -240.06362933930723 0 0 0 0 86.986043917022471 22.939358779083705 0 22.939358779083705 -405.6994686711987 0 0 0 0 12.772405712497857 -8.7077343879359432 0 -8.7077343879359432 -368.50912695660918 0 0 0 0 56.836610479816954 105.27932237043933 0 105.27932237043933 -183.26785452118747 0 0 0 0 -7.795236245647267 12.323599318142719 0 12.323599318142719 -21.473286162266014 0 0 0 0 60.535267005790956 55.049704159921021 0 55.049704159921021 -64.671642099146993 0 0 0 0 11.037885762343649 -17.311976385826711 0 -17.311976385826711 -1.655019189187442 0 0 0 0 47.084660527004587 43.811259665695275 0 43.811259665695275 -18.53302758864811 0 0 0 0 2.8075464768110621 7.0136263795091409 0 7.0136263795091409 -19.804785610018182 0 0 0 0 20.807533312006854 16.385994463060342 0 16.385994463060342 -6.4938069947529584 0 0 0 0 -9.5168932686643082 22.100483267119749 0 22.100483267119749 -22.124290397230595 0 0 0 0 2.6769122498138955 -1.6174296470347542 0 -1.6174296470347542 -6.7683322929014587 0 0 0 0 -25.833455515534524 59.874528053876588 0 59.874528053876588 -203.09852674417925 0 0 0 0 88.462686317530597 -85.967809315327941 0 -85.967809315327941 -138.20674080323806 0 0 0 0 9.5240489023144619 -7.2153596732441656 0 -7.2153596732441656 27.179707848699763 0 0 0 0 -1.2632899895262852 -1.6773597092856676 0 -1.6773597092856676 1.993432882529742 0 0 0 0 87.710428736725589 121.96077766223789 0 121.96077766223789 51.97797918015749 0 0 0 0 44.538149535474076 -8.261640766837445 0 -8.261640766837445 -42.427794747942244 0 0 0 0 -2.5529427543297061 -7.1149594530106697 0 -7.1149594530106697 -86.238681506205467 0 0 0 0 -1.8318133557168039 2.0554559330703341 0 2.0554559330703341 -177.39127580643253 0 0 0 0 -59.497734709824726 38.378630353548942 0 38.378630353548942 6.051463571649947 0 0 0 0 89.790624049970575 -10.826566958437979 0 -10.826566958437979 -110.76628442614128 0 0 0 0 -94.95036536057205 156.70868427150435 0 156.70868427150435 -66.174458740239061 0 0 0 0 -77.17290451111694 139.2289115274416 0 139.2289115274416 -131.13106341673301 0 0 0 0 -103.3988156261903 162.59068792474682 0 162.59068792474682 -127.67547932385423 0 0 0 0 -100.65659800441108 160.49618800455801 0 160.49618800455801 -201.1971626925806 0 0 0 0 -83.027521728356078 91.336301761406503 0 91.336301761406503 -142.07610801429382 0 0 0 0 -110.97017899038906 85.588846666455538 0 85.588846666455538 -207.05135869742662 0 0 0 0 -104.69283665394778 111.0237285606654 0 111.0237285606654 -158.42995048061493 0 0 0 0 -71.701581343973658 96.521236343549845 0 96.521236343549845 -147.05439042981016 0 0 0 0 -72.718910558509378 60.900715908326674 0 60.900715908326674 -114.71198014269976 0 0 0 0 -68.416508583655286 69.437782873916603 0 69.437782873916603 -217.01360001802095 0 0 0 0 -14.953746543906163 -9.0896176667956752 0 -9.0896176667956752 -182.47854751039267 0 0 0 0 -49.435086243120168 -16.141401772645622 0 -16.141401772645622 -166.76946356286862 0 0 0 0 -48.481124971778627 -27.79370901151924 0 -27.79370901151924 -322.59783817522839 0 0 0 0 -73.287703611299094 85.526811183795871 0 85.526811183795871 -395.62799998968694 0 0 0 0 -70.020965909305232 54.511488639687741 0 54.511488639687741 -202.66667162161684 0 0 0 0 3.1838903954997022 -16.63093764221253 0 -16.63093764221253 -16.731031968312891 0 0 0 0 -1.1381469202804251 -0.55610024935909763 0 -0.55610024935909763 -1.3012865583921531 0 0 0 0 -18.035936889738423 -18.222381621176737 0 -18.222381621176737 -439.31346006177773 0 0 0 0 -6.8580043594201925 -59.826300610384351 0 -59.826300610384351 -303.03822281677276 0 0 0 0 0.21080395037133748 -0.31810245346306232 0 -0.31810245346306232 0.321905383144653 0 0 0 0 -29.315774893026173 -4.9103632460355584 0 -4.9103632460355584 -161.79553286177543 0 0 0 0 5.9477596281467413 -19.770698145134702 0 -19.770698145134702 -23.376503963951109 0 0 0 0 0.078729742204473041 -8.2709093974920052 0 -8.2709093974920052 -7.8631225716890185 0 0 0 0 5.8377454459615024 -6.3924791394151725 0 -6.3924791394151725 3.1851442561863905 0 0 0 0 -26.202562440626025 -72.844447484491866 0 -72.844447484491866 -154.43828268642937 0 0 0 0 20.887211685530929 -59.981258489759057 0 -59.981258489759057 -174.57279559041672 0 0 0 0 29.332506445955005 -85.258844109001075 0 -85.258844109001075 -132.66783960829162 0 0 0 0 48.73416957446716 -6.7100027400729232 0 -6.7100027400729232 -96.329539640200892 0 0 0 0 -3.4531420971215994 14.316166735154184 0 14.316166735154184 -53.036418775678612 0 0 0 0 8.584651531581585 -7.8079140599247694 0 -7.8079140599247694 -12.460858319449471 0 0 0 0 8.5045204969742372 -3.9514506189052554 0 -3.9514506189052554 -22.227103229889053 0 0 0 0 14.064579797299377 -8.9042708645033386 0 -8.9042708645033386 -0.12823320347080625 0 0 0 0 4.4379281377471997 4.1014937465266144 0 4.1014937465266144 -24.871561118690607 0 0 0 0 3.619613279850455 4.1614555484047742 0 4.1614555484047742 -13.272508704627398 0 0 0 0 15.48166335791575 -6.336924757610177 0 -6.336924757610177 -47.342972377406113 0 0 0 0 13.191259602633668 -0.28170411943040108 0 -0.28170411943040108 -36.714963160260055 0 0 0 0 27.647491241696116 52.66655301818173 0 52.66655301818173 -217.16453270173952 0 0 0 0 33.045238572413609 58.690695195386979 0 58.690695195386979 -210.46106482559117 0 0 0 0 30.793665384121027 64.713236017731106 0 64.713236017731106 -226.3017335393597 0 0 0 0 -23.201497297302012 58.272649235253994 0 58.272649235253994 -199.06237754090216 0 0 0 0 25.580266683635273 59.725700460981898 0 59.725700460981898 -218.26368801492572 0 0 0 0 -49.511878675781645 57.92996114417474 0 57.92996114417474 -149.20616725854052 0 0 0 0 24.374048230818971 37.321831093582659 0 37.321831093582659 -190.10397218023536 0 0 0 0 44.924629436561496 22.214018945633143 0 22.214018945633143 -186.7853706380447 0 0 0 0 23.546003786971792 49.858585299394633 0 49.858585299394633 -205.33043822879699 0 0 0 0 38.957928346522365 45.29299612352952 0 45.29299612352952 -213.95275987612149 0 0 0 0 41.991100416186271 56.170823907542626 0 56.170823907542626 -229.19474494827955 0 0 0 0 53.345130289936037 52.151741048538497 0 52.151741048538497 -219.65671356110761 0 0 0 0 29.005528026365937 66.465786971017224 0 66.465786971017224 -229.82157023901891 0 0 0 0 22.398516300147094 50.891832268369399 0 50.891832268369399 -215.71670902658661 0 0 0 0 -46.388644474034663 155.65422960179967 0 155.65422960179967 -259.82192799139921 0 0 0 0 -0.26076742327768443 100.17390851946948 0 100.17390851946948 -215.00523995071853 0 0 0 0 -14.782953426672975 77.261683564544001 0 77.261683564544001 -209.90984889107312 0 0 0 0 -83.735307849199671 122.47328172335983 0 122.47328172335983 -167.31274695300272 0 0 0 0 -88.738192907868324 86.217022549491958 0 86.217022549491958 -207.95035387779535 0 0 0 0 -28.511465863276044 71.489570136196562 0 71.489570136196562 -229.72270086455319 0 0 0 0 -18.306734983692877 50.971401047219842 0 50.971401047219842 -299.69730845700906 0 0 0 0 -138.10166330236098 128.84816871827388 0 128.84816871827388 -239.45059612158548 0 0 0 0 -132.35064469889949 47.233351256425522 0 47.233351256425522 -229.99031262820608 0 0 0 0 17.783056973993098 61.210853247746854 0 61.210853247746854 -222.29956693710119 0 0 0 0 23.630777603618753 64.834662230787217 0 64.834662230787217 -224.30379781448937 0 0 0 0 17.437127007421168 64.391629939236736 0 64.391629939236736 -251.26617842025007 0 0 0 0 -29.574177078156708 65.835568094065593 0 65.835568094065593 -224.33683196944185 0 0 0 0 -15.062036274181082 87.961194798706856 0 87.961194798706856 -224.80826825173608 0 0 0 0 25.672171836044981 59.63377894446603 0 59.63377894446603 -224.70185223769658 0 0 0 0 12.158331304754711 72.956955250097963 0 72.956955250097963 -202.71552731995689 0 0 0 0 8.2116920734301857 81.793931626954873 0 81.793931626954873 -209.76363923320241 0 0 0 0 0.66101402581989532 70.355749868733255 0 70.355749868733255 -168.11078042066947 0 0 0 0 6.1605089963316004 73.625272234835847 0 73.625272234835847 -215.24007193116995 0 0 0 0 -8.3245572229870959 99.248515849682008 0 99.248515849682008 -211.34691567336995 0 0 0 0 -25.838452409489037 96.351818890590948 0 96.351818890590948 -147.71121903233143 0 0 0 0 2.5007115311067452 -6.9020846095340147 0 -6.9020846095340147 -7.1905706830551637 0 0 0 0 -62.287172470342739 15.636223051918932 0 15.636223051918932 -59.801485904194124 0 0 0 0 -154.80482244140876 103.77317769552974 0 103.77317769552974 -17.709510441709426 0 0 0 0 -34.883730382920476 151.20949279154229 0 151.20949279154229 -243.33643343890435 0 0 0 0 -27.653895993020342 86.74527205103368 0 86.74527205103368 -172.03055225584103 0 0 0 0 -33.995837642920378 103.86151987919584 0 103.86151987919584 -171.13894339352555 0 0 0 0 19.824807265778873 120.25824087220099 0 120.25824087220099 -140.05849648211733 0 0 0 0 -15.136928210509723 102.89702424316056 0 102.89702424316056 -171.21677955389941 0 0 0 0 1.8466342759136651 0.75514296665756575 0 0.75514296665756575 -3.636059629250731 0 0 0 0 -14.006121872665972 86.525859022098302 0 86.525859022098302 -172.45449852564707 0 0 0 0 9.5411385514624953 -4.138493214672053 0 -4.138493214672053 -10.647952072711632 0 0 0 0 10.141147827399783 -2.5848715212279316 0 -2.5848715212279316 -3.1419174032206101 0 0 0 0 -44.28867458035856 56.504441665370905 0 56.504441665370905 -90.721215629049766 0 0 0 0 10.178728949579057 -9.4946143171858353 0 -9.4946143171858353 -13.951151203926202 0 0 0 0 6.8800398050576002 -5.4692525629271458 0 -5.4692525629271458 -10.642897377271993 0 0 0 0 -3.4166289368506568 49.356103360038105 0 49.356103360038105 -130.29682499342107 0 0 0 0 5.9546709480102322 59.371326297335145 0 59.371326297335145 -168.93064281678016 0 0 0 0 3.9978380591883251 50.443965482336353 0 50.443965482336353 -122.1654575654502 0 0 0 0 25.81967210007997 55.766056242870036 0 55.766056242870036 -209.40837460012517 0 0 0 0 14.135172901696137 62.440752184079429 0 62.440752184079429 -168.59401452255406 0 0 0 0 23.674553746635411 48.812037320923992 0 48.812037320923992 -212.24589132652 0 0 0 0 23.22836685080506 56.634755099002177 0 56.634755099002177 -194.32513916076641 0 0 0 0 18.950213079417608 36.245915294193765 0 36.245915294193765 -188.2646513676591 0 0 0 0 1.6448608009393411 -20.622771723421465 0 -20.622771723421465 -169.33984008917105 0 0 0 0 16.91993987031492 32.40739904548991 0 32.40739904548991 -159.18929417984327 0 0 0 0 -46.62133011669448 110.06684670033064 0 110.06684670033064 -79.28099211551762 0 0 0 0 -37.074136404998626 131.5322913639593 0 131.5322913639593 -89.971382754687511 0 0 0 0 -115.75205696406829 194.94960472571347 0 194.94960472571347 412.89435163836606 0 0 0 0 -75.979316065286184 14.52303897825459 0 14.52303897825459 -264.21491122747648 0 0 0 0 47.970929741436066 41.579447952787632 0 41.579447952787632 -217.50245955637001 0 0 0 0 1.7903063977562397 85.328403416487163 0 85.328403416487163 -232.47019426339102 0 0 0 0 -59.303799223621809 76.623335904471787 0 76.623335904471787 -199.00659118189287 0 0 0 0 -22.787549378216639 70.487382953857804 0 70.487382953857804 -203.03044081432745 0 0 0 0 -116.01333914761312 205.35491826552561 0 205.35491826552561 -340.46945143261837 0 0 0 0 -4.8681010039044885 -10.111892675323944 0 -10.111892675323944 -16.813741039542059 0 0 0 0 152.00141580532363 -195.83384928614214 0 -195.83384928614214 35.994722288997764 0 0 0 0 159.6693567911675 -85.188203415179487 0 -85.188203415179487 -103.15696575291076 0 0 0 0 50.134901430681566 -37.183458406843783 0 -37.183458406843783 80.846057387742349 0 0 0 0 -65.535129475606482 98.931286888819159 0 98.931286888819159 -191.90085591816205 0 0 0 0 -10.049367003891579 -17.307191669835561 0 -17.307191669835561 -26.664702899260661 0 0 0 0 114.53406957646848 -201.44386054734559 0 -201.44386054734559 12.225573976538726 0 0 0 0 22.424499239856345 41.745312568687723 0 41.745312568687723 -185.33374610296596 0 0 0 0 38.386756555514239 -41.890781834107656 0 -41.890781834107656 -174.00935260992264 0 0 0 0 91.840604764889122 -77.355798121358021 0 -77.355798121358021 -149.38052310374769 0 0 0 0 20.194849282555879 23.348548889080121 0 23.348548889080121 -47.392602339401492 0 0 0 0 68.562624624287309 -56.391664847129505 0 -56.391664847129505 103.03092747896153 0 0 0 0 46.994428205370241 -119.88943761675182 0 -119.88943761675182 10.217442421991109 0 0 0 0 65.451996168665232 -12.912438323439574 0 -12.912438323439574 -52.824870272110275 0 0 0 0 105.82954349033753 -148.43546583787429 0 -148.43546583787429 103.90963667136383 0 0 0 0 68.714880929102719 -100.80089856162294 0 -100.80089856162294 177.77417714885451 0 0 0 0 -1.5575446633640162 -2.9052433098653481 0 -2.9052433098653481 -5.8303892616860153 0 0 0 0 -318.17196770686587 246.02015749289603 0 246.02015749289603 -245.83864042915957 0 0 0 0 -155.7184755966282 723.44286378596007 0 723.44286378596007 -714.52522261150807 0 0 0 0 19.640581809251671 -229.6650794235793 0 -229.6650794235793 29.084055953691859 0 0 0 0 824.75399312348873 133.74649174626029 0 133.74649174626029 -1008.1229073565701 0 0 0 0 -9.6782824480950644 10.448120732223202 0 10.448120732223202 -7.8299107879842182 0 0 0 0 -292.3373764619173 612.54540153763992 0 612.54540153763992 -159.64622226183565 0 0 0 0 -49.728228987672537 82.152313955513819 0 82.152313955513819 -169.59196975400573 0 0 0 0 -8.2330607350800165 89.867462884754787 0 89.867462884754787 -292.4915056986556 0 0 0 0 -36.567864234088574 -36.826954570262387 0 -36.826954570262387 -19.655223528079659 0 0 0 0 0.4863729061047124 -1.065246236127849 0 -1.065246236127849 -4.4578140283596781 0 0 0 0 -0.9515031592422134 1.6378617061136538 0 1.6378617061136538 -9.412035394447571 0 0 0 0 55.930893150484735 51.886319416245897 0 51.886319416245897 49.780889993551682 0 0 0 0 -6.2925604214957431 8.9734866774499693 0 8.9734866774499693 -10.943929215564083 0 0 0 0 -11.942932024828679 6.0955094907822058 0 6.0955094907822058 3.3695953958185783 0 0 0 0 178.01247777407116 -23.442031502738246 0 -23.442031502738246 9.3438017214107276 0 0 0 0 158.03643002097488 -123.3621293192482 0 -123.3621293192482 49.136197400394849 0 0 0 0 -183.59837518822633 -357.6608361217659 0 -357.6608361217659 -377.31031207353226 0 0 0 0 -164.1221047615802 -166.54343472781329 0 -166.54343472781329 -113.66827367566293 0 0 0 0 -20.410249330165698 -103.28483911194053 0 -103.28483911194053 -218.61435612168134 0 0 0 0 54.522749189832211 17.157460197864566 0 17.157460197864566 -26.680591021955479 0 0 0 0 -66.945081279219949 -144.53458773164675 0 -144.53458773164675 -108.39842223464075 0 0 0 0 -1.1837814806103779 -153.94129622816035 0 -153.94129622816035 -295.0690229949796 0 0 0 0 -136.16899790794969 -235.85132439218251 0 -235.85132439218251 -238.38620358525077 0 0 0 0 -156.78518273329524 -30.329363916056991 0 -30.329363916056991 -170.46976110815012 0 0 0 0 -48.127591285680865 -85.401295895178919 0 -85.401295895178919 -145.30214325977431 0 0 0 0 -60.515455641161225 42.243701983254141 0 42.243701983254141 -110.2406410594258 0 0 0 0 -54.708194551675632 17.067760678861532 0 17.067760678861532 1.7812409557227511 0 0 0 0 -0.3602812895805183 4.9715274989464913 0 4.9715274989464913 -25.300400210787842 0 0 0 0 19.565211282766541 8.501635953438381 0 8.501635953438381 -97.722457633775775 0 0 0 0 127.57443073657305 38.423242586159176 0 38.423242586159176 -76.331573463074164 0 0 0 0 56.787866325514187 43.94399902146688 0 43.94399902146688 -78.696771756316593 0 0 0 0 38.560085162468113 3.2953707627093536 0 3.2953707627093536 -99.572364864499832 0 0 0 0 -9.080461352050861 45.634577049964719 0 45.634577049964719 -5.348413084357162 0 0 0 0 98.460988686058954 79.399533397769119 0 79.399533397769119 -41.813438084165682 0 0 0 0 108.78043710700331 70.610209803562611 0 70.610209803562611 -45.319776703650859 0 0 0 0 108.82654420082963 45.745148013345897 0 45.745148013345897 -17.910683540801983 0 0 0 0 182.91154173819086 -30.877481718809577 0 -30.877481718809577 60.137937152117956 0 0 0 0 3.2323642655401539 1.1851100545260138 0 1.1851100545260138 -5.9148368561410081 0 0 0 0 19.445488265970198 28.53000910715491 0 28.53000910715491 -164.63721875764895 0 0 0 0 10.962428218670539 45.079858836681524 0 45.079858836681524 -188.80022292370813 0 0 0 0 -12.92103596706238 -1.3106966976338299 0 -1.3106966976338299 -168.7226140894636 0 0 0 0 -21.203812786993694 -59.469573174814286 0 -59.469573174814286 -213.61182755020855 0 0 0 0 15.16734223070398 -65.145896178230032 0 -65.145896178230032 -286.9398547646706 0 0 0 0 12.757782003531702 55.988092904124642 0 55.988092904124642 11.100887066131691 0 0 0 0 47.753550860182713 -13.564147422417591 0 -13.564147422417591 -2.1400539294700138 0 0 0 0 125.33474557179321 3.6614772721966347 0 3.6614772721966347 -58.317801448400132 0 0 0 0 -1.8485016229821127 -6.5915437059470605 0 -6.5915437059470605 -69.813212914894393 0 0 0 0 -7.7469711476503562 18.094261168127559 0 18.094261168127559 -16.289767846974428 0 0 0 0 8.0961309840458853 34.242068377046962 0 34.242068377046962 -23.263748468772974 0 0 0 0 -22.746330110244912 58.25094309535416 0 58.25094309535416 -40.98265443481796 0 0 0 0 -1.6983597296857624 0.4246718543508905 0 0.4246718543508905 -57.457668804309378 0 0 0 0 67.497673492209287 -86.139744830536074 0 -86.139744830536074 54.384928770637998 0 0 0 0 54.676777729184323 27.379580108081427 0 27.379580108081427 -0.73953604209600599 0 0 0 0 50.909948949576574 -5.3391684801281372 0 -5.3391684801281372 -57.850543047046813 0 0 0 0 -25.630624077894026 24.369929400585534 0 24.369929400585534 51.404154269860101 0 0 0 0 -10.980864891134843 42.220406890890445 0 42.220406890890445 34.383775083821092 0 0 0 0 35.116539853133872 55.055893664932228 0 55.055893664932228 -18.492163867907948 0 0 0 0 -4.9840448272443609 -8.132397610519547 0 -8.132397610519547 17.08114559943715 0 0 0 0 -0.0032805504979478428 9.6001144858601037 0 9.6001144858601037 -31.413964328035945 0 0 0 0 21.750847186462124 -4.7787296562601114 0 -4.7787296562601114 -97.425306285411352 0 0 0 0 -3.0421800878575596 32.810556624521269 0 32.810556624521269 -52.45014961517154 0 0 0 0 27.1097013026083 37.051288865171955 0 37.051288865171955 -151.38528839514038 0 0 0 0 27.74906570474559 8.3588196040291223 0 8.3588196040291223 -186.37823662096343 0 0 0 0 9.3424627444292128 55.314599935532897 0 55.314599935532897 -106.98349885497373 0 0 0 0 9.9266498707029314 3.0471999508226872 0 3.0471999508226872 -65.435172679281095 0 0 0 0 42.8357834368162 67.04305893687706 0 67.04305893687706 -299.84879643872409 0 0 0 0 77.771266156023557 46.813794850788327 0 46.813794850788327 -441.04544594151957 0 0 0 0 16.844877075636759 7.3555384778956068 0 7.3555384778956068 -186.2893964801101 0 0 0 0 -18.931761543728499 125.2967081991701 0 125.2967081991701 -293.56363234207583 0 0 0 0 15.188884831315249 4.1091725240121377 0 4.1091725240121377 -180.26469209113566 0 0 0 0 4.8991518618913688 40.169687380781397 0 40.169687380781397 -222.28316114348127 0 0 0 0 27.249519978158787 8.13579137637862 0 8.13579137637862 -290.90821384158335 0 0 0 0 -89.347736991603597 75.594098247962393 0 75.594098247962393 -213.45717259559387 0 0 0 0 -7.0370361491741278 3.3995721374794812 0 3.3995721374794812 -183.29396364591958 0 0 0 0 37.191444144958041 43.093044572724466 0 43.093044572724466 -153.56527700799779 0 0 0 0 16.990413574168997 -61.555324742879748 0 -61.555324742879748 -94.053491430673603 0 0 0 0 -28.39616092520464 -39.070869185045012 0 -39.070869185045012 -255.39257906840794 0 0 0 0 274.26117457092369 33.683550772155286 0 33.683550772155286 79.417451570701814 0 0 0 0 -192.64370691956083 -125.22989299902474 0 -125.22989299902474 561.38048081941088 0 0 0 0 1.5559687706602734 0.00261169280899054 0 0.00261169280899054 0.10965322633118291 0 0 0 0 19.061650564986849 47.4845374394381 0 47.4845374394381 -443.64798082115885 0 0 0 0 28.186281205034902 129.74854304159089 0 129.74854304159089 -389.93045114243068 0 0 0 0 12.57211498622587 47.025433506785703 0 47.025433506785703 -330.04411561449524 0 0 0 0 -19.043389770034992 57.106295015735668 0 57.106295015735668 -328.71041151128156 0 0 0 0 -4.3205001006647734 -2.3522058782702686 0 -2.3522058782702686 -0.38144794839032592 0 0 0 0 -13.499764737021223 34.929116318417982 0 34.929116318417982 -256.32574190342712 0 0 0 0 -47.233190402853324 37.22543384821256 0 37.22543384821256 62.167430032444827 0 0 0 0 -23.665993331680635 4.4608932912295245 0 4.4608932912295245 -1.5767360114372444 0 0 0 0 -1.6620393837879419 25.386211053755687 0 25.386211053755687 38.785336676908628 0 0 0 0 -40.262275760322041 43.640128152394027 0 43.640128152394027 34.463198159326566 0 0 0 0 -2.7465918299949408 59.732941848556948 0 59.732941848556948 -8.9682991997397039 0 0 0 0 28.662632544261896 31.402070803542301 0 31.402070803542301 16.155161017428327 0 0 0 0 -23.147746510022898 -21.359004048457791 0 -21.359004048457791 243.79941406690341 0 0 0 0 41.939471300959212 51.83506139236124 0 51.83506139236124 -6.3736189381816075 0 0 0 0 -11.144929136173904 -2.2739300104434719 0 -2.2739300104434719 -3.5325539709460934 0 0 0 0 -4.1108645780037403 3.9703475523156229 0 3.9703475523156229 -21.843139629455465 0 0 0 0 184.02466248561996 -159.34082546125501 0 -159.34082546125501 -23.557021500171686 0 0 0 0 -26.038772656002038 -22.057502072530042 0 -22.057502072530042 -305.1514016782412 0 0 0 0 31.853281350224279 129.56942392377459 0 129.56942392377459 -480.0891869482075 0 0 0 0 15.831234911926003 230.07376994423976 0 230.07376994423976 -675.64954189456171 0 0 0 0 -6.5594050846428384 0.62192985472935369 0 0.62192985472935369 -0.23634551383516111 0 0 0 0 -24.635606400872348 -191.12618504325656 0 -191.12618504325656 -691.15260035681422 0 0 0 0 -607.32644388078234 -309.11994132064865 0 -309.11994132064865 -233.12629486259539 0 0 0 0 119.17835209575787 437.75623697959236 0 437.75623697959236 -1015.0601303154835 0 0 0 0 444.17058012901907 185.65706084574231 0 185.65706084574231 -871.55477189611702 0 0 0 0 -61.583845732842747 402.76627574951999 0 402.76627574951999 -938.55798316242726 0 0 0 0 -305.67179440212567 614.60452852406161 0 614.60452852406161 -869.70443547912146 0 0 0 0 -62.78377496459143 382.17970198191324 0 382.17970198191324 -651.54094915906171 0 0 0 0 -63.625184791779247 115.2650087811453 0 115.2650087811453 -133.65647644978162 0 0 0 0 -169.34068343731269 202.15889634077757 0 202.15889634077757 -166.52289993091836 0 0 0 0 -104.95567346339703 74.336704395922425 0 74.336704395922425 -155.70796894081286 0 0 0 0 -484.26406448225316 452.49319387439391 0 452.49319387439391 -267.49887532454159 0 0 0 0 -268.02512507110077 189.28162770247582 0 189.28162770247582 -73.301574588491349 0 0 0 0 -77.208299390669708 246.93300163303502 0 246.93300163303502 -563.32747027801815 0 0 0 0 -299.54681629435572 371.25320404782769 0 371.25320404782769 -277.15596729394747 0 0 0 0 -131.99436813338866 219.57516335605305 0 219.57516335605305 -250.29410977958469 0 0 0 0 -49.513521779044822 174.17104282232685 0 174.17104282232685 -362.62313209187778 0 0 0 0 -35.482837954383285 222.68855015950612 0 222.68855015950612 -405.35888473845262 0 0 0 0 -79.449265577543429 252.33191594753134 0 252.33191594753134 -470.03785789830727 0 0 0 0 -20.898472647430935 172.65485394361895 0 172.65485394361895 -265.24008953085286 0 0 0 0 -59.189587666540774 69.094608774857079 0 69.094608774857079 -63.454843599218293 0 0 0 0 -32.801749273631231 136.38314252379041 0 136.38314252379041 -227.30357744653884 0 0 0 0 -40.085053157910806 110.74927986264811 0 110.74927986264811 -187.62760078852352 0 0 0 0 56.969407252057749 2.3830868020947946 0 2.3830868020947946 -52.11035109119257 0 0 0 0 -128.41717703422546 57.219833810477212 0 57.219833810477212 39.807993334594357 0 0 0 0 -55.235752089987727 128.10442104908725 0 128.10442104908725 -283.66462971301826 0 0 0 0 -48.066092332432163 113.73268733078294 0 113.73268733078294 -288.31812882290069 0 0 0 0 -54.624930143005031 93.099043373782479 0 93.099043373782479 -239.56758582432667 0 0 0 0 -20.681160618010836 118.82003007465937 0 118.82003007465937 -317.87961311438266 0 0 0 0 -3.7829152418994454 138.12073967658398 0 138.12073967658398 -304.79076076433557 0 0 0 0 2.6672619576529542 157.19561944019733 0 157.19561944019733 -407.42292541773713 0 0 0 0 -5.2919547765441166 142.84818586596157 0 142.84818586596157 -308.24938876350825 0 0 0 0 -27.922169756669973 157.28780936145267 0 157.28780936145267 -276.04013390624459 0 0 0 0 -24.467426939258075 124.83244147895311 0 124.83244147895311 -244.92159017203994 0 0 0 0 -73.047399500594111 140.94691365765539 0 140.94691365765539 -255.36026528499133 0 0 0 0 -53.281768171096701 126.65469161843612 0 126.65469161843612 -284.43581500400614 0 0 0 0 -95.995591222338135 100.83631457235879 0 100.83631457235879 -279.67752083174128 0 0 0 0 -47.854556534586663 115.53995415085956 0 115.53995415085956 -417.44852342946001 0 0 0 0 -105.67607471665178 150.78885435925258 0 150.78885435925258 -258.66640171338804 0 0 0 0 -79.757725206173745 121.40865294661489 0 121.40865294661489 -263.30455830303981 0 0 0 0 -56.060410166486918 62.628078860631376 0 62.628078860631376 -229.65187101422271 0 0 0 0 -23.639367627754837 5.7668980523012578 0 5.7668980523012578 -172.42296586410521 0 0 0 0 53.443378825585569 10.619165262887691 0 10.619165262887691 -200.13163484982488 0 0 0 0 56.993151926968494 -27.310525890614372 0 -27.310525890614372 -173.28937643597419 0 0 0 0 -22.002531595688197 89.271162408622331 0 89.271162408622331 -209.02147088843412 0 0 0 0 -26.958612376376408 18.354918663129979 0 18.354918663129979 -144.13097708865098 0 0 0 0 -85.089165538029647 70.750267720177362 0 70.750267720177362 -180.14695531011967 0 0 0 0 -45.76196179145154 72.991688499350857 0 72.991688499350857 -265.44842720783078 0 0 0 0 -31.459429188042122 17.442125856123312 0 17.442125856123312 -172.95148262691873 0 0 0 0 -55.12072659449791 5.3769513798779371 0 5.3769513798779371 -88.083198566091596 0 0 0 0 91.186276008801542 -218.45755655702669 0 -218.45755655702669 87.88913008272084 0 0 0 0 44.412316004697459 -74.717890739786526 0 -74.717890739786526 -138.88033989405994 0 0 0 0 6.5463784973267138 -53.799007193807483 0 -53.799007193807483 -29.570086335101223 0 0 0 0 16.935425380582274 14.022335523335641 0 14.022335523335641 -161.48188277225563 0 0 0 0 83.804755739956818 -31.013443619183818 0 -31.013443619183818 -157.07665220017952 0 0 0 0 6.2646488565096661 -46.319726143730804 0 -46.319726143730804 -159.78970979289079 0 0 0 0 -49.350238198236184 -90.300264938565306 0 -90.300264938565306 279.2244084709946 0 0 0 0 25.474514929444013 12.927684669872178 0 12.927684669872178 50.218632105272263 0 0 0 0 71.358349723553602 48.377086969740049 0 48.377086969740049 -8.6641720474144677 0 0 0 0 -21.209413676834856 -99.573716955892451 0 -99.573716955892451 61.059645604660545 0 0 0 0 106.08844039822543 -43.964693732090382 0 -43.964693732090382 -152.85082304808384 0 0 0 0 -41.616597131698768 -69.657135442864046 0 -69.657135442864046 53.017521795489301 0 0 0 0 15.973056659596596 -3.5226420780514047 0 -3.5226420780514047 -0.4468873056658822 0 0 0 0 100.11102726653098 45.841837557043618 0 45.841837557043618 -293.07515572957709 0 0 0 0 -21.312116512811372 60.193282966918559 0 60.193282966918559 -95.790297760577232 0 0 0 0 -44.626327442096226 -56.490352720291412 0 -56.490352720291412 -123.42138102566787 0 0 0 0 -108.41203522108344 -202.18285921556344 0 -202.18285921556344 548.44538725824168 0 0 0 0 -42.493233376664648 93.628610184241552 0 93.628610184241552 -206.5114432958635 0 0 0 0 7.5333951050702126 -2.5259054213379599 0 -2.5259054213379599 -1.227035417302119 0 0 0 0 53.284828965472116 57.667308839103498 0 57.667308839103498 -363.27660497198121 0 0 0 0 -0.84308788625114417 -1.1149370225029003 0 -1.1149370225029003 -0.18621525746682721 0 0 0 0 114.1946263151458 59.915224088501418 0 59.915224088501418 360.40010746306507 0 0 0 0 -6.5493606055388227 25.808805959373785 0 25.808805959373785 -286.18147753809535 0 0 0 0 -37.703916210257375 53.997620099136839 0 53.997620099136839 -270.09162445594484 0 0 0 0 17.400296770949353 -6.1264074353020987 0 -6.1264074353020987 -260.98583566296293 0 0 0 0 -47.508398285613566 41.067521305707487 0 41.067521305707487 -224.62815808551386 0 0 0 0 19.636923558285162 -60.379272764999769 0 -60.379272764999769 15.594319623589399 0 0 0 0 33.113129299466891 -28.240050470762071 0 -28.240050470762071 -229.93121258818064 0 0 0 0 56.480402931609206 -197.79157353540722 0 -197.79157353540722 60.357302802309277 0 0 0 0 156.24600393192668 -153.16714856776525 0 -153.16714856776525 -176.49720308532414 0 0 0 0 
</DataArray>
<DataArray type="Float64" Name="cross_section_updated" format="ascii">
0.010025697810980647 1 1 1 1 1 1 1 1 0.010005294452784105 1 1 1 0.0099043280094130177 1 1 1 1 1 1 1 1 1 1 1 1 1 1 1 0.010005250641216334 1 1 0.010101955932049194 1 1 1 0.010165510499898514 1 1 1 0.010089231986238012 1 1 1 1 1 1 1 1 0.0097532039201640875 1 1 1 1 1 1 0.0099299442261886334 1 1 1 1 1 1 1 1 1 0.0095372617372224116 1 1 0.010043774927108205 1 1 1 0.008762946032527261 1 0.0090227991553957308 1 0.010066610048423345 0.010019709707034752 1 1 1 1 1 1 1 1 1 0.0095552039969106026 1 0.0080236216077687952 1 1 0.0099694989420495775 1 1 1 1 1 1 1 1 1 1 1 1 1 1 1 0.0099629055697254103 1 1 1 1 0.0094502135799239967 1 1 0.0099982025481173773 0.0088766436380380478 1 1 0.010002068628829925 1 1 1 0.0094050613620968934 0.0097396638417140691 0.0097153452627920661 1 0.0095210169203279668 1 1 1 1 1 1 1 1 1 0.010004301323076467 0.0093437971471761107 1 1 1 1 1 1 0.010000524510512945 1 1 1 1 1 0.0099877800848035443 0.0094372074190230727 1 1 0.01004979622261571 1 1 0.010181931273756951 0.0087408091038049286 1 0.0089911877405151382 0.0090301185840427189 1 1 1 1 1 1 1 1 1 1 1 1 0.0080938304517365004 1 1 0.0097193766479723408 1 1 1 1 1 1 1 1 1 1 1 1 1 1 1 1 1 1 1 1 0.0099043740955079909 1 1 1 1 1 1 1 1 1 1 1 1 1 1 1 0.010143023786843168 1 1 0.010245520959232143 1 1 1 1 0.0098764458468908155 0.010049874202094926 1 1 1 1 1 1 1 1 1 1 1 1 1 1 1 0.0096719323346370744 1 1 1 0.010248430204414802 1 1 1 1 1 1 1 1 0.010540081355624096 0.0097918912572892876 1 1 1 1 1 1 1 1 1 0.010785956413261966 1 1 1 1 1 0.0092812014485839228 1 0.0096358203682096188 1 1 1 1 1 0.0066885661420955922 0.0092235034369880075 1 1 1 0.011321275297388873 1 0.0059335615226385145 1 1 1 0.0076331640049084326 1 0.010138096402318105 1 1 0.007632287815241133 1 1 1 0.010119025797680582 1 1 1 1 1 0.0091575386239887858 0.0095976218563844414 1 1 0.010001299514953394 1 0.0095089942679135713 0.010148019651221574 1 1 0.0099789014126116533 1 0.01029908212185239 1 1 1 1 0.0099036544312450375 1 0.010416238475162855 1 1 0.0102343892683067 0.010186354450739125 0.010193782811208519 1 0.0099446623383454766 1 0.010254378307146417 0.0097657820622010887 1 1 1 1 1 1 1 1 1 0.009992382748634978 1 1 1 1 1 1 1 1 1 1 1 1 1 1 1 1 1 1 1 1 1 1 1 1 0.010552575999306524 1 0.01003628943865712 1 1 1 1 1 0.010455542572486229 1 0.0093473267723966809 1 1 0.010428792400890336 1 1 1 1 0.0088993077253616791 1 0.010500185962774264 1 1 1 1 1 1 1 1 1 1 1 1 1 0.0092842573704882622 1 1 0.0099877846363881882 1 1 1 1 1 1 1 1 1 1 1 1 1 1 1 1 1 0.010115232445523637 1 1 1 1 1 1 1 1 1 1 0.010093720644039718 1 1 1 0.0099846716254923425 0.010266206904311015 1 1 1 1 1 1 1 1 1 1 1 1 1 1 1 1 1 1 1 1 1 1 1 0.0095400715139476351 1 1 0.010269970748804376 1 1 0.0093344022380291262 1 0.0097629374092275071 1 1 1 0.0099142940004990875 1 0.0092010687579178758 0.0097592224435758719 1 1 1 1 1 1 1 1 1 1 0.0099091895604657854 1 1 1 1 1 1 1 1 1 1 1 1 1 1 1 1 1 1 1 1 1 1 1 1 1 1 1 1 1 1 1 1 0.0099713542577780992 1 1 1 1 0.010044999952785939 1 1 1 1 1 1 1 0.0089998490968865481 1 1 1 1 1 1 1 1 1 0.0099891499056429661 1 0.0091171433626397198 0.0094970409778168778 1 1 0.0098394689524956801 1 0.0086624181428668467 1 1 1 1 1 1 1 1 0.0099726602861117553 1 1 1 1 1 0.0089352473825070021 1 1 1 1 1 1 0.0091262845922016438 1 1 1 1 1 1 1 1 0.0094887619433409419 1 0.0090157508592207444 1 1 1 1 1 0.0084830380433485678 1 0.0098353580708885752 1 1 1 1 1 1 0.010250111738608398 1 1 1 1 1 1 1 1 1 1 0.0098092844724318676 0.0096318751457905218 1 1 1 1 0.0092579528235636165 1 1 1 1 1 1 1 1 1 1 1 1 0.010330569922759426 1 1 0.009887288409050881 1 1 1 1 1 1 1 1 1 1 0.010046697461310388 0.010161772842615003 1 1 1 1 1 1 1 1 1 1 0.010007696760792693 1 0.010010784641004617 1 1 1 1 1 1 1 1 1 1 1 1 1 1 1 1 1 1 1 1 1 1 1 1 1 1 1 1 1 1 1 1 1 1 1 1 1 1 1 0.0099084683179631178 1 1 1 0.0082982700872156201 1 0.0095720858897202186 1 0.0099564661065130733 1 1 0.0099536276285871438 1 0.010109659583530734 1 0.0093156151996768854 1 1 0.0086548475588529086 1 1 1 1 1 1 1 1 0.0093762488918791662 1 1 0.0093249849854672266 1 1 1 1 0.010296252559508671 1 1 1 1 1 1 1 1 1 1 0.0088992574205980293 1 0.009510791536536686 1 0.010498160602579494 1 0.0090510447416216715 1 0.009574571895602145 1 1 1 0.0099961401962701691 1 0.010110035825135444 1 1 1 1 1 1 1 1 1 1 1 1 0.01007404978476254 1 1 0.0099977818666171989 0.009365053604407314 1 1 1 0.0089891136004299921 1 1 0.0095629228844112107 1 1 0.0092209714410690698 1 1 1 0.0093855817596343906 1 1 1 1 1 0.0089156497906137337 1 1 0.009320779021667858 0.0095192469491414394 1 1 1 0.010036061220218646 0.0094659663896763738 0.0087816305971812544 1 1 0.0099451097462395204 1 1 0.0099965097363346588 1 1 1 1 1 1 0.0099720848426861873 1 1 0.0087300368795388533 1 1 0.0090974132641420367 1 1 1 1 1 1 1 1 0.0098992757321699071 1 1 1 1 1 0.0088002614354301748 0.0097012359440866915 0.0092998602867388081 1 1 1 1 1 1 1 1 1 1 1 0.0087257145287990799 1 1 1 1 0.0099560464344015335 1 1 1 1 1 1 1 0.0096107003042931183 1 1 1 0.0098783982750118675 1 0.0095692762605147797 1 0.0095198897198239645 1 0.010016268263542169 1 1 1 1 1 1 1 1 1 1 0.0099968350422821491 1 1 1 1 1 1 1 1 0.0099740141488504665 1 1 0.0099255945046595496 1 1 1 1 0.0099814171474836046 1 1 1 1 1 1 0.0095942016325104591 1 0.0099431293976449953 1 1 1 1 1 1 0.0096103490054563374 0.0098892569498198902 1 1 1 1 0.0099871401970730474 1 0.0099572364276269542 1 1 1 0.0099624269654297118 1 1 1 1 1 1 1 0.009426197841246025 0.0099179698134525662 1 1 0.0098739985824932864 1 0.00999311905798397 0.010000052714814755 0.0099917437338091619 1 1 1 1 1 1 1 0.0099434516088017684 1 1 1 1 1 1 1 1 1 1 1 1 1 0.0096889995027008638 1 1 1 1 1 1 1 1 1 1 0.009874222251423757 1 1 0.0094970166103937378 1 1 1 1 1 0.009818762922596657 1 1 1 1 1 1 1 1 0.0087584683835414592 1 0.0083760510444852408 1 1 0.0096216655147370878 1 1 0.0091953067225264504 1 1 1 1 0.0094696191147925803 1 1 1 1 1 0.0098824427766956609 1 1 1 1 1 1 1 1 1 0.0091452613590723222 1 1 0.0099975526384100885 0.0099530776498019842 1 1 1 1 0.0088536621390041433 1 0.0092057450005669176 1 1 0.009318707062290911 0.010163440657269214 1 0.0096782737900846776 1 0.0097138614644188583 1 1 1 1 1 0.0097388208293528646 1 1 1 0.0072410904844174935 1 1 1 0.0075580146605664028 1 1 1 1 1 1 1 1 1 1 0.010014398101745889 1 1 1 1 1 1 1 1 1 1 1 1 1 1 1 1 1 1 0.0080104911718832748 1 1 0.0086351257262955033 1 1 1 1 0.0094953801515481086 1 1 1 1 1 1 1 1 1 1 1 1 1 1 1 1 1 1 1 1 1 1 1 1 1 1 1 1 1 1 1 1 1 1 1 1 1 1 1 1 1 1 1 1 1 1 1 1 1 1 1 1 1 1 1 1 1 1 0.0097997349781764314 1 1 1 1 1 1 1 1 1 1 1 1 1 1 1 1 1 1 1 0.0096333359742458886 1 1 1 1 0.0098336009960694522 1 1 1 1 1 1 1 1 1 1 1 1 1 1 1 1 1 1 0.010015463079860187 1 1 1 1 0.0099908768509944044 1 1 1 1 1 0.01006809074546189 0.0092846572007424782 1 1 1 1 1 1 1 1 1 1 1 1 1 1 1 1 1 1 0.009699371243868285 1 1 1 0.009217601771182124 1 0.010039163553080337 1 1 1 1 1 1 1 1 1 0.009746034261800339 1 1 1 1 0.0099502389903280176 0.0094035839934939157 1 1 1 1 1 1 1 1 1 1 1 1 1 1 1 1 1 1 1 0.0098111487196470854 1 1 1 1 1 1 1 1 1 1 1 1 1 0.0097444324376027742 1 1 1 1 1 1 1 1 1 1 1 1 1 1 1 1 1 1 1 1 1 1 0.0098571429248285186 1 1 1 1 1 1 1 0.0097316917585030076 1 1 1 0.009870236580104207 1 1 1 1 1 1 1 1 1 1 1 1 1 1 1 1 1 1 1 1 1 1 1 1 0.0095457706675786298 1 0.01002902472430732 1 1 1 1 0.0095339881484354603 1 0.0094268670027170785 1 1 1 1 1 1 1 0.0098392462516875973 1 1 1 1 0.0098756094043744858 1 1 1 1 1 1 1 1 1 1 1 0.0095315982386156399 1 1 1 1 1 1 0.010058693564500936 1 0.00098283874784697509 1 1 1 1 1 0.010152244059469353 1 1 0.0068555896142133317 1 1 0.010010978249707042 1 1 1 1 1 1 1 1 1 1 1 1 1 1 1 1 1 1 1 1 1 1 1 1 1 1 1 0.0092160199593393135 1 1 1 0.010043190246594112 1 0.0093436565771255961 1 1 0.0099990252937109461 0.0099148292238545686 1 1 1 0.0099414087413997737 1 1 1 1 0.0098688316764550723 1 0.0093068982110030476 1 1 0.0097884731580346329 1 1 1 1 1 0.0096509275539359146 1 1 1 1 1 0.010013326637179219 1 1 1 1 1 1 1 1 1 1 1 1 1 1 1 1 1 1 1 1 1 1 1 1 1 1 1 1 1 1 1 1 1 1 1 1 1 1 1 1 1 1 1 0.0097745430377945575 0.010012632375762016 1 1 1 1 1 1 1 1 1 1 1 1 1 1 1 1 1 1 1 1 1 1 1 1 1 1 1 1 0.0081778436595128824 1 1 1 1 0.0090440532798608149 1 1 1 1 0.0093279248416016144 1 1 1 1 1 1 1 0.0096653973911410129 1 0.004931831706540251 1 1 1 1 1 0.0098842826402214864 1 1 1 1 1 1 1 1 1 1 0.010039752180301587 1 1 1 1 1 1 1 1 1 1 1 1 1 1 1 1 1 1 1 1 1 1 1 1 1 0.0043255403095362232 1 1 1 1 0.0097512149814015809 1 0.0045090798579851023 1 1 0.0097513578019256877 1 0.010129464972460821 1 1 1 1 1 1 0.010131114777790776 1 1 1 0.010104281644756474 1 1 1 1 1 1 1 1 1 1 1 1 1 1 1 1 1 0.0099133409750363239 1 0.009859592193751562 1 1 1 1 1 0.0097920658350039973 1 0.0099277616812674975 1 1 1 1 1 1 1 1 0.0099623291694330984 1 1 1 1 1 1 1 1 1 1 1 1 1 1 1 1 1 1 1 1 1 1 1 0.009960931676252293 1 0.0099368731629899832 1 1 1 1 1 1 1 1 1 1 1 1 0.0099032873047752556 1 1 1 1 1 1 1 1 1 1 1 1 1 1 1 1 1 1 1 1 1 1 1 1 1 1 1 0.0016989902418034115 1 1 1 0.0099688248042261139 1 0.0073313875817127873 0.0014328622671692295 1 1 1 1 1 0.010025124950681859 1 1 1 1 1 1 1 1 1 1 1 1 1 1 1 1 1 1 1 1 1 1 1 1 0.0097949918455283776 1 1 0.0091793841407457211 1 1 1 1 1 1 1 1 0.00885632043543488 0.0093417283633853761 1 1 1 1 1 1 1 1 1 1 0.0079956114324476607 1 1 0.0088069366828621258 0.009310134687062932 1 0.0093186157352292028 1 1 1 1 1 0.0070076747677586051 1 0.0089427760905609124 0.0095177264765824079 0.010117324302450331 1 1 1 1 1 1 0.008352768960195751 1 1 1 1 1 1 1 1 1 0.0096434590591396013 1 0.0089975217182662933 1 1 0.0088698240247855088 1 1 1 1 1 1 1 1 1 1 1 1 1 1 1 1 1 1 1 1 1 1 1 1 1 1 0.0099228386466727672 0.010048069281463706 1 1 1 1 1 1 1 1 1 1 1 1 1 1 1 1 1 1 1 1 1 1 1 1 1 1 1 1 1 1 1 1 1 1 1 1 1 1 1 1 1 1 1 1 1 1 1 1 1 1 1 1 1 1 1 1 0.0058044827328011927 1 1 1 1 1 1 1 1 1 0.0044883642277913742 0.009831139705524003 1 1 1 0.0094650674485501421 1 1 1 1 1 1 1 1 1 1 1 1 1 1 1 1 1 1 1 1 1 1 1 1 1 1 1 1 1 1 0.0078918300722790984 1 1 1 1 1 1 1 0.0036488719641516228 1 1 1 1 1 1 1 0.010075070324152332 1 1 0.011233470401887706 1 1 1 1 1 1 1 1 1 0.0098915330166636627 1 1 0.010458886974566964 0.011399332277196132 1 1 1 0.0014881495549714996 1 1 1 1 1 1 1 1 1 1 1 0.009218293091518219 1 1 1 1 0.0099724998931471007 1 0.00056386905685297615 1 1 0.012728878018018098 1 1 0.012501786862098961 0.0068314842931478876 1 1 1 1 1 1 1 1 1 1 0.0064910971071729003 0.010086878224562799 1 1 1 1 1 1 0.0099875776936379189 1 1 1 1 1 1 0.010102292992503915 1 0.0098208758366958668 1 1 1 1 1 0.010001218514607712 0.0099973974632822839 1 1 1 1 1 1 1 1 1 1 1 1 1 1 1 1 1 1 1 0.0077294008030478504 0.01004604539047166 1 1 0.010017289201901515 1 1 1 1 1 1 1 1 1 1 1 0.01003610808734505 1 1 1 1 1 1 1 1 1 1 1 1 1 1 1 1 1 1 1 1 1 1 1 1 1 1 1 1 0.010145157931785453 1 1 1 1 0.0098546898597055566 0.010729501112133791 1 1 1 1 1 1 1 0.010087349933560315 1 0.0090638351625531681 1 1 1 1 1 1 1 1 1 1 1 1 1 1 1 1 1 1 1 1 0.0091251026017734604 0.0097221872017854045 1 0.0099874009407980701 1 1 1 1 1 0.0095419481828483681 1 1 1 1 1 1 1 1 1 1 1 1 1 1 1 1 1 0.0076159656913337755 1 1 1 1 1 1 1 1 1 1 1 0.0055758773850670901 1 1 1 1 1 1 1 1 1 1 0.010162015179943565 1 1 1 1 1 1 1 1 1 0.0065419097738258864 1 1 1 1 0.0059267058090770354 1 1 1 0.010448580216428915 1 1 1 1 0.010448125378777715 1 1 1 1 1 1 1 1 1 0.010141994972035851 1 1 1 1 0.010051034995750892 1 1 1 1 1 1 1 1 0.0099537139048762515 1 0.0073468516512047756 0.0098804427299928176 1 0.0085056883835903131 0.0076521057270384132 1 1 1 0.0095175858385493344 1 1 1 0.009945525250423087 1 0.0098547706837298597 1 1 1 1 1 0.010270323123783533 1 1 1 0.0069552418487559015 1 1 1 1 1 1 0.0087668954514994665 0.0082278152753184446 1 1 1 1 1 1 1 1 1 1 1 0.010006520256432587 1 0.0078837097889189432 0.0097285186865860331 1 1 1 1 1 0.0093831094643447022 0.0093124782006087647 1 1 0.0086896640017091117 1 1 1 1 0.0086528245758286347 1 1 1 1 1 0.0088044234442641641 1 1 1 1 0.0071436689108409007 0.0095422463485119301 1 1 0.0087405813770774082 1 0.0082824953801906749 0.0099143983979209285 1 1 1 1 1 1 1 1 1 1 1 1 1 1 1 1 1 1 1 1 1 0.0100449410350061 1 1 0.0054909987248317298 1 0.0098116577421714195 1 1 1 0.0058204123632208636 1 1 1 1 1 1 0.0097823370229855721 0.0097960977701924915 1 1 1 1 1 1 0.0097544909784684757 1 1 0.004136154711940533 1 1 1 1 1 1 0.0096619737120803538 1 1 1 0.0083890902477591987 1 1 1 1 1 1 0.0073915508823119676 1 1 1 1 1 1 1 1 1 1 1 1 1 0.0095478475750504135 1 0.0099733279037827142 1 1 1 1 1 1 1 1 1 0.0098134321617052572 1 1 1 0.01062048660040755 1 1 1 1 1 1 1 1 1 1 0.010192758372705141 1 1 1 1 1 1 1 1 1 1 1 1 1 1 1 1 1 1 1 1 1 1 1 1 1 0.0095109012700603703 1 1 1 0.0062605628533067142 1 1 0.0066445874055287759 1 1 1 1 1 0.0094503540118250941 1 1 1 0.0097511104839361398 1 1 1 1 1 1 1 0.0098370196329908739 1 1 1 1 1 1 1 1 1 1 1 1 1 1 1 1 1 0.0099955655132237219 1 0.0099529946905967392 1 1 1 1 1 1 1 1 1 0.010098681984839599 1 0.0099956900976974541 1 0.0080983043144964156 1 0.0098244949260853642 0.0069403640155195805 1 1 1 1 0.009964538176410213 1 1 1 1 0.010024875954184073 1 1 1 1 1 0.0098248557252442852 1 0.0075180352543057919 1 1 0.0075060388068046505 1 1 1 1 1 1 1 1 1 1 1 1 1 1 1 1 1 0.009957649538803506 1 1 1 1 1 1 0.010006054440132726 1 1 1 1 1 0.0087427525146630894 1 1 1 1 1 1 1 0.0092234515768235253 1 1 0.0097313211572198199 1 1 1 1 1 1 0.0096678099189566845 1 1 1 0.010136462122213528 1 1 1 1 1 1 1 1 1 1 1 1 1 1 1 1 1 0.007726606389649877 1 1 1 1 1 0.0109474398027893 0.009479475780065057 1 1 1 1 1 0.010176554994266382 1 0.0091637474260486147 1 0.0079610876121270682 1 0.0097752951732994198 0.0080743714347339679 1 1 1 0.0096350084453225605 0.009892359511405234 1 1 1 1 1 1 1 1 1 1 1 1 1 1 1 1 1 1 1 1 1 1 1 1 1 1 1 1 1 1 1 1 1 1 1 1 1 1 0.0099972402977028425 1 1 1 1 1 1 1 0.010013526455452547 1 0.0087145358713270216 1 1 1 1 1 1 0.0087458493622221568 1 1 1 0.010035941729120616 1 1 1 0.0099068025082330122 0.0056361322139088241 1 0.0081703225247396778 1 1 1 1 1 1 0.0073928825771847851 1 1 0.0095360814211756448 1 1 1 1 1 1 1 1 1 1 1 1 0.0073285607975675533 0.0099873101307981216 0.0083291961781626987 1 1 1 0.009846249807834136 1 1 1 1 1 1 1 1 1 1 1 1 1 1 1 1 1 1 1 1 1 1 0.0062583605048906789 1 1 1 1 0.0073100906793469519 1 1 1 1 1 1 1 0.0098550930249474856 1 1 1 1 1 0.0099718445838697586 1 1 1 1 1 0.0095727210078077017 1 1 1 1 1 1 1 1 1 0.0090828520034980688 1 1 1 1 0.0096061689137925937 1 1 1 1 1 1 1 1 1 1 0.0096026703807715989 1 1 0.009476223619380492 1 1 1 1 1 1 1 1 1 1 1 1 1 1 1 1 1 1 1 1 0.0098956219050586498 1 1 1 1 0.0097972285545495606 1 1 1 1 1 1 1 1 0.0099880679738128947 1 1 1 1 1 0.0099360572109078397 1 1 0.0099479892370949452 1 1 1 1 1 1 1 1 1 1 1 1 0.0094736323305758714 1 1 1 1 1 1 1 1 1 1 1 1 1 1 1 1 1 1 1 1 1 1 1 1 1 1 1 1 0.0099014500913776945 1 1 1 1 1 1 1 1 1 1 1 1 1 1 0.0092053769775401872 1 1 1 1 1 1 1 1 1 1 1 1 1 1 1 1 1 1 1 0.0082795804821024672 1 1 1 1 1 1 1 0.0090728584781754017 1 1 1 1 1 1 1 1 1 1 1 1 1 1 1 1 1 1 1 1 1 1 1 1 0.0090131794194058569 1 1 1 1 1 0.0079433844579114999 1 1 1 1 1 1 1 1 1 1 0.010159692915011165 1 1 0.009778878471278769 1 0.0079515424613636823 1 1 1 1 1 1 1 0.0095901613021915407 1 0.0098050379703062285 1 0.0099123563270445275 1 1 1 1 1 1 1 1 1 1 1 1 1 1 1 1 1 1 1 1 1 1 1 1 1 1 1 1 1 1 1 1 1 1 1 1 0.0096771870726043881 1 1 1 1 1 1 1 1 1 1 1 1 1 1 1 1 1 1 1 1 1 1 1 1 1 1 1 1 1 1 1 0.0097918971328519507 1 1 1 1 1 1 0.010033187936963986 0.0096183710898854052 1 1 1 1 1 1 1 1 1 1 1 1 1 0.010019535230551883 1 1 1 1 1 1 1 1 1 1 0.0095066096424385182 0.0091894784364827554 1 0.00834358568135324 1 1 1 0.0091881657456399958 1 0.0092643600684281496 0.0096518547033545721 1 0.007558500872787581 1 1 1 1 1 1 1 0.0086244597975365187 0.0091107012369943084 1 1 1 1 0.010070810599097226 1 1 1 1 0.0082386044624400273 1 0.0097827391711350735 1 0.0085306582195642348 0.009624661460336947 1 0.009560161199777692 1 1 1 1 1 0.0099997297592268608 1 0.0087030854036772541 0.0096109772259359207 0.0098474819064515197 0.0094298905644925393 1 1 1 1 1 0.0089962142410176613 1 1 0.0085617016259291866 0.0097959355566661615 1 1 1 0.0072585141574464211 1 1 0.0099559855220280064 1 1 1 1 0.006657819458741011 1 1 0.0099381085875659483 1 1 0.0088666559374765939 1 1 1 1 1 1 1 1 1 1 1 1 1 1 0.0092717075932661625 1 0.0094711831478907146 1 1 1 1 1 0.0093827148272146964 1 1 0.0097278409433354789 1 1 1 1 1 0.0071662079820909181 1 1 1 1 1 1 1 1 1 1 0.0092421590866033285 1 1 1 1 1 1 1 1 1 1 1 0.0097288007754670822 1 1 1 1 1 1 0.0070379488319440523 1 1 1 1 1 1 1 1 1 1 1 1 1 1 0.0077035427369911424 1 1 1 0.0099100554582959282 1 1 1 1 1 1 1 0.0085751943260627943 1 0.009517051263260027 1 1 1 1 1 1 1 1 1 1 1 1 1 1 1 1 1 1 1 1 1 1 1 1 1 1 1 1 1 1 1 1 1 1 1 1 0.0089756593374381161 1 0.0095560964913958789 1 1 0.0088724155123438928 1 0.0099145446644710276 1 1 1 1 1 1 0.0085754003463785235 1 1 0.0099313830522579291 0.0087826307792616479 1 1 1 1 1 1 0.0094998110129402482 1 1 1 1 1 1 1 0.0094839411102618978 1 1 1 1 1 1 1 1 1 1 1 1 1 1 1 1 1 1 1 0.0098633524477982643 1 1 1 0.007046997716165489 1 0.010002420939608542 1 0.0070148875964940564 1 1 1 1 0.0096031262797887616 1 1 1 1 1 1 0.0098427686605198506 1 1 1 1 1 1 0.010056417961682001 1 1 0.010152898491676436 1 1 1 1 1 1 0.010096553608143722 1 1 1 1 1 1 1 1 1 0.008832117369654063 1 0.0089371028303612699 1 1 1 1 1 0.010521307954375886 0.012423282393263575 1 1 1 0.009665210266959167 0.0082934734537257002 1 1 1 1 1 1 0.010061860606277282 1 1 0.0099973948790602635 0.0071632592528833236 1 1 0.010363966706748334 1 1 0.0070889544571003677 1 1 1 1 0.006398083111505159 1 1 1 1 1 1 0.0083850233913531705 1 1 1 1 1 1 1 1 1 1 0.0081559975312946488 1 1 1 0.0098971082249871625 0.0094298556710559096 1 1 1 1 1 1 1 1 1 0.0098345097917811944 1 1 1 1 1 1 1 1 1 1 1 0.0095475898058352687 0.0081988537754473321 1 1 1 1 0.007972418578760852 1 1 1 1 0.0092659115342351786 1 1 1 1 0.0095748404393679511 1 1 1 0.0097046179190307252 1 1 1 1 0.0086986015585798007 1 1 1 1 1 0.0068491227423979652 1 1 1 1 0.010158406390487913 1 1 1 1 1 1 1 1 1 1 1 1 1 1 1 1 1 1 1 1 1 1 1 1 1 1 1 1 1 1 1 1 0.0098543835325559884 1 1 1 1 0.0096888933243371826 1 1 1 1 1 1 0.0098960359649926336 1 1 1 0.0099584313957457957 1 0.0098083922920371592 1 1 1 1 1 1 1 1 1 1 1 1 1 1 1 1 1 1 1 1 1 1 1 0.0096107388637917349 1 0.0098567050707585313 1 1 1 0.0095459309258851526 1 1 1 1 1 1 1 1 1 1 1 1 1 0.0075554544865071892 1 1 0.0087767782746807164 1 1 0.0099139079058754541 0.0079344156747361734 1 0.0073576703949253686 1 1 1 1 1 1 1 1 1 1 1 1 1 1 1 1 1 0.0084200461032871311 1 1 1 1 1 0.0086973274347324249 1 1 1 1 1 1 1 0.009066074698268152 1 1 1 1 1 1 1 0.010390706145034654 1 1 1 1 1 1 1 1 1 1 1 1 1 1 1 0.0094230353335012264 1 1 1 0.0097340184883287634 1 1 1 1 1 1 1 1 1 1 1 0.0086711939204828295 1 1 1 1 1 1 0.0059196477411224586 1 1 0.0099944506617039176 1 0.0099013010976678403 1 1 1 0.011696851197909742 1 1 1 1 1 1 1 1 1 1 1 0.01112320471055455 1 1 1 1 1 0.0101680202661301 1 1 1 0.01091624775544784 1 1 1 0.012293002852411864 1 1 1 1 1 0.0069233335160445173 1 0.006696899447242219 1 1 1 1 1 1 1 1 0.0094411557966373946 1 0.0084608806953330798 1 1 0.0089573059279538427 1 0.0066382525135739627 1 0.0099912320687385488 1 1 1 1 1 1 1 1 1 1 0.010046984939043577 1 0.0078671855835052342 1 1 1 1 0.0098322237928542139 1 1 1 0.0097667114509382372 0.0084482646971133016 1 1 1 0.0093972526836384185 1 0.009925230519174268 0.0090454406810333357 1 1 0.0094974302986621864 0.0081170896992006063 1 0.00901722175231311 0.0092174187118786478 1 1 0.0093890120641567203 0.0094733073494722084 1 1 0.0095769919238653141 1 1 0.0099913264024714919 1 0.010022849313071819 1 1 0.0095051876841367577 1 1 0.0099662740534899701 1 0.009616096129779178 1 1 1 0.0097455089133288604 1 0.010008317440316241 1 1 0.0089569335890924712 0.0093073384618879724 1 1 1 0.0088198386668278013 0.0080307411096519499 1 0.0095601148294576187 1 1 1 1 1 1 1 1 0.010019661226681078 1 1 0.0097051593588316429 0.0070619672281460677 1 0.0087887259539120906 1 0.009501298682498157 0.0071306291422103801 1 1 1 0.007614398736013786 1 1 0.0079199921444235363 1 1 1 1 1 1 0.0098463360914678513 0.0069545826800969726 1 1 1 1 1 1 1 0.0099254276454131193 0.009976105227001663 1 1 1 1 0.0097776982718910978 1 1 1 0.010000720764129599 1 1 0.010132646275151633 1 1 1 1 1 0.0050316699994441862 1 1 0.0082435455008140375 1 1 1 0.0098161720172106112 0.010303684708466099 1 1 0.0099965755489746389 1 1 1 0.0098978315827324866 1 1 1 0.0081454312867278063 0.010576348987812612 1 1 0.011378890390745229 1 1 1 1 0.010004894031686574 0.0080647699178895502 1 1 0.0094693655939802699 0.010000478372549162 1 0.0081037489960021913 0.0069554734846797375 1 1 1 1 1 1 0.0078482901135391043 1 1 1 1 1 1 1 1 1 1 0.0098048555016418508 0.0099783045185376437 1 1 1 1 1 1 1 0.0099121449858028642 1 1 1 1 1 1 1 1 1 0.0091850837063475205 1 1 0.0098720541479003932 1 1 0.0079716901120023102 1 1 1 1 1 1 1 1 1 1 1 1 1 1 1 1 1 1 0.008674749339136598 0.0090639316873026739 1 1 1 1 0.0097542950047534785 1 1 0.0081223459616521047 1 1 1 1 1 1 1 1 1 0.0072208892711019008 1 1 0.0099635726284892263 1 1 1 1 1 1 1 1 1 1 1 0.009916038093872372 1 0.009879960055273012 1 1 1 1 1 1 1 1 1 1 0.010101222625249135 1 1 1 1 1 1 1 1 1 1 1 1 1 1 1 1 1 1 1 1 1 1 1 1 1 1 1 1 1 1 1 1 1 1 1 1 1 1 1 0.0080891639991029305 1 1 1 1 1 1 1 1 1 0.0095394750563926548 1 1 0.010966199325822818 1 1 1 1 1 1 1 1 1 1 1 1 1 1 1 1 0.012243999309034711 1 0.0061611319232235378 1 1 0.0095422583226504841 1 1 1 0.0099951801947235491 0.010073590211480139 1 0.0097064841759192111 0.010011191188891029 1 0.010401831914856469 1 1 0.010143328486429843 1 1 0.0099521093680758638 1 1 1 1 1 1 1 1 1 1 1 1 1 1 1 1 1 1 1 1 1 0.0097777576927834536 1 1 1 1 1 1 1 1 1 1 1 1 1 1 1 1 1 1 1 0.0097621190582945303 1 1 1 1 1 0.0096408203586985097 1 1 1 1 1 1 1 1 1 1 1 1 1 1 1 1 1 1 1 1 1 1 1 1 0.0091686024482854015 1 1 1 1 1 1 0.010049899961616052 1 1 1 1 1 1 1 1 1 1 1 1 1 1 1 0.0099889268557340465 1 1 1 0.010119893979797555 0.0093931416712918735 1 1 1 0.010161755211615367 1 1 1 1 1 1 1 1 0.010078066342029483 1 1 1 1 0.010026402494826038 1 1 1 1 1 1 1 1 1 1 1 1 1 0.0097440901571566058 1 1 1 1 1 1 1 1 1 1 1 1 1 1 1 1 1 1 1 1 1 1 1 1 1 1 1 0.0086299424568907906 1 1 1 1 1 1 1 1 1 1 1 1 1 1 1 0.0083251556267017017 0.0098354667871675804 1 1 1 0.0098018232251829152 1 1 1 1 1 1 1 1 1 1 1 1 1 1 1 1 1 1 1 1 1 1 1 1 1 1 1 1 1 1 0.0093455247612158829 1 1 1 1 1 1 1 1 1 1 1 1 1 1 1 1 1 1 1 1 1 1 1 1 1 0.0099943468933869264 1 1 1 1 1 1 1 0.010042362159216054 1 1 1 0.010236615094325791 1 1 0.0075976181124671697 1 1 1 1 1 1 1 1 0.0091133598987518938 0.0063732247781838093 1 1 1 1 1 0.0098286975183978029 1 1 1 1 1 1 1 1 1 1 1 1 1 1 1 1 1 1 1 0.009628885954444116 1 0.0099272793038111661 1 0.0093430858033377792 1 1 1 0.0044297195865325798 1 0.0062392144477553188 1 1 1 1 1 1 1 1 1 1 1 1 0.0041045481150269441 1 1 1 1 0.010039632833256044 1 1 0.0081719752326574746 1 0.0060221708567569608 1 1 0.009794503038774334 1 1 1 0.0099262592828014782 1 1 1 1 1 1 1 1 1 0.0078742537024413181 1 1 1 1 0.0079679427465911192 1 1 1 1 0.0081376631485623342 1 1 1 1 1 1 0.0098803011541680735 1 0.0095685600949371261 1 0.0084809417749895314 1 1 1 0.0096002366832128143 1 1 1 1 1 1 0.0082537344107587157 0.0085761954848801621 1 1 1 1 1 0.0098302689822455606 1 1 1 1 1 1 1 1 1 1 1 1 1 1 1 1 1 1 1 0.0097423528330868245 1 1 1 1 1 1 1 1 1 0.0053468303384762005 1 0.0099985586380576218 1 0.010050992860035329 1 1 1 1 1 1 1 1 1 1 1 1 0.0095074622880287445 1 1 0.0069596387453757635 1 1 1 1 1 1 1 1 1 0.011174542036722386 1 0.0078102526616387049 1 1 1 1 1 1 0.010404175713766887 1 1 1 1 1 1 1 1 1 1 1 1 1 1 1 1 1 1 1 1 1 1 1 1 1 1 1 1 1 1 1 1 1 1 1 1 1 1 1 1 1 0.0098788236266563346 1 1 0.010003702570275344 1 0.009568451221729243 1 1 1 0.0092122821307018023 0.0099986753797457664 1 1 0.0092237914146057996 1 1 1 1 1 1 1 1 1 1 1 1 0.0092775862437748761 1 1 1 1 1 1 1 1 1 1 1 1 0.0097123483952551038 1 1 1 1 1 1 1 1 1 1 1 1 1 1 1 0.0094658291631321417 1 1 1 1 1 0.0094974612412768097 1 1 1 1 1 1 1 1 1 0.0098197566722825064 1 1 1 1 0.0095818757305770382 1 1 1 1 1 1 1 1 1 1 1 0.0077664552406135935 1 0.01011835341315908 1 0.0099759929297856195 1 1 1 0.010468071211605491 1 1 1 1 1 1 1 1 1 1 1 1 1 1 1 1 1 1 1 1 0.0098093897709281251 1 1 1 1 1 1 1 1 1 1 1 1 1 1 1 1 1 1 0.0099102008287507218 1 1 1 1 1 0.011909757843203667 1 1 1 1 1 1 1 1 0.010326097458612056 1 1 0.011049671924805819 1 1 1 1 1 1 1 0.0096561503284670128 1 1 1 1 1 1 1 1 1 0.0099419761465586454 1 1 1 1 1 1 1 1 1 1 1 1 1 1 1 1 1 1 1 1 1 1 1 1 0.0093007788076866042 1 0.00797749771314917 1 1 0.0089980028214650988 1 1 1 1 1 1 1 1 0.0099686827399314247 1 1 1 1 1 1 0.0052073618257562418 1 1 1 1 1 1 1 1 1 1 1 1 0.0093281515437820643 1 1 1 1 1 1 1 1 1 1 1 1 1 1 0.0096720012153150535 1 1 1 0.0035170065599914504 1 1 1 1 0.009884989172939217 1 1 1 1 1 1 1 1 1 1 1 1 1 1 1 1 1 1 1 1 1 1 1 1 1 1 0.0099211157967556852 1 1 0.0098306813601070527 1 1 1 1 1 1 1 1 1 0.0099911081401580087 1 1 0.009925951822297165 1 1 0.0099536560689169589 1 1 1 1 1 1 1 1 1 1 1 1 1 1 1 1 1 1 1 1 1 1 1 1 1 1 1 1 1 1 1 1 1 1 1 1 1 1 1 1 1 1 1 1 1 1 1 1 1 1 1 1 1 1 1 1 1 1 1 1 1 1 1 0.0096788116547204418 1 1 1 1 1 1 0.0022896050934632173 1 1 1 1 1 1 1 1 1 1 1 0.0017302284870814354 0.0090770750980766115 1 1 0.0065615611879427122 1 0.0092266844043319435 1 1 0.0032490092737014233 1 1 0.010662227923029791 1 1 1 1 1 1 1 1 0.0099667722011086736 1 1 1 1 1 1 1 1 1 0.0098768218767066821 1 1 1 1 0.0099608680952997623 1 1 1 1 1 1 1 1 1 1 1 1 1 1 1 0.009909593980010907 1 1 1 1 1.0408340855860843e-17 1 0.010038071350388571 1 1 1 0.010152689729281971 1 1 0.0036342747171537529 1 1 1 1 1 1 1 1 1 1 1 0.0099306453794943163 1 1 0.0098292091104963224 1 1 1 0.010149235583091248 1 1 0.004240781054617733 0.007401539089829795 1 1 0.012858859263505707 1 1 1 1 1 1 1 1 0.0093413247030866044 1 1 1 1 0.0098073713166510149 1 0.0092424204697228018 1 0.010550624996937156 1 1 1 1 0.010246174681612531 1 1 1 0.0099762959617181075 1 1 1 1 1 1 1 1 1 1 1 1 1 1 1 1 1 1 0.0097588693099575977 1 1 1 1 1 1 1 1 1 1 1 1 1 1 1 1 1 1 1 1 1 1 1 1 1 1 1 1 1 1 1 1 1 1 1 1 1 1 1 1 0.0095453763589782199 1 1 1 1 1 0.009865201421456405 1 1 1 1 1 1 1 1 1 1 1 1 1 0.0093100885380042759 1 1 0.0079368754919364147 1 1 1 0.0096477842999903862 1 0.0093612049313137376 1 1 1 1 0.010172257828991961 1 1 1 1 1 1 1 1 1 0.009068851753672804 1 1 0.010037568292353511 0.011400902108652468 1 0.0090882488028345351 1 1 1 1 1 1 1 1 1 1 1 1 1 1 1 1 1 1 1 1 1 1 1 0.0090019784256806963 1 1 1 0.0093734744157895362 1 1 1 1 1 1 1 0.0097838298696736534 1 1 1 1 1 1 1 1 1 1 1 1 1 1 1 1 1 1 1 1 1 1 1 0.0096990807442130129 1 1 1 1 1 0.0092131731887490249 1 0.0094870644473741099 0.010314668534793016 1 1 1 0.010009126381468343 1 1 0.0099733016549538051 1 1 1 1 1 1 1 1 1 1 1 0.01005719588742182 1 1 1 0.010547965959025216 1 0.010169697635320546 1 1 1 1 1 0.0092386122795435326 1 0.010042266485443617 1 0.010768470278813247 1 1 1 1 1 1 1 1 0.0078922840205042609 0.0098775431217883441 0.0085697040038242647 1 1 0.0099754651758445865 1 1 1 1 1 1 1 1 1 1 1 1 1 1 1 1 1 1 1 1 1 1 1 1 1 1 1 1 1 1 1 1 1 1 1 1 1 0.010489857788462582 1 1 1 1 1 1 1 0.010218722403149494 1 1 0.009996116458731337 1 1 1 1 1 1 1 1 1 1 1 1 1 1 1 1 1 1 1 1 1 1 1 0.0097906543612945734 1 1 1 1 1 1 1 1 1 1 0.0087757167178492222 1 1 1 1 0.0078613803908860625 1 1 1 1 0.012675903119183329 1 0.0099809549243276129 0.0021296882543941041 1 1 1 1 0.0096735591145387829 1 1 0.014167447667697036 1 1 0.00596585766184996 0.0094108047376285121 1 1 1 1 1 1 1 0.0051460226389146392 1 1 1 1 1 1 1 1 1 1 1 1 1 0.010038663524021024 1 1 1 1 1 1 1 0.0043833533727269929 0.010071186552103581 1 0.0099647227706297099 1 0.0061383409683449909 1 1 1 0.0091863379474427659 1 1 1 1 1 0.0095098389190212927 1 1 0.0098361484962289567 1 1 1 1 1 1 1 0.009598017577233468 1 1 1 1 1 1 1 1 0.010004174345412235 1 1 1 0.0064598204595358363 1 1 1 1 1 0.010296258280972656 0.0031755033483903189 1 1 0.010810238824729757 1 1 1 1 1 1 1 1 1 1 1 1 1 1 0.0099370012248527085 1 1 0.011276704373466857 1 0.0087057608456683373 1 1 1 1 0.0093653453338621295 1 1 1 1 1 0.0029031429133694019 1 1 0.010044986719452784 0.0032849156044702059 1 1 1 1 0.0073890134232547453 1 1 1 1 1 1 1 1 0.0064455488833437581 1 0.0079402097404243505 1 1 1 1 1 1 1 1 0.0065732413763653907 1 1 1 1 0.0098199950254765356 1 1 1 1 1 1 1 1 1 1 1 1 1 1 1 1 1 1 1 1 1 1 1 1 1 1 1 1 1 1 1 1 1 0.0097307409729098342 1 1 1 1 1 1 1 0.0093688810395266709 1 1 1 1 1 1 1 1 1 1 1 1 0.010060824138247177 1 1 1 1 0.0023652930981189479 1 1 1 1 1 1 1 1 1 1 1 1 1 0.0099998099484637226 1 1 0.0084128215133523788 1 1 1 1 0.0094662706553042542 1 1 1 1 1 1 1 1 1 1 1 0.0099408636017263487 1 0.0021333813668471934 1 1 0.009978268767961266 1 1 1 1 0.01065020812161052 1 1 1 1 1 1 1 1 1 1 1 1 1 1 1 1 1 1 1 1 1 1 1 1 1 1 1 1 0.010206468553396389 1 1 1 1 0.010047245135137703 1 1 1 1 1 1 1 1 1 0.010232099382810268 1 1 1 0.008856722808091206 1 1 1 1 1 1 0.0095576244250049659 1 0.0088774059049305624 1 0.0098182869193574225 1 1 1 1 1 1 1 1 1 1 1 1 1 1 1 1 1 1 1 1 1 1 1 1 1 1 1 1 1 1 1 1 1 1 1 0.010001073752961789 1 0.0094412303755104961 1 1 1 1 1 1 1 1 0.0097552107961068005 1 1 1 1 1 1 1 1 1 1 1 1 0.010702736849798201 1 1 1 1 1 1 1 1 1 1 1 1 1 0.010222727138117376 1 1 0.010026964766857091 1 1 1 1 0.0099985736756399261 1 1 1 1 0.009905011324967546 1 1 1 1 1 0.0099244357575493172 0.010008315464671892 1 0.0097648947128309606 1 1 0.0092743105022299703 1 1 1 1 0.0099927938318738543 1 0.0097342795184790516 1 1 1 1 1 1 1 1 0.010012407231344158 1 1 1 1 0.0099846950626284181 1 1 1 1 1 1 1 1 1 1 1 1 1 1 1 1 1 1 1 1 1 1 0.0099585828778134405 1 1 1 1 1 1 1 1 1 1 1 1 1 1 1 1 1 1 1 1 1 0.0099432779404418636 1 1 1 1 1 1 1 0.0097071649924413798 1 0.0098787862319206447 1 1 1 1 1 1 1 1 1 1 1 1 1 1 1 1 1 1 1 1 1 1 1 1 1 1 0.0087139712959268239 1 1 1 1 1 0.0096275048622165293 1 0.010006190904644201 1 1 1 1 0.0091140595207123941 0.0091829747154572577 0.0099589876763343504 1 0.0079863472777618964 1 1 1 0.010806274680876445 1 1 1 1 0.0096813170430559824 1 0.0084713173315221491 1 1 1 1 0.010000994552023353 1 1 1 0.0090362024736882866 0.0095265802126363909 0.010183043110208855 1 0.0089028618763626853 1 0.0091198175938844821 1 1 0.0099892520865509146 1 1 1 1 1 1 1 1 1 1 0.0098974515062165824 1 0.0098721342975995087 1 0.0099002020900620206 1 1 1 1 0.0096440577034486719 1 1 1 1 0.010246763965486291 1 1 1 1 1 1 1 1 1 1 0.0033415634307154387 1 0.0099825828240309965 1 1 0.012065636358265889 1 1 0.0022909686588835111 1 1 1 1 1 0.011112528008479823 1 1 1 1 1 1 1 1 1 1 1 1 0.0095510782264803529 1 1 1 0.010412291701950313 1 1 1 1 1 0.010088470878514662 1 1 1 1 1 1 1 1 1 1 1 1 1 1 1 1 1 1 1 1 1 0.010039195017198591 1 1 1 1 0.0076851814939200534 1 1 1 0.0070800463157270378 1 0.010451043643940925 1 1 0.0071813953620496456 1 0.0099857530245692563 1 1 1 1 1 1 0.0099250816831769981 1 1 1 1 0.010629823533761748 1 0.0077970752288957371 1 1 1 1 1 1 1 0.0098774520832530348 1 1 1 1 1 1 1 0.002402138169618301 1 1 1 1 1 1 1 1 1 1 1 1 1 1 1 1 1 0.0096974471087295719 1 1 1 0.010186548180444139 1 1 1 1 1 1 1 1 1 1 1 1 1 1 0.010518584245387704 1 1 1 1 1 1 1 1 1 1 1 1 1 1 1 1 1 1 1 1 1 1 1 1 1 1 1 0.0092970490962773766 1 0.0086103818718028663 1 1 1 0.010194397215156617 1 1 1 0.0075098808157223803 1 1 0.0098841925168897012 0.007859875107933869 1 1 1 1 1 1 1 1 0.0088734639870336612 1 1 0.0083195944979352447 1 1 1 1 0.0093077101830740701 1 0.0097573172414754661 1 1 1 0.0099002168502742693 1 1 1 1 1 1 1 1 1 1 0.0088870945889452622 1 1 0.010396290199306629 1 1 0.0099898219788166747 1 1 1 1 1 1 1 0.0070904505961283549 1 1 0.0079446616086179898 0.0059217515000649368 1 1 1 0.010000258136424064 1 1 1 1 1 1 0.010807749928561209 1 1 1 1 0.0043499531788614414 1 1 1 0.0096404241125905236 1 1 1 1 0.010125084152736163 1 1 0.0095844371546748627 1 1 1 1 1 1 1 1 1 1 1 0.0099449998781619801 1 1 1 1 0.0084334588126582389 1 0.0085446671942623204 1 0.01052861318047852 1 0.0094266642186983437 1 1 1 1 1 1 1 1 1 1 1 0.0098053312811436887 0.0079084370904819994 1 1 1 1 1 1 0.010068591264398912 1 1 0.0099681236849035858 1 1 1 1 1 1 0.010207196993937561 1 1 1 0.0097817837048430958 1 0.0097344236405546604 1 1 1 0.0094590368077498727 1 1 1 1 1 1 0.0096898060549741993 1 1 1 1 1 1 0.0099890967935613636 1 0.0099865590062418585 1 1 1 0.0078348880454021195 1 1 1 1 0.0097032715343497427 1 1 1 1 1 1 1 0.0099994857596404189 1 0.0091744970870388555 1 0.0082963439770275659 1 1 1 0.010267884552126414 0.0081791027970987105 1 1 0.01024309484624826 1 1 1 1 1 0.0095799638885719143 1 0.0093858776064594078 0.0096034195037754851 0.009106636274449945 0.0084436079236118386 1 1 1 1 1 0.0092623899013096374 0.010255827095866888 1 1 0.0099608025759240493 1 1 1 0.0089090405610390017 1 1 1 1 1 1 1 1 1 0.0099665912732515051 1 1 1 0.0099991157204633706 1 1 1 1 1 1 1 0.0099837177406259022 1 0.009997995244128581 1 1 1 1 0.010069443051516296 1 0.00981122412146615 1 1 1 1 0.009860778354656638 1 1 1 1 1 1 1 1 1 0.0099442373504189975 1 1 1 1 1 1 1 1 1 1 1 1 1 1 1 1 1 1 1 1 1 0.0099944460576885507 1 1 1 1 0.0099973276704943149 1 1 1 1 1 0.0089856246976287302 1 0.0099530728420920977 1 1 1 1 1 1 1 1 1 1 1 0.0098488332285498227 1 0.0093298393206166907 1 0.0092103976894184394 0.0096801541490521923 1 0.010027130801869205 1 0.0090503828511524186 1 1 1 0.010012990615614139 1 1 1 0.0099035200811515116 1 1 1 1 0.0090305101696030107 1 0.010019706236715831 1 1 1 1 1 1 1 1 0.0099247899309412389 1 1 1 1 1 1 1 1 0.0099922306593882154 1 1 1 1 1 1 1 1 1 0.010003229094871681 1 1 0.010258369448654778 1 1 1 0.010072164396982768 1 1 1 1 1 1 1 1 1 1 1 1 0.0097034007035576506 1 1 1 1 0.0077914110852820191 1 1 1 1 1 1 0.0075242367678988783 1 1 1 1 0.010010578406234982 1 0.0097500853227251577 1 1 1 1 1 1 1 0.0092150040145683558 1 1 1 0.010008447638554976 0.0099838239242129468 1 1 1 1 0.0074831753528603225 1 0.010001123213797683 1 1 0.0094724309716973012 1 1 1 1 1 1 1 1 1 1 1 1 1 1 1 1 1 1 1 1 1 1 1 1 1 1 1 1 1 1 1 1 1 1 1 0.010503386019021321 1 1 1 0.0084645976779031615 1 1 1 1 1 1 1 1 1 1 1 1 1 0.0099955932271143938 1 0.0095384534284297072 1 1 1 1 1 1 1 1 1 1 1 1 1 0.0085053391459506411 1 1 0.0080951494220765294 1 1 1 1 1 0.0084847299844908169 1 1 1 1 1 1 1 1 1 1 1 1 1 1 1 1 1 1 1 0.0092207341457865213 0.0092199485442311276 1 1 0.010009557420522539 1 1 0.0076270444888658778 1 1 1 1 1 1 1 0.0099699965126174919 1 1 1 1 0.0094799932491083302 1 1 1 1 1 1 1 1 1 1 1 1 1 1 0.0095501975434057751 1 1 0.0098807239400157815 1 1 1 1 1 1 1 0.0097924243048548368 0.0097142306886473882 1 1 1 1 1 1 1 1 1 1 1 1 1 1 1 1 0.0099009313498603785 1 1 1 1 0.0099035380704341636 1 1 0.0080272297347330941 1 1 0.0090901286242252126 1 1 1 1 1 1 1 1 1 1 1 1 0.0095594792353070231 1 1 1 1 0.0101574210335721 1 1 1 1 1 1 1 1 1 0.0096737266153073403 0.0090563797402029265 0.0080014176454555521 1 1 1 0.0099929197999822725 1 1 0.01004910741630567 0.010633706152246535 1 0.011250028749574146 1 1 1 0.0099717259953125588 1 1 1 1 1 1 1 1 1 1 1 1 1 1 1 1 1 1 1 1 1 1 1 1 1 1 1 1 1 1 1 1 1 1 1 1 1 1 1 1 1 1 1 1 1 1 1 1 0.0099748567362735515 1 0.0099934290996551624 1 1 1 1 1 1 1 1 1 0.0097823417727896586 1 1 1 1 1 1 0.010005170336055441 1 1 1 1 1 0.010004844505012215 1 1 1 1 1 1 1 1 1 1 1 1 1 1 1 0.0096805111029082402 1 1 1 1 1 1 1 0.0099153473078787257 1 1 1 1 1 0.0098004860200060946 0.0097391056787831283 1 1 1 1 0.0095396535041039447 1 1 1 1 1 1 1 1 1 1 1 1 1 1 1 1 1 1 1 1 1 0.0098358096299644183 1 1 1 1 1 1 0.0096172254325467763 1 1 1 0.0096399180356110097 1 1 1 1 1 1 1 1 1 1 1 1 1 1 1 1 1 1 0.0095873770096984584 1 0.010048558333724042 1 1 1 1 1 0.0096277586989033121 0.010139216368230206 1 1 1 0.01002629817232093 1 1 1 1 1 1 0.010401812893240601 1 1 1 1 1 0.0095459028791566956 1 0.0092172499104847209 1 1 0.0095003618499525724 1 1 1 1 0.0095436551262841271 1 1 1 1 0.0088748182261242248 1 1 1 1 0.0099991700007402949 1 1 1 1 1 1 1 1 1 1 1 1 1 0.0095440730689609656 1 1 1 1 1 1 1 1 1 1 1 1 1 1 1 1 0.010151873347961091 1 1 1 1 0.010607403478872127 1 1 1 1 0.0084779246946095049 1 1 1 1 1 1 1 1 1 1 0.0087753868775689112 1 1 1 1 0.0098354186331192483 1 1 1 1 1 1 1 1 1 1 1 1 1 1 1 0.009478394932456613 1 1 1 0.0099746429856206516 1 1 1 1 1 1 1 1 1 1 1 1 1 1 0.0089846089445014109 1 1 1 1 1 1 1 1 1 1 1 0.010239367011335571 1 1 0.010115409681293288 1 1 1 1 1 1 0.0074146044798531919 0.010436692604551396 1 1 1 1 0.010064186085299432 1 0.0099231941340727145 1 1 1 0.0080313684219293149 1 1 0.0092042626663259245 1 1 1 1 1 1 1 1 1 1 1 1 1 1 1 1 0.008524562612554713 1 1 1 1 1 1 1 1 0.0064688113786932414 0.010036558161755917 1 1 1 0.0097932316344084246 0.0090424835436663589 1 0.010725771092309629 1 0.010155567520272919 1 1 1 1 0.010044258408965161 1 1 1 1 1 1 1 1 1 1 1 1 1 0.0099863394524937494 1 0.0072604005537743894 1 1 1 1 1 1 1 1 0.0085304026251665672 0.0099992377052460918 1 1 0.010322082968966613 0.0089427450788479856 0.0086379708542543912 1 1 1 1 1 1 0.0099968441480713828 1 1 0.0086259840385541284 1 1 0.0099634728891938758 0.010344994561544569 0.010282017640835975 0.010427454907126649 1 1 1 1 1 1 1 1 1 1 1 1 1 0.00991544020166517 1 1 0.0078572522371002998 1 0.0099455927064243943 1 1 1 1 1 1 1 0.010023904642508744 0.0081607628219232051 1 1 0.0084744026516394427 1 1 0.011006458202087769 1 1 1 1 0.010607056683311258 0.010497384454066994 0.010939892093127082 0.010541524146139842 1 1 1 1 1 1 1 1 1 1 1 1 1 1 0.0095839942456671188 1 1 0.0092375053319771645 1 1 1 1 0.0099944665759859174 1 1 1 0.008432669167298866 1 1 0.0086531113368262316 1 1 0.0099987127278687599 1 1 0.0082564360378430922 0.0082490465731779213 1 0.010204040115557377 1 1 1 1 1 1 0.010464384720499011 1 1 1 1 0.0085741953578461726 1 1 1 1 1 0.0090479465497407836 1 1 0.0099993538645697395 1 0.0096783311994204525 0.0083350530586743712 1 1 1 0.0099395921682086316 1 1 1 1 1 0.010014491972144539 1 1 1 0.010030335085934025 1 1 1 0.010000342600532421 1 1 1 1 1 1 1 0.0103580353069175 1 1 1 1 1 0.010336225622428996 1 1 1 1 1 1 1 0.010041561984908905 1 0.0099907812045297428 0.010123425256069732 1 1 0.010001380346640198 1 1 1 1 1 1 0.010123015237030675 1 1 1 1 1 1 0.01107463116327707 1 1 1 1 1 1 0.0071488031137232491 1 0.0074189954328268901 1 0.010354304375248393 1 1 0.0061782898762958388 1 1 1 1 0.0078685953372462421 0.010060163478941533 0.0093410043440635172 0.0082001178059644634 1 1 1 1 1 1 1 1 0.01011081870777223 1 1 1 0.01000195709647103 1 0.010365184661029266 1 1 1 1 1 1 1 1 1 1 1 1 1 1 1 1 0.0090026976448649813 1 0.0083373059899341986 1 1 1 1 1 1 1 1 0.0099870964782531133 1 1 1 1 1 0.0074133936811722322 1 1 0.007507225980444769 1 1 1 1 1 1 0.0075203600708934008 0.0073009606933316876 1 1 0.008902411065985107 1 1 1 1 1 1 1 1 1 1 1 0.010118754986925407 0.0092454322178991515 1 1 1 1 0.010001879105065298 1 1 1 1 1 1 1 1 0.0088280741037731914 1 1 1 1 0.0097200946055431298 1 1 1 1 1 1 0.0093180597022329524 1 0.0094055919978323008 1 0.0076600295389479571 1 1 1 1 1 1 1 1 1 1 1 1 1 1 1 1 1 1 0.0098567937923420192 1 1 1 1 1 1 1 1 1 1 1 1 1 1 1 1 1 0.0099952497153405102 0.0099993026457360773 1 1 1 1 1 1 1 1 1 1 1 1 1 1 1 1 1 1 1 1 1 1 1 1 1 1 1 1 1 1 1 1 1 1 1 1 1 1 1 1 1 1 1 1 1 0.0099051018212328416 1 0.0097056496465536494 1 1 1 1 1 1 1 0.0099940027483795338 1 1 1 0.0081637618164576847 1 0.0099392862476244265 0.0099929587353286865 0.0098811809988907564 1 0.0093061304263923721 0.0072148200293731856 1 1 0.010008417424479997 0.0073800817375352917 0.009861614459313859 1 1 1 1 1 0.0096853695581375996 1 0.0068980609883797003 0.0082395568512197911 1 1 1 1 1 1 1 0.0093675395686944416 1 1 0.0066865797952716591 1 1 0.0099720603710756299 0.009290181209344309 1 1 1 1 1 1 0.0091922510118269841 1 1 0.0095940704887214692 0.0089573030700721389 1 1 0.0099071712314219192 1 1 1 0.0097701607936618237 1 1 1 1 0.0081160823744357725 1 1 1 0.0074893577938731411 1 1 0.0090867609038457458 1 1 1 1 1 1 1 1 1 1 1 1 1 1 1 1 1 1 1 0.0065770550497088395 0.0099944685669536484 1 1 1 0.0062091749790249805 1 1 1 1 0.0069601044879464688 1 1 1 1 1 0.0094768461570123464 0.0088855894015066293 1 1 1 1 1 1 1 1 1 0.0093303667451765625 1 1 1 1 1 1 1 1 1 1 1 1 1 1 1 1 1 1 1 1 1 1 1 1 1 1 1 0.010001478906898145 1 0.0054452355838210606 0.010122882780512564 1 1 1 1 1 1 1 1 1 1 1 1 1 1 1 1 1 1 1 1 1 1 1 1 1 1 1 0.0064658625365595773 1 1 0.0099525462370338887 1 1 0.0067430380282763065 1 1 0.0083091802622012097 1 0.0086746296671190402 1 1 1 1 1 1 1 0.0092246589303066392 1 1 1 1 1 1 1 1 1 1 1 1 0.0082405423751590531 1 0.010368412575444344 1 0.0099990630994436537 1 1 1 1 1 0.0088538981586263228 1 1 1 1 0.0099792746646161813 1 1 0.010113704477945301 1 1 1 1 1 1 1 1 0.0094150213014896848 1 1 1 1 1 1 0.008563175569849979 1 1 1 1 0.0093814333825179008 1 1 1 0.0094410241845707156 1 1 1 1 1 1 1 1 1 1 1 1 1 1 1 1 1 1 0.0089988138079187124 1 0.0093069332948120132 1 1 1 0.0097504305419448892 1 1 1 1 1 1 1 1 1 1 1 1 1 1 1 1 1 1 1 0.0087425038149782294 1 1 1 0.0099542295835115899 1 1 1 0.0098614008149335106 1 1 1 1 1 1 1 1 1 1 1 1 1 1 1 0.010006366212662543 1 1 1 1 0.0082054345919487619 1 1 0.0090502948018660705 1 1 1 1 1 1 0.0099245818591686477 1 0.0080698615187072831 1 0.0085561031396291509 0.010650117811735889 0.0099878329415771933 1 1 1 0.010007430373992918 0.0061190371281041427 1 1 1 1 1 1 1 0.0097926494114764923 1 1 1 0.0086588753466726315 1 0.0073527520913562868 1 1 1 1 1 1 1 1 1 0.0094539280115994648 1 1 1 1 1 1 1 1 0.0078380602074480214 1 1 1 1 0.0090812040215770429 1 1 1 1 1 1 1 1 1 1 1 1 1 1 1 1 1 1 1 1 1 0.010354648312990208 0.010057725721294078 1 1 1 1 1 1 1 1 0.0086662525470622923 1 1 1 1 1 1 1 1 1 1 0.006427679439929738 1 1 1 1 1 1 0.011501138062613502 1 1 1 1 1 0.010966100340559998 1 0.010004107495321672 1 1 0.0098272937445507899 0.0081469155067010884 1 1 1 1 1 1 1 1 1 1 1 1 1 1 1 1 1 1 1 1 1 1 1 1 1 1 1 1 1 1 1 1 1 1 1 1 1 1 1 1 1 1 1 1 1 1 1 1 0.0086523322728393245 0.010005022306499784 1 1 0.0068122613376921746 1 1 1 1 1 0.0079089058255256764 0.010001124281178997 1 1 0.009984268729393465 0.010415201222552435 1 1 1 1 1 1 1 1 1 1 0.010534413491299237 1 1 1 1 1 1 1 1 1 1 1 1 1 1 1 0.0094411609512843123 1 1 1 1 1 1 1 1 1 1 1 1 1 0.0086451487112343094 1 0.0080324969312116704 0.010426822862287894 0.010410044469937998 1 1 1 1 1 1 1 1 0.0072679310312572607 0.010188670533201372 1 1 1 1 0.010062146926279658 1 1 1 1 1 1 1 1 0.0089567583810674992 1 1 1 1 1 1 1 1 1 1 1 1 1 1 1 1 1 0.0071847211115534902 1 1 1 1 1 1 0.0097253233105923272 1 1 0.0088514225719688033 1 1 1 1 1 1 1 1 1 1 1 1 1 1 1 1 1 1 0.0099585681987552823 1 1 1 0.0095756978895731888 1 1 0.0099682749708151462 1 0.0090903876843148081 0.010506520099539883 1 1 0.0098975314913931529 1 1 1 0.0060990152750160492 1 1 0.0096895359587455526 1 0.0095742563960465755 0.010858994018419686 1 1 1 1 0.0094838938395551912 1 1 1 1 1 1 0.0088716769628947052 1 0.010049730914553962 1 1 1 0.00986882773420426 1 1 1 1 0.010688859098871791 1 0.010436256231300253 0.0082799539956765998 1 1 1 1 1 0.0099674634559197318 1 0.0080455141913350035 1 0.010148971091680257 1 0.010844134653488583 0.0098139225140106649 1 1 1 1 1 1 1 0.0091594770079946874 1 0.0090213084490500285 1 1 0.012164776052648965 1 1 0.010870756225038929 1 1 1 1 1 1 1 1 1 1 1 1 1 1 1 1 1 1 1 1 1 1 1 1 1 1 1 1 1 1 1 0.0090973666313598385 1 1 1 1 1 1 1 1 1 1 1 1 1 1 1 1 1 1 1 1 1 1 1 0.010138297532397901 1 1 1 1 1 0.0095681946634368232 0.010322981451404591 1 1 1 1 1 1 1 1 1 1 1 1 1 1 1 1 1 1 1 1 1 0.0062532249500892988 1 1 1 1 1 1 1 1 1 1 1 1 1 0.010269237272036911 1 0.0091049067286874535 1 1 1 0.0074199388313657359 1 1 1 1 1 1 1 1 0.0090223457959478729 1 0.011119175195181442 1 1 1 1 1 0.010309880868331296 1 1 1 1 1 1 1 1 1 1 1 0.0082953281166052058 1 1 1 1 1 1 1 1 1 1 1 0.008643256862446741 1 1 1 1 1 1 1 1 0.0094737606366858285 1 1 1 1 1 1 1 1 1 1 1 1 1 1 1 1 1 1 1 1 1 1 1 1 1 1 0.0094935870247950718 1 1 0.0092177925456375029 1 1 1 1 1 1 1 1 1 1 1 1 1 1 1 1 1 1 1 1 1 1 1 1 1 1 1 1 0.005675153503660285 1 0.0099784257880279215 1 0.010048155535354123 1 1 1 1 1 0.0085931518801710301 1 1 1 1 0.0099958323510715638 1 1 1 0.008316289029547435 1 1 1 1 1 1 1 1 1 1 1 1 1 1 1 1 1 1 0.0090728345564016835 0.005515403918142826 0.010011465138299242 1 1 1 1 1 1 1 1 1 1 1 1 1 0.010198363187334088 1 1 1 1 1 1 1 1 1 1 1 1 0.0099690257495539201 1 1 0.010729717834769155 1 1 1 1 1 1 1 1 1 1 1 1 1 1 1 1 1 1 1 1 1 0.0097242055208424313 0.009560997832988985 1 1 1 1 1 1 1 1 1 1 1 1 1 1 0.010445413582456093 1 1 0.011085032734885893 1 1 1 1 0.0078939337166870419 1 1 1 1 1 1 0.0091277050021637465 1 1 1 1 1 1 1 1 1 1 1 1 1 1 1 1 1 1 0.0096217659823557566 1 1 1 1 1 0.009230028788971412 1 1 1 1 1 1 1 1 1 1 1 1 1 1 1 1 1 1 1 1 1 1 1 1 1 1 1 1 0.0093952607875002342 1 0.0098147677595696297 1 1 1 1 0.0094714049503109854 0.0096334308404282913 1 1 1 1 1 1 1 1 1 1 1 1 1 1 1 1 1 1 1 1 1 1 1 1 1 1 1 1 1 1 1 1 1 1 1 0.0096645718323866807 1 1 1 1 0.01006534145503128 1 1 1 1 1 1 1 1 1 1 1 0.010056142467672349 1 1 1 1 1 1 1 1 1 1 1 1 1 1 1 1 1 0.010760944351881931 0.010032726102198103 1 0.010011511930022522 1 1 1 1 1 1 1 1 1 1 0.010035355802466285 1 1 1 1 1 1 1 1 1 1 1 1 1 1 1 1 1 0.010002312942663585 1 1 1 1 0.0099651976340912399 1 1 1 1 1 1 1 1 1 1 1 1 1 1 1 1 1 1 1 1 1 1 1 1 1 1 1 1 1 1 1 1 1 1 1 1 1 1 1 1 1 1 1 1 1 1 1 1 1 1 1 1 1 1 1 1 1 1 1 1 1 1 1 1 1 1 1 1 1 1 1 1 1 1 1 1 1 1 1 1 1 0.0099386574732519134 1 1 1 1 1 1 1 0.0098292205406560612 1 1 0.0093519823956336595 1 1 1 1 1 1 1 1 1 1 1 1 0.009854384857951138 1 0.0099156380585052797 1 0.0061794855643792935 1 1 1 1 1 1 1 1 0.0084232896219655906 1 1 1 1 1 1 1 1 1 0.0095218808386968411 1 1 1 1 1 1 1 1 1 1 1 1 1 1 1 1 1 1 1 1 1 0.0098098798708321673 1 1 1 1 1 1 1 1 1 1 1 1 0.011265943907803036 1 1 1 1 1 0.011755201977216911 1 1 0.0048009527945865691 1 1 1 1 0.0048608687234401784 0.010089076470736643 1 1 0.0051381908189312587 1 1 1 1 1 1 1 0.0097245092791401356 0.01034863898698838 1 1 1 1 1 1 1 1 1 1 1 1 0.0099912720462711387 1 1 1 1 0.009983063887025306 1 1 1 1 1 1 1 1 0.0099917260039162677 1 1 1 1 0.01005191988979849 1 1 1 1 0.0099171595587435775 1 1 1 1 1 1 1 0.0099622658312434487 1 1 1 1 1 0.0096011470106594256 1 1 1 0.00882429356040405 1 1 1 1 1 0.0080987783796173333 1 1 1 1 1 1 1 1 1 1 1 1 1 1 0.0064458316559093728 1 1 0.0055411587016176069 1 1 1 1 1 1 1 1 1 1 1 1 1 1 1 1 1 1 1 1 1 0.010023773316128476 1 1 0.0098055723154266694 1 1 0.010003548029385217 1 1 1 1 1 1 1 1 1 1 1 1 1 1 1 1 1 1 1 1 1 1 1 1 1 1 1 1 1 1 0.0095937862497080233 1 1 1 1 0.010000419021669682 1 1 0.010075236975148002 1 0.0099985905397225912 1 1 1 1 0.010445684992150936 1 0.009478983864371229 1 1 0.010059230742773453 1 0.010146627764558252 1 0.0086320867444381038 0.0094376848392015798 1 1 0.0099360472278479071 1 0.0094294320754094614 1 0.010021164925323421 1 1 0.0073271474589454589 1 1 1 1 1 1 0.0074128934016827828 1 0.010019250774355335 1 1 0.0099905551451976837 0.0097648522889120359 1 1 0.0088033974246963451 1 0.01026221925595347 1 1 0.0094886502147706817 1 1 0.0090947322193573737 1 1 0.0094251327827374089 0.0096546016960037777 0.008425644791721058 1 0.010426577548690452 1 1 1 1 1 1 1 1 0.01001168872341556 1 1 1 1 1 1 1 0.010011567586595696 1 1 1 1 1 1 1 1 1 1 1 1 1 1 0.0099625679338230591 1 1 1 1 1 1 1 1 1 1 1 1 1 1 1 1 1 1 1 0.010255388147469595 1 1 1 1 1 1 1 1 1 1 1 1 1 1 1 1 1 1 1 1 1 1 1 1 1 1 1 1 1 1 1 0.010147993678821687 1 1 1 0.0093582113330133027 1 0.010607353127828695 0.010889351278341553 1 0.0070962173322583564 1 1 1 0.0098286140644403708 1 1 1 1 0.0098875153136335353 0.00990916525058207 0.010007115443172798 1 1 1 1 1 1 1 1 1 1 1 1 1 1 1 1 1 0.0078570429665165871 1 1 1 1 1 1 1 1 1 0.0099741956970934905 1 1 1 0.009601648321252822 1 1 1 1 1 1 1 1 1 1 1 1 0.0090392011180947113 1 1 0.009437552796841886 1 1 1 1 1 1 1 1 1 1 1 1 1 1 1 1 1 1 1 1 1 1 0.0091579310220928113 1 1 1 1 1 1 1 1 1 1 1 1 1 1 1 1 1 1 0.0094703261513237168 1 1 1 1 1 1 1 0.00963609022281685 1 1 1 1 0.0092750666148473 1 1 1 1 1 1 1 1 1 1 1 1 1 1 1 1 1 1 1 1 1 1 1 1 1 1 1 1 1 1 1 1 1 1 1 0.010070329249895222 0.0099647174976774232 1 1 1 1 0.0094903213430877521 1 0.0087805778599889216 1 1 1 1 1 0.0088615673478823591 1 1 1 1 1 1 1 1 0.0096351711608180807 0.010082357249230909 1 1 1 1 0.0083383136135758082 1 1 1 1 1 1 1 1 1 1 1 1 1 1 1 1 1 1 1 1 1 0.0093129153052714259 1 1 1 1 1 1 0.007801194348089441 1 1 0.0085422708533791254 1 1 1 1 1 1 1 1 1 0.010131096631279231 1 1 1 1 1 1 1 1 0.0093746510313900931 1 1 1 1 1 1 1 1 1 1 1 1 1 1 1 1 1 0.0097977106980104336 1 1 0.009589213680740491 1 1 1 1 1 1 1 1 1 1 1 1 1 1 1 1 1 1 1 1 1 1 1 1 1 1 1 1 1 0.0093928019668167821 1 0.0097538255747863199 1 1 1 1 1 1 1 1 1 1 1 1 1 1 1 1 1 1 1 1 1 1 0.0095113773328316404 1 1 1 0.0097562095427228355 1 1 1 1 1 1 1 1 1 1 1 1 0.0096492070525698876 1 1 1 0.009919645098688791 0.0099997775395830029 1 1 0.0097817340663625563 1 1 1 1 1 1 1 1 1 0.0097547541694755317 1 1 1 1 1 1 1 1 1 1 1 1 1 0.00943312673190559 1 0.010018771834610456 1 1 1 1 1 1 1 1 1 1 1 1 1 1 1 1 1 1 1 1 1 1 1 1 1 1 1 1 1 0.0088180850986663006 1 1 1 1 1 1 0.0095254345728739316 1 1 1 1 1 1 1 1 1 1 1 1 1 1 1 1 0.0099146196654623982 1 0.0094228043461606781 1 1 1 1 1 1 1 0.0093596426891902305 1 1 1 0.0094204467893892058 1 1 1 1 0.009973208341104713 1 1 1 1 1 1 0.011604762040217667 1 1 1 1 0.010518244700126522 1 0.0098278203222765242 1 1 1 1 1 1 1 1 0.0057724494762986141 0.010030925311327349 1 1 1 0.0063592226383007121 0.011210433487602103 1 1 1 1 1 1 1 0.008478966774263387 0.0092837908532720313 1 0.010693972023102708 0.010028443304416653 1 1 1 1 0.0091761356535434296 1 0.0088791732198010981 1 1 1 1 1 1 0.0094038733650948416 1 1 1 1 0.0097022469322426592 1 1 1 1 0.0091190334173194415 1 1 1 1 1 0.0092049850282673318 1 1 0.010015285233503219 1 1 1 1 0.01000012681213848 1 1 1 1 1 1 1 1 1 0.010025428047734821 0.0090613024669501316 1 1 1 1 1 1 1 1 1 1 1 1 1 0.0085301988660256185 1 0.0087005570415673392 1 1 1 1 1 1 1 1 1 1 1 1 1 1 1 1 1 1 1 1 1 0.0085317696557934142 1 1 1 1 1 1 1 1 1 1 1 1 1 1 1 1 1 1 1 1 1 1 1 1 1 1 0.010135602249948491 1 1 1 1 1 1 1 1 0.011256566289865207 1 0.010407940838307581 1 1 1 1 1 1 0.0099703431066764433 1 1 1 1 1 1 1 1 1 1 1 1 1 1 1 1 1 1 1 1 1 1 1 1 1 1 0.0069703837555101372 1 1 1 1 1 1 1 1 0.011205133512743262 1 1 0.010150107492517917 1 1 0.0099957411977121876 1 1 1 1 1 0.011234687884835125 1 1 1 1 1 1 1 1 1 0.0099785178005774629 1 1 1 1 1 1 1 1 1 1 1 1 1 1 1 0.010411701683080431 1 1 1 1 1 1 1 1 0.010711018295813165 1 1 1 1 1 1 1 1 1 1 1 1 1 1 1 1 1 1 0.0099044826380104076 1 0.010263690518737606 1 0.0097040723890645421 1 1 0.0098590800676940302 0.010609805271634846 1 1 1 1 1 1 1 1 1 1 1 1 1 1 0.010148707145428136 1 1 1 1 1 1 0.0095733075219793726 1 1 1 0.01006093769118257 1 1 1 1 1 1 1 1 1 1 1 1 0.006977372599006805 1 1 1 1 0.0071750991469058355 0.0090482983826186622 0.0074962621337507709 1 1 1 1 1 1 1 0.0096656707242502964 1 1 0.0090372149770496096 1 0.0099747732329661162 1 0.0092423805844503316 1 1 1 1 1 0.0097140866629874291 1 1 1 1 1 1 1 1 1 1 1 1 1 1 1 1 1 1 1 1 0.0090042747525790404 1 1 1 0.0092546941386458387 1 0.010276647591659806 0.011148395370171293 0.010619360152694466 1 1 1 1 1 0.010216128317949283 1 1 1 1 1 1 1 1 1 1 1 1 1 1 1 1 1 1 1 1 1 1 1 1 1 1 0.0081041807120340419 1 1 0.0079402813378057057 1 1 1 1 1 1 1 1 0.0089666218019197382 1 0.0097915071449249606 1 1 1 1 1 1 1 1 0.0081517498220891257 1 1 1 1 0.0080847676423650046 1 1 0.0099906919018056331 1 1 0.012092153265182247 1 1 1 0.0091250151443327994 1 1 1 1 1 1 1 1 1 1 1 1 1 1 1 1 1 1 1 1 0.0096808906120178766 1 1 1 1 1 1 0.0091940366528064192 1 1 1 1 1 0.0089070316062237788 1 1 1 1 1 0.006590069653534392 1 0.0097552135232985508 0.0089262078212273728 1 1 1 1 1 1 1 1 1 1 1 1 0.0098862740230144953 1 1 1 1 0.005534224458970575 1 0.0096800757965610044 0.009759231718086691 1 1 1 0.0058090455274822771 1 1 1 1 1 1 1 1 1 1 1 1 1 1 1 1 1 1 1 1 1 1 0.0050645432228422667 1 0.012291754268033637 1 1 0.010041995689608479 1 1 0.010466729170480922 1 1 0.0090609704542384019 1 1 1 0.010271125463329617 0.0099799821923091114 1 1 1 1 1 1 1 0.0099031895955517604 1 1 1 1 1 1 1 1 0.0089439494576650774 1 1 1 1 1 1 1 0.0071508409283650111 1 1 1 0.0081260995998721948 1 0.0082799710686140317 0.010208051271814109 1 1 1 0.010073100646586314 1 1 1 1 1 1 1 1 1 1 1 1 1 1 1 1 1 1 1 1 1 1 0.0099182165501257493 1 1 0.0099952452027741185 1 1 1 0.0109440307890122 1 1 1 1 1 1 1 0.011800909895460517 0.0076360775736944121 1 1 0.010342625490182807 1 1 1 1 1 1 1 1 1 1 1 1 1 1 1 1 1 1 1 1 1 1 1 1 1 1 1 1 1 1 1 1 1 1 1 0.0093254528604230155 1 1 1 1 1 1 1 0.0099983419640283649 1 1 0.01093128680590174 1 1 0.0096592149298995872 1 1 1 1 1 1 1 1 1 1 1 1 1 1 1 1 1 1 1 0.007849657641926272 1 1 1 1 0.0063586441557309283 1 1 1 1 1 1 1 1 1 1 0.0093200216088936121 1 1 1 1 0.0081960548752283112 1 1 1 1 0.0096333241846951381 0.0090314607256131701 1 0.0085095469460513828 1 1 1 1 1 1 1 1 1 1 1 1 1 1 0.0073826370379793255 1 1 1 1 1 1 1 1 1 0.010013797417303677 1 1 1 1 1 1 1 1 1 1 1 1 1 1 1 1 1 1 1 1 1 1 1 1 1 1 1 1 1 1 1 1 1 1 1 1 1 1 1 1 1 0.01015062551012513 1 1 1 1 0.0095330963705293897 1 1 0.0077182537186353296 1 1 1 1 1 1 0.0088542270266275119 0.0077331197026618941 1 1 1 1 0.0099100073841717935 1 1 1 1 1 1 1 1 1 1 1 1 1 1 1 1 1 1 1 1 1 1 1 1 1 1 1 1 1 1 1 1 1 1 1 1 1 1 1 1 1 1 1 1 1 1 1 1 1 1 1 1 1 1 1 1 1 1 1 1 1 0.011410232176361211 1 1 1 1 1 0.010629756923614096 1 0.0098984028935580979 1 1 1 1 1 1 1 1 1 
</DataArray>
</CellData>
</Piece>
</UnstructuredGrid>
</VTKFile>
