<?xml version="1.0"?>
<VTKFile type="UnstructuredGrid" version="0.1" byte_order="LittleEndian">
<UnstructuredGrid>
<Piece NumberOfPoints="31898" NumberOfCells="11152">
<Points>
<DataArray type="Float64" NumberOfComponents="3" format="ascii">
-0.5 -0.5 0 -0.47620991077874902 -0.44978878706170539 0 -0.49999999999999473 -0.42132396840504388 0 -0.5 -0.5 0 -0.47160970827802529 -0.4793630013852106 0 -0.47620991077874902 -0.44978878706170539 0 -0.5 -0.5 0 -0.47160970827802529 -0.4793630013852106 0 -0.44860394795025399 -0.5 0 -0.47160970827802529 -0.4793630013852106 0 -0.44860394795025399 -0.5 0 -0.4490820238307246 -0.45820516232899983 0 -0.44860394795025399 -0.5 0 -0.4490820238307246 -0.45820516232899983 0 -0.42881687682924802 -0.47781464288736519 0 -0.4490820238307246 -0.45820516232899983 0 -0.45555437223955858 -0.42914059360647611 0 -0.4490820238307246 -0.45820516232899983 0 -0.45555437223955858 -0.42914059360647611 0 -0.43867285131603428 -0.4271457417558665 0 -0.4490820238307246 -0.45820516232899983 0 -0.43867285131603428 -0.4271457417558665 0 -0.4263356171060747 -0.44269880333887462 0 -0.47160970827802529 -0.4793630013852106 0 -0.4490820238307246 -0.45820516232899983 0 -0.47620991077874902 -0.44978878706170539 0 -0.4490820238307246 -0.45820516232899983 0 -0.47620991077874902 -0.44978878706170539 0 -0.45555437223955858 -0.42914059360647611 0 -0.47620991077874902 -0.44978878706170539 0 -0.48101336032419229 -0.41069999664450008 0 -0.45555437223955858 -0.42914059360647611 0 -0.47620991077874902 -0.44978878706170539 0 -0.49999999999999473 -0.42132396840504388 0 -0.48101336032419229 -0.41069999664450008 0 -0.49999999999999473 -0.42132396840504388 0 -0.48101336032419229 -0.41069999664450008 0 -0.5 -0.393886241813306 0 -0.49999999999999473 -0.42132396840504388 0 -0.48101336032419229 -0.41069999664450008 0 -0.5 -0.393886241813306 0 -0.47854472220918332 -0.38978458738689759 0 -0.48422759779560409 -0.37130120630367158 0 -0.5 -0.393886241813306 0 -0.5 -0.36644851522156802 0 -0.48422759779560409 -0.37130120630367158 0 -0.48101336032419229 -0.41069999664450008 0 -0.5 -0.393886241813306 0 -0.47854472220918332 -0.38978458738689759 0 -0.48101336032419229 -0.41069999664450008 0 -0.47854472220918332 -0.38978458738689759 0 -0.46202672064839212 -0.40007602488395211 0 -0.48101336032419229 -0.41069999664450008 0 -0.46202672064839212 -0.40007602488395211 0 -0.47854472220918332 -0.38978458738689759 0 -0.46725442735267431 -0.37660061361585562 0 -0.46202672064839212 -0.40007602488395211 0 -0.47854472220918332 -0.38978458738689759 0 -0.46725442735267431 -0.37660061361585562 0 -0.48422759779560409 -0.37130120630367158 0 -0.46725442735267431 -0.37660061361585562 0 -0.46202672064839212 -0.40007602488395211 0 -0.46725442735267431 -0.37660061361585562 0 -0.45645674801697989 -0.38644133236760531 0 -0.46202672064839212 -0.40007602488395211 0 -0.46725442735267431 -0.37660061361585562 0 -0.45645674801697989 -0.38644133236760531 0 -0.4540003998136638 -0.37455519391687309 0 -0.45645674801697989 -0.38644133236760531 0 -0.46202672064839212 -0.40007602488395211 0 -0.44257020456291563 -0.38918913383950271 0 -0.46202672064839212 -0.40007602488395211 0 -0.44257020456291563 -0.38918913383950271 0 -0.44727608925983742 -0.41095911152778891 0 -0.46202672064839212 -0.40007602488395211 0 -0.44257020456291563 -0.38918913383950271 0 -0.44257020456291563 -0.38918913383950271 0 -0.44727608925983742 -0.41095911152778891 0 -0.43479358559901082 -0.4041454901736512 0 -0.44257020456291563 -0.38918913383950271 0 -0.4540003998136638 -0.37455519391687309 0 -0.44172858264042247 -0.37082207246888088 0 -0.45645674801697989 -0.38644133236760531 0 -0.44257020456291563 -0.38918913383950271 0 -0.4540003998136638 -0.37455519391687309 0 -0.46202672064839212 -0.40007602488395211 0 -0.45555437223955858 -0.42914059360647611 0 -0.44727608925983742 -0.41095911152778891 0 -0.46202672064839212 -0.40007602488395211 0 -0.45555437223955858 -0.42914059360647611 0 -0.48101336032419229 -0.41069999664450008 0 -0.46202672064839212 -0.40007602488395211 0 -0.45555437223955858 -0.42914059360647611 0 -0.44727608925983742 -0.41095911152778891 0 -0.43867285131603428 -0.4271457417558665 0 -0.43676601469929588 -0.41441201227470881 0 -0.44727608925983742 -0.41095911152778891 0 -0.43676601469929588 -0.41441201227470881 0 -0.43479358559901082 -0.4041454901736512 0 -0.45555437223955858 -0.42914059360647611 0 -0.44727608925983742 -0.41095911152778891 0 -0.43867285131603428 -0.4271457417558665 0 -0.43867285131603428 -0.4271457417558665 0 -0.42681803064840879 -0.42717069814352421 0 -0.4263356171060747 -0.44269880333887462 0 -0.42681803064840879 -0.42717069814352421 0 -0.41531815884496182 -0.42985383783075998 0 -0.4263356171060747 -0.44269880333887462 0 -0.42681803064840879 -0.42717069814352421 0 -0.42624289495594048 -0.42089725947505818 0 -0.42083332353326591 -0.42146747131641099 0 -0.42681803064840879 -0.42717069814352421 0 -0.43096994786351572 -0.41951492446283251 0 -0.42624289495594048 -0.42089725947505818 0 -0.43867285131603428 -0.4271457417558665 0 -0.42681803064840879 -0.42717069814352421 0 -0.43096994786351572 -0.41951492446283251 0 -0.43867285131603428 -0.4271457417558665 0 -0.43676601469929588 -0.41441201227470881 0 -0.43096994786351572 -0.41951492446283251 0 -0.43676601469929588 -0.41441201227470881 0 -0.43096994786351572 -0.41951492446283251 0 -0.42907264086257813 -0.41311715872526122 0 -0.43676601469929588 -0.41441201227470881 0 -0.42907264086257813 -0.41311715872526122 0 -0.43479358559901082 -0.4041454901736512 0 -0.42907264086257813 -0.41311715872526122 0 -0.43479358559901082 -0.4041454901736512 0 -0.42460885511582858 -0.40417321677700252 0 -0.42907264086257813 -0.41311715872526122 0 -0.41997834854398469 -0.41180534796019508 0 -0.42907264086257813 -0.41311715872526122 0 -0.42635027777857132 -0.41543594397746519 0 -0.41997834854398469 -0.41180534796019508 0 -0.42907264086257813 -0.41311715872526122 0 -0.41997834854398469 -0.41180534796019508 0 -0.42460885511582858 -0.40417321677700252 0 -0.42635027777857132 -0.41543594397746519 0 -0.41997834854398469 -0.41180534796019508 0 -0.42635027777857132 -0.41543594397746519 0 -0.42083332353326591 -0.42146747131641099 0 -0.41997834854398469 -0.41180534796019508 0 -0.43096994786351572 -0.41951492446283251 0 -0.42624289495594048 -0.42089725947505818 0 -0.42635027777857132 -0.41543594397746519 0 -0.43096994786351572 -0.41951492446283251 0 -0.42907264086257813 -0.41311715872526122 0 -0.42635027777857132 -0.41543594397746519 0 -0.42624289495594048 -0.42089725947505818 0 -0.42635027777857132 -0.41543594397746519 0 -0.42083332353326591 -0.42146747131641099 0 -0.42083332353326591 -0.42146747131641099 0 -0.41997834854398469 -0.41180534796019508 0 -0.40992282953163789 -0.42011435591993562 0 -0.41997834854398469 -0.41180534796019508 0 -0.39756877647335259 -0.40857286797681719 0 -0.41997834854398469 -0.41180534796019508 0 -0.40992282953163789 -0.42011435591993562 0 -0.39756877647335259 -0.40857286797681719 0 -0.40992282953163789 -0.42011435591993562 0 -0.41531815884496182 -0.42985383783075998 0 -0.39591554026262499 -0.42887225451549271 0 -0.41531815884496182 -0.42985383783075998 0 -0.39591554026262499 -0.42887225451549271 0 -0.41160927495564159 -0.44339431233754628 0 -0.42083332353326591 -0.42146747131641099 0 -0.40992282953163789 -0.42011435591993562 0 -0.41531815884496182 -0.42985383783075998 0 -0.42681803064840879 -0.42717069814352421 0 -0.42083332353326591 -0.42146747131641099 0 -0.41531815884496182 -0.42985383783075998 0 -0.44257020456291563 -0.38918913383950271 0 -0.42311368847744002 -0.37830224279505142 0 -0.42594061475171041 -0.39368797999533162 0 -0.44257020456291563 -0.38918913383950271 0 -0.42311368847744002 -0.37830224279505142 0 -0.44172858264042247 -0.37082207246888088 0 -0.44257020456291563 -0.38918913383950271 0 -0.42311368847744002 -0.37830224279505142 0 -0.42311368847744002 -0.37830224279505142 0 -0.42594061475171041 -0.39368797999533162 0 -0.416587075656149 -0.38785930376960043 0 -0.44257020456291563 -0.38918913383950271 0 -0.42594061475171041 -0.39368797999533162 0 -0.43479358559901082 -0.4041454901736512 0 -0.42594061475171041 -0.39368797999533162 0 -0.43479358559901082 -0.4041454901736512 0 -0.42460885511582858 -0.40417321677700252 0 -0.41997834854398469 -0.41180534796019508 0 -0.41325908582185972 -0.39811010703057192 0 -0.39770572831670092 -0.39911486077581648 0 -0.41997834854398469 -0.41180534796019508 0 -0.39770572831670092 -0.39911486077581648 0 -0.42594061475171041 -0.39368797999533162 0 -0.42460885511582858 -0.40417321677700252 0 -0.41325908582185972 -0.39811010703057192 0 -0.41997834854398469 -0.41180534796019508 0 -0.42460885511582858 -0.40417321677700252 0 -0.41325908582185972 -0.39811010703057192 0 -0.42594061475171041 -0.39368797999533162 0 -0.41325908582185972 -0.39811010703057192 0 -0.416587075656149 -0.38785930376960043 0 -0.41325908582185972 -0.39811010703057192 0 -0.416587075656149 -0.38785930376960043 0 -0.40403491357358612 -0.38133688525744702 0 -0.42311368847744002 -0.37830224279505142 0 -0.40403491357358612 -0.38133688525744702 0 -0.40365717239196519 -0.36741535175059892 0 -0.42311368847744002 -0.37830224279505142 0 -0.416587075656149 -0.38785930376960043 0 -0.40403491357358612 -0.38133688525744702 0 -0.40403491357358612 -0.38133688525744702 0 -0.39190790742475001 -0.38540387676521748 0 -0.39770572831670092 -0.39911486077581648 0 -0.40403491357358612 -0.38133688525744702 0 -0.39190790742475001 -0.38540387676521748 0 -0.3904578797192948 -0.37473938743617019 0 -0.41325908582185972 -0.39811010703057192 0 -0.40403491357358612 -0.38133688525744702 0 -0.39770572831670092 -0.39911486077581648 0 -0.39770572831670092 -0.39911486077581648 0 -0.37543310808941849 -0.38642437359143528 0 -0.39770572831670092 -0.39911486077581648 0 -0.37515920440272033 -0.40534038799344108 0 -0.37543310808941849 -0.38642437359143528 0 -0.39770572831670092 -0.39911486077581648 0 -0.37515920440272033 -0.40534038799344108 0 -0.39756877647335259 -0.40857286797681719 0 -0.37515920440272033 -0.40534038799344108 0 -0.37543310808941849 -0.38642437359143528 0 -0.37543310808941849 -0.38642437359143528 0 -0.3904578797192948 -0.37473938743617019 0 -0.37568304780698558 -0.36916333065311507 0 -0.39190790742475001 -0.38540387676521748 0 -0.37543310808941849 -0.38642437359143528 0 -0.3904578797192948 -0.37473938743617019 0 -0.37543310808941849 -0.38642437359143528 0 -0.37568304780698558 -0.36916333065311507 0 -0.39190790742475001 -0.38540387676521748 0 -0.39770572831670092 -0.39911486077581648 0 -0.37543310808941849 -0.38642437359143528 0 -0.41997834854398469 -0.41180534796019508 0 -0.39770572831670092 -0.39911486077581648 0 -0.39756877647335259 -0.40857286797681719 0 -0.40992282953163789 -0.42011435591993562 0 -0.39591554026262499 -0.42887225451549271 0 -0.39756877647335259 -0.40857286797681719 0 -0.37515920440272033 -0.40534038799344108 0 -0.39591554026262499 -0.42887225451549271 0 -0.39756877647335259 -0.40857286797681719 0 -0.37515920440272033 -0.40534038799344108 0 -0.39756877647335259 -0.40857286797681719 0 -0.37515920440272033 -0.40534038799344108 0 -0.39591554026262499 -0.42887225451549271 0 -0.37472313619600889 -0.43545561783144832 0 -0.39591554026262499 -0.42887225451549271 0 -0.39301703415267508 -0.44654444244683272 0 -0.37472313619600889 -0.43545561783144832 0 -0.39301703415267508 -0.44654444244683272 0 -0.37428706798929601 -0.46557084766945539 0 -0.37472313619600889 -0.43545561783144832 0 -0.39591554026262499 -0.42887225451549271 0 -0.39301703415267508 -0.44654444244683272 0 -0.41160927495564159 -0.44339431233754628 0 -0.39301703415267508 -0.44654444244683272 0 -0.40396056051613372 -0.45751466911048011 0 -0.41160927495564159 -0.44339431233754628 0 -0.40396056051613372 -0.45751466911048011 0 -0.39245383412573559 -0.47875733455523922 0 -0.41207507163844148 -0.46917161410542801 0 -0.40396056051613372 -0.45751466911048011 0 -0.38912381425271458 -0.46154275838996711 0 -0.39245383412573559 -0.47875733455523922 0 -0.40396056051613372 -0.45751466911048011 0 -0.39245383412573559 -0.47875733455523922 0 -0.40396056051613372 -0.45751466911048011 0 -0.40649676728151513 -0.45682610390212369 0 -0.40396056051613372 -0.45751466911048011 0 -0.38912381425271458 -0.46154275838996711 0 -0.39301703415267508 -0.44654444244683272 0 -0.40396056051613372 -0.45751466911048011 0 -0.38912381425271458 -0.46154275838996711 0 -0.39301703415267508 -0.44654444244683272 0 -0.38912381425271458 -0.46154275838996711 0 -0.37428706798929601 -0.46557084766945539 0 -0.38912381425271458 -0.46154275838996711 0 -0.37428706798929601 -0.46557084766945539 0 -0.38912381425271458 -0.46154275838996711 0 -0.38378714202547332 -0.47159002408209011 0 -0.37428706798929601 -0.46557084766945539 0 -0.38378714202547332 -0.47159002408209011 0 -0.39245383412573559 -0.47875733455523922 0 -0.37411677223754131 -0.47733161267270968 0 -0.39245383412573559 -0.47875733455523922 0 -0.37240076261097882 -0.48974555046165519 0 -0.37411677223754131 -0.47733161267270968 0 -0.38378714202547332 -0.47159002408209011 0 -0.37411677223754131 -0.47733161267270968 0 -0.37428706798929601 -0.46557084766945539 0 -0.38912381425271458 -0.46154275838996711 0 -0.38378714202547332 -0.47159002408209011 0 -0.39245383412573559 -0.47875733455523922 0 -0.38094710773533791 -0.49999999999999839 0 -0.39245383412573559 -0.47875733455523922 0 -0.38094710773533791 -0.49999999999999839 0 -0.39245383412573559 -0.47875733455523922 0 -0.37240076261097882 -0.48974555046165519 0 -0.38094710773533791 -0.49999999999999839 0 -0.39245383412573559 -0.47875733455523922 0 -0.40997732063196057 -0.5 0 -0.39245383412573559 -0.47875733455523922 0 -0.41207507163844148 -0.46917161410542801 0 -0.40997732063196057 -0.5 0 -0.41207507163844148 -0.46917161410542801 0 -0.40997732063196057 -0.5 0 -0.42881687682924802 -0.47781464288736519 0 -0.44860394795025399 -0.5 0 -0.40997732063196057 -0.5 0 -0.42881687682924802 -0.47781464288736519 0 -0.41207507163844148 -0.46917161410542801 0 -0.42881687682924802 -0.47781464288736519 0 -0.42627766738448791 -0.46032764904509182 0 -0.4490820238307246 -0.45820516232899983 0 -0.42881687682924802 -0.47781464288736519 0 -0.42627766738448791 -0.46032764904509182 0 -0.4490820238307246 -0.45820516232899983 0 -0.42627766738448791 -0.46032764904509182 0 -0.4263356171060747 -0.44269880333887462 0 -0.42627766738448791 -0.46032764904509182 0 -0.4263356171060747 -0.44269880333887462 0 -0.41655419253802572 -0.45404861160063659 0 -0.4263356171060747 -0.44269880333887462 0 -0.41160927495564159 -0.44339431233754628 0 -0.41655419253802572 -0.45404861160063659 0 -0.41531815884496182 -0.42985383783075998 0 -0.4263356171060747 -0.44269880333887462 0 -0.41160927495564159 -0.44339431233754628 0 -0.40396056051613372 -0.45751466911048011 0 -0.41160927495564159 -0.44339431233754628 0 -0.40649676728151513 -0.45682610390212369 0 -0.41160927495564159 -0.44339431233754628 0 -0.40649676728151513 -0.45682610390212369 0 -0.41655419253802572 -0.45404861160063659 0 -0.40396056051613372 -0.45751466911048011 0 -0.41160927495564159 -0.44339431233754628 0 -0.41207507163844148 -0.46917161410542801 0 -0.40649676728151513 -0.45682610390212369 0 -0.41655419253802572 -0.45404861160063659 0 -0.40396056051613372 -0.45751466911048011 0 -0.41207507163844148 -0.46917161410542801 0 -0.40649676728151513 -0.45682610390212369 0 -0.41207507163844148 -0.46917161410542801 0 -0.42627766738448791 -0.46032764904509182 0 -0.41655419253802572 -0.45404861160063659 0 -0.45662330498375908 -0.25656877445722759 0 -0.43445882011373449 -0.25478651907497341 0 -0.45662330498375908 -0.25656877445722759 0 -0.43445882011373449 -0.25478651907497341 0 -0.45034617445999431 -0.24335722649563979 0 -0.44999384684511368 -0.2755750489792308 0 -0.45662330498375908 -0.25656877445722759 0 -0.43445882011373449 -0.25478651907497341 0 -0.44999384684511368 -0.2755750489792308 0 -0.43077531442077321 -0.27459050524281542 0 -0.43445882011373449 -0.25478651907497341 0 -0.44999384684511368 -0.2755750489792308 0 -0.441361257405879 -0.29303276451920029 0 -0.43077531442077321 -0.27459050524281542 0 -0.44999384684511368 -0.2755750489792308 0 -0.4670541169931961 -0.26846056693166809 0 -0.46910519348062618 -0.28320526693770848 0 -0.44999384684511368 -0.2755750489792308 0 -0.4670541169931961 -0.26846056693166809 0 -0.45662330498375908 -0.25656877445722759 0 -0.45662330498375908 -0.25656877445722759 0 -0.47878778985378329 -0.25835102983948688 0 -0.4670541169931961 -0.26846056693166809 0 -0.45662330498375908 -0.25656877445722759 0 -0.47878778985378329 -0.25835102983948688 0 -0.45662330498375908 -0.25656877445722759 0 -0.47878778985378329 -0.25835102983948688 0 -0.47142395938804471 -0.23802335247430181 0 -0.47878778985378329 -0.25835102983948688 0 -0.5 -0.25669760885461612 0 -0.48361763707807442 -0.27426406281091331 0 -0.47878778985378329 -0.25835102983948688 0 -0.5 -0.25669760885461612 0 -0.4875835208682564 -0.24248539692068891 0 -0.5 -0.25669760885461612 0 -0.48361763707807442 -0.27426406281091331 0 -0.5 -0.28413533544635422 0 -0.4670541169931961 -0.26846056693166809 0 -0.47878778985378329 -0.25835102983948688 0 -0.48361763707807442 -0.27426406281091331 0 -0.4670541169931961 -0.26846056693166809 0 -0.48361763707807442 -0.27426406281091331 0 -0.46910519348062618 -0.28320526693770848 0 -0.46910519348062618 -0.28320526693770848 0 -0.48580896399913942 -0.29193665231809679 0 -0.47164434439118558 -0.29859902487093259 0 -0.48361763707807442 -0.27426406281091331 0 -0.46910519348062618 -0.28320526693770848 0 -0.48580896399913942 -0.29193665231809679 0 -0.5 -0.28413533544635422 0 -0.48580896399913942 -0.29193665231809679 0 -0.5 -0.3115730620380921 0 -0.48361763707807442 -0.27426406281091331 0 -0.5 -0.28413533544635422 0 -0.48580896399913942 -0.29193665231809679 0 -0.48580896399913942 -0.29193665231809679 0 -0.5 -0.3115730620380921 0 -0.48293754746551898 -0.30617437981156609 0 -0.48293754746551898 -0.30617437981156609 0 -0.47164434439118558 -0.29859902487093259 0 -0.47203566342767839 -0.31514771464943409 0 -0.48580896399913942 -0.29193665231809679 0 -0.48293754746551898 -0.30617437981156609 0 -0.47164434439118558 -0.29859902487093259 0 -0.47164434439118558 -0.29859902487093259 0 -0.46096111539772322 -0.3069557537098867 0 -0.47203566342767839 -0.31514771464943409 0 -0.46096111539772322 -0.3069557537098867 0 -0.44739706002137658 -0.30395698434733032 0 -0.45229582611609759 -0.31444164243390338 0 -0.46096111539772322 -0.3069557537098867 0 -0.45682111422556548 -0.29317658806621089 0 -0.44739706002137658 -0.30395698434733032 0 -0.47164434439118558 -0.29859902487093259 0 -0.46096111539772322 -0.3069557537098867 0 -0.45682111422556548 -0.29317658806621089 0 -0.44999384684511368 -0.2755750489792308 0 -0.46910519348062618 -0.28320526693770848 0 -0.45682111422556548 -0.29317658806621089 0 -0.46910519348062618 -0.28320526693770848 0 -0.47164434439118558 -0.29859902487093259 0 -0.45682111422556548 -0.29317658806621089 0 -0.44999384684511368 -0.2755750489792308 0 -0.45682111422556548 -0.29317658806621089 0 -0.441361257405879 -0.29303276451920029 0 -0.45682111422556548 -0.29317658806621089 0 -0.441361257405879 -0.29303276451920029 0 -0.44739706002137658 -0.30395698434733032 0 -0.441361257405879 -0.29303276451920029 0 -0.44739706002137658 -0.30395698434733032 0 -0.43527018611072049 -0.30465000121327751 0 -0.44739706002137658 -0.30395698434733032 0 -0.44024276041750632 -0.31887045497680111 0 -0.43527018611072049 -0.30465000121327751 0 -0.44739706002137658 -0.30395698434733032 0 -0.45229582611609759 -0.31444164243390338 0 -0.44024276041750632 -0.31887045497680111 0 -0.44024276041750632 -0.31887045497680111 0 -0.45653421084860168 -0.32646185290925811 0 -0.44024276041750632 -0.31887045497680111 0 -0.43930980958642257 -0.33554338078202212 0 -0.45653421084860168 -0.32646185290925811 0 -0.45229582611609759 -0.31444164243390338 0 -0.44024276041750632 -0.31887045497680111 0 -0.45653421084860168 -0.32646185290925811 0 -0.43930980958642257 -0.33554338078202212 0 -0.44966367396753332 -0.33841986907325933 0 -0.46855294336124231 -0.32873531729210143 0 -0.43930980958642257 -0.33554338078202212 0 -0.4507851133594416 -0.34910720111649318 0 -0.43930980958642257 -0.33554338078202212 0 -0.44966367396753332 -0.33841986907325933 0 -0.4507851133594416 -0.34910720111649318 0 -0.44966367396753332 -0.33841986907325933 0 -0.46855294336124231 -0.32873531729210143 0 -0.46386644800117471 -0.33586508895417932 0 -0.43930980958642257 -0.33554338078202212 0 -0.46855294336124231 -0.32873531729210143 0 -0.43930980958642257 -0.33554338078202212 0 -0.46855294336124231 -0.32873531729210143 0 -0.45653421084860168 -0.32646185290925811 0 -0.44966367396753332 -0.33841986907325933 0 -0.4586808436472537 -0.3401528003513713 0 -0.45711636988675219 -0.34547487934353349 0 -0.44966367396753332 -0.33841986907325933 0 -0.4586808436472537 -0.3401528003513713 0 -0.46386644800117471 -0.33586508895417932 0 -0.4586808436472537 -0.3401528003513713 0 -0.46472493826860672 -0.34236766697450172 0 -0.45711636988675219 -0.34547487934353349 0 -0.4586808436472537 -0.3401528003513713 0 -0.46472493826860672 -0.34236766697450172 0 -0.46386644800117471 -0.33586508895417932 0 -0.46855294336124231 -0.32873531729210143 0 -0.46207595183026873 -0.31834845619891672 0 -0.47203566342767839 -0.31514771464943409 0 -0.46855294336124231 -0.32873531729210143 0 -0.45653421084860168 -0.32646185290925811 0 -0.46207595183026873 -0.31834845619891672 0 -0.46096111539772322 -0.3069557537098867 0 -0.45229582611609759 -0.31444164243390338 0 -0.46207595183026873 -0.31834845619891672 0 -0.45229582611609759 -0.31444164243390338 0 -0.45653421084860168 -0.32646185290925811 0 -0.46207595183026873 -0.31834845619891672 0 -0.46096111539772322 -0.3069557537098867 0 -0.46207595183026873 -0.31834845619891672 0 -0.47203566342767839 -0.31514771464943409 0 -0.48293754746551898 -0.30617437981156609 0 -0.47203566342767839 -0.31514771464943409 0 -0.47770984076123751 -0.32964979107966252 0 -0.48293754746551898 -0.30617437981156609 0 -0.47770984076123751 -0.32964979107966252 0 -0.48293754746551898 -0.30617437981156609 0 -0.48763303240419292 -0.31981883507337211 0 -0.47770984076123751 -0.32964979107966252 0 -0.46855294336124231 -0.32873531729210143 0 -0.47203566342767839 -0.31514771464943409 0 -0.47770984076123751 -0.32964979107966252 0 -0.5 -0.3115730620380921 0 -0.5 -0.33901078862982997 0 -0.49048543526404831 -0.32960291085151988 0 -0.5 -0.3115730620380921 0 -0.48763303240419292 -0.31981883507337211 0 -0.49048543526404831 -0.32960291085151988 0 -0.5 -0.3115730620380921 0 -0.48293754746551898 -0.30617437981156609 0 -0.48763303240419292 -0.31981883507337211 0 -0.48763303240419292 -0.31981883507337211 0 -0.49048543526404831 -0.32960291085151988 0 -0.47770984076123751 -0.32964979107966252 0 -0.49048543526404831 -0.32960291085151988 0 -0.47770984076123751 -0.32964979107966252 0 -0.48708430315481122 -0.3479620774366432 0 -0.5 -0.33901078862982997 0 -0.49048543526404831 -0.32960291085151988 0 -0.48708430315481122 -0.3479620774366432 0 -0.47770984076123751 -0.32964979107966252 0 -0.47248213405695583 -0.35312520234775913 0 -0.47770984076123751 -0.32964979107966252 0 -0.47248213405695583 -0.35312520234775913 0 -0.48708430315481122 -0.3479620774366432 0 -0.46472493826860672 -0.34236766697450172 0 -0.47770984076123751 -0.32964979107966252 0 -0.47248213405695583 -0.35312520234775913 0 -0.46855294336124231 -0.32873531729210143 0 -0.46386644800117471 -0.33586508895417932 0 -0.47770984076123751 -0.32964979107966252 0 -0.46472493826860672 -0.34236766697450172 0 -0.46386644800117471 -0.33586508895417932 0 -0.47770984076123751 -0.32964979107966252 0 -0.47248213405695583 -0.35312520234775913 0 -0.48708430315481122 -0.3479620774366432 0 -0.48422759779560409 -0.37130120630367158 0 -0.5 -0.33901078862982997 0 -0.48708430315481122 -0.3479620774366432 0 -0.5 -0.36644851522156802 0 -0.48708430315481122 -0.3479620774366432 0 -0.5 -0.36644851522156802 0 -0.48422759779560409 -0.37130120630367158 0 -0.46725442735267431 -0.37660061361585562 0 -0.47248213405695583 -0.35312520234775913 0 -0.48422759779560409 -0.37130120630367158 0 -0.46725442735267431 -0.37660061361585562 0 -0.47248213405695583 -0.35312520234775913 0 -0.46725442735267431 -0.37660061361585562 0 -0.4540003998136638 -0.37455519391687309 0 -0.46226041713245919 -0.36267102145096558 0 -0.46725442735267431 -0.37660061361585562 0 -0.47248213405695583 -0.35312520234775913 0 -0.46226041713245919 -0.36267102145096558 0 -0.4540003998136638 -0.37455519391687309 0 -0.46226041713245919 -0.36267102145096558 0 -0.45167034254705118 -0.36337553476545958 0 -0.47248213405695583 -0.35312520234775913 0 -0.46226041713245919 -0.36267102145096558 0 -0.46130034509645268 -0.35111989715704561 0 -0.46472493826860672 -0.34236766697450172 0 -0.47248213405695583 -0.35312520234775913 0 -0.46130034509645268 -0.35111989715704561 0 -0.46472493826860672 -0.34236766697450172 0 -0.46130034509645268 -0.35111989715704561 0 -0.45711636988675219 -0.34547487934353349 0 -0.46130034509645268 -0.35111989715704561 0 -0.45711636988675219 -0.34547487934353349 0 -0.4507851133594416 -0.34910720111649318 0 -0.46226041713245919 -0.36267102145096558 0 -0.4507851133594416 -0.34910720111649318 0 -0.45167034254705118 -0.36337553476545958 0 -0.46226041713245919 -0.36267102145096558 0 -0.46130034509645268 -0.35111989715704561 0 -0.4507851133594416 -0.34910720111649318 0 -0.46226041713245919 -0.36267102145096558 0 -0.4507851133594416 -0.34910720111649318 0 -0.4507851133594416 -0.34910720111649318 0 -0.44504098357239391 -0.35771747353496869 0 -0.45167034254705118 -0.36337553476545958 0 -0.44966367396753332 -0.33841986907325933 0 -0.45711636988675219 -0.34547487934353349 0 -0.4507851133594416 -0.34910720111649318 0 -0.4507851133594416 -0.34910720111649318 0 -0.44408457896710762 -0.34741130507322732 0 -0.44504098357239391 -0.35771747353496869 0 -0.43930980958642257 -0.33554338078202212 0 -0.4507851133594416 -0.34910720111649318 0 -0.44408457896710762 -0.34741130507322732 0 -0.44408457896710762 -0.34741130507322732 0 -0.43834809566141358 -0.35386966642967582 0 -0.4310745521241639 -0.35060051531725012 0 -0.44408457896710762 -0.34741130507322732 0 -0.43834809566141358 -0.35386966642967582 0 -0.44504098357239391 -0.35771747353496869 0 -0.43834809566141358 -0.35386966642967582 0 -0.44504098357239391 -0.35771747353496869 0 -0.43256408976529492 -0.36260533289695268 0 -0.44504098357239391 -0.35771747353496869 0 -0.44172858264042247 -0.37082207246888088 0 -0.43256408976529492 -0.36260533289695268 0 -0.4540003998136638 -0.37455519391687309 0 -0.44172858264042247 -0.37082207246888088 0 -0.45167034254705118 -0.36337553476545958 0 -0.44504098357239391 -0.35771747353496869 0 -0.44172858264042247 -0.37082207246888088 0 -0.45167034254705118 -0.36337553476545958 0 -0.42311368847744002 -0.37830224279505142 0 -0.44172858264042247 -0.37082207246888088 0 -0.43256408976529492 -0.36260533289695268 0 -0.42311368847744002 -0.37830224279505142 0 -0.43256408976529492 -0.36260533289695268 0 -0.41867380740831611 -0.36398836527224071 0 -0.43256408976529492 -0.36260533289695268 0 -0.42210656065146929 -0.35476551363046099 0 -0.41867380740831611 -0.36398836527224071 0 -0.44408457896710762 -0.34741130507322732 0 -0.4310745521241639 -0.35060051531725012 0 -0.42443636388738298 -0.3390060521705498 0 -0.43834809566141358 -0.35386966642967582 0 -0.43256408976529492 -0.36260533289695268 0 -0.4310745521241639 -0.35060051531725012 0 -0.4310745521241639 -0.35060051531725012 0 -0.42266042161335821 -0.34652378860874011 0 -0.42210656065146929 -0.35476551363046099 0 -0.4310745521241639 -0.35060051531725012 0 -0.42266042161335821 -0.34652378860874011 0 -0.42443636388738298 -0.3390060521705498 0 -0.43256408976529492 -0.36260533289695268 0 -0.4310745521241639 -0.35060051531725012 0 -0.42210656065146929 -0.35476551363046099 0 -0.42210656065146929 -0.35476551363046099 0 -0.41243440171204931 -0.35621682403100541 0 -0.41867380740831611 -0.36398836527224071 0 -0.41243440171204931 -0.35621682403100541 0 -0.40365717239196519 -0.36741535175059892 0 -0.40302160193259851 -0.3439916005776541 0 -0.42210656065146929 -0.35476551363046099 0 -0.41714587076776338 -0.34786779488983011 0 -0.41243440171204931 -0.35621682403100541 0 -0.42266042161335821 -0.34652378860874011 0 -0.42210656065146929 -0.35476551363046099 0 -0.41714587076776338 -0.34786779488983011 0 -0.42266042161335821 -0.34652378860874011 0 -0.41714587076776338 -0.34786779488983011 0 -0.41853876063601031 -0.34037906703560689 0 -0.41714587076776338 -0.34786779488983011 0 -0.41853876063601031 -0.34037906703560689 0 -0.41714587076776338 -0.34786779488983011 0 -0.41243440171204931 -0.35621682403100541 0 -0.40302160193259851 -0.3439916005776541 0 -0.41714587076776338 -0.34786779488983011 0 -0.40302160193259851 -0.3439916005776541 0 -0.41853876063601031 -0.34037906703560689 0 -0.42311368847744002 -0.37830224279505142 0 -0.41867380740831611 -0.36398836527224071 0 -0.40365717239196519 -0.36741535175059892 0 -0.42311368847744002 -0.37830224279505142 0 -0.40365717239196519 -0.36741535175059892 0 -0.41243440171204931 -0.35621682403100541 0 -0.41867380740831611 -0.36398836527224071 0 -0.40365717239196519 -0.36741535175059892 0 -0.40403491357358612 -0.38133688525744702 0 -0.40365717239196519 -0.36741535175059892 0 -0.40403491357358612 -0.38133688525744702 0 -0.40365717239196519 -0.36741535175059892 0 -0.3904578797192948 -0.37473938743617019 0 -0.40365717239196519 -0.36741535175059892 0 -0.38979507995825918 -0.35965881973269581 0 -0.40365717239196519 -0.36741535175059892 0 -0.3904578797192948 -0.37473938743617019 0 -0.38979507995825918 -0.35965881973269581 0 -0.3904578797192948 -0.37473938743617019 0 -0.38979507995825918 -0.35965881973269581 0 -0.37568304780698558 -0.36916333065311507 0 -0.37568304780698558 -0.36916333065311507 0 -0.37593298752455201 -0.35190228771479481 0 -0.38979507995825918 -0.35965881973269581 0 -0.37568304780698558 -0.36916333065311507 0 -0.37593298752455201 -0.35190228771479481 0 -0.38979507995825918 -0.35965881973269581 0 -0.37595629511297179 -0.35029264644438168 0 -0.40302160193259851 -0.3439916005776541 0 -0.37595629511297179 -0.35029264644438168 0 -0.40302160193259851 -0.3439916005776541 0 -0.38842354837557669 -0.33756560667471242 0 -0.37595629511297179 -0.35029264644438168 0 -0.40302160193259851 -0.3439916005776541 0 -0.37595629511297179 -0.35029264644438168 0 -0.37607676276689278 -0.3419730509543204 0 -0.37390838074359528 -0.35076941925389299 0 -0.37595629511297179 -0.35029264644438168 0 -0.37607676276689278 -0.3419730509543204 0 -0.37595629511297179 -0.35029264644438168 0 -0.37593298752455201 -0.35190228771479481 0 -0.37390838074359528 -0.35076941925389299 0 -0.37595629511297179 -0.35029264644438168 0 -0.37593298752455201 -0.35190228771479481 0 -0.38979507995825918 -0.35965881973269581 0 -0.37595629511297179 -0.35029264644438168 0 -0.37593298752455201 -0.35190228771479481 0 -0.38979507995825918 -0.35965881973269581 0 -0.37593298752455201 -0.35190228771479481 0 -0.40365717239196519 -0.36741535175059892 0 -0.40302160193259851 -0.3439916005776541 0 -0.40365717239196519 -0.36741535175059892 0 -0.38979507995825918 -0.35965881973269581 0 -0.40302160193259851 -0.3439916005776541 0 -0.40302160193259851 -0.3439916005776541 0 -0.40263324863316441 -0.32967896077653092 0 -0.40263324863316441 -0.32967896077653092 0 -0.38842354837557669 -0.33756560667471242 0 -0.38442983343225828 -0.32189177462067481 0 -0.40302160193259851 -0.3439916005776541 0 -0.40263324863316441 -0.32967896077653092 0 -0.38842354837557669 -0.33756560667471242 0 -0.37607676276689278 -0.3419730509543204 0 -0.37641717267996733 -0.3184640617331177 0 -0.38842354837557669 -0.33756560667471242 0 -0.37607676276689278 -0.3419730509543204 0 -0.38442983343225828 -0.32189177462067481 0 -0.37607676276689278 -0.3419730509543204 0 -0.38442983343225828 -0.32189177462067481 0 -0.37595629511297179 -0.35029264644438168 0 -0.38842354837557669 -0.33756560667471242 0 -0.37607676276689278 -0.3419730509543204 0 -0.37607676276689278 -0.3419730509543204 0 -0.37641717267996733 -0.3184640617331177 0 -0.38442983343225828 -0.32189177462067481 0 -0.37641717267996733 -0.3184640617331177 0 -0.38442983343225828 -0.32189177462067481 0 -0.3841914044669909 -0.30132118344037401 0 -0.37641717267996733 -0.3184640617331177 0 -0.38442983343225828 -0.32189177462067481 0 -0.40263324863316441 -0.32967896077653092 0 -0.38442983343225828 -0.32189177462067481 0 -0.40185461233875269 -0.30098256284660307 0 -0.40263324863316441 -0.32967896077653092 0 -0.38442983343225828 -0.32189177462067481 0 -0.40263324863316441 -0.32967896077653092 0 -0.40185461233875269 -0.30098256284660307 0 -0.40263324863316441 -0.32967896077653092 0 -0.41242695344044827 -0.31820451366256841 0 -0.40185461233875269 -0.30098256284660307 0 -0.41242695344044827 -0.31820451366256841 0 -0.41920998916455232 -0.33677027649670849 0 -0.42301959421646518 -0.31628833020920039 0 -0.41920998916455232 -0.33677027649670849 0 -0.42301959421646518 -0.31628833020920039 0 -0.41242695344044827 -0.31820451366256841 0 -0.42301959421646518 -0.31628833020920039 0 -0.41541732284930832 -0.30730243798379953 0 -0.40302160193259851 -0.3439916005776541 0 -0.41920998916455232 -0.33677027649670849 0 -0.41853876063601031 -0.34037906703560689 0 -0.40302160193259851 -0.3439916005776541 0 -0.40263324863316441 -0.32967896077653092 0 -0.41920998916455232 -0.33677027649670849 0 -0.40263324863316441 -0.32967896077653092 0 -0.41920998916455232 -0.33677027649670849 0 -0.40263324863316441 -0.32967896077653092 0 -0.41242695344044827 -0.31820451366256841 0 -0.41920998916455232 -0.33677027649670849 0 -0.40302160193259851 -0.3439916005776541 0 -0.41853876063601031 -0.34037906703560689 0 -0.41853876063601031 -0.34037906703560689 0 -0.42443636388738298 -0.3390060521705498 0 -0.41920998916455232 -0.33677027649670849 0 -0.42443636388738298 -0.3390060521705498 0 -0.41920998916455232 -0.33677027649670849 0 -0.41853876063601031 -0.34037906703560689 0 -0.42443636388738298 -0.3390060521705498 0 -0.41920998916455232 -0.33677027649670849 0 -0.41853876063601031 -0.34037906703560689 0 -0.43930980958642257 -0.33554338078202212 0 -0.44408457896710762 -0.34741130507322732 0 -0.42443636388738298 -0.3390060521705498 0 -0.43930980958642257 -0.33554338078202212 0 -0.42443636388738298 -0.3390060521705498 0 -0.42301959421646518 -0.31628833020920039 0 -0.41920998916455232 -0.33677027649670849 0 -0.42443636388738298 -0.3390060521705498 0 -0.42301959421646518 -0.31628833020920039 0 -0.44408457896710762 -0.34741130507322732 0 -0.42443636388738298 -0.3390060521705498 0 -0.42266042161335821 -0.34652378860874011 0 -0.41853876063601031 -0.34037906703560689 0 -0.42443636388738298 -0.3390060521705498 0 -0.43930980958642257 -0.33554338078202212 0 -0.42443636388738298 -0.3390060521705498 0 -0.43930980958642257 -0.33554338078202212 0 -0.42301959421646518 -0.31628833020920039 0 -0.44024276041750632 -0.31887045497680111 0 -0.42395130998641067 -0.31127905704434472 0 -0.44024276041750632 -0.31887045497680111 0 -0.43930980958642257 -0.33554338078202212 0 -0.42301959421646518 -0.31628833020920039 0 -0.44024276041750632 -0.31887045497680111 0 -0.42301959421646518 -0.31628833020920039 0 -0.42395130998641067 -0.31127905704434472 0 -0.42301959421646518 -0.31628833020920039 0 -0.42395130998641067 -0.31127905704434472 0 -0.42395130998641067 -0.31127905704434472 0 -0.42709180872781188 -0.29439449141065738 0 -0.44024276041750632 -0.31887045497680111 0 -0.42395130998641067 -0.31127905704434472 0 -0.43527018611072049 -0.30465000121327751 0 -0.42395130998641067 -0.31127905704434472 0 -0.42709180872781188 -0.29439449141065738 0 -0.41541732284930832 -0.30730243798379953 0 -0.42395130998641067 -0.31127905704434472 0 -0.43527018611072049 -0.30465000121327751 0 -0.42709180872781188 -0.29439449141065738 0 -0.441361257405879 -0.29303276451920029 0 -0.43527018611072049 -0.30465000121327751 0 -0.42709180872781188 -0.29439449141065738 0 -0.42709180872781188 -0.29439449141065738 0 -0.43077531442077321 -0.27459050524281542 0 -0.42709180872781188 -0.29439449141065738 0 -0.41684225135067149 -0.28376244362903152 0 -0.43077531442077321 -0.27459050524281542 0 -0.441361257405879 -0.29303276451920029 0 -0.42709180872781188 -0.29439449141065738 0 -0.441361257405879 -0.29303276451920029 0 -0.42709180872781188 -0.29439449141065738 0 -0.43077531442077321 -0.27459050524281542 0 -0.42709180872781188 -0.29439449141065738 0 -0.41684225135067149 -0.28376244362903152 0 -0.40618483967714292 -0.29638963380315841 0 -0.42709180872781188 -0.29439449141065738 0 -0.40618483967714292 -0.29638963380315841 0 -0.41684225135067149 -0.28376244362903152 0 -0.40690107601488551 -0.28490397733270861 0 -0.40618483967714292 -0.29638963380315841 0 -0.41541732284930832 -0.30730243798379953 0 -0.40185461233875269 -0.30098256284660307 0 -0.40618483967714292 -0.29638963380315841 0 -0.42709180872781188 -0.29439449141065738 0 -0.41541732284930832 -0.30730243798379953 0 -0.40618483967714292 -0.29638963380315841 0 -0.41541732284930832 -0.30730243798379953 0 -0.40618483967714292 -0.29638963380315841 0 -0.41242695344044827 -0.31820451366256841 0 -0.41541732284930832 -0.30730243798379953 0 -0.40185461233875269 -0.30098256284660307 0 -0.41541732284930832 -0.30730243798379953 0 -0.40185461233875269 -0.30098256284660307 0 -0.42301959421646518 -0.31628833020920039 0 -0.41541732284930832 -0.30730243798379953 0 -0.42395130998641067 -0.31127905704434472 0 -0.41541732284930832 -0.30730243798379953 0 -0.42301959421646518 -0.31628833020920039 0 -0.42395130998641067 -0.31127905704434472 0 -0.41541732284930832 -0.30730243798379953 0 -0.38442983343225828 -0.32189177462067481 0 -0.40185461233875269 -0.30098256284660307 0 -0.39448508010510541 -0.297525044214214 0 -0.40185461233875269 -0.30098256284660307 0 -0.40174149504185092 -0.29681366012781812 0 -0.40618483967714292 -0.29638963380315841 0 -0.40185461233875269 -0.30098256284660307 0 -0.40174149504185092 -0.29681366012781812 0 -0.40185461233875269 -0.30098256284660307 0 -0.39448508010510541 -0.297525044214214 0 -0.40174149504185092 -0.29681366012781812 0 -0.40185461233875269 -0.30098256284660307 0 -0.39448508010510541 -0.297525044214214 0 -0.39448508010510541 -0.297525044214214 0 -0.40174149504185092 -0.29681366012781812 0 -0.37641717267996733 -0.3184640617331177 0 -0.37669606201677502 -0.29920373422444158 0 -0.38442983343225828 -0.32189177462067481 0 -0.39448508010510541 -0.297525044214214 0 -0.38442983343225828 -0.32189177462067481 0 -0.39448508010510541 -0.297525044214214 0 -0.3841914044669909 -0.30132118344037401 0 -0.37641717267996733 -0.3184640617331177 0 -0.3841914044669909 -0.30132118344037401 0 -0.37669606201677502 -0.29920373422444158 0 -0.39448508010510541 -0.297525044214214 0 -0.3841914044669909 -0.30132118344037401 0 -0.37928718982873688 -0.29895646409505849 0 -0.39448508010510541 -0.297525044214214 0 -0.37928718982873688 -0.29895646409505849 0 -0.3841914044669909 -0.30132118344037401 0 -0.37928718982873688 -0.29895646409505849 0 -0.3841914044669909 -0.30132118344037401 0 -0.37928718982873688 -0.29895646409505849 0 -0.37669606201677502 -0.29920373422444158 0 -0.37928718982873688 -0.29895646409505849 0 -0.37669606201677502 -0.29920373422444158 0 -0.37671758341694961 -0.29771744858697219 0 -0.37928718982873688 -0.29895646409505849 0 -0.37671758341694961 -0.29771744858697219 0 -0.37928718982873688 -0.29895646409505849 0 -0.37669606201677502 -0.29920373422444158 0 -0.37669606201677502 -0.29920373422444158 0 -0.37671758341694961 -0.29771744858697219 0 -0.37671758341694961 -0.29771744858697219 0 -0.38607699004493318 -0.28757386461908069 0 -0.38483052758877101 -0.28123782127595193 0 -0.37671758341694961 -0.29771744858697219 0 -0.3770412393053626 -0.27536550612006683 0 -0.37671758341694961 -0.29771744858697219 0 -0.38483052758877101 -0.28123782127595193 0 -0.3770412393053626 -0.27536550612006683 0 -0.37928718982873688 -0.29895646409505849 0 -0.37671758341694961 -0.29771744858697219 0 -0.38467000758835601 -0.29297497791584359 0 -0.37671758341694961 -0.29771744858697219 0 -0.38467000758835601 -0.29297497791584359 0 -0.38607699004493318 -0.28757386461908069 0 -0.39448508010510541 -0.297525044214214 0 -0.37928718982873688 -0.29895646409505849 0 -0.38467000758835601 -0.29297497791584359 0 -0.39448508010510541 -0.297525044214214 0 -0.38467000758835601 -0.29297497791584359 0 -0.39448508010510541 -0.297525044214214 0 -0.38467000758835601 -0.29297497791584359 0 -0.39217701296355612 -0.28987936211692023 0 -0.38467000758835601 -0.29297497791584359 0 -0.38607699004493318 -0.28757386461908069 0 -0.39217701296355612 -0.28987936211692023 0 -0.38607699004493318 -0.28757386461908069 0 -0.39049541959166939 -0.28414526237041138 0 -0.39217701296355612 -0.28987936211692023 0 -0.39049541959166939 -0.28414526237041138 0 -0.39420405367365152 -0.27853706101481662 0 -0.38483052758877101 -0.28123782127595193 0 -0.38607699004493318 -0.28757386461908069 0 -0.39049541959166939 -0.28414526237041138 0 -0.38483052758877101 -0.28123782127595193 0 -0.39597078832761667 -0.28551153658085893 0 -0.40174149504185092 -0.29681366012781812 0 -0.40123596036735593 -0.27818233727432817 0 -0.39049541959166939 -0.28414526237041138 0 -0.39597078832761667 -0.28551153658085893 0 -0.39420405367365152 -0.27853706101481662 0 -0.40174149504185092 -0.29681366012781812 0 -0.40123596036735593 -0.27818233727432817 0 -0.40174149504185092 -0.29681366012781812 0 -0.40322207619149192 -0.29288764445213411 0 -0.40123596036735593 -0.27818233727432817 0 -0.39049541959166939 -0.28414526237041138 0 -0.39597078832761667 -0.28551153658085893 0 -0.39217701296355612 -0.28987936211692023 0 -0.39597078832761667 -0.28551153658085893 0 -0.39217701296355612 -0.28987936211692023 0 -0.40174149504185092 -0.29681366012781812 0 -0.39448508010510541 -0.297525044214214 0 -0.39217701296355612 -0.28987936211692023 0 -0.40174149504185092 -0.29681366012781812 0 -0.40690107601488551 -0.28490397733270861 0 -0.40322207619149192 -0.29288764445213411 0 -0.40618483967714292 -0.29638963380315841 0 -0.40174149504185092 -0.29681366012781812 0 -0.40322207619149192 -0.29288764445213411 0 -0.40618483967714292 -0.29638963380315841 0 -0.40174149504185092 -0.29681366012781812 0 -0.40618483967714292 -0.29638963380315841 0 -0.40322207619149192 -0.29288764445213411 0 -0.40618483967714292 -0.29638963380315841 0 -0.40690107601488551 -0.28490397733270861 0 -0.40322207619149192 -0.29288764445213411 0 -0.40123596036735593 -0.27818233727432817 0 -0.39420405367365152 -0.27853706101481662 0 -0.37710287173325818 -0.2711091198417086 0 -0.40073042569286338 -0.25955101442083811 0 -0.40123596036735593 -0.27818233727432817 0 -0.39420405367365152 -0.27853706101481662 0 -0.40073042569286338 -0.25955101442083811 0 -0.40123596036735593 -0.27818233727432817 0 -0.40073042569286338 -0.25955101442083811 0 -0.40123596036735593 -0.27818233727432817 0 -0.40073042569286338 -0.25955101442083811 0 -0.41341650638623911 -0.27076301679274262 0 -0.39597078832761667 -0.28551153658085893 0 -0.40123596036735593 -0.27818233727432817 0 -0.39420405367365152 -0.27853706101481662 0 -0.39420405367365152 -0.27853706101481662 0 -0.37710287173325818 -0.2711091198417086 0 -0.3770412393053626 -0.27536550612006683 0 -0.39420405367365152 -0.27853706101481662 0 -0.3770412393053626 -0.27536550612006683 0 -0.39420405367365152 -0.27853706101481662 0 -0.38483052758877101 -0.28123782127595193 0 -0.3770412393053626 -0.27536550612006683 0 -0.37710287173325818 -0.2711091198417086 0 -0.3770412393053626 -0.27536550612006683 0 -0.37710287173325818 -0.2711091198417086 0 -0.38543722149146659 -0.25821727905458303 0 -0.40073042569286338 -0.25955101442083811 0 -0.37710287173325818 -0.2711091198417086 0 -0.37747963509906429 -0.24508953120583671 0 -0.37710287173325818 -0.2711091198417086 0 -0.40073042569286338 -0.25955101442083811 0 -0.37710287173325818 -0.2711091198417086 0 -0.38543722149146659 -0.25821727905458303 0 -0.37747963509906429 -0.24508953120583671 0 -0.38543722149146659 -0.25821727905458303 0 -0.3938256931015453 -0.25037754026629511 0 -0.37747963509906429 -0.24508953120583671 0 -0.38543722149146659 -0.25821727905458303 0 -0.3938256931015453 -0.25037754026629511 0 -0.40073042569286338 -0.25955101442083811 0 -0.40073042569286338 -0.25955101442083811 0 -0.40282532782868952 -0.25224285689579767 0 -0.40022281387448849 -0.24084313907701979 0 -0.40073042569286338 -0.25955101442083811 0 -0.40022281387448849 -0.24084313907701979 0 -0.3938256931015453 -0.25037754026629511 0 -0.40073042569286338 -0.25955101442083811 0 -0.40022281387448849 -0.24084313907701979 0 -0.40073042569286338 -0.25955101442083811 0 -0.40282532782868952 -0.25224285689579767 0 -0.41385673751816382 -0.25312989710486528 0 -0.40073042569286338 -0.25955101442083811 0 -0.41385673751816382 -0.25312989710486528 0 -0.40073042569286338 -0.25955101442083811 0 -0.41385673751816382 -0.25312989710486528 0 -0.41341650638623911 -0.27076301679274262 0 -0.41385673751816382 -0.25312989710486528 0 -0.41341650638623911 -0.27076301679274262 0 -0.42312684460972783 -0.26331748455384929 0 -0.41385673751816382 -0.25312989710486528 0 -0.41679144862722167 -0.25169429778568547 0 -0.43445882011373449 -0.25478651907497341 0 -0.40282532782868952 -0.25224285689579767 0 -0.41385673751816382 -0.25312989710486528 0 -0.4086566941719203 -0.24778871483445111 0 -0.40282532782868952 -0.25224285689579767 0 -0.41385673751816382 -0.25312989710486528 0 -0.41385673751816382 -0.25312989710486528 0 -0.41679144862722167 -0.25169429778568547 0 -0.41627810448972868 -0.24641300060905449 0 -0.41385673751816382 -0.25312989710486528 0 -0.41679144862722167 -0.25169429778568547 0 -0.41684225135067149 -0.28376244362903152 0 -0.41341650638623911 -0.27076301679274262 0 -0.43077531442077321 -0.27459050524281542 0 -0.40690107601488551 -0.28490397733270861 0 -0.40123596036735593 -0.27818233727432817 0 -0.41341650638623911 -0.27076301679274262 0 -0.41684225135067149 -0.28376244362903152 0 -0.40690107601488551 -0.28490397733270861 0 -0.41341650638623911 -0.27076301679274262 0 -0.41341650638623911 -0.27076301679274262 0 -0.43077531442077321 -0.27459050524281542 0 -0.42312684460972783 -0.26331748455384929 0 -0.43077531442077321 -0.27459050524281542 0 -0.42312684460972783 -0.26331748455384929 0 -0.43445882011373449 -0.25478651907497341 0 -0.41385673751816382 -0.25312989710486528 0 -0.43445882011373449 -0.25478651907497341 0 -0.43077531442077321 -0.27459050524281542 0 -0.43445882011373449 -0.25478651907497341 0 -0.41385673751816382 -0.25312989710486528 0 -0.42312684460972783 -0.26331748455384929 0 -0.43445882011373449 -0.25478651907497341 0 -0.41679144862722167 -0.25169429778568547 0 -0.43445882011373449 -0.25478651907497341 0 -0.42335340856967768 -0.24893549408922019 0 -0.32580796388430833 -0.26195871891040218 0 -0.34139866608006603 -0.2687790352098644 0 -0.31202674084989918 -0.26335133138269068 0 -0.32580796388430833 -0.26195871891040218 0 -0.33345250408021371 -0.25331871279766999 0 -0.32023222063025569 -0.2489608815952247 0 -0.32580796388430833 -0.26195871891040218 0 -0.31664960680882542 -0.25714232151458272 0 -0.32023222063025569 -0.2489608815952247 0 -0.31664960680882542 -0.25714232151458272 0 -0.30853150187083839 -0.25429835417001312 0 -0.32023222063025569 -0.2489608815952247 0 -0.32580796388430833 -0.26195871891040218 0 -0.31664960680882542 -0.25714232151458272 0 -0.31202674084989918 -0.26335133138269068 0 -0.33223611708196649 -0.27626932861073827 0 -0.31972670239926188 -0.28454160199560091 0 -0.31187737399160442 -0.27618124236115132 0 -0.34139866608006603 -0.2687790352098644 0 -0.31202674084989918 -0.26335133138269068 0 -0.33223611708196649 -0.27626932861073827 0 -0.31202674084989918 -0.26335133138269068 0 -0.3062135479255173 -0.26372173898871692 0 -0.33223611708196649 -0.27626932861073827 0 -0.31187737399160442 -0.27618124236115132 0 -0.3062135479255173 -0.26372173898871692 0 -0.33260241140844943 -0.2743168067351805 0 -0.33223611708196649 -0.27626932861073827 0 -0.31202674084989918 -0.26335133138269068 0 -0.33223611708196649 -0.27626932861073827 0 -0.3062135479255173 -0.26372173898871692 0 -0.33260241140844943 -0.2743168067351805 0 -0.34139866608006603 -0.2687790352098644 0 -0.31202674084989918 -0.26335133138269068 0 -0.33223611708196649 -0.27626932861073827 0 -0.34139866608006603 -0.2687790352098644 0 -0.34951875912658742 -0.28460269103381453 0 -0.33223611708196649 -0.27626932861073827 0 -0.34951875912658742 -0.28460269103381453 0 -0.33260241140844943 -0.2743168067351805 0 -0.33223611708196649 -0.27626932861073827 0 -0.34139866608006603 -0.2687790352098644 0 -0.33260241140844943 -0.2743168067351805 0 -0.33223611708196649 -0.27626932861073827 0 -0.34139866608006603 -0.2687790352098644 0 -0.3363084638556994 -0.26041051377605268 0 -0.34457472137820933 -0.25758558818627408 0 -0.32580796388430833 -0.26195871891040218 0 -0.34139866608006603 -0.2687790352098644 0 -0.3363084638556994 -0.26041051377605268 0 -0.32580796388430833 -0.26195871891040218 0 -0.3363084638556994 -0.26041051377605268 0 -0.33345250408021371 -0.25331871279766999 0 -0.3363084638556994 -0.26041051377605268 0 -0.33345250408021371 -0.25331871279766999 0 -0.34457472137820933 -0.25758558818627408 0 -0.33345250408021371 -0.25331871279766999 0 -0.34457472137820933 -0.25758558818627408 0 -0.34395992200845399 -0.24382677409400949 0 -0.34139866608006603 -0.2687790352098644 0 -0.34457472137820933 -0.25758558818627408 0 -0.35733732661955131 -0.26288598862094092 0 -0.34457472137820933 -0.25758558818627408 0 -0.35872453044413888 -0.25078889886649508 0 -0.34395992200845399 -0.24382677409400949 0 -0.34457472137820933 -0.25758558818627408 0 -0.35733732661955131 -0.26288598862094092 0 -0.35872453044413888 -0.25078889886649508 0 -0.37710287173325818 -0.2711091198417086 0 -0.36828299104124951 -0.26081605551440462 0 -0.37747963509906429 -0.24508953120583671 0 -0.35872453044413888 -0.25078889886649508 0 -0.36828299104124951 -0.26081605551440462 0 -0.37747963509906429 -0.24508953120583671 0 -0.35733732661955131 -0.26288598862094092 0 -0.35872453044413888 -0.25078889886649508 0 -0.36828299104124951 -0.26081605551440462 0 -0.37077059131023282 -0.27420673903703829 0 -0.34951875912658742 -0.28460269103381453 0 -0.37710287173325818 -0.2711091198417086 0 -0.3770412393053626 -0.27536550612006683 0 -0.37077059131023282 -0.27420673903703829 0 -0.3770412393053626 -0.27536550612006683 0 -0.37077059131023282 -0.27420673903703829 0 -0.37710287173325818 -0.2711091198417086 0 -0.36828299104124951 -0.26081605551440462 0 -0.37077059131023282 -0.27420673903703829 0 -0.37710287173325818 -0.2711091198417086 0 -0.37077059131023282 -0.27420673903703829 0 -0.35733732661955131 -0.26288598862094092 0 -0.36828299104124951 -0.26081605551440462 0 -0.37077059131023282 -0.27420673903703829 0 -0.34139866608006603 -0.2687790352098644 0 -0.35733732661955131 -0.26288598862094092 0 -0.37077059131023282 -0.27420673903703829 0 -0.34139866608006603 -0.2687790352098644 0 -0.37077059131023282 -0.27420673903703829 0 -0.34951875912658742 -0.28460269103381453 0 -0.34139866608006603 -0.2687790352098644 0 -0.37077059131023282 -0.27420673903703829 0 -0.34951875912658742 -0.28460269103381453 0 -0.3581763596052473 -0.30097106086504849 0 -0.34010739644885768 -0.2892065328944351 0 -0.34951875912658742 -0.28460269103381453 0 -0.34010739644885768 -0.2892065328944351 0 -0.37671758341694961 -0.29771744858697219 0 -0.37077059131023282 -0.27420673903703829 0 -0.34951875912658742 -0.28460269103381453 0 -0.37671758341694961 -0.29771744858697219 0 -0.34951875912658742 -0.28460269103381453 0 -0.37671758341694961 -0.29771744858697219 0 -0.3770412393053626 -0.27536550612006683 0 -0.37077059131023282 -0.27420673903703829 0 -0.37671758341694961 -0.29771744858697219 0 -0.34951875912658742 -0.28460269103381453 0 -0.3581763596052473 -0.30097106086504849 0 -0.37669606201677502 -0.29920373422444158 0 -0.37671758341694961 -0.29771744858697219 0 -0.3581763596052473 -0.30097106086504849 0 -0.37641717267996733 -0.3184640617331177 0 -0.37669606201677502 -0.29920373422444158 0 -0.36799370156123501 -0.30592930732763762 0 -0.37641717267996733 -0.3184640617331177 0 -0.36799370156123501 -0.30592930732763762 0 -0.35803691493684492 -0.31060122461938489 0 -0.37669606201677502 -0.29920373422444158 0 -0.36799370156123501 -0.30592930732763762 0 -0.3581763596052473 -0.30097106086504849 0 -0.37669606201677502 -0.29920373422444158 0 -0.3581763596052473 -0.30097106086504849 0 -0.36799370156123501 -0.30592930732763762 0 -0.35803691493684492 -0.31060122461938489 0 -0.3581763596052473 -0.30097106086504849 0 -0.35803691493684492 -0.31060122461938489 0 -0.33965665719371979 -0.30273838750565862 0 -0.35803691493684492 -0.31060122461938489 0 -0.33965665719371979 -0.30273838750565862 0 -0.34514704515453298 -0.31300544250539297 0 -0.3581763596052473 -0.30097106086504849 0 -0.33965665719371979 -0.30273838750565862 0 -0.34010739644885768 -0.2892065328944351 0 -0.35803691493684492 -0.31060122461938489 0 -0.3581763596052473 -0.30097106086504849 0 -0.33965665719371979 -0.30273838750565862 0 -0.3581763596052473 -0.30097106086504849 0 -0.33965665719371979 -0.30273838750565862 0 -0.33676996251121621 -0.31158184422573892 0 -0.33965665719371979 -0.30273838750565862 0 -0.34514704515453298 -0.31300544250539297 0 -0.33676996251121621 -0.31158184422573892 0 -0.33965665719371979 -0.30273838750565862 0 -0.32704471803945162 -0.30394193902942662 0 -0.33676996251121621 -0.31158184422573892 0 -0.32594772137393307 -0.30978944971135602 0 -0.32704471803945162 -0.30394193902942662 0 -0.33965665719371979 -0.30273838750565862 0 -0.32704471803945162 -0.30394193902942662 0 -0.32819068517220462 -0.29783339261299951 0 -0.33965665719371979 -0.30273838750565862 0 -0.32704471803945162 -0.30394193902942662 0 -0.32819068517220462 -0.29783339261299951 0 -0.33965665719371979 -0.30273838750565862 0 -0.33223611708196649 -0.27626932861073827 0 -0.32819068517220462 -0.29783339261299951 0 -0.33223611708196649 -0.27626932861073827 0 -0.32819068517220462 -0.29783339261299951 0 -0.34010739644885768 -0.2892065328944351 0 -0.33223611708196649 -0.27626932861073827 0 -0.34951875912658742 -0.28460269103381453 0 -0.34010739644885768 -0.2892065328944351 0 -0.32819068517220462 -0.29783339261299951 0 -0.33965665719371979 -0.30273838750565862 0 -0.34010739644885768 -0.2892065328944351 0 -0.32819068517220462 -0.29783339261299951 0 -0.31972670239926188 -0.28454160199560091 0 -0.31332574866090718 -0.291474364566292 0 -0.32819068517220462 -0.29783339261299951 0 -0.31332574866090718 -0.291474364566292 0 -0.33223611708196649 -0.27626932861073827 0 -0.32819068517220462 -0.29783339261299951 0 -0.31972670239926188 -0.28454160199560091 0 -0.31972670239926188 -0.28454160199560091 0 -0.31332574866090718 -0.291474364566292 0 -0.30937392239009109 -0.28339120160471948 0 -0.31972670239926188 -0.28454160199560091 0 -0.30937392239009109 -0.28339120160471948 0 -0.31187737399160442 -0.27618124236115132 0 -0.31992409361072222 -0.30462145692723192 0 -0.32594772137393307 -0.30978944971135602 0 -0.31307430431717392 -0.31869978567557272 0 -0.31992409361072222 -0.30462145692723192 0 -0.32594772137393307 -0.30978944971135602 0 -0.32594772137393307 -0.30978944971135602 0 -0.32704471803945162 -0.30394193902942662 0 -0.31992409361072222 -0.30462145692723192 0 -0.32594772137393307 -0.30978944971135602 0 -0.32704471803945162 -0.30394193902942662 0 -0.32819068517220462 -0.29783339261299951 0 -0.31332574866090718 -0.291474364566292 0 -0.31992409361072222 -0.30462145692723192 0 -0.32819068517220462 -0.29783339261299951 0 -0.32704471803945162 -0.30394193902942662 0 -0.32819068517220462 -0.29783339261299951 0 -0.31992409361072222 -0.30462145692723192 0 -0.32704471803945162 -0.30394193902942662 0 -0.31992409361072222 -0.30462145692723192 0 -0.32704471803945162 -0.30394193902942662 0 -0.32594772137393307 -0.30978944971135602 0 -0.31307430431717392 -0.31869978567557272 0 -0.32184288384298337 -0.33167017375041419 0 -0.32594772137393307 -0.30978944971135602 0 -0.32184288384298337 -0.33167017375041419 0 -0.32184288384298337 -0.33167017375041419 0 -0.31773804631203251 -0.35355089778947202 0 -0.32184288384298337 -0.33167017375041419 0 -0.34475024534571441 -0.34586667392980902 0 -0.31773804631203251 -0.35355089778947202 0 -0.32184288384298337 -0.33167017375041419 0 -0.34612464597635118 -0.32710031367078812 0 -0.34475024534571441 -0.34586667392980902 0 -0.33676996251121621 -0.31158184422573892 0 -0.32594772137393307 -0.30978944971135602 0 -0.34612464597635118 -0.32710031367078812 0 -0.32594772137393307 -0.30978944971135602 0 -0.34612464597635118 -0.32710031367078812 0 -0.32594772137393307 -0.30978944971135602 0 -0.32184288384298337 -0.33167017375041419 0 -0.34612464597635118 -0.32710031367078812 0 -0.33676996251121621 -0.31158184422573892 0 -0.34514704515453298 -0.31300544250539297 0 -0.34612464597635118 -0.32710031367078812 0 -0.35803691493684492 -0.31060122461938489 0 -0.34514704515453298 -0.31300544250539297 0 -0.34612464597635118 -0.32710031367078812 0 -0.35803691493684492 -0.31060122461938489 0 -0.34612464597635118 -0.32710031367078812 0 -0.35600230731325749 -0.33324145173106873 0 -0.37641717267996733 -0.3184640617331177 0 -0.35803691493684492 -0.31060122461938489 0 -0.37641717267996733 -0.3184640617331177 0 -0.35803691493684492 -0.31060122461938489 0 -0.36719759625642318 -0.33008752154143739 0 -0.35803691493684492 -0.31060122461938489 0 -0.36719759625642318 -0.33008752154143739 0 -0.35600230731325749 -0.33324145173106873 0 -0.37607676276689278 -0.3419730509543204 0 -0.37641717267996733 -0.3184640617331177 0 -0.36719759625642318 -0.33008752154143739 0 -0.37607676276689278 -0.3419730509543204 0 -0.3688763256213185 -0.34309961767568647 0 -0.36719759625642318 -0.33008752154143739 0 -0.36719759625642318 -0.33008752154143739 0 -0.36118874601324108 -0.3436521492952741 0 -0.35600230731325749 -0.33324145173106873 0 -0.3688763256213185 -0.34309961767568647 0 -0.36719759625642318 -0.33008752154143739 0 -0.36118874601324108 -0.3436521492952741 0 -0.34612464597635118 -0.32710031367078812 0 -0.35600230731325749 -0.33324145173106873 0 -0.34475024534571441 -0.34586667392980902 0 -0.36118874601324108 -0.3436521492952741 0 -0.35600230731325749 -0.33324145173106873 0 -0.34475024534571441 -0.34586667392980902 0 -0.36118874601324108 -0.3436521492952741 0 -0.34475024534571441 -0.34586667392980902 0 -0.35925477447714671 -0.35134479444962452 0 -0.34475024534571441 -0.34586667392980902 0 -0.35480891830463612 -0.3592101017575729 0 -0.33937201587241012 -0.36587749477948078 0 -0.34475024534571441 -0.34586667392980902 0 -0.35480891830463612 -0.3592101017575729 0 -0.35925477447714671 -0.35134479444962452 0 -0.36118874601324108 -0.3436521492952741 0 -0.37225797237559449 -0.35115364910559932 0 -0.36118874601324108 -0.3436521492952741 0 -0.35925477447714671 -0.35134479444962452 0 -0.36985982957495511 -0.35171195823109852 0 -0.37568304780698558 -0.36916333065311507 0 -0.37593298752455201 -0.35190228771479481 0 -0.37225797237559449 -0.35115364910559932 0 -0.35480891830463612 -0.3592101017575729 0 -0.35925477447714671 -0.35134479444962452 0 -0.36985982957495511 -0.35171195823109852 0 -0.37607676276689278 -0.3419730509543204 0 -0.3688763256213185 -0.34309961767568647 0 -0.37225797237559449 -0.35115364910559932 0 -0.37607676276689278 -0.3419730509543204 0 -0.37225797237559449 -0.35115364910559932 0 -0.37607676276689278 -0.3419730509543204 0 -0.37390838074359528 -0.35076941925389299 0 -0.37225797237559449 -0.35115364910559932 0 -0.37593298752455201 -0.35190228771479481 0 -0.37390838074359528 -0.35076941925389299 0 -0.37225797237559449 -0.35115364910559932 0 -0.3688763256213185 -0.34309961767568647 0 -0.36118874601324108 -0.3436521492952741 0 -0.37225797237559449 -0.35115364910559932 0 -0.37593298752455201 -0.35190228771479481 0 -0.37390838074359528 -0.35076941925389299 0 -0.36118874601324108 -0.3436521492952741 0 -0.36985982957495511 -0.35171195823109852 0 -0.37225797237559449 -0.35115364910559932 0 -0.37595629511297179 -0.35029264644438168 0 -0.37390838074359528 -0.35076941925389299 0 -0.37390838074359528 -0.35076941925389299 0 -0.37225797237559449 -0.35115364910559932 0 -0.36985982957495511 -0.35171195823109852 0 -0.37225797237559449 -0.35115364910559932 0 -0.37568304780698558 -0.36916333065311507 0 -0.37225797237559449 -0.35115364910559932 0 -0.36100598543278789 -0.37820409176948921 0 -0.35480891830463612 -0.3592101017575729 0 -0.36985982957495511 -0.35171195823109852 0 -0.36100598543278789 -0.37820409176948921 0 -0.36985982957495511 -0.35171195823109852 0 -0.37225797237559449 -0.35115364910559932 0 -0.36100598543278789 -0.37820409176948921 0 -0.37225797237559449 -0.35115364910559932 0 -0.36100598543278789 -0.37820409176948921 0 -0.33937201587241012 -0.36587749477948078 0 -0.36100598543278789 -0.37820409176948921 0 -0.35480891830463612 -0.3592101017575729 0 -0.33937201587241012 -0.36587749477948078 0 -0.36100598543278789 -0.37820409176948921 0 -0.33937201587241012 -0.36587749477948078 0 -0.31773804631203251 -0.35355089778947202 0 -0.33937201587241012 -0.36587749477948078 0 -0.31773804631203251 -0.35355089778947202 0 -0.32803705280137402 -0.37447550275240871 0 -0.34475024534571441 -0.34586667392980902 0 -0.33937201587241012 -0.36587749477948078 0 -0.31773804631203251 -0.35355089778947202 0 -0.31773804631203251 -0.35355089778947202 0 -0.31381007312398762 -0.37448885129246268 0 -0.31773804631203251 -0.35355089778947202 0 -0.31381007312398762 -0.37448885129246268 0 -0.32803705280137402 -0.37447550275240871 0 -0.31381007312398762 -0.37448885129246268 0 -0.29871455833571747 -0.36148408621311728 0 -0.29196992941862432 -0.3825632544476108 0 -0.31773804631203251 -0.35355089778947202 0 -0.31381007312398762 -0.37448885129246268 0 -0.29871455833571747 -0.36148408621311728 0 -0.31773804631203251 -0.35355089778947202 0 -0.29871455833571747 -0.36148408621311728 0 -0.29282778547957722 -0.33935753649529382 0 -0.31773804631203251 -0.35355089778947202 0 -0.29282778547957722 -0.33935753649529382 0 -0.29871455833571747 -0.36148408621311728 0 -0.27675503022224163 -0.36681377825091099 0 -0.29282778547957722 -0.33935753649529382 0 -0.29871455833571747 -0.36148408621311728 0 -0.27675503022224163 -0.36681377825091099 0 -0.29196992941862432 -0.3825632544476108 0 -0.27675503022224163 -0.36681377825091099 0 -0.25757508569408222 -0.36424633604315798 0 -0.26546808025963542 -0.34847395767735678 0 -0.27675503022224163 -0.36681377825091099 0 -0.25757508569408222 -0.36424633604315798 0 -0.25812358553267323 -0.37605355791306738 0 -0.25757508569408222 -0.36424633604315798 0 -0.24839247009954951 -0.37292447016044328 0 -0.24532753696728959 -0.36501789644951049 0 -0.25757508569408222 -0.36424633604315798 0 -0.25812358553267323 -0.37605355791306738 0 -0.24839247009954951 -0.37292447016044328 0 -0.25757508569408222 -0.36424633604315798 0 -0.26546808025963542 -0.34847395767735678 0 -0.24650166737573331 -0.3569693529562265 0 -0.26546808025963542 -0.34847395767735678 0 -0.24650166737573331 -0.3569693529562265 0 -0.24881121389389799 -0.33838995723746451 0 -0.27675503022224163 -0.36681377825091099 0 -0.26546808025963542 -0.34847395767735678 0 -0.29282778547957722 -0.33935753649529382 0 -0.26791752464712137 -0.32516417520111718 0 -0.27544300416693679 -0.31995488319631832 0 -0.29282778547957722 -0.33935753649529382 0 -0.26546808025963542 -0.34847395767735678 0 -0.26791752464712137 -0.32516417520111718 0 -0.29282778547957722 -0.33935753649529382 0 -0.26791752464712137 -0.32516417520111718 0 -0.29282778547957722 -0.33935753649529382 0 -0.26791752464712137 -0.32516417520111718 0 -0.24881121389389799 -0.33838995723746451 0 -0.26546808025963542 -0.34847395767735678 0 -0.26791752464712137 -0.32516417520111718 0 -0.24881121389389799 -0.33838995723746451 0 -0.26791752464712137 -0.32516417520111718 0 -0.24881121389389799 -0.33838995723746451 0 -0.2441082332202735 -0.32380704628422963 0 -0.26791752464712137 -0.32516417520111718 0 -0.2444966906846206 -0.31181945912301329 0 -0.26791752464712137 -0.32516417520111718 0 -0.26963915832665503 -0.30942012505775762 0 -0.2444966906846206 -0.31181945912301329 0 -0.26791752464712137 -0.32516417520111718 0 -0.2441082332202735 -0.32380704628422963 0 -0.2444966906846206 -0.31181945912301329 0 -0.26791752464712137 -0.32516417520111718 0 -0.27544300416693679 -0.31995488319631832 0 -0.26963915832665503 -0.30942012505775762 0 -0.26791752464712137 -0.32516417520111718 0 -0.27544300416693679 -0.31995488319631832 0 -0.27544300416693679 -0.31995488319631832 0 -0.29403167998309421 -0.32125824908992018 0 -0.29478162596868879 -0.30702079099249591 0 -0.27544300416693679 -0.31995488319631832 0 -0.29403167998309421 -0.32125824908992018 0 -0.29282778547957722 -0.33935753649529382 0 -0.31307430431717392 -0.31869978567557272 0 -0.32184288384298337 -0.33167017375041419 0 -0.29282778547957722 -0.33935753649529382 0 -0.32184288384298337 -0.33167017375041419 0 -0.31773804631203251 -0.35355089778947202 0 -0.29282778547957722 -0.33935753649529382 0 -0.31307430431717392 -0.31869978567557272 0 -0.29403167998309421 -0.32125824908992018 0 -0.29282778547957722 -0.33935753649529382 0 -0.31307430431717392 -0.31869978567557272 0 -0.29403167998309421 -0.32125824908992018 0 -0.29478162596868879 -0.30702079099249591 0 -0.31992409361072222 -0.30462145692723192 0 -0.29478162596868879 -0.30702079099249591 0 -0.31992409361072222 -0.30462145692723192 0 -0.31307430431717392 -0.31869978567557272 0 -0.29478162596868879 -0.30702079099249591 0 -0.31992409361072222 -0.30462145692723192 0 -0.30687808727867438 -0.29770175581860719 0 -0.29478162596868879 -0.30702079099249591 0 -0.30687808727867438 -0.29770175581860719 0 -0.29813438661480679 -0.29530641477552327 0 -0.29478162596868879 -0.30702079099249591 0 -0.31992409361072222 -0.30462145692723192 0 -0.2984608121496099 -0.28511533651958437 0 -0.31992409361072222 -0.30462145692723192 0 -0.30687808727867438 -0.29770175581860719 0 -0.2984608121496099 -0.28511533651958437 0 -0.31332574866090718 -0.291474364566292 0 -0.31992409361072222 -0.30462145692723192 0 -0.2984608121496099 -0.28511533651958437 0 -0.31332574866090718 -0.291474364566292 0 -0.30937392239009109 -0.28339120160471948 0 -0.2984608121496099 -0.28511533651958437 0 -0.31332574866090718 -0.291474364566292 0 -0.2984608121496099 -0.28511533651958437 0 -0.30937392239009109 -0.28339120160471948 0 -0.2984608121496099 -0.28511533651958437 0 -0.30347897474907187 -0.279643462580969 0 -0.30687808727867438 -0.29770175581860719 0 -0.29951482580247829 -0.29240083595456018 0 -0.29813438661480679 -0.29530641477552327 0 -0.30687808727867438 -0.29770175581860719 0 -0.2984608121496099 -0.28511533651958437 0 -0.29951482580247829 -0.29240083595456018 0 -0.29951482580247829 -0.29240083595456018 0 -0.29813438661480679 -0.29530641477552327 0 -0.29499124589990039 -0.29073588210889412 0 -0.2984608121496099 -0.28511533651958437 0 -0.29951482580247829 -0.29240083595456018 0 -0.29499124589990039 -0.29073588210889412 0 -0.29499124589990039 -0.29073588210889412 0 -0.29148170063899659 -0.29460773718781319 0 -0.28586576089235322 -0.28577101837165192 0 -0.29813438661480679 -0.29530641477552327 0 -0.29499124589990039 -0.29073588210889412 0 -0.29148170063899659 -0.29460773718781319 0 -0.2984608121496099 -0.28511533651958437 0 -0.29499124589990039 -0.29073588210889412 0 -0.28586576089235322 -0.28577101837165192 0 -0.29148170063899659 -0.29460773718781319 0 -0.28586576089235322 -0.28577101837165192 0 -0.2798353156189245 -0.29508903771003908 0 -0.29148170063899659 -0.29460773718781319 0 -0.29478162596868879 -0.30702079099249591 0 -0.2798353156189245 -0.29508903771003908 0 -0.29478162596868879 -0.30702079099249591 0 -0.26963915832665503 -0.30942012505775762 0 -0.2798353156189245 -0.29508903771003908 0 -0.29478162596868879 -0.30702079099249591 0 -0.26963915832665503 -0.30942012505775762 0 -0.29813438661480679 -0.29530641477552327 0 -0.29148170063899659 -0.29460773718781319 0 -0.29478162596868879 -0.30702079099249591 0 -0.27544300416693679 -0.31995488319631832 0 -0.29478162596868879 -0.30702079099249591 0 -0.26963915832665503 -0.30942012505775762 0 -0.26963915832665503 -0.30942012505775762 0 -0.26057201890547982 -0.29344093798311832 0 -0.2798353156189245 -0.29508903771003908 0 -0.26963915832665503 -0.30942012505775762 0 -0.2444966906846206 -0.31181945912301329 0 -0.26963915832665503 -0.30942012505775762 0 -0.26057201890547982 -0.29344093798311832 0 -0.2444966906846206 -0.31181945912301329 0 -0.26057201890547982 -0.29344093798311832 0 -0.27108878797196961 -0.28331686931735522 0 -0.25298377122075039 -0.27518622721876451 0 -0.26057201890547982 -0.29344093798311832 0 -0.25298377122075039 -0.27518622721876451 0 -0.2435111179254994 -0.29490773243705071 0 -0.26057201890547982 -0.29344093798311832 0 -0.27108878797196961 -0.28331686931735522 0 -0.2798353156189245 -0.29508903771003908 0 -0.28586576089235322 -0.28577101837165192 0 -0.27108878797196961 -0.28331686931735522 0 -0.2798353156189245 -0.29508903771003908 0 -0.27108878797196961 -0.28331686931735522 0 -0.27618707322233982 -0.26709712530320262 0 -0.25298377122075039 -0.27518622721876451 0 -0.28586576089235322 -0.28577101837165192 0 -0.27108878797196961 -0.28331686931735522 0 -0.27618707322233982 -0.26709712530320262 0 -0.27618707322233982 -0.26709712530320262 0 -0.25431856302814809 -0.24833495949118861 0 -0.27618707322233982 -0.26709712530320262 0 -0.25298377122075039 -0.27518622721876451 0 -0.25431856302814809 -0.24833495949118861 0 -0.27618707322233982 -0.26709712530320262 0 -0.27309361240676189 -0.24179026653703889 0 -0.25431856302814809 -0.24833495949118861 0 -0.27618707322233982 -0.26709712530320262 0 -0.2907170577323625 -0.25177677077710309 0 -0.27309361240676189 -0.24179026653703889 0 -0.27618707322233982 -0.26709712530320262 0 -0.2907170577323625 -0.25177677077710309 0 -0.29477899871119112 -0.26293378760569941 0 -0.2984608121496099 -0.28511533651958437 0 -0.28586576089235322 -0.28577101837165192 0 -0.27618707322233982 -0.26709712530320262 0 -0.2984608121496099 -0.28511533651958437 0 -0.27618707322233982 -0.26709712530320262 0 -0.27618707322233982 -0.26709712530320262 0 -0.29477899871119112 -0.26293378760569941 0 -0.29948479845841441 -0.27338487519771032 0 -0.2984608121496099 -0.28511533651958437 0 -0.27618707322233982 -0.26709712530320262 0 -0.29948479845841441 -0.27338487519771032 0 -0.29477899871119112 -0.26293378760569941 0 -0.29948479845841441 -0.27338487519771032 0 -0.30156079933714469 -0.26765617134954151 0 -0.30156079933714469 -0.26765617134954151 0 -0.30403476516136241 -0.27459464834518948 0 -0.30588444940973558 -0.27063474712059482 0 -0.29948479845841441 -0.27338487519771032 0 -0.30156079933714469 -0.26765617134954151 0 -0.30403476516136241 -0.27459464834518948 0 -0.30156079933714469 -0.26765617134954151 0 -0.30588444940973558 -0.27063474712059482 0 -0.3062135479255173 -0.26372173898871692 0 -0.2984608121496099 -0.28511533651958437 0 -0.29948479845841441 -0.27338487519771032 0 -0.30347897474907187 -0.279643462580969 0 -0.29948479845841441 -0.27338487519771032 0 -0.30403476516136241 -0.27459464834518948 0 -0.30347897474907187 -0.279643462580969 0 -0.30937392239009109 -0.28339120160471948 0 -0.30347897474907187 -0.279643462580969 0 -0.31187737399160442 -0.27618124236115132 0 -0.30403476516136241 -0.27459464834518948 0 -0.30347897474907187 -0.279643462580969 0 -0.31187737399160442 -0.27618124236115132 0 -0.30403476516136241 -0.27459464834518948 0 -0.31187737399160442 -0.27618124236115132 0 -0.30588444940973558 -0.27063474712059482 0 -0.31187737399160442 -0.27618124236115132 0 -0.30588444940973558 -0.27063474712059482 0 -0.3062135479255173 -0.26372173898871692 0 -0.31664960680882542 -0.25714232151458272 0 -0.31202674084989918 -0.26335133138269068 0 -0.30853150187083839 -0.25429835417001312 0 -0.2907170577323625 -0.25177677077710309 0 -0.29477899871119112 -0.26293378760569941 0 -0.30853150187083839 -0.25429835417001312 0 -0.31202674084989918 -0.26335133138269068 0 -0.3062135479255173 -0.26372173898871692 0 -0.30853150187083839 -0.25429835417001312 0 -0.29477899871119112 -0.26293378760569941 0 -0.30156079933714469 -0.26765617134954151 0 -0.3062135479255173 -0.26372173898871692 0 -0.29477899871119112 -0.26293378760569941 0 -0.3062135479255173 -0.26372173898871692 0 -0.30853150187083839 -0.25429835417001312 0 -0.33709504481289931 -0.46474263175187808 0 -0.33075086723682939 -0.45093918684289991 0 -0.35302422329502631 -0.44785824460859458 0 -0.33709504481289931 -0.46474263175187808 0 -0.33075086723682939 -0.45093918684289991 0 -0.32054712240525829 -0.47546959342145068 0 -0.33075086723682939 -0.45093918684289991 0 -0.34095461206840061 -0.42640878026434909 0 -0.33075086723682939 -0.45093918684289991 0 -0.35302422329502631 -0.44785824460859458 0 -0.34095461206840061 -0.42640878026434909 0 -0.33075086723682939 -0.45093918684289991 0 -0.32054706720266329 -0.44859283512714471 0 -0.3206124180200437 -0.43193612962395289 0 -0.33075086723682939 -0.45093918684289991 0 -0.32054706720266329 -0.44859283512714471 0 -0.31571728338184601 -0.45752087103574601 0 -0.32054706720266329 -0.44859283512714471 0 -0.31571728338184601 -0.45752087103574601 0 -0.30706080135445341 -0.45057148265483188 0 -0.33075086723682939 -0.45093918684289991 0 -0.32054712240525829 -0.47546959342145068 0 -0.33075086723682939 -0.45093918684289991 0 -0.31571728338184601 -0.45752087103574601 0 -0.32054712240525829 -0.47546959342145068 0 -0.32054712240525829 -0.47546959342145068 0 -0.32750579650535672 -0.48798687004089669 0 -0.32933965142182292 -0.47777380670114528 0 -0.32054712240525829 -0.47546959342145068 0 -0.31034337757368669 -0.50000000000000133 0 -0.32750579650535672 -0.48798687004089669 0 -0.33387795429423722 -0.5 0 -0.31034337757368669 -0.50000000000000133 0 -0.32054712240525829 -0.47546959342145068 0 -0.32750579650535672 -0.48798687004089669 0 -0.31034337757368669 -0.50000000000000133 0 -0.32750579650535672 -0.48798687004089669 0 -0.34342087683177741 -0.48669095008188618 0 -0.33387795429423722 -0.5 0 -0.33709504481289931 -0.46474263175187808 0 -0.32933965142182292 -0.47777380670114528 0 -0.35181335970555933 -0.47167232718529989 0 -0.34342087683177741 -0.48669095008188618 0 -0.32933965142182292 -0.47777380670114528 0 -0.35181335970555933 -0.47167232718529989 0 -0.32750579650535672 -0.48798687004089669 0 -0.34342087683177741 -0.48669095008188618 0 -0.32933965142182292 -0.47777380670114528 0 -0.33709504481289931 -0.46474263175187808 0 -0.32054712240525829 -0.47546959342145068 0 -0.32933965142182292 -0.47777380670114528 0 -0.32933965142182292 -0.47777380670114528 0 -0.35181335970555933 -0.47167232718529989 0 -0.34342087683177741 -0.48669095008188618 0 -0.35181335970555933 -0.47167232718529989 0 -0.35979455825166368 -0.48519290092039941 0 -0.34342087683177741 -0.48669095008188618 0 -0.35741253101478748 -0.5 0 -0.35979455825166368 -0.48519290092039941 0 -0.34342087683177741 -0.48669095008188618 0 -0.33387795429423722 -0.5 0 -0.35741253101478748 -0.5 0 -0.38094710773533791 -0.49999999999999839 0 -0.35741253101478748 -0.5 0 -0.37240076261097882 -0.48974555046165519 0 -0.35741253101478748 -0.5 0 -0.35979455825166368 -0.48519290092039941 0 -0.37240076261097882 -0.48974555046165519 0 -0.35181335970555933 -0.47167232718529989 0 -0.35979455825166368 -0.48519290092039941 0 -0.37411677223754131 -0.47733161267270968 0 -0.35181335970555933 -0.47167232718529989 0 -0.37411677223754131 -0.47733161267270968 0 -0.37428706798929601 -0.46557084766945539 0 -0.35979455825166368 -0.48519290092039941 0 -0.37240076261097882 -0.48974555046165519 0 -0.37411677223754131 -0.47733161267270968 0 -0.37411677223754131 -0.47733161267270968 0 -0.37428706798929601 -0.46557084766945539 0 -0.35181335970555933 -0.47167232718529989 0 -0.37428706798929601 -0.46557084766945539 0 -0.35302422329502631 -0.44785824460859458 0 -0.35181335970555933 -0.47167232718529989 0 -0.37428706798929601 -0.46557084766945539 0 -0.33709504481289931 -0.46474263175187808 0 -0.35181335970555933 -0.47167232718529989 0 -0.35302422329502631 -0.44785824460859458 0 -0.37428706798929601 -0.46557084766945539 0 -0.35302422329502631 -0.44785824460859458 0 -0.37472313619600889 -0.43545561783144832 0 -0.37428706798929601 -0.46557084766945539 0 -0.37472313619600889 -0.43545561783144832 0 -0.35302422329502631 -0.44785824460859458 0 -0.37472313619600889 -0.43545561783144832 0 -0.36076670325611282 -0.42019275678090617 0 -0.37515920440272033 -0.40534038799344108 0 -0.37472313619600889 -0.43545561783144832 0 -0.36076670325611282 -0.42019275678090617 0 -0.37515920440272033 -0.40534038799344108 0 -0.36076670325611282 -0.42019275678090617 0 -0.35115835689997099 -0.40187837368579798 0 -0.37515920440272033 -0.40534038799344108 0 -0.37472313619600889 -0.43545561783144832 0 -0.36076670325611282 -0.42019275678090617 0 -0.35115835689997099 -0.40187837368579798 0 -0.34095461206840061 -0.42640878026434909 0 -0.34815033243380111 -0.40144447968524521 0 -0.35115835689997099 -0.40187837368579798 0 -0.34095461206840061 -0.42640878026434909 0 -0.35115835689997099 -0.40187837368579798 0 -0.34095461206840061 -0.42640878026434909 0 -0.35302422329502631 -0.44785824460859458 0 -0.36076670325611282 -0.42019275678090617 0 -0.34095461206840061 -0.42640878026434909 0 -0.37543310808941849 -0.38642437359143528 0 -0.36100598543278789 -0.37820409176948921 0 -0.35115835689997099 -0.40187837368579798 0 -0.37543310808941849 -0.38642437359143528 0 -0.37568304780698558 -0.36916333065311507 0 -0.36100598543278789 -0.37820409176948921 0 -0.37543310808941849 -0.38642437359143528 0 -0.36100598543278789 -0.37820409176948921 0 -0.37515920440272033 -0.40534038799344108 0 -0.37543310808941849 -0.38642437359143528 0 -0.35115835689997099 -0.40187837368579798 0 -0.37515920440272033 -0.40534038799344108 0 -0.35115835689997099 -0.40187837368579798 0 -0.35115835689997099 -0.40187837368579798 0 -0.34646966066369161 -0.38533898881774881 0 -0.34316085436749 -0.39382471367395527 0 -0.34815033243380111 -0.40144447968524521 0 -0.35115835689997099 -0.40187837368579798 0 -0.34316085436749 -0.39382471367395527 0 -0.34815033243380111 -0.40144447968524521 0 -0.35115835689997099 -0.40187837368579798 0 -0.33937201587241012 -0.36587749477948078 0 -0.36100598543278789 -0.37820409176948921 0 -0.34646966066369161 -0.38533898881774881 0 -0.36100598543278789 -0.37820409176948921 0 -0.35115835689997099 -0.40187837368579798 0 -0.36100598543278789 -0.37820409176948921 0 -0.35115835689997099 -0.40187837368579798 0 -0.34646966066369161 -0.38533898881774881 0 -0.33937201587241012 -0.36587749477948078 0 -0.32803705280137402 -0.37447550275240871 0 -0.34646966066369161 -0.38533898881774881 0 -0.32803705280137402 -0.37447550275240871 0 -0.34646966066369161 -0.38533898881774881 0 -0.32931529664348408 -0.38869437358142001 0 -0.34646966066369161 -0.38533898881774881 0 -0.32931529664348408 -0.38869437358142001 0 -0.34316085436749 -0.39382471367395527 0 -0.34815033243380111 -0.40144447968524521 0 -0.33486919938690762 -0.39884665705885908 0 -0.32944617452305069 -0.41182817437998842 0 -0.32931529664348408 -0.38869437358142001 0 -0.34316085436749 -0.39382471367395527 0 -0.33486919938690762 -0.39884665705885908 0 -0.32931529664348408 -0.38869437358142001 0 -0.33486919938690762 -0.39884665705885908 0 -0.32365381597648563 -0.39942827076698811 0 -0.34815033243380111 -0.40144447968524521 0 -0.34316085436749 -0.39382471367395527 0 -0.33486919938690762 -0.39884665705885908 0 -0.33486919938690762 -0.39884665705885908 0 -0.32365381597648563 -0.39942827076698811 0 -0.32944617452305069 -0.41182817437998842 0 -0.32931529664348408 -0.38869437358142001 0 -0.32365381597648563 -0.39942827076698811 0 -0.30988209993594379 -0.39542680479545339 0 -0.32365381597648563 -0.39942827076698811 0 -0.30595412674790001 -0.41636475829844438 0 -0.30988209993594379 -0.39542680479545339 0 -0.31381007312398762 -0.37448885129246268 0 -0.32931529664348408 -0.38869437358142001 0 -0.30988209993594379 -0.39542680479545339 0 -0.31381007312398762 -0.37448885129246268 0 -0.32803705280137402 -0.37447550275240871 0 -0.32931529664348408 -0.38869437358142001 0 -0.34095461206840061 -0.42640878026434909 0 -0.32944617452305069 -0.41182817437998842 0 -0.3206124180200437 -0.43193612962395289 0 -0.33075086723682939 -0.45093918684289991 0 -0.34095461206840061 -0.42640878026434909 0 -0.3206124180200437 -0.43193612962395289 0 -0.34815033243380111 -0.40144447968524521 0 -0.34095461206840061 -0.42640878026434909 0 -0.32944617452305069 -0.41182817437998842 0 -0.32944617452305069 -0.41182817437998842 0 -0.3206124180200437 -0.43193612962395289 0 -0.30595412674790001 -0.41636475829844438 0 -0.32365381597648563 -0.39942827076698811 0 -0.32944617452305069 -0.41182817437998842 0 -0.30595412674790001 -0.41636475829844438 0 -0.3206124180200437 -0.43193612962395289 0 -0.30595412674790001 -0.41636475829844438 0 -0.29602166034141808 -0.43748304283089118 0 -0.30595412674790001 -0.41636475829844438 0 -0.28680587137917263 -0.41476105187328532 0 -0.29502227998321778 -0.40112933436643161 0 -0.30595412674790001 -0.41636475829844438 0 -0.28680587137917263 -0.41476105187328532 0 -0.29602166034141808 -0.43748304283089118 0 -0.28680587137917263 -0.41476105187328532 0 -0.29602166034141808 -0.43748304283089118 0 -0.27149625348017281 -0.42637325053463759 0 -0.29602166034141808 -0.43748304283089118 0 -0.27149625348017281 -0.42637325053463759 0 -0.29602166034141808 -0.43748304283089118 0 -0.27149625348017281 -0.42637325053463759 0 -0.27906578537949278 -0.44687665772048962 0 -0.31381007312398762 -0.37448885129246268 0 -0.30988209993594379 -0.39542680479545339 0 -0.31381007312398762 -0.37448885129246268 0 -0.30988209993594379 -0.39542680479545339 0 -0.29196992941862432 -0.3825632544476108 0 -0.30595412674790001 -0.41636475829844438 0 -0.30988209993594379 -0.39542680479545339 0 -0.30595412674790001 -0.41636475829844438 0 -0.30988209993594379 -0.39542680479545339 0 -0.29502227998321778 -0.40112933436643161 0 -0.30988209993594379 -0.39542680479545339 0 -0.29502227998321778 -0.40112933436643161 0 -0.29196992941862432 -0.3825632544476108 0 -0.28680587137917263 -0.41476105187328532 0 -0.29502227998321778 -0.40112933436643161 0 -0.2806661672136338 -0.39648987600255969 0 -0.29502227998321778 -0.40112933436643161 0 -0.29196992941862432 -0.3825632544476108 0 -0.2806661672136338 -0.39648987600255969 0 -0.27675503022224163 -0.36681377825091099 0 -0.29196992941862432 -0.3825632544476108 0 -0.26924588117792803 -0.38334910629271668 0 -0.29196992941862432 -0.3825632544476108 0 -0.26924588117792803 -0.38334910629271668 0 -0.2806661672136338 -0.39648987600255969 0 -0.27675503022224163 -0.36681377825091099 0 -0.26924588117792803 -0.38334910629271668 0 -0.25812358553267323 -0.37605355791306738 0 -0.28680587137917263 -0.41476105187328532 0 -0.2806661672136338 -0.39648987600255969 0 -0.26326431180229581 -0.40282557300305732 0 -0.26924588117792803 -0.38334910629271668 0 -0.2806661672136338 -0.39648987600255969 0 -0.26326431180229581 -0.40282557300305732 0 -0.26326431180229581 -0.40282557300305732 0 -0.2504897110532438 -0.38524934403489181 0 -0.24394706363899241 -0.39877073912243299 0 -0.26326431180229581 -0.40282557300305732 0 -0.24697084661892749 -0.41526345823838401 0 -0.24394706363899241 -0.39877073912243299 0 -0.26924588117792803 -0.38334910629271668 0 -0.26326431180229581 -0.40282557300305732 0 -0.2504897110532438 -0.38524934403489181 0 -0.26924588117792803 -0.38334910629271668 0 -0.2504897110532438 -0.38524934403489181 0 -0.25812358553267323 -0.37605355791306738 0 -0.2504897110532438 -0.38524934403489181 0 -0.25812358553267323 -0.37605355791306738 0 -0.24839247009954951 -0.37292447016044328 0 -0.28680587137917263 -0.41476105187328532 0 -0.26326431180229581 -0.40282557300305732 0 -0.27149625348017281 -0.42637325053463759 0 -0.27149625348017281 -0.42637325053463759 0 -0.24697084661892749 -0.41526345823838401 0 -0.26326431180229581 -0.40282557300305732 0 -0.27149625348017281 -0.42637325053463759 0 -0.24697084661892749 -0.41526345823838401 0 -0.27149625348017281 -0.42637325053463759 0 -0.25687425522332558 -0.44642006451091643 0 -0.24697084661892749 -0.41526345823838401 0 -0.25687425522332558 -0.44642006451091643 0 -0.27607931301277078 -0.46657199895299017 0 -0.25409384940020791 -0.47271975939701871 0 -0.25687425522332558 -0.44642006451091643 0 -0.27607931301277078 -0.46657199895299017 0 -0.27906578537949278 -0.44687665772048962 0 -0.27149625348017281 -0.42637325053463759 0 -0.25687425522332558 -0.44642006451091643 0 -0.27906578537949278 -0.44687665772048962 0 -0.29602166034141808 -0.43748304283089118 0 -0.27906578537949278 -0.44687665772048962 0 -0.29968055871002541 -0.46203125713240301 0 -0.27607931301277078 -0.46657199895299017 0 -0.27906578537949278 -0.44687665772048962 0 -0.29968055871002541 -0.46203125713240301 0 -0.31571728338184601 -0.45752087103574601 0 -0.29968055871002541 -0.46203125713240301 0 -0.30706080135445341 -0.45057148265483188 0 -0.31571728338184601 -0.45752087103574601 0 -0.32054712240525829 -0.47546959342145068 0 -0.29968055871002541 -0.46203125713240301 0 -0.32054706720266329 -0.44859283512714471 0 -0.29602166034141808 -0.43748304283089118 0 -0.32054706720266329 -0.44859283512714471 0 -0.3206124180200437 -0.43193612962395289 0 -0.29602166034141808 -0.43748304283089118 0 -0.32054706720266329 -0.44859283512714471 0 -0.29602166034141808 -0.43748304283089118 0 -0.30706080135445341 -0.45057148265483188 0 -0.29602166034141808 -0.43748304283089118 0 -0.29968055871002541 -0.46203125713240301 0 -0.30706080135445341 -0.45057148265483188 0 -0.32054712240525829 -0.47546959342145068 0 -0.31034337757368669 -0.50000000000000133 0 -0.2941570887960146 -0.48201569375099518 0 -0.32054712240525829 -0.47546959342145068 0 -0.29968055871002541 -0.46203125713240301 0 -0.2941570887960146 -0.48201569375099518 0 -0.27607931301277078 -0.46657199895299017 0 -0.29968055871002541 -0.46203125713240301 0 -0.2941570887960146 -0.48201569375099518 0 -0.2941570887960146 -0.48201569375099518 0 -0.28248249767631262 -0.5 0 -0.27039562620846602 -0.48462576079096858 0 -0.31034337757368669 -0.50000000000000133 0 -0.2941570887960146 -0.48201569375099518 0 -0.28248249767631262 -0.5 0 -0.28248249767631262 -0.5 0 -0.27039562620846602 -0.48462576079096858 0 -0.25462161777893849 -0.5 0 -0.27607931301277078 -0.46657199895299017 0 -0.2941570887960146 -0.48201569375099518 0 -0.27039562620846602 -0.48462576079096858 0 -0.27607931301277078 -0.46657199895299017 0 -0.27039562620846602 -0.48462576079096858 0 -0.25409384940020791 -0.47271975939701871 0 -0.27039562620846602 -0.48462576079096858 0 -0.25409384940020791 -0.47271975939701871 0 -0.25462161777893849 -0.5 0 -0.25462161777893849 -0.5 0 -0.23155232774708009 -0.47932355884050398 0 -0.22676073788156451 -0.5 0 -0.25409384940020791 -0.47271975939701871 0 -0.25462161777893849 -0.5 0 -0.23155232774708009 -0.47932355884050398 0 -0.25409384940020791 -0.47271975939701871 0 -0.23155232774708009 -0.47932355884050398 0 -0.2350399564306665 -0.45937717328673289 0 -0.23155232774708009 -0.47932355884050398 0 -0.2350399564306665 -0.45937717328673289 0 -0.2080224731694312 -0.47403962225972662 0 -0.23155232774708009 -0.47932355884050398 0 -0.22676073788156451 -0.5 0 -0.2080224731694312 -0.47403962225972662 0 -0.25687425522332558 -0.44642006451091643 0 -0.2350399564306665 -0.45937717328673289 0 -0.23180750449586429 -0.4343742486430574 0 -0.25687425522332558 -0.44642006451091643 0 -0.25409384940020791 -0.47271975939701871 0 -0.2350399564306665 -0.45937717328673289 0 -0.2350399564306665 -0.45937717328673289 0 -0.21590660946663959 -0.44883644739355771 0 -0.2080224731694312 -0.47403962225972662 0 -0.2350399564306665 -0.45937717328673289 0 -0.21590660946663959 -0.44883644739355771 0 -0.23180750449586429 -0.4343742486430574 0 -0.21590660946663959 -0.44883644739355771 0 -0.1943898331460783 -0.4473597119794826 0 -0.20910912931781811 -0.42543372189632289 0 -0.21590660946663959 -0.44883644739355771 0 -0.1943898331460783 -0.4473597119794826 0 -0.2080224731694312 -0.47403962225972662 0 -0.1943898331460783 -0.4473597119794826 0 -0.2080224731694312 -0.47403962225972662 0 -0.17967053697433849 -0.46928570206264231 0 -0.22676073788156451 -0.5 0 -0.2080224731694312 -0.47403962225972662 0 -0.19889985798419041 -0.5 0 -0.2080224731694312 -0.47403962225972662 0 -0.1821948971586228 -0.48648437486529872 0 -0.17967053697433849 -0.46928570206264231 0 -0.2080224731694312 -0.47403962225972662 0 -0.19889985798419041 -0.5 0 -0.1821948971586228 -0.48648437486529872 0 -0.19889985798419041 -0.5 0 -0.1821948971586228 -0.48648437486529872 0 -0.17103897808681609 -0.49999999999999778 0 -0.1821948971586228 -0.48648437486529872 0 -0.17103897808681609 -0.49999999999999778 0 -0.16495124080259491 -0.49121169214579941 0 -0.17103897808681609 -0.49999999999999778 0 -0.16495124080259491 -0.49121169214579941 0 -0.17103897808681609 -0.49999999999999778 0 -0.16495124080259491 -0.49121169214579941 0 -0.15905149781887321 -0.49999999999999961 0 -0.16495124080259491 -0.49121169214579941 0 -0.15905149781887321 -0.49999999999999961 0 -0.1545750311736096 -0.49062041690426861 0 -0.16495124080259491 -0.49121169214579941 0 -0.15905149781887321 -0.49999999999999961 0 -0.16495124080259491 -0.49121169214579941 0 -0.16530166315622061 -0.47155300009798301 0 -0.17967053697433849 -0.46928570206264231 0 -0.16495124080259491 -0.49121169214579941 0 -0.16530166315622061 -0.47155300009798301 0 -0.15083103946930049 -0.47082765280793248 0 -0.16495124080259491 -0.49121169214579941 0 -0.1545750311736096 -0.49062041690426861 0 -0.15083103946930049 -0.47082765280793248 0 -0.16495124080259491 -0.49121169214579941 0 -0.15083103946930049 -0.47082765280793248 0 -0.16495124080259491 -0.49121169214579941 0 -0.17967053697433849 -0.46928570206264231 0 -0.1821948971586228 -0.48648437486529872 0 -0.16495124080259491 -0.49121169214579941 0 -0.17967053697433849 -0.46928570206264231 0 -0.1943898331460783 -0.4473597119794826 0 -0.17967053697433849 -0.46928570206264231 0 -0.1943898331460783 -0.4473597119794826 0 -0.17967053697433849 -0.46928570206264231 0 -0.1657538353786501 -0.45488695337555668 0 -0.1943898331460783 -0.4473597119794826 0 -0.1657538353786501 -0.45488695337555668 0 -0.1755027511393909 -0.43471579892562301 0 -0.1657538353786501 -0.45488695337555668 0 -0.15761868306950341 -0.43586407366366631 0 -0.1755027511393909 -0.43471579892562301 0 -0.16530166315622061 -0.47155300009798301 0 -0.1657538353786501 -0.45488695337555668 0 -0.15083103946930049 -0.47082765280793248 0 -0.16530166315622061 -0.47155300009798301 0 -0.17967053697433849 -0.46928570206264231 0 -0.1657538353786501 -0.45488695337555668 0 -0.13671083813600751 -0.45044361347006462 0 -0.15083103946930049 -0.47082765280793248 0 -0.13671083813600751 -0.45044361347006462 0 -0.13441782301728619 -0.47175980973682791 0 -0.15083103946930049 -0.47082765280793248 0 -0.1657538353786501 -0.45488695337555668 0 -0.13671083813600751 -0.45044361347006462 0 -0.15083103946930049 -0.47082765280793248 0 -0.13671083813600751 -0.45044361347006462 0 -0.13816776916695811 -0.432543871779144 0 -0.15761868306950341 -0.43586407366366631 0 -0.1657538353786501 -0.45488695337555668 0 -0.13671083813600751 -0.45044361347006462 0 -0.15761868306950341 -0.43586407366366631 0 -0.13671083813600751 -0.45044361347006462 0 -0.13816776916695811 -0.432543871779144 0 -0.1225906368027144 -0.43005957413219659 0 -0.13671083813600751 -0.45044361347006462 0 -0.1225906368027144 -0.43005957413219659 0 -0.13671083813600751 -0.45044361347006462 0 -0.13441782301728619 -0.47175980973682791 0 -0.1201929706126502 -0.46127799294672761 0 -0.13441782301728619 -0.47175980973682791 0 -0.12605423818426559 -0.48707922202292669 0 -0.14429533434837091 -0.48908967660720287 0 -0.13441782301728619 -0.47175980973682791 0 -0.12605423818426559 -0.48707922202292669 0 -0.1201929706126502 -0.46127799294672761 0 -0.1295391708778694 -0.5 0 -0.12605423818426559 -0.48707922202292669 0 -0.14429533434837091 -0.48908967660720287 0 -0.15905149781887321 -0.49999999999999961 0 -0.1295391708778694 -0.5 0 -0.14429533434837091 -0.48908967660720287 0 -0.15905149781887321 -0.49999999999999961 0 -0.14429533434837091 -0.48908967660720287 0 -0.1545750311736096 -0.49062041690426861 0 -0.14429533434837091 -0.48908967660720287 0 -0.1545750311736096 -0.49062041690426861 0 -0.15083103946930049 -0.47082765280793248 0 -0.13441782301728619 -0.47175980973682791 0 -0.14429533434837091 -0.48908967660720287 0 -0.15083103946930049 -0.47082765280793248 0 -0.15345949684661231 -0.4053237642064671 0 -0.15136585988972451 -0.39002590355483568 0 -0.13982663417143551 -0.39933000433158738 0 -0.15136585988972451 -0.39002590355483568 0 -0.1368738238800834 -0.3880397179408614 0 -0.13982663417143551 -0.39933000433158738 0 -0.15345949684661231 -0.4053237642064671 0 -0.13982663417143551 -0.39933000433158738 0 -0.1398029654186671 -0.41064466143528439 0 -0.15136585988972451 -0.39002590355483568 0 -0.1368738238800834 -0.3880397179408614 0 -0.13959568407155781 -0.37291875636350952 0 -0.15136585988972451 -0.39002590355483568 0 -0.15951650330528561 -0.37856285477961621 0 -0.13959568407155781 -0.37291875636350952 0 -0.1368738238800834 -0.3880397179408614 0 -0.12625141541498519 -0.38197991289387551 0 -0.13959568407155781 -0.37291875636350952 0 -0.1368738238800834 -0.3880397179408614 0 -0.12625141541498519 -0.38197991289387551 0 -0.1273295258527142 -0.39594401256049883 0 -0.1368738238800834 -0.3880397179408614 0 -0.1273295258527142 -0.39594401256049883 0 -0.13982663417143551 -0.39933000433158738 0 -0.13982663417143551 -0.39933000433158738 0 -0.1295768038857959 -0.40463739140698729 0 -0.1398029654186671 -0.41064466143528439 0 -0.1273295258527142 -0.39594401256049883 0 -0.13982663417143551 -0.39933000433158738 0 -0.1295768038857959 -0.40463739140698729 0 -0.1273295258527142 -0.39594401256049883 0 -0.1295768038857959 -0.40463739140698729 0 -0.1219584454402414 -0.40406961642135292 0 -0.1295768038857959 -0.40463739140698729 0 -0.1296119374269841 -0.41417592727859581 0 -0.1225700411049412 -0.40994677461386392 0 -0.1296119374269841 -0.41417592727859581 0 -0.12315425937001 -0.41747458531602638 0 -0.1225700411049412 -0.40994677461386392 0 -0.1296119374269841 -0.41417592727859581 0 -0.13713184062407599 -0.42036644340313623 0 -0.12908399078123631 -0.42243277819987513 0 -0.1296119374269841 -0.41417592727859581 0 -0.12908399078123631 -0.42243277819987513 0 -0.12315425937001 -0.41747458531602638 0 -0.1296119374269841 -0.41417592727859581 0 -0.13713184062407599 -0.42036644340313623 0 -0.1398029654186671 -0.41064466143528439 0 -0.1295768038857959 -0.40463739140698729 0 -0.1296119374269841 -0.41417592727859581 0 -0.1398029654186671 -0.41064466143528439 0 -0.12908399078123631 -0.42243277819987513 0 -0.13816776916695811 -0.432543871779144 0 -0.1225906368027144 -0.43005957413219659 0 -0.13713184062407599 -0.42036644340313623 0 -0.12908399078123631 -0.42243277819987513 0 -0.13816776916695811 -0.432543871779144 0 -0.13816776916695811 -0.432543871779144 0 -0.14921107955709881 -0.42003443798493328 0 -0.15761868306950341 -0.43586407366366631 0 -0.13713184062407599 -0.42036644340313623 0 -0.13816776916695811 -0.432543871779144 0 -0.14921107955709881 -0.42003443798493328 0 -0.15345949684661231 -0.4053237642064671 0 -0.1398029654186671 -0.41064466143528439 0 -0.14921107955709881 -0.42003443798493328 0 -0.13713184062407599 -0.42036644340313623 0 -0.1398029654186671 -0.41064466143528439 0 -0.14921107955709881 -0.42003443798493328 0 -0.15345949684661231 -0.4053237642064671 0 -0.14921107955709881 -0.42003443798493328 0 -0.17009787391258249 -0.41611158199907422 0 -0.14921107955709881 -0.42003443798493328 0 -0.17009787391258249 -0.41611158199907422 0 -0.15761868306950341 -0.43586407366366631 0 -0.17009787391258249 -0.41611158199907422 0 -0.15761868306950341 -0.43586407366366631 0 -0.1755027511393909 -0.43471579892562301 0 -0.1943898331460783 -0.4473597119794826 0 -0.1755027511393909 -0.43471579892562301 0 -0.18951413900105801 -0.42212105940109063 0 -0.17009787391258249 -0.41611158199907422 0 -0.1755027511393909 -0.43471579892562301 0 -0.18951413900105801 -0.42212105940109063 0 -0.17009787391258249 -0.41611158199907422 0 -0.18562609472684241 -0.40161550393767448 0 -0.18951413900105801 -0.42212105940109063 0 -0.18562609472684241 -0.40161550393767448 0 -0.16863204450281991 -0.39380366607865908 0 -0.18254917963999329 -0.38971973427100182 0 -0.17009787391258249 -0.41611158199907422 0 -0.18562609472684241 -0.40161550393767448 0 -0.16863204450281991 -0.39380366607865908 0 -0.18562609472684241 -0.40161550393767448 0 -0.18254917963999329 -0.38971973427100182 0 -0.19364364155811911 -0.391297223908462 0 -0.15345949684661231 -0.4053237642064671 0 -0.17009787391258249 -0.41611158199907422 0 -0.16863204450281991 -0.39380366607865908 0 -0.15345949684661231 -0.4053237642064671 0 -0.15136585988972451 -0.39002590355483568 0 -0.16863204450281991 -0.39380366607865908 0 -0.15951650330528561 -0.37856285477961621 0 -0.17625218554490921 -0.38180729220612769 0 -0.1663610822414904 -0.3702523776444529 0 -0.16863204450281991 -0.39380366607865908 0 -0.15951650330528561 -0.37856285477961621 0 -0.17625218554490921 -0.38180729220612769 0 -0.15136585988972451 -0.39002590355483568 0 -0.16863204450281991 -0.39380366607865908 0 -0.15951650330528561 -0.37856285477961621 0 -0.17625218554490921 -0.38180729220612769 0 -0.1663610822414904 -0.3702523776444529 0 -0.18579747934449059 -0.37379744869579251 0 -0.16863204450281991 -0.39380366607865908 0 -0.17625218554490921 -0.38180729220612769 0 -0.18254917963999329 -0.38971973427100182 0 -0.17625218554490921 -0.38180729220612769 0 -0.18254917963999329 -0.38971973427100182 0 -0.18859193186727599 -0.38007498522408562 0 -0.17625218554490921 -0.38180729220612769 0 -0.18859193186727599 -0.38007498522408562 0 -0.18579747934449059 -0.37379744869579251 0 -0.18859193186727599 -0.38007498522408562 0 -0.2014200033848125 -0.37119512976538899 0 -0.18859193186727599 -0.38007498522408562 0 -0.2014200033848125 -0.37119512976538899 0 -0.18579747934449059 -0.37379744869579251 0 -0.18859193186727599 -0.38007498522408562 0 -0.1989719328316337 -0.38216032023399737 0 -0.2014200033848125 -0.37119512976538899 0 -0.1989719328316337 -0.38216032023399737 0 -0.20694960464083431 -0.38128159833907621 0 -0.2014200033848125 -0.37119512976538899 0 -0.1989719328316337 -0.38216032023399737 0 -0.19364364155811911 -0.391297223908462 0 -0.20620014074293039 -0.39180645285032889 0 -0.18859193186727599 -0.38007498522408562 0 -0.1989719328316337 -0.38216032023399737 0 -0.19364364155811911 -0.391297223908462 0 -0.18254917963999329 -0.38971973427100182 0 -0.18859193186727599 -0.38007498522408562 0 -0.19364364155811911 -0.391297223908462 0 -0.18562609472684241 -0.40161550393767448 0 -0.19364364155811911 -0.391297223908462 0 -0.20208872018367391 -0.4070926974887904 0 -0.19364364155811911 -0.391297223908462 0 -0.20620014074293039 -0.39180645285032889 0 -0.20208872018367391 -0.4070926974887904 0 -0.20620014074293039 -0.39180645285032889 0 -0.21479853281951461 -0.38638530273916921 0 -0.22382842548955789 -0.4035077318131633 0 -0.20620014074293039 -0.39180645285032889 0 -0.20208872018367391 -0.4070926974887904 0 -0.22382842548955789 -0.4035077318131633 0 -0.21479853281951461 -0.38638530273916921 0 -0.20694960464083431 -0.38128159833907621 0 -0.21335741342528061 -0.3748607861064962 0 -0.21479853281951461 -0.38638530273916921 0 -0.22412886374227589 -0.38235217247817599 0 -0.21335741342528061 -0.3748607861064962 0 -0.20694960464083431 -0.38128159833907621 0 -0.2014200033848125 -0.37119512976538899 0 -0.21335741342528061 -0.3748607861064962 0 -0.20620014074293039 -0.39180645285032889 0 -0.21479853281951461 -0.38638530273916921 0 -0.20694960464083431 -0.38128159833907621 0 -0.1989719328316337 -0.38216032023399737 0 -0.20620014074293039 -0.39180645285032889 0 -0.20694960464083431 -0.38128159833907621 0 -0.1943898331460783 -0.4473597119794826 0 -0.20910912931781811 -0.42543372189632289 0 -0.1943898331460783 -0.4473597119794826 0 -0.18951413900105801 -0.42212105940109063 0 -0.20910912931781811 -0.42543372189632289 0 -0.18951413900105801 -0.42212105940109063 0 -0.20208872018367391 -0.4070926974887904 0 -0.20910912931781811 -0.42543372189632289 0 -0.18562609472684241 -0.40161550393767448 0 -0.18951413900105801 -0.42212105940109063 0 -0.20208872018367391 -0.4070926974887904 0 -0.20208872018367391 -0.4070926974887904 0 -0.20910912931781811 -0.42543372189632289 0 -0.22382842548955789 -0.4035077318131633 0 -0.20910912931781811 -0.42543372189632289 0 -0.22382842548955789 -0.4035077318131633 0 -0.21590660946663959 -0.44883644739355771 0 -0.20910912931781811 -0.42543372189632289 0 -0.23180750449586429 -0.4343742486430574 0 -0.20910912931781811 -0.42543372189632289 0 -0.23180750449586429 -0.4343742486430574 0 -0.22382842548955789 -0.4035077318131633 0 -0.23180750449586429 -0.4343742486430574 0 -0.24697084661892749 -0.41526345823838401 0 -0.22382842548955789 -0.4035077318131633 0 -0.25687425522332558 -0.44642006451091643 0 -0.23180750449586429 -0.4343742486430574 0 -0.24697084661892749 -0.41526345823838401 0 -0.22412886374227589 -0.38235217247817599 0 -0.2351820232309369 -0.38700758852266848 0 -0.22952037500089251 -0.37311519752493849 0 -0.22412886374227589 -0.38235217247817599 0 -0.22186900287429051 -0.37074082218821958 0 -0.21335741342528061 -0.3748607861064962 0 -0.22412886374227589 -0.38235217247817599 0 -0.22952037500089251 -0.37311519752493849 0 -0.22186900287429051 -0.37074082218821958 0 -0.22382842548955789 -0.4035077318131633 0 -0.24394706363899241 -0.39877073912243299 0 -0.2351820232309369 -0.38700758852266848 0 -0.21479853281951461 -0.38638530273916921 0 -0.22412886374227589 -0.38235217247817599 0 -0.22382842548955789 -0.4035077318131633 0 -0.22412886374227589 -0.38235217247817599 0 -0.22382842548955789 -0.4035077318131633 0 -0.2351820232309369 -0.38700758852266848 0 -0.24697084661892749 -0.41526345823838401 0 -0.22382842548955789 -0.4035077318131633 0 -0.24394706363899241 -0.39877073912243299 0 -0.2504897110532438 -0.38524934403489181 0 -0.24394706363899241 -0.39877073912243299 0 -0.2351820232309369 -0.38700758852266848 0 -0.2504897110532438 -0.38524934403489181 0 -0.2351820232309369 -0.38700758852266848 0 -0.24036284435674521 -0.37772398595485779 0 -0.2351820232309369 -0.38700758852266848 0 -0.24036284435674521 -0.37772398595485779 0 -0.22952037500089251 -0.37311519752493849 0 -0.2504897110532438 -0.38524934403489181 0 -0.24036284435674521 -0.37772398595485779 0 -0.24839247009954951 -0.37292447016044328 0 -0.24839247009954951 -0.37292447016044328 0 -0.24532753696728959 -0.36501789644951049 0 -0.23861636880082099 -0.36955921174380651 0 -0.24036284435674521 -0.37772398595485779 0 -0.24839247009954951 -0.37292447016044328 0 -0.23861636880082099 -0.36955921174380651 0 -0.25757508569408222 -0.36424633604315798 0 -0.24532753696728959 -0.36501789644951049 0 -0.24650166737573331 -0.3569693529562265 0 -0.24532753696728959 -0.36501789644951049 0 -0.24234943749700691 -0.36154613291017651 0 -0.24650166737573331 -0.3569693529562265 0 -0.24532753696728959 -0.36501789644951049 0 -0.24234943749700691 -0.36154613291017651 0 -0.23928568589256061 -0.36455139619594779 0 -0.24234943749700691 -0.36154613291017651 0 -0.23928568589256061 -0.36455139619594779 0 -0.23696933381926599 -0.3585493042599866 0 -0.24532753696728959 -0.36501789644951049 0 -0.23928568589256061 -0.36455139619594779 0 -0.23861636880082099 -0.36955921174380651 0 -0.23928568589256061 -0.36455139619594779 0 -0.23861636880082099 -0.36955921174380651 0 -0.23345080570298909 -0.36409891217005902 0 -0.23928568589256061 -0.36455139619594779 0 -0.23345080570298909 -0.36409891217005902 0 -0.23696933381926599 -0.3585493042599866 0 -0.24036284435674521 -0.37772398595485779 0 -0.23861636880082099 -0.36955921174380651 0 -0.22952037500089251 -0.37311519752493849 0 -0.23345080570298909 -0.36409891217005902 0 -0.22186900287429051 -0.37074082218821958 0 -0.21424807490234879 -0.36231527430669241 0 -0.22952037500089251 -0.37311519752493849 0 -0.23345080570298909 -0.36409891217005902 0 -0.22186900287429051 -0.37074082218821958 0 -0.23696933381926599 -0.3585493042599866 0 -0.21424807490234879 -0.36231527430669241 0 -0.23861636880082099 -0.36955921174380651 0 -0.22952037500089251 -0.37311519752493849 0 -0.23345080570298909 -0.36409891217005902 0 -0.23345080570298909 -0.36409891217005902 0 -0.23696933381926599 -0.3585493042599866 0 -0.21424807490234879 -0.36231527430669241 0 -0.22913587473404851 -0.35200963246311751 0 -0.2097464541822805 -0.33582260124732738 0 -0.22913587473404851 -0.35200963246311751 0 -0.23696933381926599 -0.3585493042599866 0 -0.21424807490234879 -0.36231527430669241 0 -0.22913587473404851 -0.35200963246311751 0 -0.21998707993494029 -0.33959044394559312 0 -0.22913587473404851 -0.35200963246311751 0 -0.21424807490234879 -0.36231527430669241 0 -0.22913587473404851 -0.35200963246311751 0 -0.23696933381926599 -0.3585493042599866 0 -0.22913587473404851 -0.35200963246311751 0 -0.24881121389389799 -0.33838995723746451 0 -0.22913587473404851 -0.35200963246311751 0 -0.23696933381926599 -0.3585493042599866 0 -0.24650166737573331 -0.3569693529562265 0 -0.22913587473404851 -0.35200963246311751 0 -0.24650166737573331 -0.3569693529562265 0 -0.24881121389389799 -0.33838995723746451 0 -0.23696933381926599 -0.3585493042599866 0 -0.24650166737573331 -0.3569693529562265 0 -0.24234943749700691 -0.36154613291017651 0 -0.23696933381926599 -0.3585493042599866 0 -0.24650166737573331 -0.3569693529562265 0 -0.22913587473404851 -0.35200963246311751 0 -0.24881121389389799 -0.33838995723746451 0 -0.2325545649384867 -0.33453283978227571 0 -0.24881121389389799 -0.33838995723746451 0 -0.2441082332202735 -0.32380704628422963 0 -0.2325545649384867 -0.33453283978227571 0 -0.23613058105125781 -0.31890710479075163 0 -0.2279063026952847 -0.3135077128279592 0 -0.2444966906846206 -0.31181945912301329 0 -0.2441082332202735 -0.32380704628422963 0 -0.23498207165859719 -0.32537142019391418 0 -0.23613058105125781 -0.31890710479075163 0 -0.2441082332202735 -0.32380704628422963 0 -0.23498207165859719 -0.32537142019391418 0 -0.2325545649384867 -0.33453283978227571 0 -0.2441082332202735 -0.32380704628422963 0 -0.23613058105125781 -0.31890710479075163 0 -0.2444966906846206 -0.31181945912301329 0 -0.2279063026952847 -0.3135077128279592 0 -0.2193464910840433 -0.31976030368968739 0 -0.21134622408423179 -0.310554889255794 0 -0.23613058105125781 -0.31890710479075163 0 -0.2279063026952847 -0.3135077128279592 0 -0.22829430606921119 -0.32293804105388452 0 -0.23498207165859719 -0.32537142019391418 0 -0.22829430606921119 -0.32293804105388452 0 -0.2325545649384867 -0.33453283978227571 0 -0.23498207165859719 -0.32537142019391418 0 -0.23613058105125781 -0.31890710479075163 0 -0.22829430606921119 -0.32293804105388452 0 -0.22829430606921119 -0.32293804105388452 0 -0.2193464910840433 -0.31976030368968739 0 -0.22209033975117781 -0.32887735541776358 0 -0.2279063026952847 -0.3135077128279592 0 -0.22829430606921119 -0.32293804105388452 0 -0.2193464910840433 -0.31976030368968739 0 -0.22913587473404851 -0.35200963246311751 0 -0.2325545649384867 -0.33453283978227571 0 -0.21998707993494029 -0.33959044394559312 0 -0.22913587473404851 -0.35200963246311751 0 -0.21998707993494029 -0.33959044394559312 0 -0.2097464541822805 -0.33582260124732738 0 -0.22829430606921119 -0.32293804105388452 0 -0.2325545649384867 -0.33453283978227571 0 -0.22209033975117781 -0.32887735541776358 0 -0.2325545649384867 -0.33453283978227571 0 -0.22209033975117781 -0.32887735541776358 0 -0.21998707993494029 -0.33959044394559312 0 -0.21998707993494029 -0.33959044394559312 0 -0.21026925672920721 -0.32756514861737779 0 -0.22209033975117781 -0.32887735541776358 0 -0.21998707993494029 -0.33959044394559312 0 -0.21026925672920721 -0.32756514861737779 0 -0.21998707993494029 -0.33959044394559312 0 -0.2097464541822805 -0.33582260124732738 0 -0.21026925672920721 -0.32756514861737779 0 -0.2097464541822805 -0.33582260124732738 0 -0.21026925672920721 -0.32756514861737779 0 -0.21026925672920721 -0.32756514861737779 0 -0.21134622408423179 -0.310554889255794 0 -0.19267178705524021 -0.30578920503631912 0 -0.21026925672920721 -0.32756514861737779 0 -0.21134622408423179 -0.310554889255794 0 -0.2097464541822805 -0.33582260124732738 0 -0.21026925672920721 -0.32756514861737779 0 -0.19254159852174429 -0.31996122112867409 0 -0.2193464910840433 -0.31976030368968739 0 -0.21026925672920721 -0.32756514861737779 0 -0.21134622408423179 -0.310554889255794 0 -0.2193464910840433 -0.31976030368968739 0 -0.22209033975117781 -0.32887735541776358 0 -0.21026925672920721 -0.32756514861737779 0 -0.2097464541822805 -0.33582260124732738 0 -0.1943588054861482 -0.32297640251143073 0 -0.19254159852174429 -0.31996122112867409 0 -0.21026925672920721 -0.32756514861737779 0 -0.19267178705524021 -0.30578920503631912 0 -0.21026925672920721 -0.32756514861737779 0 -0.19254159852174429 -0.31996122112867409 0 -0.19267178705524021 -0.30578920503631912 0 -0.2097464541822805 -0.33582260124732738 0 -0.19254159852174429 -0.31996122112867409 0 -0.1943588054861482 -0.32297640251143073 0 -0.18737083868624629 -0.33075534874643497 0 -0.18479650728396149 -0.32227615663527998 0 -0.1943588054861482 -0.32297640251143073 0 -0.19254159852174429 -0.31996122112867409 0 -0.1789711567900161 -0.3101302037755338 0 -0.2097464541822805 -0.33582260124732738 0 -0.19466829689393059 -0.33824472710720138 0 -0.19565175395430129 -0.3512554891803924 0 -0.2097464541822805 -0.33582260124732738 0 -0.1943588054861482 -0.32297640251143073 0 -0.19466829689393059 -0.33824472710720138 0 -0.2097464541822805 -0.33582260124732738 0 -0.1943588054861482 -0.32297640251143073 0 -0.1943588054861482 -0.32297640251143073 0 -0.19466829689393059 -0.33824472710720138 0 -0.18737083868624629 -0.33075534874643497 0 -0.19466829689393059 -0.33824472710720138 0 -0.18164424501215659 -0.34621916084723381 0 -0.18737083868624629 -0.33075534874643497 0 -0.19466829689393059 -0.33824472710720138 0 -0.19565175395430129 -0.3512554891803924 0 -0.18164424501215659 -0.34621916084723381 0 -0.20800359978069241 -0.36335027445133922 0 -0.18480326185087809 -0.36719565018674682 0 -0.19565175395430129 -0.3512554891803924 0 -0.20800359978069241 -0.36335027445133922 0 -0.18480326185087809 -0.36719565018674682 0 -0.2014200033848125 -0.37119512976538899 0 -0.18480326185087809 -0.36719565018674682 0 -0.18579747934449059 -0.37379744869579251 0 -0.2014200033848125 -0.37119512976538899 0 -0.20800359978069241 -0.36335027445133922 0 -0.18480326185087809 -0.36719565018674682 0 -0.2014200033848125 -0.37119512976538899 0 -0.20800359978069241 -0.36335027445133922 0 -0.20803809997708481 -0.36661394692190907 0 -0.20800359978069241 -0.36335027445133922 0 -0.20803809997708481 -0.36661394692190907 0 -0.21424807490234879 -0.36231527430669241 0 -0.20800359978069241 -0.36335027445133922 0 -0.20803809997708481 -0.36661394692190907 0 -0.2014200033848125 -0.37119512976538899 0 -0.20803809997708481 -0.36661394692190907 0 -0.21335741342528061 -0.3748607861064962 0 -0.2014200033848125 -0.37119512976538899 0 -0.20803809997708481 -0.36661394692190907 0 -0.20803809997708481 -0.36661394692190907 0 -0.21335741342528061 -0.3748607861064962 0 -0.21424807490234879 -0.36231527430669241 0 -0.22186900287429051 -0.37074082218821958 0 -0.21335741342528061 -0.3748607861064962 0 -0.21424807490234879 -0.36231527430669241 0 -0.20800359978069241 -0.36335027445133922 0 -0.21424807490234879 -0.36231527430669241 0 -0.20803809997708481 -0.36661394692190907 0 -0.21424807490234879 -0.36231527430669241 0 -0.2097464541822805 -0.33582260124732738 0 -0.19565175395430129 -0.3512554891803924 0 -0.20800359978069241 -0.36335027445133922 0 -0.2097464541822805 -0.33582260124732738 0 -0.20800359978069241 -0.36335027445133922 0 -0.2097464541822805 -0.33582260124732738 0 -0.20800359978069241 -0.36335027445133922 0 -0.21424807490234879 -0.36231527430669241 0 -0.22913587473404851 -0.35200963246311751 0 -0.2097464541822805 -0.33582260124732738 0 -0.21424807490234879 -0.36231527430669241 0 -0.2335542019388327 -0.26090262277066528 0 -0.21472073189145299 -0.25725591714607071 0 -0.22837296648480071 -0.23789375384220129 0 -0.2335542019388327 -0.26090262277066528 0 -0.21357196166535461 -0.27540027352014051 0 -0.21472073189145299 -0.25725591714607071 0 -0.25298377122075039 -0.27518622721876451 0 -0.2335542019388327 -0.26090262277066528 0 -0.25431856302814809 -0.24833495949118861 0 -0.25298377122075039 -0.27518622721876451 0 -0.2335542019388327 -0.26090262277066528 0 -0.23093648268818689 -0.28342115129973 0 -0.2335542019388327 -0.26090262277066528 0 -0.23093648268818689 -0.28342115129973 0 -0.21357196166535461 -0.27540027352014051 0 -0.23093648268818689 -0.28342115129973 0 -0.21242319143925911 -0.29354462989421048 0 -0.21357196166535461 -0.27540027352014051 0 -0.23093648268818689 -0.28342115129973 0 -0.2435111179254994 -0.29490773243705071 0 -0.2284599410619414 -0.30268204450860919 0 -0.23093648268818689 -0.28342115129973 0 -0.2284599410619414 -0.30268204450860919 0 -0.21242319143925911 -0.29354462989421048 0 -0.25298377122075039 -0.27518622721876451 0 -0.23093648268818689 -0.28342115129973 0 -0.2435111179254994 -0.29490773243705071 0 -0.2444966906846206 -0.31181945912301329 0 -0.2284599410619414 -0.30268204450860919 0 -0.2435111179254994 -0.29490773243705071 0 -0.2444966906846206 -0.31181945912301329 0 -0.2284599410619414 -0.30268204450860919 0 -0.26057201890547982 -0.29344093798311832 0 -0.2435111179254994 -0.29490773243705071 0 -0.2444966906846206 -0.31181945912301329 0 -0.2279063026952847 -0.3135077128279592 0 -0.2444966906846206 -0.31181945912301329 0 -0.2284599410619414 -0.30268204450860919 0 -0.2284599410619414 -0.30268204450860919 0 -0.21242319143925911 -0.29354462989421048 0 -0.2279063026952847 -0.3135077128279592 0 -0.2284599410619414 -0.30268204450860919 0 -0.21134622408423179 -0.310554889255794 0 -0.2284599410619414 -0.30268204450860919 0 -0.21134622408423179 -0.310554889255794 0 -0.21242319143925911 -0.29354462989421048 0 -0.21134622408423179 -0.310554889255794 0 -0.19267178705524021 -0.30578920503631912 0 -0.21242319143925911 -0.29354462989421048 0 -0.21134622408423179 -0.310554889255794 0 -0.21242319143925911 -0.29354462989421048 0 -0.19267178705524021 -0.30578920503631912 0 -0.19410774352861071 -0.2831088592208712 0 -0.21242319143925911 -0.29354462989421048 0 -0.19410774352861071 -0.2831088592208712 0 -0.21242319143925911 -0.29354462989421048 0 -0.21357196166535461 -0.27540027352014051 0 -0.19410774352861071 -0.2831088592208712 0 -0.21242319143925911 -0.29354462989421048 0 -0.21242319143925911 -0.29354462989421048 0 -0.21357196166535461 -0.27540027352014051 0 -0.21357196166535461 -0.27540027352014051 0 -0.21472073189145299 -0.25725591714607071 0 -0.19410774352861071 -0.2831088592208712 0 -0.21357196166535461 -0.27540027352014051 0 -0.1965391795889786 -0.26204425282134669 0 -0.19410774352861071 -0.2831088592208712 0 -0.1965391795889786 -0.26204425282134669 0 -0.17579229561796161 -0.27267308854753308 0 -0.1965391795889786 -0.26204425282134669 0 -0.20565562739327201 -0.24334207984173631 0 -0.18863044441395099 -0.24733650333174401 0 -0.1965391795889786 -0.26204425282134669 0 -0.18340152769721799 -0.25642831405215172 0 -0.18863044441395099 -0.24733650333174401 0 -0.1965391795889786 -0.26204425282134669 0 -0.21472073189145299 -0.25725591714607071 0 -0.20565562739327201 -0.24334207984173631 0 -0.21357196166535461 -0.27540027352014051 0 -0.1965391795889786 -0.26204425282134669 0 -0.21472073189145299 -0.25725591714607071 0 -0.15747684770731041 -0.26223731787419863 0 -0.16344648285301799 -0.25937253054906129 0 -0.17579229561796161 -0.27267308854753308 0 -0.1593809120407062 -0.25278805690175971 0 -0.16344648285301799 -0.25937253054906129 0 -0.1534429259631987 -0.25724555178864622 0 -0.1593809120407062 -0.25278805690175971 0 -0.16344648285301799 -0.25937253054906129 0 -0.16709258238786229 -0.25188408856254202 0 -0.1593809120407062 -0.25278805690175971 0 -0.16709258238786229 -0.25188408856254202 0 -0.1601832428566283 -0.24550858739866141 0 -0.15747684770731041 -0.26223731787419863 0 -0.16344648285301799 -0.25937253054906129 0 -0.1534429259631987 -0.25724555178864622 0 -0.16344648285301799 -0.25937253054906129 0 -0.1534429259631987 -0.25724555178864622 0 -0.16344648285301799 -0.25937253054906129 0 -0.17379217291466831 -0.25992581321180469 0 -0.17579229561796161 -0.27267308854753308 0 -0.16344648285301799 -0.25937253054906129 0 -0.16709258238786229 -0.25188408856254202 0 -0.17379217291466831 -0.25992581321180469 0 -0.16709258238786229 -0.25188408856254202 0 -0.17679077873490559 -0.25046109420941731 0 -0.17379217291466831 -0.25992581321180469 0 -0.1965391795889786 -0.26204425282134669 0 -0.18340152769721799 -0.25642831405215172 0 -0.17579229561796161 -0.27267308854753308 0 -0.17679077873490559 -0.25046109420941731 0 -0.18340152769721799 -0.25642831405215172 0 -0.17379217291466831 -0.25992581321180469 0 -0.18340152769721799 -0.25642831405215172 0 -0.17379217291466831 -0.25992581321180469 0 -0.17579229561796161 -0.27267308854753308 0 -0.17679077873490559 -0.25046109420941731 0 -0.18340152769721799 -0.25642831405215172 0 -0.18863044441395099 -0.24733650333174401 0 -0.19410774352861071 -0.2831088592208712 0 -0.17579229561796161 -0.27267308854753308 0 -0.17507431738127369 -0.28401326145526029 0 -0.19410774352861071 -0.2831088592208712 0 -0.17579229561796161 -0.27267308854753308 0 -0.15747684770731041 -0.26223731787419863 0 -0.17507431738127369 -0.28401326145526029 0 -0.15747684770731041 -0.26223731787419863 0 -0.17579229561796161 -0.27267308854753308 0 -0.15747684770731041 -0.26223731787419863 0 -0.17579229561796161 -0.27267308854753308 0 -0.17507431738127369 -0.28401326145526029 0 -0.15747684770731041 -0.26223731787419863 0 -0.1596399504195592 -0.27820623095404468 0 -0.17507431738127369 -0.28401326145526029 0 -0.1596399504195592 -0.27820623095404468 0 -0.1624028041075358 -0.29248408411088062 0 -0.1494793968803598 -0.28070198605355251 0 -0.1624028041075358 -0.29248408411088062 0 -0.15973767967650701 -0.30493196891575292 0 -0.15108397830665751 -0.29236825921418419 0 -0.1624028041075358 -0.29248408411088062 0 -0.17507431738127369 -0.28401326145526029 0 -0.17391538329452061 -0.29489800819007239 0 -0.1596399504195592 -0.27820623095404468 0 -0.1624028041075358 -0.29248408411088062 0 -0.17507431738127369 -0.28401326145526029 0 -0.19267178705524021 -0.30578920503631912 0 -0.19410774352861071 -0.2831088592208712 0 -0.17507431738127369 -0.28401326145526029 0 -0.19267178705524021 -0.30578920503631912 0 -0.17507431738127369 -0.28401326145526029 0 -0.17391538329452061 -0.29489800819007239 0 -0.19267178705524021 -0.30578920503631912 0 -0.17507431738127369 -0.28401326145526029 0 -0.17391538329452061 -0.29489800819007239 0 -0.17532621133471249 -0.30426618216820789 0 -0.19254159852174429 -0.31996122112867409 0 -0.19267178705524021 -0.30578920503631912 0 -0.17532621133471249 -0.30426618216820789 0 -0.19267178705524021 -0.30578920503631912 0 -0.17391538329452061 -0.29489800819007239 0 -0.17532621133471249 -0.30426618216820789 0 -0.19254159852174429 -0.31996122112867409 0 -0.17532621133471249 -0.30426618216820789 0 -0.1789711567900161 -0.3101302037755338 0 -0.19254159852174429 -0.31996122112867409 0 -0.17532621133471249 -0.30426618216820789 0 -0.17532621133471249 -0.30426618216820789 0 -0.15973767967650701 -0.30493196891575292 0 -0.16582550601247259 -0.31644195918285489 0 -0.1624028041075358 -0.29248408411088062 0 -0.17532621133471249 -0.30426618216820789 0 -0.15973767967650701 -0.30493196891575292 0 -0.1624028041075358 -0.29248408411088062 0 -0.17532621133471249 -0.30426618216820789 0 -0.1624028041075358 -0.29248408411088062 0 -0.17391538329452061 -0.29489800819007239 0 -0.17532621133471249 -0.30426618216820789 0 -0.144593184228827 -0.30237793828586917 0 -0.15261731536399281 -0.31699983390472031 0 -0.1327552185807534 -0.31482398186879779 0 -0.15973767967650701 -0.30493196891575292 0 -0.144593184228827 -0.30237793828586917 0 -0.15261731536399281 -0.31699983390472031 0 -0.15973767967650701 -0.30493196891575292 0 -0.144593184228827 -0.30237793828586917 0 -0.15108397830665751 -0.29236825921418419 0 -0.144593184228827 -0.30237793828586917 0 -0.1304175251842298 -0.30012492429455973 0 -0.1327552185807534 -0.31482398186879779 0 -0.1304175251842298 -0.30012492429455973 0 -0.1327552185807534 -0.31482398186879779 0 -0.11567190875339491 -0.3081878681979589 0 -0.1304175251842298 -0.30012492429455973 0 -0.13697378053928061 -0.28594316463020741 0 -0.11725087491461519 -0.29108504565108578 0 -0.144593184228827 -0.30237793828586917 0 -0.1304175251842298 -0.30012492429455973 0 -0.13697378053928061 -0.28594316463020741 0 -0.13697378053928061 -0.28594316463020741 0 -0.15108397830665751 -0.29236825921418419 0 -0.1494793968803598 -0.28070198605355251 0 -0.144593184228827 -0.30237793828586917 0 -0.13697378053928061 -0.28594316463020741 0 -0.15108397830665751 -0.29236825921418419 0 -0.1624028041075358 -0.29248408411088062 0 -0.15108397830665751 -0.29236825921418419 0 -0.1494793968803598 -0.28070198605355251 0 -0.1624028041075358 -0.29248408411088062 0 -0.1494793968803598 -0.28070198605355251 0 -0.15747684770731041 -0.26223731787419863 0 -0.1596399504195592 -0.27820623095404468 0 -0.1503927610565664 -0.27179087804580171 0 -0.1596399504195592 -0.27820623095404468 0 -0.1494793968803598 -0.28070198605355251 0 -0.1503927610565664 -0.27179087804580171 0 -0.15747684770731041 -0.26223731787419863 0 -0.1503927610565664 -0.27179087804580171 0 -0.1469785187108 -0.2635474229235048 0 -0.1503927610565664 -0.27179087804580171 0 -0.13966748117377659 -0.26847157538705668 0 -0.1469785187108 -0.2635474229235048 0 -0.1503927610565664 -0.27179087804580171 0 -0.14153524490660671 -0.2763029116229278 0 -0.13966748117377659 -0.26847157538705668 0 -0.1494793968803598 -0.28070198605355251 0 -0.1503927610565664 -0.27179087804580171 0 -0.14153524490660671 -0.2763029116229278 0 -0.13697378053928061 -0.28594316463020741 0 -0.1494793968803598 -0.28070198605355251 0 -0.14153524490660671 -0.2763029116229278 0 -0.13697378053928061 -0.28594316463020741 0 -0.14153524490660671 -0.2763029116229278 0 -0.13219795163187159 -0.27110871778552531 0 -0.13697378053928061 -0.28594316463020741 0 -0.1173011125765811 -0.2721428964285707 0 -0.13697378053928061 -0.28594316463020741 0 -0.13219795163187159 -0.27110871778552531 0 -0.1173011125765811 -0.2721428964285707 0 -0.13219795163187159 -0.27110871778552531 0 -0.1333337708168415 -0.26377523499205202 0 -0.12600056203783161 -0.26301541000095829 0 -0.13219795163187159 -0.27110871778552531 0 -0.12600056203783161 -0.26301541000095829 0 -0.1173011125765811 -0.2721428964285707 0 -0.13219795163187159 -0.27110871778552531 0 -0.13966748117377659 -0.26847157538705668 0 -0.1333337708168415 -0.26377523499205202 0 -0.14153524490660671 -0.2763029116229278 0 -0.13219795163187159 -0.27110871778552531 0 -0.13966748117377659 -0.26847157538705668 0 -0.13966748117377659 -0.26847157538705668 0 -0.13807993829988649 -0.25979154560904222 0 -0.1333337708168415 -0.26377523499205202 0 -0.13807993829988649 -0.25979154560904222 0 -0.1333337708168415 -0.26377523499205202 0 -0.13072292094084129 -0.25648892617767749 0 -0.12600056203783161 -0.26301541000095829 0 -0.13072292094084129 -0.25648892617767749 0 -0.1187556211832122 -0.25814451816493872 0 -0.1333337708168415 -0.26377523499205202 0 -0.12600056203783161 -0.26301541000095829 0 -0.13072292094084129 -0.25648892617767749 0 -0.13072292094084129 -0.25648892617767749 0 -0.13218950310710981 -0.25272660122947088 0 -0.1187556211832122 -0.25814451816493872 0 -0.13072292094084129 -0.25648892617767749 0 -0.13218950310710981 -0.25272660122947088 0 -0.13218950310710981 -0.25272660122947088 0 -0.1459019403517107 -0.25564217047089421 0 -0.13375162957080131 -0.24871916986845621 0 -0.13218950310710981 -0.25272660122947088 0 -0.1459019403517107 -0.25564217047089421 0 -0.13218950310710981 -0.25272660122947088 0 -0.13375162957080131 -0.24871916986845621 0 -0.1459019403517107 -0.25564217047089421 0 -0.13375162957080131 -0.24871916986845621 0 -0.13807993829988649 -0.25979154560904222 0 -0.13218950310710981 -0.25272660122947088 0 -0.1459019403517107 -0.25564217047089421 0 -0.13807993829988649 -0.25979154560904222 0 -0.13072292094084129 -0.25648892617767749 0 -0.13218950310710981 -0.25272660122947088 0 -0.1459019403517107 -0.25564217047089421 0 -0.1534429259631987 -0.25724555178864622 0 -0.1378886282313006 -0.2381062402767252 0 -0.13966748117377659 -0.26847157538705668 0 -0.13807993829988649 -0.25979154560904222 0 -0.1469785187108 -0.2635474229235048 0 -0.13807993829988649 -0.25979154560904222 0 -0.1459019403517107 -0.25564217047089421 0 -0.1469785187108 -0.2635474229235048 0 -0.15747684770731041 -0.26223731787419863 0 -0.1459019403517107 -0.25564217047089421 0 -0.1534429259631987 -0.25724555178864622 0 -0.15747684770731041 -0.26223731787419863 0 -0.1459019403517107 -0.25564217047089421 0 -0.1469785187108 -0.2635474229235048 0 -0.15747684770731041 -0.26223731787419863 0 -0.1459019403517107 -0.25564217047089421 0 -0.15747684770731041 -0.26223731787419863 0 -0.1534429259631987 -0.25724555178864622 0 -0.1593809120407062 -0.25278805690175971 0 -0.1534429259631987 -0.25724555178864622 0 -0.15289321433053751 -0.246830478479277 0 -0.1459019403517107 -0.25564217047089421 0 -0.1534429259631987 -0.25724555178864622 0 -0.17143624801538501 -0.35840063883308271 0 -0.1580141783998408 -0.34710035810185619 0 -0.15489216358121211 -0.36256913283011211 0 -0.17143624801538501 -0.35840063883308271 0 -0.1580141783998408 -0.34710035810185619 0 -0.18164424501215659 -0.34621916084723381 0 -0.17143624801538501 -0.35840063883308271 0 -0.1663610822414904 -0.3702523776444529 0 -0.15489216358121211 -0.36256913283011211 0 -0.15951650330528561 -0.37856285477961621 0 -0.1663610822414904 -0.3702523776444529 0 -0.15489216358121211 -0.36256913283011211 0 -0.17143624801538501 -0.35840063883308271 0 -0.1663610822414904 -0.3702523776444529 0 -0.18480326185087809 -0.36719565018674682 0 -0.1663610822414904 -0.3702523776444529 0 -0.18480326185087809 -0.36719565018674682 0 -0.1663610822414904 -0.3702523776444529 0 -0.18480326185087809 -0.36719565018674682 0 -0.18579747934449059 -0.37379744869579251 0 -0.18480326185087809 -0.36719565018674682 0 -0.18579747934449059 -0.37379744869579251 0 -0.18480326185087809 -0.36719565018674682 0 -0.18164424501215659 -0.34621916084723381 0 -0.19565175395430129 -0.3512554891803924 0 -0.18480326185087809 -0.36719565018674682 0 -0.18164424501215659 -0.34621916084723381 0 -0.17143624801538501 -0.35840063883308271 0 -0.18480326185087809 -0.36719565018674682 0 -0.18164424501215659 -0.34621916084723381 0 -0.18164424501215659 -0.34621916084723381 0 -0.17848522817343529 -0.32524267150772068 0 -0.1629610955137164 -0.33076913941787212 0 -0.18164424501215659 -0.34621916084723381 0 -0.17848522817343529 -0.32524267150772068 0 -0.18164424501215659 -0.34621916084723381 0 -0.18737083868624629 -0.33075534874643497 0 -0.17848522817343529 -0.32524267150772068 0 -0.17532621133471249 -0.30426618216820789 0 -0.17848522817343529 -0.32524267150772068 0 -0.17532621133471249 -0.30426618216820789 0 -0.1789711567900161 -0.3101302037755338 0 -0.17848522817343529 -0.32524267150772068 0 -0.17532621133471249 -0.30426618216820789 0 -0.17848522817343529 -0.32524267150772068 0 -0.16582550601247259 -0.31644195918285489 0 -0.1943588054861482 -0.32297640251143073 0 -0.1789711567900161 -0.3101302037755338 0 -0.18479650728396149 -0.32227615663527998 0 -0.1789711567900161 -0.3101302037755338 0 -0.18479650728396149 -0.32227615663527998 0 -0.17848522817343529 -0.32524267150772068 0 -0.1943588054861482 -0.32297640251143073 0 -0.1789711567900161 -0.3101302037755338 0 -0.18737083868624629 -0.33075534874643497 0 -0.18479650728396149 -0.32227615663527998 0 -0.17848522817343529 -0.32524267150772068 0 -0.17848522817343529 -0.32524267150772068 0 -0.16582550601247259 -0.31644195918285489 0 -0.1629610955137164 -0.33076913941787212 0 -0.16582550601247259 -0.31644195918285489 0 -0.1629610955137164 -0.33076913941787212 0 -0.15261731536399281 -0.31699983390472031 0 -0.15973767967650701 -0.30493196891575292 0 -0.16582550601247259 -0.31644195918285489 0 -0.15261731536399281 -0.31699983390472031 0 -0.1580141783998408 -0.34710035810185619 0 -0.18164424501215659 -0.34621916084723381 0 -0.1629610955137164 -0.33076913941787212 0 -0.1580141783998408 -0.34710035810185619 0 -0.1629610955137164 -0.33076913941787212 0 -0.14559484309128301 -0.3331209990743299 0 -0.14559484309128301 -0.3331209990743299 0 -0.15261731536399281 -0.31699983390472031 0 -0.1327552185807534 -0.31482398186879779 0 -0.1629610955137164 -0.33076913941787212 0 -0.14559484309128301 -0.3331209990743299 0 -0.15261731536399281 -0.31699983390472031 0 -0.14559484309128301 -0.3331209990743299 0 -0.1327552185807534 -0.31482398186879779 0 -0.12678352480283511 -0.3369129194106073 0 -0.14559484309128301 -0.3331209990743299 0 -0.12678352480283511 -0.3369129194106073 0 -0.14043772588655989 -0.35211976174212622 0 -0.12678352480283511 -0.3369129194106073 0 -0.14043772588655989 -0.35211976174212622 0 -0.1203130985899742 -0.35955571918490481 0 -0.1580141783998408 -0.34710035810185619 0 -0.14043772588655989 -0.35211976174212622 0 -0.15489216358121211 -0.36256913283011211 0 -0.1580141783998408 -0.34710035810185619 0 -0.14559484309128301 -0.3331209990743299 0 -0.14043772588655989 -0.35211976174212622 0 -0.14043772588655989 -0.35211976174212622 0 -0.15489216358121211 -0.36256913283011211 0 -0.13959568407155781 -0.37291875636350952 0 -0.15951650330528561 -0.37856285477961621 0 -0.15489216358121211 -0.36256913283011211 0 -0.13959568407155781 -0.37291875636350952 0 -0.12625141541498519 -0.38197991289387551 0 -0.13959568407155781 -0.37291875636350952 0 -0.1203130985899742 -0.35955571918490481 0 -0.14043772588655989 -0.35211976174212622 0 -0.13959568407155781 -0.37291875636350952 0 -0.1203130985899742 -0.35955571918490481 0 -0.1203130985899742 -0.35955571918490481 0 -0.11384267237711319 -0.38219851895920232 0 -0.1203130985899742 -0.35955571918490481 0 -0.10849363524981311 -0.36442991456039969 0 -0.11384267237711319 -0.38219851895920232 0 -0.12625141541498519 -0.38197991289387551 0 -0.1203130985899742 -0.35955571918490481 0 -0.11384267237711319 -0.38219851895920232 0 -0.10849363524981311 -0.36442991456039969 0 -0.096157591159299352 -0.35547454281719221 0 -0.10176491866177829 -0.38015793077534599 0 -0.096157591159299352 -0.35547454281719221 0 -0.10176491866177829 -0.38015793077534599 0 -0.096157591159299352 -0.35547454281719221 0 -0.10176491866177829 -0.38015793077534599 0 -0.085276019388031976 -0.37619188405436782 0 -0.096157591159299352 -0.35547454281719221 0 -0.10964553082547281 -0.34513317088572909 0 -0.090550263656820479 -0.33079115485903843 0 -0.10849363524981311 -0.36442991456039969 0 -0.096157591159299352 -0.35547454281719221 0 -0.10964553082547281 -0.34513317088572909 0 -0.1203130985899742 -0.35955571918490481 0 -0.10849363524981311 -0.36442991456039969 0 -0.10964553082547281 -0.34513317088572909 0 -0.12678352480283511 -0.3369129194106073 0 -0.1203130985899742 -0.35955571918490481 0 -0.10964553082547281 -0.34513317088572909 0 -0.12678352480283511 -0.3369129194106073 0 -0.1203130985899742 -0.35955571918490481 0 -0.12678352480283511 -0.3369129194106073 0 -0.10964553082547281 -0.34513317088572909 0 -0.1112875311940303 -0.32576775904759792 0 -0.1327552185807534 -0.31482398186879779 0 -0.12678352480283511 -0.3369129194106073 0 -0.1112875311940303 -0.32576775904759792 0 -0.1327552185807534 -0.31482398186879779 0 -0.1112875311940303 -0.32576775904759792 0 -0.11567190875339491 -0.3081878681979589 0 -0.1112875311940303 -0.32576775904759792 0 -0.1011365257202933 -0.31403431577096802 0 -0.11567190875339491 -0.3081878681979589 0 -0.1112875311940303 -0.32576775904759792 0 -0.1011365257202933 -0.31403431577096802 0 -0.090550263656820479 -0.33079115485903843 0 -0.10964553082547281 -0.34513317088572909 0 -0.1112875311940303 -0.32576775904759792 0 -0.090550263656820479 -0.33079115485903843 0 -0.096157591159299352 -0.35547454281719221 0 -0.090550263656820479 -0.33079115485903843 0 -0.096157591159299352 -0.35547454281719221 0 -0.090550263656820479 -0.33079115485903843 0 -0.073144777225565616 -0.33606175945158517 0 -0.090550263656820479 -0.33079115485903843 0 -0.084942936154341619 -0.30610776690088481 0 -0.090550263656820479 -0.33079115485903843 0 -0.073144777225565616 -0.33606175945158517 0 -0.084942936154341619 -0.30610776690088481 0 -0.1011365257202933 -0.31403431577096802 0 -0.090550263656820479 -0.33079115485903843 0 -0.084942936154341619 -0.30610776690088481 0 -0.073144777225565616 -0.33606175945158517 0 -0.084942936154341619 -0.30610776690088481 0 -0.060613113796085999 -0.32288269869712272 0 -0.073144777225565616 -0.33606175945158517 0 -0.076755031766953086 -0.35884624094615858 0 -0.063306301319701316 -0.35299520754669739 0 -0.076755031766953086 -0.35884624094615858 0 -0.063306301319701316 -0.35299520754669739 0 -0.065890469742167113 -0.37350781086095058 0 -0.076755031766953086 -0.35884624094615858 0 -0.065890469742167113 -0.37350781086095058 0 -0.085276019388031976 -0.37619188405436782 0 -0.096157591159299352 -0.35547454281719221 0 -0.076755031766953086 -0.35884624094615858 0 -0.085276019388031976 -0.37619188405436782 0 -0.096157591159299352 -0.35547454281719221 0 -0.073144777225565616 -0.33606175945158517 0 -0.076755031766953086 -0.35884624094615858 0 -0.097628444613881649 -0.25834262822693399 0 -0.1173011125765811 -0.2721428964285707 0 -0.097628444613881649 -0.25834262822693399 0 -0.1187556211832122 -0.25814451816493872 0 -0.1098930818979398 -0.24798588601512411 0 -0.13218950310710981 -0.25272660122947088 0 -0.1187556211832122 -0.25814451816493872 0 -0.1098930818979398 -0.24798588601512411 0 -0.097628444613881649 -0.25834262822693399 0 -0.1187556211832122 -0.25814451816493872 0 -0.1173011125765811 -0.2721428964285707 0 -0.13218950310710981 -0.25272660122947088 0 -0.1098930818979398 -0.24798588601512411 0 -0.12600056203783161 -0.26301541000095829 0 -0.1187556211832122 -0.25814451816493872 0 -0.1173011125765811 -0.2721428964285707 0 -0.097628444613881649 -0.25834262822693399 0 -0.1173011125765811 -0.2721428964285707 0 -0.090762408808148426 -0.27102181932101072 0 -0.1173011125765811 -0.2721428964285707 0 -0.096655829275762523 -0.28444542957314378 0 -0.090762408808148426 -0.27102181932101072 0 -0.096655829275762523 -0.28444542957314378 0 -0.10322998884287909 -0.29931702984935987 0 -0.084942936154341619 -0.30610776690088481 0 -0.096655829275762523 -0.28444542957314378 0 -0.11725087491461519 -0.29108504565108578 0 -0.10322998884287909 -0.29931702984935987 0 -0.13697378053928061 -0.28594316463020741 0 -0.1173011125765811 -0.2721428964285707 0 -0.11725087491461519 -0.29108504565108578 0 -0.1173011125765811 -0.2721428964285707 0 -0.096655829275762523 -0.28444542957314378 0 -0.11725087491461519 -0.29108504565108578 0 -0.11725087491461519 -0.29108504565108578 0 -0.11567190875339491 -0.3081878681979589 0 -0.10322998884287909 -0.29931702984935987 0 -0.1304175251842298 -0.30012492429455973 0 -0.11725087491461519 -0.29108504565108578 0 -0.11567190875339491 -0.3081878681979589 0 -0.1011365257202933 -0.31403431577096802 0 -0.10322998884287909 -0.29931702984935987 0 -0.084942936154341619 -0.30610776690088481 0 -0.1011365257202933 -0.31403431577096802 0 -0.11567190875339491 -0.3081878681979589 0 -0.10322998884287909 -0.29931702984935987 0 -0.084942936154341619 -0.30610776690088481 0 -0.066237696895848033 -0.30175990202967712 0 -0.078368201618682937 -0.28822753231137022 0 -0.084942936154341619 -0.30610776690088481 0 -0.066237696895848033 -0.30175990202967712 0 -0.060613113796085999 -0.32288269869712272 0 -0.066237696895848033 -0.30175990202967712 0 -0.078368201618682937 -0.28822753231137022 0 -0.057136779716869042 -0.28712205926022771 0 -0.078368201618682937 -0.28822753231137022 0 -0.072744725061100565 -0.27289296274949931 0 -0.057136779716869042 -0.28712205926022771 0 -0.096655829275762523 -0.28444542957314378 0 -0.084942936154341619 -0.30610776690088481 0 -0.078368201618682937 -0.28822753231137022 0 -0.096655829275762523 -0.28444542957314378 0 -0.078368201618682937 -0.28822753231137022 0 -0.090762408808148426 -0.27102181932101072 0 -0.078368201618682937 -0.28822753231137022 0 -0.090762408808148426 -0.27102181932101072 0 -0.072744725061100565 -0.27289296274949931 0 -0.090762408808148426 -0.27102181932101072 0 -0.072744725061100565 -0.27289296274949931 0 -0.081281336266817772 -0.26097832242812891 0 -0.072744725061100565 -0.27289296274949931 0 -0.067161912638977472 -0.25903173736147111 0 -0.055745381016590281 -0.2682223094504298 0 -0.072744725061100565 -0.27289296274949931 0 -0.067161912638977472 -0.25903173736147111 0 -0.081281336266817772 -0.26097832242812891 0 -0.067161912638977472 -0.25903173736147111 0 -0.081281336266817772 -0.26097832242812891 0 -0.077955776651182085 -0.24454236002529731 0 -0.067161912638977472 -0.25903173736147111 0 -0.056939497423126581 -0.24878681181634871 0 -0.077955776651182085 -0.24454236002529731 0 -0.097628444613881649 -0.25834262822693399 0 -0.081281336266817772 -0.26097832242812891 0 -0.077955776651182085 -0.24454236002529731 0 -0.097628444613881649 -0.25834262822693399 0 -0.090762408808148426 -0.27102181932101072 0 -0.081281336266817772 -0.26097832242812891 0 -0.097628444613881649 -0.25834262822693399 0 -0.077955776651182085 -0.24454236002529731 0 -0.025857267464119819 -0.25506418495113531 0 -0.050191684441297867 -0.2485850187836515 0 -0.034199021844566052 -0.25740496373097072 0 -0.056939497423126581 -0.24878681181634871 0 -0.034199021844566052 -0.25740496373097072 0 -0.041398382443623198 -0.25192549838374201 0 -0.056939497423126581 -0.24878681181634871 0 -0.041398382443623198 -0.25192549838374201 0 -0.025857267464119819 -0.25506418495113531 0 -0.050191684441297867 -0.2485850187836515 0 -0.034199021844566052 -0.25740496373097072 0 -0.048255079716108998 -0.25800015923011232 0 -0.056939497423126581 -0.24878681181634871 0 -0.034199021844566052 -0.25740496373097072 0 -0.041398382443623198 -0.25192549838374201 0 -0.025857267464119819 -0.25506418495113531 0 -0.041398382443623198 -0.25192549838374201 0 -0.025857267464119819 -0.25506418495113531 0 -0.034199021844566052 -0.25740496373097072 0 -0.037307574571523318 -0.26201401924185519 0 -0.024854767991187229 -0.26705994663832661 0 -0.037307574571523318 -0.26201401924185519 0 -0.048255079716108998 -0.25800015923011232 0 -0.046606779304586107 -0.26584835010199509 0 -0.034199021844566052 -0.25740496373097072 0 -0.037307574571523318 -0.26201401924185519 0 -0.048255079716108998 -0.25800015923011232 0 -0.05702546769870083 -0.25851025446459042 0 -0.048255079716108998 -0.25800015923011232 0 -0.056939497423126581 -0.24878681181634871 0 -0.041398382443623198 -0.25192549838374201 0 -0.056939497423126581 -0.24878681181634871 0 -0.067161912638977472 -0.25903173736147111 0 -0.05702546769870083 -0.25851025446459042 0 -0.056939497423126581 -0.24878681181634871 0 -0.067161912638977472 -0.25903173736147111 0 -0.05702546769870083 -0.25851025446459042 0 -0.055745381016590281 -0.2682223094504298 0 -0.05702546769870083 -0.25851025446459042 0 -0.048255079716108998 -0.25800015923011232 0 -0.055745381016590281 -0.2682223094504298 0 -0.048255079716108998 -0.25800015923011232 0 -0.055745381016590281 -0.2682223094504298 0 -0.046606779304586107 -0.26584835010199509 0 -0.055745381016590281 -0.2682223094504298 0 -0.045119081914121867 -0.27515691248558288 0 -0.046606779304586107 -0.26584835010199509 0 -0.055745381016590281 -0.2682223094504298 0 -0.045119081914121867 -0.27515691248558288 0 -0.057136779716869042 -0.28712205926022771 0 -0.072744725061100565 -0.27289296274949931 0 -0.055745381016590281 -0.2682223094504298 0 -0.057136779716869042 -0.28712205926022771 0 -0.037307574571523318 -0.26201401924185519 0 -0.034478529498429812 -0.28951379058442123 0 -0.037307574571523318 -0.26201401924185519 0 -0.034478529498429812 -0.28951379058442123 0 -0.024854767991187229 -0.26705994663832661 0 -0.037307574571523318 -0.26201401924185519 0 -0.045119081914121867 -0.27515691248558288 0 -0.034478529498429812 -0.28951379058442123 0 -0.037307574571523318 -0.26201401924185519 0 -0.045119081914121867 -0.27515691248558288 0 -0.046606779304586107 -0.26584835010199509 0 -0.045119081914121867 -0.27515691248558288 0 -0.034478529498429812 -0.28951379058442123 0 -0.057136779716869042 -0.28712205926022771 0 -0.034478529498429812 -0.28951379058442123 0 -0.057136779716869042 -0.28712205926022771 0 -0.05012745319326059 -0.30445945297878008 0 -0.066237696895848033 -0.30175990202967712 0 -0.05012745319326059 -0.30445945297878008 0 -0.060613113796085999 -0.32288269869712272 0 -0.066237696895848033 -0.30175990202967712 0 -0.057136779716869042 -0.28712205926022771 0 -0.05012745319326059 -0.30445945297878008 0 -0.034478529498429812 -0.28951379058442123 0 -0.05012745319326059 -0.30445945297878008 0 -0.031649484425336299 -0.31701356192698721 0 -0.034478529498429812 -0.28951379058442123 0 -0.031649484425336299 -0.31701356192698721 0 -0.034478529498429812 -0.28951379058442123 0 -0.020284114256294641 -0.29759304008048471 0 -0.031649484425336299 -0.31701356192698721 0 -0.020284114256294641 -0.29759304008048471 0 -0.01007927323019326 -0.3103345258507364 0 -0.031649484425336299 -0.31701356192698721 0 -0.020284114256294641 -0.29759304008048471 0 -0.01007927323019326 -0.3103345258507364 0 -0.0080748459131490501 -0.2914060437848453 0 -0.01007927323019326 -0.3103345258507364 0 -0.0080748459131490501 -0.2914060437848453 0 0.0017563221397047381 -0.2997067901486577 0 -0.020284114256294641 -0.29759304008048471 0 -0.0080748459131490501 -0.2914060437848453 0 -0.017138438214364771 -0.27969727825543328 0 -0.0080748459131490501 -0.2914060437848453 0 -0.002848760243290064 -0.27761611820401882 0 0.0066437179820165657 -0.2861171845936395 0 -0.0080748459131490501 -0.2914060437848453 0 -0.017138438214364771 -0.27969727825543328 0 -0.002848760243290064 -0.27761611820401882 0 -0.034478529498429812 -0.28951379058442123 0 -0.020284114256294641 -0.29759304008048471 0 -0.017138438214364771 -0.27969727825543328 0 -0.034478529498429812 -0.28951379058442123 0 -0.024854767991187229 -0.26705994663832661 0 -0.017138438214364771 -0.27969727825543328 0 -0.024854767991187229 -0.26705994663832661 0 -0.01588915841142927 -0.27169793716392882 0 -0.01145854626600548 -0.26602311564559261 0 -0.024854767991187229 -0.26705994663832661 0 -0.01588915841142927 -0.27169793716392882 0 -0.017138438214364771 -0.27969727825543328 0 -0.017138438214364771 -0.27969727825543328 0 -0.011833725783772399 -0.27375861231724341 0 -0.002848760243290064 -0.27761611820401882 0 -0.01145854626600548 -0.26602311564559261 0 0.01128192931255503 -0.27464126756021451 0 -0.002848760243290064 -0.27761611820401882 0 -0.01145854626600548 -0.26602311564559261 0 0.01128192931255503 -0.27464126756021451 0 -0.01588915841142927 -0.27169793716392882 0 -0.017138438214364771 -0.27969727825543328 0 -0.011833725783772399 -0.27375861231724341 0 -0.011833725783772399 -0.27375861231724341 0 -0.002848760243290064 -0.27761611820401882 0 -0.01145854626600548 -0.26602311564559261 0 -0.01588915841142927 -0.27169793716392882 0 -0.011833725783772399 -0.27375861231724341 0 -0.01145854626600548 -0.26602311564559261 0 -0.01269776775011346 -0.25850600500130039 0 -0.0051360078472848583 -0.25701396995817721 0 0.0057158633005241696 -0.26337829885565528 0 -0.01145854626600548 -0.26602311564559261 0 -0.01269776775011346 -0.25850600500130039 0 0.0057158633005241696 -0.26337829885565528 0 -0.01269776775011346 -0.25850600500130039 0 0.0057158633005241696 -0.26337829885565528 0 -0.0009620894167222515 -0.25496392916579452 0 -0.0051360078472848583 -0.25701396995817721 0 0.0057158633005241696 -0.26337829885565528 0 -0.0071971320314794382 -0.2528457057960789 0 -0.01082738352359053 -0.24876902592697839 0 -0.0029313858115674811 -0.24854412401401971 0 -0.0009620894167222515 -0.25496392916579452 0 -0.0071971320314794382 -0.2528457057960789 0 -0.0029313858115674811 -0.24854412401401971 0 -0.0009620894167222515 -0.25496392916579452 0 -0.0051360078472848583 -0.25701396995817721 0 -0.0071971320314794382 -0.2528457057960789 0 -0.0051360078472848583 -0.25701396995817721 0 -0.0071971320314794382 -0.2528457057960789 0 -0.0094143843739788544 -0.25459574361389747 0 -0.0071971320314794382 -0.2528457057960789 0 -0.0094143843739788544 -0.25459574361389747 0 -0.01082738352359053 -0.24876902592697839 0 -0.01269776775011346 -0.25850600500130039 0 -0.0094143843739788544 -0.25459574361389747 0 -0.01082738352359053 -0.24876902592697839 0 -0.01269776775011346 -0.25850600500130039 0 -0.0051360078472848583 -0.25701396995817721 0 -0.0094143843739788544 -0.25459574361389747 0 -0.01269776775011346 -0.25850600500130039 0 -0.025857267464119819 -0.25506418495113531 0 -0.034199021844566052 -0.25740496373097072 0 -0.01145854626600548 -0.26602311564559261 0 -0.025857267464119819 -0.25506418495113531 0 -0.01269776775011346 -0.25850600500130039 0 -0.025857267464119819 -0.25506418495113531 0 -0.02368513365757598 -0.23851275990414511 0 -0.034199021844566052 -0.25740496373097072 0 -0.024854767991187229 -0.26705994663832661 0 -0.01145854626600548 -0.26602311564559261 0 -0.034199021844566052 -0.25740496373097072 0 -0.01145854626600548 -0.26602311564559261 0 -0.01145854626600548 -0.26602311564559261 0 -0.01269776775011346 -0.25850600500130039 0 -0.025857267464119819 -0.25506418495113531 0 -0.046940286889098168 -0.35955036210978841 0 -0.050269733973634309 -0.3392354021108881 0 -0.02882043935224279 -0.34451333326955308 0 -0.046940286889098168 -0.35955036210978841 0 -0.02882043935224279 -0.34451333326955308 0 -0.026419717968229769 -0.36867473508972981 0 -0.046940286889098168 -0.35955036210978841 0 -0.026419717968229769 -0.36867473508972981 0 -0.046935058978613817 -0.3783756837809118 0 -0.065890469742167113 -0.37350781086095058 0 -0.046940286889098168 -0.35955036210978841 0 -0.046935058978613817 -0.3783756837809118 0 -0.063306301319701316 -0.35299520754669739 0 -0.065890469742167113 -0.37350781086095058 0 -0.046940286889098168 -0.35955036210978841 0 -0.063306301319701316 -0.35299520754669739 0 -0.046940286889098168 -0.35955036210978841 0 -0.050269733973634309 -0.3392354021108881 0 -0.073144777225565616 -0.33606175945158517 0 -0.063306301319701316 -0.35299520754669739 0 -0.050269733973634309 -0.3392354021108881 0 -0.073144777225565616 -0.33606175945158517 0 -0.050269733973634309 -0.3392354021108881 0 -0.060613113796085999 -0.32288269869712272 0 -0.050269733973634309 -0.3392354021108881 0 -0.060613113796085999 -0.32288269869712272 0 -0.031649484425336299 -0.31701356192698721 0 -0.05012745319326059 -0.30445945297878008 0 -0.060613113796085999 -0.32288269869712272 0 -0.031649484425336299 -0.31701356192698721 0 -0.050269733973634309 -0.3392354021108881 0 -0.031649484425336299 -0.31701356192698721 0 -0.02882043935224279 -0.34451333326955308 0 -0.031649484425336299 -0.31701356192698721 0 -0.02882043935224279 -0.34451333326955308 0 -0.031649484425336299 -0.31701356192698721 0 -0.0038616663111063101 -0.33241552487502413 0 -0.02882043935224279 -0.34451333326955308 0 -0.01007927323019326 -0.3103345258507364 0 -0.031649484425336299 -0.31701356192698721 0 -0.0038616663111063101 -0.33241552487502413 0 -0.01007927323019326 -0.3103345258507364 0 -0.0038616663111063101 -0.33241552487502413 0 0.0094652366165251054 -0.31053241408104548 0 -0.0038616663111063101 -0.33241552487502413 0 -0.0043130761299947744 -0.35643483176966217 0 -0.02882043935224279 -0.34451333326955308 0 -0.0043130761299947744 -0.35643483176966217 0 -0.02882043935224279 -0.34451333326955308 0 -0.026419717968229769 -0.36867473508972981 0 -0.0043130761299947744 -0.35643483176966217 0 -0.026419717968229769 -0.36867473508972981 0 -0.0064694903547723136 -0.38059021958606692 0 -0.0064694903547723136 -0.38059021958606692 0 -0.0080625817845775948 -0.40608726553411861 0 -0.026496984295852101 -0.39226102623928111 0 -0.0064694903547723136 -0.38059021958606692 0 -0.0080625817845775948 -0.40608726553411861 0 0.009690974369139977 -0.39295199195252922 0 -0.0080625817845775948 -0.40608726553411861 0 -0.026496984295852101 -0.39226102623928111 0 -0.029852467816379728 -0.41236872525256307 0 -0.026419717968229769 -0.36867473508972981 0 -0.0064694903547723136 -0.38059021958606692 0 -0.026496984295852101 -0.39226102623928111 0 -0.026496984295852101 -0.39226102623928111 0 -0.048213792324517578 -0.39768762776665978 0 -0.046935058978613817 -0.3783756837809118 0 -0.026419717968229769 -0.36867473508972981 0 -0.026496984295852101 -0.39226102623928111 0 -0.046935058978613817 -0.3783756837809118 0 -0.026496984295852101 -0.39226102623928111 0 -0.048213792324517578 -0.39768762776665978 0 -0.029852467816379728 -0.41236872525256307 0 -0.048213792324517578 -0.39768762776665978 0 -0.065379196062645584 -0.39052657147488062 0 -0.06528413140028641 -0.40548789039177052 0 -0.048213792324517578 -0.39768762776665978 0 -0.046935058978613817 -0.3783756837809118 0 -0.065379196062645584 -0.39052657147488062 0 -0.065890469742167113 -0.37350781086095058 0 -0.046935058978613817 -0.3783756837809118 0 -0.065379196062645584 -0.39052657147488062 0 -0.052630130657334448 -0.42871109396582502 0 -0.036803499053157718 -0.43392585985635063 0 -0.055908543568221357 -0.44353945242809251 0 -0.052630130657334448 -0.42871109396582502 0 -0.048282499091199083 -0.41684649723306111 0 -0.065713266975248902 -0.42040157794015642 0 -0.052630130657334448 -0.42871109396582502 0 -0.055908543568221357 -0.44353945242809251 0 -0.077753046024815156 -0.43509142098737241 0 -0.048282499091199083 -0.41684649723306111 0 -0.06528413140028641 -0.40548789039177052 0 -0.065713266975248902 -0.42040157794015642 0 -0.048213792324517578 -0.39768762776665978 0 -0.048282499091199083 -0.41684649723306111 0 -0.06528413140028641 -0.40548789039177052 0 -0.048213792324517578 -0.39768762776665978 0 -0.048282499091199083 -0.41684649723306111 0 -0.029852467816379728 -0.41236872525256307 0 -0.048282499091199083 -0.41684649723306111 0 -0.036803499053157718 -0.43392585985635063 0 -0.029852467816379728 -0.41236872525256307 0 -0.052630130657334448 -0.42871109396582502 0 -0.048282499091199083 -0.41684649723306111 0 -0.036803499053157718 -0.43392585985635063 0 -0.036803499053157718 -0.43392585985635063 0 -0.01686747062211669 -0.42668809062348251 0 -0.022482277956740859 -0.44034230556013138 0 -0.036803499053157718 -0.43392585985635063 0 -0.01686747062211669 -0.42668809062348251 0 -0.029852467816379728 -0.41236872525256307 0 -0.0080625817845775948 -0.40608726553411861 0 -0.01686747062211669 -0.42668809062348251 0 -0.029852467816379728 -0.41236872525256307 0 -0.0080625817845775948 -0.40608726553411861 0 -0.01686747062211669 -0.42668809062348251 0 0.01224976062295041 -0.42183763890738629 0 -0.01686747062211669 -0.42668809062348251 0 -0.008216644178786571 -0.4466179140804285 0 0.01224976062295041 -0.42183763890738629 0 -0.008216644178786571 -0.4466179140804285 0 -0.0021957942935651631 -0.46571035637089769 0 -0.016151777162071251 -0.46269316979172348 0 -0.0021957942935651631 -0.46571035637089769 0 -0.016151777162071251 -0.46269316979172348 0 -0.01292321871024151 -0.47600360382280887 0 -0.008216644178786571 -0.4466179140804285 0 -0.016151777162071251 -0.46269316979172348 0 -0.028753682251359231 -0.45370767630375852 0 -0.016151777162071251 -0.46269316979172348 0 -0.030722049445265721 -0.46513815794063051 0 -0.025757536927686689 -0.47561542944709773 0 -0.016151777162071251 -0.46269316979172348 0 -0.030722049445265721 -0.46513815794063051 0 -0.028753682251359231 -0.45370767630375852 0 -0.036803499053157718 -0.43392585985635063 0 -0.028753682251359231 -0.45370767630375852 0 -0.022482277956740859 -0.44034230556013138 0 -0.01686747062211669 -0.42668809062348251 0 -0.008216644178786571 -0.4466179140804285 0 -0.022482277956740859 -0.44034230556013138 0 -0.008216644178786571 -0.4466179140804285 0 -0.028753682251359231 -0.45370767630375852 0 -0.022482277956740859 -0.44034230556013138 0 -0.011489863113854141 -0.5 0 -0.010144146689038991 -0.48941639725935437 0 0.012735562036971701 -0.48508522326900949 0 -0.010144146689038991 -0.48941639725935437 0 -0.00065605929082254884 -0.47874224407546379 0 -0.01292321871024151 -0.47600360382280887 0 -0.010144146689038991 -0.48941639725935437 0 -0.01292321871024151 -0.47600360382280887 0 -0.022633997898264431 -0.48384402599231691 0 -0.0021957942935651631 -0.46571035637089769 0 -0.00065605929082254884 -0.47874224407546379 0 -0.01292321871024151 -0.47600360382280887 0 -0.016151777162071251 -0.46269316979172348 0 -0.01292321871024151 -0.47600360382280887 0 -0.025757536927686689 -0.47561542944709773 0 -0.025757536927686689 -0.47561542944709773 0 -0.022633997898264431 -0.48384402599231691 0 -0.032724513000240443 -0.48384135401243772 0 -0.01292321871024151 -0.47600360382280887 0 -0.025757536927686689 -0.47561542944709773 0 -0.022633997898264431 -0.48384402599231691 0 -0.011489863113854141 -0.5 0 -0.010144146689038991 -0.48941639725935437 0 -0.033023855415049652 -0.49374757124969931 0 -0.010144146689038991 -0.48941639725935437 0 -0.022633997898264431 -0.48384402599231691 0 -0.033023855415049652 -0.49374757124969931 0 -0.011489863113854141 -0.5 0 -0.041002190054857779 -0.5 0 -0.033023855415049652 -0.49374757124969931 0 -0.010144146689038991 -0.48941639725935437 0 -0.033023855415049652 -0.49374757124969931 0 -0.022633997898264431 -0.48384402599231691 0 -0.033023855415049652 -0.49374757124969931 0 -0.032724513000240443 -0.48384135401243772 0 -0.041002190054857779 -0.5 0 -0.040644419244316249 -0.48874723383863622 0 -0.055758353525359711 -0.48944453406372251 0 -0.041002190054857779 -0.5 0 -0.033023855415049652 -0.49374757124969931 0 -0.040644419244316249 -0.48874723383863622 0 -0.033023855415049652 -0.49374757124969931 0 -0.040644419244316249 -0.48874723383863622 0 -0.032724513000240443 -0.48384135401243772 0 -0.040644419244316249 -0.48874723383863622 0 -0.040713184226073652 -0.47670270986732172 0 -0.055758353525359711 -0.48944453406372251 0 -0.040644419244316249 -0.48874723383863622 0 -0.040713184226073652 -0.47670270986732172 0 -0.032724513000240443 -0.48384135401243772 0 -0.025757536927686689 -0.47561542944709773 0 -0.040713184226073652 -0.47670270986732172 0 -0.032724513000240443 -0.48384135401243772 0 -0.030722049445265721 -0.46513815794063051 0 -0.025757536927686689 -0.47561542944709773 0 -0.040713184226073652 -0.47670270986732172 0 -0.040713184226073652 -0.47670270986732172 0 -0.05604151524233808 -0.47085547185542692 0 -0.042137987481662489 -0.46199998676314519 0 -0.040713184226073652 -0.47670270986732172 0 -0.05604151524233808 -0.47085547185542692 0 -0.055758353525359711 -0.48944453406372251 0 -0.05604151524233808 -0.47085547185542692 0 -0.055758353525359711 -0.48944453406372251 0 -0.068357021366280857 -0.47830767763467641 0 -0.041002190054857779 -0.5 0 -0.055758353525359711 -0.48944453406372251 0 -0.070514516995861642 -0.5 0 -0.036803499053157718 -0.43392585985635063 0 -0.028753682251359231 -0.45370767630375852 0 -0.042591220718736618 -0.44931976272637059 0 -0.036803499053157718 -0.43392585985635063 0 -0.042591220718736618 -0.44931976272637059 0 -0.055908543568221357 -0.44353945242809251 0 -0.028753682251359231 -0.45370767630375852 0 -0.042591220718736618 -0.44931976272637059 0 -0.042137987481662489 -0.46199998676314519 0 -0.030722049445265721 -0.46513815794063051 0 -0.028753682251359231 -0.45370767630375852 0 -0.042137987481662489 -0.46199998676314519 0 -0.030722049445265721 -0.46513815794063051 0 -0.040713184226073652 -0.47670270986732172 0 -0.042137987481662489 -0.46199998676314519 0 -0.042591220718736618 -0.44931976272637059 0 -0.042137987481662489 -0.46199998676314519 0 -0.054601469153056192 -0.45704509188174619 0 -0.05604151524233808 -0.47085547185542692 0 -0.054601469153056192 -0.45704509188174619 0 -0.071896784036839162 -0.45711427830285839 0 -0.05604151524233808 -0.47085547185542692 0 -0.042137987481662489 -0.46199998676314519 0 -0.054601469153056192 -0.45704509188174619 0 -0.054601469153056192 -0.45704509188174619 0 -0.055908543568221357 -0.44353945242809251 0 -0.071896784036839162 -0.45711427830285839 0 -0.042591220718736618 -0.44931976272637059 0 -0.054601469153056192 -0.45704509188174619 0 -0.055908543568221357 -0.44353945242809251 0 -0.055908543568221357 -0.44353945242809251 0 -0.071896784036839162 -0.45711427830285839 0 -0.077753046024815156 -0.43509142098737241 0 -0.071896784036839162 -0.45711427830285839 0 -0.087573937031005744 -0.47412410395137422 0 -0.093954286744555499 -0.45179652052777369 0 -0.087573937031005744 -0.47412410395137422 0 -0.093954286744555499 -0.45179652052777369 0 -0.071896784036839162 -0.45711427830285839 0 -0.093954286744555499 -0.45179652052777369 0 -0.077753046024815156 -0.43509142098737241 0 -0.093954286744555499 -0.45179652052777369 0 -0.10033463645810529 -0.42946893710417328 0 -0.077753046024815156 -0.43509142098737241 0 -0.055758353525359711 -0.48944453406372251 0 -0.070514516995861642 -0.5 0 -0.068357021366280857 -0.47830767763467641 0 -0.05604151524233808 -0.47085547185542692 0 -0.071896784036839162 -0.45711427830285839 0 -0.068357021366280857 -0.47830767763467641 0 -0.071896784036839162 -0.45711427830285839 0 -0.068357021366280857 -0.47830767763467641 0 -0.087573937031005744 -0.47412410395137422 0 -0.070514516995861642 -0.5 0 -0.068357021366280857 -0.47830767763467641 0 -0.087573937031005744 -0.47412410395137422 0 -0.070514516995861642 -0.5 0 -0.087573937031005744 -0.47412410395137422 0 -0.10002684393686551 -0.5 0 -0.087573937031005744 -0.47412410395137422 0 -0.10002684393686551 -0.5 0 -0.10780494223314389 -0.47765854937150709 0 -0.087573937031005744 -0.47412410395137422 0 -0.10780494223314389 -0.47765854937150709 0 -0.1029954147344513 -0.46359439800738522 0 -0.12605423818426559 -0.48707922202292669 0 -0.10780494223314389 -0.47765854937150709 0 -0.1201929706126502 -0.46127799294672761 0 -0.12605423818426559 -0.48707922202292669 0 -0.1201929706126502 -0.46127799294672761 0 -0.12605423818426559 -0.48707922202292669 0 -0.10002684393686551 -0.5 0 -0.10780494223314389 -0.47765854937150709 0 -0.1295391708778694 -0.5 0 -0.12605423818426559 -0.48707922202292669 0 -0.10002684393686551 -0.5 0 -0.093954286744555499 -0.45179652052777369 0 -0.10033463645810529 -0.42946893710417328 0 -0.10636180231815941 -0.44832292249131772 0 -0.11433170304103479 -0.43547676387052858 0 -0.10033463645810529 -0.42946893710417328 0 -0.10636180231815941 -0.44832292249131772 0 -0.093954286744555499 -0.45179652052777369 0 -0.10033463645810529 -0.42946893710417328 0 -0.087573937031005744 -0.47412410395137422 0 -0.093954286744555499 -0.45179652052777369 0 -0.1029954147344513 -0.46359439800738522 0 -0.10636180231815941 -0.44832292249131772 0 -0.093954286744555499 -0.45179652052777369 0 -0.1029954147344513 -0.46359439800738522 0 -0.10780494223314389 -0.47765854937150709 0 -0.1029954147344513 -0.46359439800738522 0 -0.1201929706126502 -0.46127799294672761 0 -0.10636180231815941 -0.44832292249131772 0 -0.1029954147344513 -0.46359439800738522 0 -0.1201929706126502 -0.46127799294672761 0 -0.13671083813600751 -0.45044361347006462 0 -0.1201929706126502 -0.46127799294672761 0 -0.11433170304103479 -0.43547676387052858 0 -0.10636180231815941 -0.44832292249131772 0 -0.1201929706126502 -0.46127799294672761 0 -0.11433170304103479 -0.43547676387052858 0 -0.13671083813600751 -0.45044361347006462 0 -0.1225906368027144 -0.43005957413219659 0 -0.11433170304103479 -0.43547676387052858 0 -0.1201929706126502 -0.46127799294672761 0 -0.11433170304103479 -0.43547676387052858 0 -0.1225906368027144 -0.43005957413219659 0 -0.11433170304103479 -0.43547676387052858 0 -0.10847043546942051 -0.40967553479432928 0 -0.11433170304103479 -0.43547676387052858 0 -0.10847043546942051 -0.40967553479432928 0 -0.12908399078123631 -0.42243277819987513 0 -0.1225906368027144 -0.43005957413219659 0 -0.12315425937001 -0.41747458531602638 0 -0.11433170304103479 -0.43547676387052858 0 -0.10033463645810529 -0.42946893710417328 0 -0.10847043546942051 -0.40967553479432928 0 -0.10033463645810529 -0.42946893710417328 0 -0.094107383989168333 -0.41562629379671062 0 -0.1067149861716557 -0.40714135368057303 0 -0.10033463645810529 -0.42946893710417328 0 -0.1067149861716557 -0.40714135368057303 0 -0.10847043546942051 -0.40967553479432928 0 -0.10033463645810529 -0.42946893710417328 0 -0.1067149861716557 -0.40714135368057303 0 -0.094107383989168333 -0.41562629379671062 0 -0.1067149861716557 -0.40714135368057303 0 -0.093615658715422545 -0.40476526464288082 0 -0.10847043546942051 -0.40967553479432928 0 -0.1105756132387118 -0.40676785322215941 0 -0.1073722461642546 -0.40484131873350049 0 -0.10847043546942051 -0.40967553479432928 0 -0.1073722461642546 -0.40484131873350049 0 -0.1067149861716557 -0.40714135368057303 0 -0.10847043546942051 -0.40967553479432928 0 -0.1073722461642546 -0.40484131873350049 0 -0.1067149861716557 -0.40714135368057303 0 -0.10847043546942051 -0.40967553479432928 0 -0.1225906368027144 -0.43005957413219659 0 -0.1163272184937543 -0.41351727508190028 0 -0.12315425937001 -0.41747458531602638 0 -0.10847043546942051 -0.40967553479432928 0 -0.1125412123036873 -0.40894162881917728 0 -0.1163272184937543 -0.41351727508190028 0 -0.1125412123036873 -0.40894162881917728 0 -0.1105756132387118 -0.40676785322215941 0 -0.1147915820128618 -0.40580585217832088 0 -0.1225906368027144 -0.43005957413219659 0 -0.10847043546942051 -0.40967553479432928 0 -0.1163272184937543 -0.41351727508190028 0 -0.10847043546942051 -0.40967553479432928 0 -0.1125412123036873 -0.40894162881917728 0 -0.1105756132387118 -0.40676785322215941 0 -0.1225906368027144 -0.43005957413219659 0 -0.10847043546942051 -0.40967553479432928 0 -0.1125412123036873 -0.40894162881917728 0 -0.1163272184937543 -0.41351727508190028 0 -0.1147915820128618 -0.40580585217832088 0 -0.1225700411049412 -0.40994677461386392 0 -0.1219584454402414 -0.40406961642135292 0 -0.1147915820128618 -0.40580585217832088 0 -0.1163272184937543 -0.41351727508190028 0 -0.1225700411049412 -0.40994677461386392 0 -0.1147915820128618 -0.40580585217832088 0 -0.1163272184937543 -0.41351727508190028 0 -0.12315425937001 -0.41747458531602638 0 -0.1225700411049412 -0.40994677461386392 0 -0.1273295258527142 -0.39594401256049883 0 -0.1219584454402414 -0.40406961642135292 0 -0.1190781430676657 -0.39944145851713192 0 -0.11305295545189779 -0.39895005080087959 0 -0.11384267237711319 -0.38219851895920232 0 -0.1073722461642546 -0.40484131873350049 0 -0.1295768038857959 -0.40463739140698729 0 -0.1225700411049412 -0.40994677461386392 0 -0.1219584454402414 -0.40406961642135292 0 -0.1182582065806136 -0.392437760624607 0 -0.11305295545189779 -0.39895005080087959 0 -0.11384267237711319 -0.38219851895920232 0 -0.11384267237711319 -0.38219851895920232 0 -0.1073722461642546 -0.40484131873350049 0 -0.1219584454402414 -0.40406961642135292 0 -0.1190781430676657 -0.39944145851713192 0 -0.1147915820128618 -0.40580585217832088 0 -0.1273295258527142 -0.39594401256049883 0 -0.1190781430676657 -0.39944145851713192 0 -0.1182582065806136 -0.392437760624607 0 -0.1190781430676657 -0.39944145851713192 0 -0.1182582065806136 -0.392437760624607 0 -0.11305295545189779 -0.39895005080087959 0 -0.1105756132387118 -0.40676785322215941 0 -0.1114480992169309 -0.40409126873371493 0 -0.1073722461642546 -0.40484131873350049 0 -0.1105756132387118 -0.40676785322215941 0 -0.1114480992169309 -0.40409126873371493 0 -0.1147915820128618 -0.40580585217832088 0 -0.11305295545189779 -0.39895005080087959 0 -0.1114480992169309 -0.40409126873371493 0 -0.1147915820128618 -0.40580585217832088 0 -0.11305295545189779 -0.39895005080087959 0 -0.1114480992169309 -0.40409126873371493 0 -0.1073722461642546 -0.40484131873350049 0 -0.1190781430676657 -0.39944145851713192 0 -0.11305295545189779 -0.39895005080087959 0 -0.1147915820128618 -0.40580585217832088 0 -0.12625141541498519 -0.38197991289387551 0 -0.1182582065806136 -0.392437760624607 0 -0.11384267237711319 -0.38219851895920232 0 -0.12625141541498519 -0.38197991289387551 0 -0.1273295258527142 -0.39594401256049883 0 -0.1182582065806136 -0.392437760624607 0 -0.11384267237711319 -0.38219851895920232 0 -0.10176491866177829 -0.38015793077534599 0 -0.1073722461642546 -0.40484131873350049 0 -0.10176491866177829 -0.38015793077534599 0 -0.095995502779844255 -0.39166661886747001 0 -0.085276019388031976 -0.37619188405436782 0 -0.10849363524981311 -0.36442991456039969 0 -0.11384267237711319 -0.38219851895920232 0 -0.10176491866177829 -0.38015793077534599 0 -0.10176491866177829 -0.38015793077534599 0 -0.1073722461642546 -0.40484131873350049 0 -0.095995502779844255 -0.39166661886747001 0 -0.10176491866177829 -0.38015793077534599 0 -0.1073722461642546 -0.40484131873350049 0 -0.1067149861716557 -0.40714135368057303 0 -0.1073722461642546 -0.40484131873350049 0 -0.095995502779844255 -0.39166661886747001 0 -0.1067149861716557 -0.40714135368057303 0 -0.1073722461642546 -0.40484131873350049 0 -0.1067149861716557 -0.40714135368057303 0 -0.095995502779844255 -0.39166661886747001 0 -0.1067149861716557 -0.40714135368057303 0 -0.095995502779844255 -0.39166661886747001 0 -0.093615658715422545 -0.40476526464288082 0 -0.093615658715422545 -0.40476526464288082 0 -0.081664681120336771 -0.39582842074610342 0 -0.082451352827770552 -0.41163664718976212 0 -0.095995502779844255 -0.39166661886747001 0 -0.093615658715422545 -0.40476526464288082 0 -0.081664681120336771 -0.39582842074610342 0 -0.095995502779844255 -0.39166661886747001 0 -0.081664681120336771 -0.39582842074610342 0 -0.085276019388031976 -0.37619188405436782 0 -0.081664681120336771 -0.39582842074610342 0 -0.085276019388031976 -0.37619188405436782 0 -0.074552591578295357 -0.38401367178407558 0 -0.095995502779844255 -0.39166661886747001 0 -0.085276019388031976 -0.37619188405436782 0 -0.081664681120336771 -0.39582842074610342 0 -0.065379196062645584 -0.39052657147488062 0 -0.074552591578295357 -0.38401367178407558 0 -0.065890469742167113 -0.37350781086095058 0 -0.085276019388031976 -0.37619188405436782 0 -0.074552591578295357 -0.38401367178407558 0 -0.065890469742167113 -0.37350781086095058 0 -0.065379196062645584 -0.39052657147488062 0 -0.074552591578295357 -0.38401367178407558 0 -0.081664681120336771 -0.39582842074610342 0 -0.06528413140028641 -0.40548789039177052 0 -0.082451352827770552 -0.41163664718976212 0 -0.081664681120336771 -0.39582842074610342 0 -0.065379196062645584 -0.39052657147488062 0 -0.06528413140028641 -0.40548789039177052 0 -0.065713266975248902 -0.42040157794015642 0 -0.085028608260126398 -0.42320905853578622 0 -0.082451352827770552 -0.41163664718976212 0 -0.06528413140028641 -0.40548789039177052 0 -0.065713266975248902 -0.42040157794015642 0 -0.082451352827770552 -0.41163664718976212 0 -0.065713266975248902 -0.42040157794015642 0 -0.077753046024815156 -0.43509142098737241 0 -0.085028608260126398 -0.42320905853578622 0 -0.052630130657334448 -0.42871109396582502 0 -0.065713266975248902 -0.42040157794015642 0 -0.077753046024815156 -0.43509142098737241 0 -0.10033463645810529 -0.42946893710417328 0 -0.077753046024815156 -0.43509142098737241 0 -0.085028608260126398 -0.42320905853578622 0 -0.10033463645810529 -0.42946893710417328 0 -0.094107383989168333 -0.41562629379671062 0 -0.085028608260126398 -0.42320905853578622 0 -0.094107383989168333 -0.41562629379671062 0 -0.085028608260126398 -0.42320905853578622 0 -0.082451352827770552 -0.41163664718976212 0 -0.094107383989168333 -0.41562629379671062 0 -0.093615658715422545 -0.40476526464288082 0 -0.082451352827770552 -0.41163664718976212 0 -0.080832567710134945 -0.085265223789800185 0 -0.09573268077664969 -0.090624673380050064 0 -0.094924188455715333 -0.074372309221374736 0 -0.080832567710134945 -0.085265223789800185 0 -0.0944050220014645 -0.1050702242089397 0 -0.09573268077664969 -0.090624673380050064 0 -0.094924188455715333 -0.074372309221374736 0 -0.077079431972146645 -0.050953682142663811 0 -0.080832567710134945 -0.085265223789800185 0 -0.077460787511610923 -0.070469280456870842 0 -0.094924188455715333 -0.074372309221374736 0 -0.077460787511610923 -0.070469280456870842 0 -0.094924188455715333 -0.074372309221374736 0 -0.078535685693175539 -0.061573663464548622 0 -0.080832567710134945 -0.085265223789800185 0 -0.072736864716213656 -0.076885636419884412 0 -0.077460787511610923 -0.070469280456870842 0 -0.072736864716213656 -0.076885636419884412 0 -0.077460787511610923 -0.070469280456870842 0 -0.067174029152377468 -0.071022972744677337 0 -0.077460787511610923 -0.070469280456870842 0 -0.067174029152377468 -0.071022972744677337 0 -0.070308423821052124 -0.061023041189074957 0 -0.077460787511610923 -0.070469280456870842 0 -0.078535685693175539 -0.061573663464548622 0 -0.070308423821052124 -0.061023041189074957 0 -0.067174029152377468 -0.071022972744677337 0 -0.070308423821052124 -0.061023041189074957 0 -0.060830035872249492 -0.064558057335980773 0 -0.072736864716213656 -0.076885636419884412 0 -0.067174029152377468 -0.071022972744677337 0 -0.063732237529271596 -0.080733089011810297 0 -0.067174029152377468 -0.071022972744677337 0 -0.063732237529271596 -0.080733089011810297 0 -0.058000192015007383 -0.073011667883306972 0 -0.080832567710134945 -0.085265223789800185 0 -0.063732237529271596 -0.080733089011810297 0 -0.066023591375222151 -0.09957098179305135 0 -0.080832567710134945 -0.085265223789800185 0 -0.072736864716213656 -0.076885636419884412 0 -0.063732237529271596 -0.080733089011810297 0 -0.066023591375222151 -0.09957098179305135 0 -0.069466171350113709 -0.1135628440840601 0 -0.0944050220014645 -0.1050702242089397 0 -0.066023591375222151 -0.09957098179305135 0 -0.069466171350113709 -0.1135628440840601 0 -0.054384952187449757 -0.110609208962567 0 -0.077516787342341589 -0.1242022911324857 0 -0.069466171350113709 -0.1135628440840601 0 -0.059238207921678762 -0.13024384051707169 0 -0.077516787342341589 -0.1242022911324857 0 -0.093262550211769629 -0.1231040070079162 0 -0.0944050220014645 -0.1050702242089397 0 -0.077516787342341589 -0.1242022911324857 0 -0.069466171350113709 -0.1135628440840601 0 -0.0944050220014645 -0.1050702242089397 0 -0.066023591375222151 -0.09957098179305135 0 -0.0944050220014645 -0.1050702242089397 0 -0.080832567710134945 -0.085265223789800185 0 -0.066023591375222151 -0.09957098179305135 0 -0.0944050220014645 -0.1050702242089397 0 -0.0944050220014645 -0.1050702242089397 0 -0.1071147179002416 -0.1244919901550422 0 -0.11276894493928399 -0.097790936300085646 0 -0.0944050220014645 -0.1050702242089397 0 -0.11276894493928399 -0.097790936300085646 0 -0.09573268077664969 -0.090624673380050064 0 -0.093262550211769629 -0.1231040070079162 0 -0.0944050220014645 -0.1050702242089397 0 -0.1071147179002416 -0.1244919901550422 0 -0.1071147179002416 -0.1244919901550422 0 -0.11276894493928399 -0.097790936300085646 0 -0.1306137014228527 -0.1212095633787966 0 -0.11276894493928399 -0.097790936300085646 0 -0.1306137014228527 -0.1212095633787966 0 -0.112702195828283 -0.076339248342475546 0 -0.13438499311011279 -0.096174695905308166 0 -0.11276894493928399 -0.097790936300085646 0 -0.112702195828283 -0.076339248342475546 0 -0.13438499311011279 -0.096174695905308166 0 -0.11276894493928399 -0.097790936300085646 0 -0.094924188455715333 -0.074372309221374736 0 -0.112702195828283 -0.076339248342475546 0 -0.11276894493928399 -0.097790936300085646 0 -0.094924188455715333 -0.074372309221374736 0 -0.11276894493928399 -0.097790936300085646 0 -0.09573268077664969 -0.090624673380050064 0 -0.094924188455715333 -0.074372309221374736 0 -0.094924188455715333 -0.074372309221374736 0 -0.1026030192468113 -0.064894788769428779 0 -0.112702195828283 -0.076339248342475546 0 -0.094924188455715333 -0.074372309221374736 0 -0.1026030192468113 -0.064894788769428779 0 -0.090333769324138391 -0.059362086744932152 0 -0.1026030192468113 -0.064894788769428779 0 -0.112702195828283 -0.076339248342475546 0 -0.1158705629695205 -0.060236298698018297 0 -0.112702195828283 -0.076339248342475546 0 -0.1158705629695205 -0.060236298698018297 0 -0.13497135686491851 -0.078315161523928284 0 -0.1158705629695205 -0.060236298698018297 0 -0.1150956899200111 -0.045830426672337207 0 -0.1070798181065768 -0.041876824406217303 0 -0.1158705629695205 -0.060236298698018297 0 -0.1150956899200111 -0.045830426672337207 0 -0.12809376798702951 -0.047905065599393698 0 -0.1163329610324388 -0.034474533447810513 0 -0.12530131535501859 -0.034952786400489197 0 -0.12809376798702951 -0.047905065599393698 0 -0.11023593420079281 -0.033339602888773932 0 -0.1150956899200111 -0.045830426672337207 0 -0.12809376798702951 -0.047905065599393698 0 -0.11023593420079281 -0.033339602888773932 0 -0.1163329610324388 -0.034474533447810513 0 -0.12809376798702951 -0.047905065599393698 0 -0.11023593420079281 -0.033339602888773932 0 -0.12809376798702951 -0.047905065599393698 0 -0.1163329610324388 -0.034474533447810513 0 -0.1221370268088495 -0.025998648103035 0 -0.12530131535501859 -0.034952786400489197 0 -0.11023593420079281 -0.033339602888773932 0 -0.1150956899200111 -0.045830426672337207 0 -0.1070798181065768 -0.041876824406217303 0 -0.11023593420079281 -0.033339602888773932 0 -0.1163329610324388 -0.034474533447810513 0 -0.097427134368436918 -0.027820357899848831 0 -0.11023593420079281 -0.033339602888773932 0 -0.1070798181065768 -0.041876824406217303 0 -0.097427134368436918 -0.027820357899848831 0 -0.1070798181065768 -0.041876824406217303 0 -0.096769769074122519 -0.04215743587210824 0 -0.097427134368436918 -0.027820357899848831 0 -0.1158705629695205 -0.060236298698018297 0 -0.1070798181065768 -0.041876824406217303 0 -0.096769769074122519 -0.04215743587210824 0 -0.1026030192468113 -0.064894788769428779 0 -0.1158705629695205 -0.060236298698018297 0 -0.099264754381345577 -0.055060356505970513 0 -0.1158705629695205 -0.060236298698018297 0 -0.096769769074122519 -0.04215743587210824 0 -0.099264754381345577 -0.055060356505970513 0 -0.096769769074122519 -0.04215743587210824 0 -0.099264754381345577 -0.055060356505970513 0 -0.090746651292135133 -0.048651172445365112 0 -0.1158705629695205 -0.060236298698018297 0 -0.096769769074122519 -0.04215743587210824 0 -0.1026030192468113 -0.064894788769428779 0 -0.099264754381345577 -0.055060356505970513 0 -0.090333769324138391 -0.059362086744932152 0 -0.1029392013539359 -0.0085751277431150782 0 -0.12735709500343681 0.004015926865657337 0 -0.1236693299605585 -0.0137973575501921 0 -0.1110604598185659 -0.0207882196779367 0 -0.1029392013539359 -0.0085751277431150782 0 -0.1236693299605585 -0.0137973575501921 0 -0.1029392013539359 -0.0085751277431150782 0 -0.12735709500343681 0.004015926865657337 0 -0.1236693299605585 -0.0137973575501921 0 -0.1110604598185659 -0.0207882196779367 0 -0.1221370268088495 -0.025998648103035 0 -0.1163329610324388 -0.034474533447810513 0 -0.1221370268088495 -0.025998648103035 0 -0.11173939550707281 -0.027270439782157759 0 -0.1110604598185659 -0.0207882196779367 0 -0.1221370268088495 -0.025998648103035 0 -0.11173939550707281 -0.027270439782157759 0 -0.1163329610324388 -0.034474533447810513 0 -0.097427134368436918 -0.027820357899848831 0 -0.1110604598185659 -0.0207882196779367 0 -0.097427134368436918 -0.027820357899848831 0 -0.1029392013539359 -0.0085751277431150782 0 -0.1163329610324388 -0.034474533447810513 0 -0.11173939550707281 -0.027270439782157759 0 -0.097427134368436918 -0.027820357899848831 0 -0.1110604598185659 -0.0207882196779367 0 -0.11173939550707281 -0.027270439782157759 0 -0.097427134368436918 -0.027820357899848831 0 -0.1029392013539359 -0.0085751277431150782 0 -0.086097875964997059 -0.0058870606910941042 0 -0.078521307704434995 -0.021166182351887271 0 -0.1029392013539359 -0.0085751277431150782 0 -0.078521307704434995 -0.021166182351887271 0 -0.1029392013539359 -0.0085751277431150782 0 -0.086097875964997059 -0.0058870606910941042 0 -0.091682611010439896 0.0063963380850077774 0 -0.086097875964997059 -0.0058870606910941042 0 -0.073830544796709738 -0.0078542708917730738 0 -0.078933949510919491 0.00072378658541613432 0 -0.086097875964997059 -0.0058870606910941042 0 -0.078521307704434995 -0.021166182351887271 0 -0.073830544796709738 -0.0078542708917730738 0 -0.097427134368436918 -0.027820357899848831 0 -0.078521307704434995 -0.021166182351887271 0 -0.097427134368436918 -0.027820357899848831 0 -0.078521307704434995 -0.021166182351887271 0 -0.077668975178724509 -0.024078573046198169 0 -0.097427134368436918 -0.027820357899848831 0 -0.1029392013539359 -0.0085751277431150782 0 -0.078521307704434995 -0.021166182351887271 0 -0.078521307704434995 -0.021166182351887271 0 -0.055132092173872667 -0.033226800447327051 0 -0.05822397002114936 -0.01402224463886402 0 -0.078521307704434995 -0.021166182351887271 0 -0.055132092173872667 -0.033226800447327051 0 -0.077668975178724509 -0.024078573046198169 0 -0.075465350998538308 -0.032772608828030472 0 -0.055132092173872667 -0.033226800447327051 0 -0.078521307704434995 -0.021166182351887271 0 -0.077668975178724509 -0.024078573046198169 0 -0.055132092173872667 -0.033226800447327051 0 -0.078521307704434995 -0.021166182351887271 0 -0.05822397002114936 -0.01402224463886402 0 -0.078521307704434995 -0.021166182351887271 0 -0.073830544796709738 -0.0078542708917730738 0 -0.05822397002114936 -0.01402224463886402 0 -0.073830544796709738 -0.0078542708917730738 0 -0.05822397002114936 -0.01402224463886402 0 -0.068462160169621672 0.0025537029525893409 0 -0.073830544796709738 -0.0078542708917730738 0 -0.078933949510919491 0.00072378658541613432 0 -0.068462160169621672 0.0025537029525893409 0 -0.094924188455715333 -0.074372309221374736 0 -0.090333769324138391 -0.059362086744932152 0 -0.077079431972146645 -0.050953682142663811 0 -0.094924188455715333 -0.074372309221374736 0 -0.078535685693175539 -0.061573663464548622 0 -0.077079431972146645 -0.050953682142663811 0 -0.084868245962835154 -0.053326759561897898 0 -0.090333769324138391 -0.059362086744932152 0 -0.077079431972146645 -0.050953682142663811 0 -0.084868245962835154 -0.053326759561897898 0 -0.080876314157704687 -0.04955372347343575 0 -0.082849096915408454 -0.045583035938281863 0 -0.080876314157704687 -0.04955372347343575 0 -0.078708481780428496 -0.048351416250899462 0 -0.082849096915408454 -0.045583035938281863 0 -0.080876314157704687 -0.04955372347343575 0 -0.078708481780428496 -0.048351416250899462 0 -0.077079431972146645 -0.050953682142663811 0 -0.084868245962835154 -0.053326759561897898 0 -0.080876314157704687 -0.04955372347343575 0 -0.077079431972146645 -0.050953682142663811 0 -0.084868245962835154 -0.053326759561897898 0 -0.090746651292135133 -0.048651172445365112 0 -0.082849096915408454 -0.045583035938281863 0 -0.084868245962835154 -0.053326759561897898 0 -0.090333769324138391 -0.059362086744932152 0 -0.090746651292135133 -0.048651172445365112 0 -0.099264754381345577 -0.055060356505970513 0 -0.090333769324138391 -0.059362086744932152 0 -0.090746651292135133 -0.048651172445365112 0 -0.096769769074122519 -0.04215743587210824 0 -0.088481073739883592 -0.043344290748051233 0 -0.083558777677868248 -0.036985518736449702 0 -0.096769769074122519 -0.04215743587210824 0 -0.097427134368436918 -0.027820357899848831 0 -0.077668975178724509 -0.024078573046198169 0 -0.096769769074122519 -0.04215743587210824 0 -0.077668975178724509 -0.024078573046198169 0 -0.083558777677868248 -0.036985518736449702 0 -0.096769769074122519 -0.04215743587210824 0 -0.077668975178724509 -0.024078573046198169 0 -0.090746651292135133 -0.048651172445365112 0 -0.088481073739883592 -0.043344290748051233 0 -0.082849096915408454 -0.045583035938281863 0 -0.096769769074122519 -0.04215743587210824 0 -0.090746651292135133 -0.048651172445365112 0 -0.088481073739883592 -0.043344290748051233 0 -0.077668975178724509 -0.024078573046198169 0 -0.083558777677868248 -0.036985518736449702 0 -0.075465350998538308 -0.032772608828030472 0 -0.083558777677868248 -0.036985518736449702 0 -0.082849096915408454 -0.045583035938281863 0 -0.075062618692292638 -0.040325846155841297 0 -0.088481073739883592 -0.043344290748051233 0 -0.083558777677868248 -0.036985518736449702 0 -0.082849096915408454 -0.045583035938281863 0 -0.082849096915408454 -0.045583035938281863 0 -0.078067002861142085 -0.04575568247049161 0 -0.075062618692292638 -0.040325846155841297 0 -0.078708481780428496 -0.048351416250899462 0 -0.082849096915408454 -0.045583035938281863 0 -0.078067002861142085 -0.04575568247049161 0 -0.075647814056438792 -0.048762431536943832 0 -0.055132092173872667 -0.033226800447327051 0 -0.078067002861142085 -0.04575568247049161 0 -0.075062618692292638 -0.040325846155841297 0 -0.075647814056438792 -0.048762431536943832 0 -0.075062618692292638 -0.040325846155841297 0 -0.075465350998538308 -0.032772608828030472 0 -0.055132092173872667 -0.033226800447327051 0 -0.075647814056438792 -0.048762431536943832 0 -0.061428605263776047 -0.046553119166432878 0 -0.055132092173872667 -0.033226800447327051 0 -0.075062618692292638 -0.040325846155841297 0 -0.075647814056438792 -0.048762431536943832 0 -0.055132092173872667 -0.033226800447327051 0 -0.083558777677868248 -0.036985518736449702 0 -0.075062618692292638 -0.040325846155841297 0 -0.075465350998538308 -0.032772608828030472 0 -0.065722760200719738 -0.052253177456942877 0 -0.075647814056438792 -0.048762431536943832 0 -0.061428605263776047 -0.046553119166432878 0 -0.065722760200719738 -0.052253177456942877 0 -0.07269306068786438 -0.052406879740114577 0 -0.069833853901725543 -0.055329661047837618 0 -0.065722760200719738 -0.052253177456942877 0 -0.07269306068786438 -0.052406879740114577 0 -0.075647814056438792 -0.048762431536943832 0 -0.07269306068786438 -0.052406879740114577 0 -0.073703714626092445 -0.056102563442451223 0 -0.069833853901725543 -0.055329661047837618 0 -0.07269306068786438 -0.052406879740114577 0 -0.077079431972146645 -0.050953682142663811 0 -0.073703714626092445 -0.056102563442451223 0 -0.078708481780428496 -0.048351416250899462 0 -0.077079431972146645 -0.050953682142663811 0 -0.075647814056438792 -0.048762431536943832 0 -0.07269306068786438 -0.052406879740114577 0 -0.077079431972146645 -0.050953682142663811 0 -0.075647814056438792 -0.048762431536943832 0 -0.078708481780428496 -0.048351416250899462 0 -0.078067002861142085 -0.04575568247049161 0 -0.075647814056438792 -0.048762431536943832 0 -0.078535685693175539 -0.061573663464548622 0 -0.073703714626092445 -0.056102563442451223 0 -0.070308423821052124 -0.061023041189074957 0 -0.078535685693175539 -0.061573663464548622 0 -0.077079431972146645 -0.050953682142663811 0 -0.073703714626092445 -0.056102563442451223 0 -0.073703714626092445 -0.056102563442451223 0 -0.070308423821052124 -0.061023041189074957 0 -0.069833853901725543 -0.055329661047837618 0 -0.070308423821052124 -0.061023041189074957 0 -0.064391701294429504 -0.057679717025484439 0 -0.060830035872249492 -0.064558057335980773 0 -0.070308423821052124 -0.061023041189074957 0 -0.069833853901725543 -0.055329661047837618 0 -0.064391701294429504 -0.057679717025484439 0 -0.065722760200719738 -0.052253177456942877 0 -0.069833853901725543 -0.055329661047837618 0 -0.064391701294429504 -0.057679717025484439 0 -0.064391701294429504 -0.057679717025484439 0 -0.055978059279945473 -0.056388284161067823 0 -0.060830035872249492 -0.064558057335980773 0 -0.065722760200719738 -0.052253177456942877 0 -0.064391701294429504 -0.057679717025484439 0 -0.055978059279945473 -0.056388284161067823 0 -0.055978059279945473 -0.056388284161067823 0 -0.041230103293456458 -0.058058117591144771 0 -0.049479852383656611 -0.067543566470139038 0 -0.055978059279945473 -0.056388284161067823 0 -0.049741921456861897 -0.048697412542500033 0 -0.041230103293456458 -0.058058117591144771 0 -0.055978059279945473 -0.056388284161067823 0 -0.049741921456861897 -0.048697412542500033 0 -0.061428605263776047 -0.046553119166432878 0 -0.065722760200719738 -0.052253177456942877 0 -0.055978059279945473 -0.056388284161067823 0 -0.061428605263776047 -0.046553119166432878 0 -0.049741921456861897 -0.048697412542500033 0 -0.061428605263776047 -0.046553119166432878 0 -0.055132092173872667 -0.033226800447327051 0 -0.049741921456861897 -0.048697412542500033 0 -0.055132092173872667 -0.033226800447327051 0 -0.032367863380537598 -0.044965144957206583 0 -0.055132092173872667 -0.033226800447327051 0 -0.032367863380537598 -0.044965144957206583 0 -0.055132092173872667 -0.033226800447327051 0 -0.032367863380537598 -0.044965144957206583 0 -0.031233838643279398 -0.031193199633022049 0 -0.049741921456861897 -0.048697412542500033 0 -0.032367863380537598 -0.044965144957206583 0 -0.041230103293456458 -0.058058117591144771 0 -0.032367863380537598 -0.044965144957206583 0 -0.041230103293456458 -0.058058117591144771 0 -0.026902341230915561 -0.060374551747501753 0 -0.05822397002114936 -0.01402224463886402 0 -0.057836245250817257 0.0062936453779614283 0 -0.044352522143416888 0.0050416822031405977 0 -0.05822397002114936 -0.01402224463886402 0 -0.037926632337863607 -0.0068783069258408786 0 -0.05822397002114936 -0.01402224463886402 0 -0.068462160169621672 0.0025537029525893409 0 -0.057836245250817257 0.0062936453779614283 0 -0.055132092173872667 -0.033226800447327051 0 -0.05822397002114936 -0.01402224463886402 0 -0.036243114184870161 -0.018923029155399909 0 -0.055132092173872667 -0.033226800447327051 0 -0.036243114184870161 -0.018923029155399909 0 -0.031233838643279398 -0.031193199633022049 0 -0.055132092173872667 -0.033226800447327051 0 -0.036243114184870161 -0.018923029155399909 0 -0.05822397002114936 -0.01402224463886402 0 -0.036243114184870161 -0.018923029155399909 0 -0.037926632337863607 -0.0068783069258408786 0 -0.05822397002114936 -0.01402224463886402 0 -0.037926632337863607 -0.0068783069258408786 0 -0.044352522143416888 0.0050416822031405977 0 -0.036243114184870161 -0.018923029155399909 0 -0.037926632337863607 -0.0068783069258408786 0 -0.029121832422534862 -0.0067169982391169078 0 -0.037926632337863607 -0.0068783069258408786 0 -0.029539197120254941 -0.00051038393964639519 0 -0.029121832422534862 -0.0067169982391169078 0 -0.037926632337863607 -0.0068783069258408786 0 -0.029539197120254941 -0.00051038393964639519 0 -0.03614709390981162 0.0015378833132510439 0 -0.037926632337863607 -0.0068783069258408786 0 -0.03614709390981162 0.0015378833132510439 0 -0.044352522143416888 0.0050416822031405977 0 -0.036243114184870161 -0.018923029155399909 0 -0.017354136195868258 -0.0046192578634720229 0 -0.01819617019275287 -0.0061732580868559192 0 -0.036243114184870161 -0.018923029155399909 0 -0.017354136195868258 -0.0046192578634720229 0 -0.029121832422534862 -0.0067169982391169078 0 -0.036243114184870161 -0.018923029155399909 0 -0.01819617019275287 -0.0061732580868559192 0 -0.019637671972121611 -0.02148729346067638 0 -0.036243114184870161 -0.018923029155399909 0 -0.017354136195868258 -0.0046192578634720229 0 -0.017354136195868258 -0.0046192578634720229 0 -0.01819617019275287 -0.0061732580868559192 0 -0.013500839782477779 -0.0058155532537883976 0 -0.017354136195868258 -0.0046192578634720229 0 -0.01819617019275287 -0.0061732580868559192 0 -0.017354136195868258 -0.0046192578634720229 0 -0.024546082273817361 -0.00265401331122534 0 -0.02112675760807068 0.0030512678310729521 0 -0.024546082273817361 -0.00265401331122534 0 -0.029539197120254941 -0.00051038393964639519 0 -0.02112675760807068 0.0030512678310729521 0 -0.017354136195868258 -0.0046192578634720229 0 -0.024546082273817361 -0.00265401331122534 0 -0.029121832422534862 -0.0067169982391169078 0 -0.024546082273817361 -0.00265401331122534 0 -0.029539197120254941 -0.00051038393964639519 0 -0.029121832422534862 -0.0067169982391169078 0 -0.01819617019275287 -0.0061732580868559192 0 -0.019637671972121611 -0.02148729346067638 0 -0.011008321991883009 -0.01057962122923565 0 -0.036243114184870161 -0.018923029155399909 0 -0.019637671972121611 -0.02148729346067638 0 -0.031233838643279398 -0.031193199633022049 0 -0.019637671972121611 -0.02148729346067638 0 -0.031233838643279398 -0.031193199633022049 0 -0.016064986363794779 -0.036441041599790329 0 -0.0077215053668332834 -0.022860670268973711 0 -0.00118246574067416 -0.01324232368796026 0 0.0015263381015913891 -0.033415212413580753 0 -0.0077215053668332834 -0.022860670268973711 0 -0.016064986363794779 -0.036441041599790329 0 0.0015263381015913891 -0.033415212413580753 0 -0.019637671972121611 -0.02148729346067638 0 -0.0077215053668332834 -0.022860670268973711 0 -0.016064986363794779 -0.036441041599790329 0 -0.019637671972121611 -0.02148729346067638 0 -0.0077215053668332834 -0.022860670268973711 0 -0.011008321991883009 -0.01057962122923565 0 -0.011008321991883009 -0.01057962122923565 0 -0.00118246574067416 -0.01324232368796026 0 -0.0072764121498596901 -0.0036325873431357339 0 -0.0077215053668332834 -0.022860670268973711 0 -0.011008321991883009 -0.01057962122923565 0 -0.00118246574067416 -0.01324232368796026 0 -0.00118246574067416 -0.01324232368796026 0 -0.0072764121498596901 -0.0036325873431357339 0 0.0012074066645448821 -0.00065723147797176382 0 -0.0072764121498596901 -0.0036325873431357339 0 -0.013500839782477779 -0.0058155532537883976 0 -0.013607688627124061 -0.00178224205395049 0 -0.011008321991883009 -0.01057962122923565 0 -0.0072764121498596901 -0.0036325873431357339 0 -0.013500839782477779 -0.0058155532537883976 0 -0.01819617019275287 -0.0061732580868559192 0 -0.011008321991883009 -0.01057962122923565 0 -0.013500839782477779 -0.0058155532537883976 0 -0.017354136195868258 -0.0046192578634720229 0 -0.013500839782477779 -0.0058155532537883976 0 -0.013607688627124061 -0.00178224205395049 0 -0.017354136195868258 -0.0046192578634720229 0 -0.013607688627124061 -0.00178224205395049 0 -0.032367863380537598 -0.044965144957206583 0 -0.0096036345872028556 -0.056703489467087059 0 -0.032367863380537598 -0.044965144957206583 0 -0.026902341230915561 -0.060374551747501753 0 -0.0096036345872028556 -0.056703489467087059 0 -0.032367863380537598 -0.044965144957206583 0 -0.031233838643279398 -0.031193199633022049 0 -0.016064986363794779 -0.036441041599790329 0 -0.032367863380537598 -0.044965144957206583 0 -0.016064986363794779 -0.036441041599790329 0 -0.0096036345872028556 -0.056703489467087059 0 -0.0096036345872028556 -0.056703489467087059 0 0.0015263381015913891 -0.033415212413580753 0 -0.016064986363794779 -0.036441041599790329 0 -0.0096036345872028556 -0.056703489467087059 0 0.0015263381015913891 -0.033415212413580753 0 -0.0096036345872028556 -0.056703489467087059 0 0.0015263381015913891 -0.033415212413580753 0 0.007298405735321048 -0.051477207310420908 0 -0.0096036345872028556 -0.056703489467087059 0 0.0052181775422467033 -0.064346337314722044 0 -0.0096036345872028556 -0.056703489467087059 0 -0.0043762627118289626 -0.071729097412358583 0 0.0052181775422467033 -0.064346337314722044 0 -0.0043762627118289626 -0.071729097412358583 0 -0.0092607301227374331 -0.088572496961274561 0 -0.01646375475339092 -0.071057556949349329 0 -0.0096036345872028556 -0.056703489467087059 0 -0.01646375475339092 -0.071057556949349329 0 -0.0096036345872028556 -0.056703489467087059 0 -0.0043762627118289626 -0.071729097412358583 0 -0.01646375475339092 -0.071057556949349329 0 -0.0092607301227374331 -0.088572496961274561 0 -0.00044729776891663488 -0.1011528385718463 0 0.0042106568376920582 -0.081118225430045127 0 -0.0043762627118289626 -0.071729097412358583 0 -0.0092607301227374331 -0.088572496961274561 0 0.0042106568376920582 -0.081118225430045127 0 -0.0092607301227374331 -0.088572496961274561 0 -0.037642160748979789 -0.094071739377162955 0 -0.0092607301227374331 -0.088572496961274561 0 -0.023323874919582349 -0.085411624431610003 0 -0.01646375475339092 -0.071057556949349329 0 -0.0092607301227374331 -0.088572496961274561 0 -0.023323874919582349 -0.085411624431610003 0 -0.037642160748979789 -0.094071739377162955 0 -0.023323874919582349 -0.085411624431610003 0 -0.01646375475339092 -0.071057556949349329 0 -0.023323874919582349 -0.085411624431610003 0 -0.01646375475339092 -0.071057556949349329 0 -0.034846350139989962 -0.07108844977272101 0 -0.026902341230915561 -0.060374551747501753 0 -0.01646375475339092 -0.071057556949349329 0 -0.034846350139989962 -0.07108844977272101 0 -0.026902341230915561 -0.060374551747501753 0 -0.0096036345872028556 -0.056703489467087059 0 -0.01646375475339092 -0.071057556949349329 0 -0.041230103293456458 -0.058058117591144771 0 -0.026902341230915561 -0.060374551747501753 0 -0.034846350139989962 -0.07108844977272101 0 -0.041230103293456458 -0.058058117591144771 0 -0.034846350139989962 -0.07108844977272101 0 -0.049479852383656611 -0.067543566470139038 0 -0.034846350139989962 -0.07108844977272101 0 -0.048784805137481749 -0.081200653853927454 0 -0.049479852383656611 -0.067543566470139038 0 -0.023323874919582349 -0.085411624431610003 0 -0.034846350139989962 -0.07108844977272101 0 -0.036149297736508462 -0.082943116858855345 0 -0.023323874919582349 -0.085411624431610003 0 -0.036149297736508462 -0.082943116858855345 0 -0.037642160748979789 -0.094071739377162955 0 -0.036149297736508462 -0.082943116858855345 0 -0.048784805137481749 -0.081200653853927454 0 -0.037642160748979789 -0.094071739377162955 0 -0.034846350139989962 -0.07108844977272101 0 -0.036149297736508462 -0.082943116858855345 0 -0.048784805137481749 -0.081200653853927454 0 -0.063732237529271596 -0.080733089011810297 0 -0.066023591375222151 -0.09957098179305135 0 -0.048784805137481749 -0.081200653853927454 0 -0.066023591375222151 -0.09957098179305135 0 -0.048784805137481749 -0.081200653853927454 0 -0.037642160748979789 -0.094071739377162955 0 -0.063732237529271596 -0.080733089011810297 0 -0.048784805137481749 -0.081200653853927454 0 -0.058000192015007383 -0.073011667883306972 0 -0.055978059279945473 -0.056388284161067823 0 -0.060830035872249492 -0.064558057335980773 0 -0.049479852383656611 -0.067543566470139038 0 -0.058000192015007383 -0.073011667883306972 0 -0.060830035872249492 -0.064558057335980773 0 -0.049479852383656611 -0.067543566470139038 0 -0.067174029152377468 -0.071022972744677337 0 -0.058000192015007383 -0.073011667883306972 0 -0.060830035872249492 -0.064558057335980773 0 -0.048784805137481749 -0.081200653853927454 0 -0.058000192015007383 -0.073011667883306972 0 -0.049479852383656611 -0.067543566470139038 0 -0.069466171350113709 -0.1135628440840601 0 -0.054384952187449757 -0.110609208962567 0 -0.059238207921678762 -0.13024384051707169 0 -0.054384952187449757 -0.110609208962567 0 -0.059238207921678762 -0.13024384051707169 0 -0.032945469352336033 -0.1293562392835419 0 -0.066023591375222151 -0.09957098179305135 0 -0.054384952187449757 -0.110609208962567 0 -0.037642160748979789 -0.094071739377162955 0 -0.066023591375222151 -0.09957098179305135 0 -0.037642160748979789 -0.094071739377162955 0 -0.054384952187449757 -0.110609208962567 0 -0.037642160748979789 -0.094071739377162955 0 -0.035661083064217503 -0.11124856921529409 0 -0.054384952187449757 -0.110609208962567 0 -0.032945469352336033 -0.1293562392835419 0 -0.054384952187449757 -0.110609208962567 0 -0.035661083064217503 -0.11124856921529409 0 -0.032945469352336033 -0.1293562392835419 0 -0.01767174996810443 -0.1109570892379047 0 -0.012892303975098539 -0.12786221844410239 0 -0.032945469352336033 -0.1293562392835419 0 -0.035661083064217503 -0.11124856921529409 0 -0.01767174996810443 -0.1109570892379047 0 -0.032945469352336033 -0.1293562392835419 0 -0.0092607301227374331 -0.088572496961274561 0 -0.037642160748979789 -0.094071739377162955 0 -0.01767174996810443 -0.1109570892379047 0 -0.037642160748979789 -0.094071739377162955 0 -0.035661083064217503 -0.11124856921529409 0 -0.01767174996810443 -0.1109570892379047 0 -0.01767174996810443 -0.1109570892379047 0 -0.00044729776891663488 -0.1011528385718463 0 0.005085065621477718 -0.1151057880332567 0 -0.0092607301227374331 -0.088572496961274561 0 -0.01767174996810443 -0.1109570892379047 0 -0.00044729776891663488 -0.1011528385718463 0 -0.01767174996810443 -0.1109570892379047 0 -0.012892303975098539 -0.12786221844410239 0 0.005085065621477718 -0.1151057880332567 0 -0.012892303975098539 -0.12786221844410239 0 0.0027021066240326768 -0.1317064378292063 0 0.005085065621477718 -0.1151057880332567 0 -0.011505986517222349 -0.14810326960451681 0 -0.033736789854580403 -0.16402697950055581 0 -0.032945469352336033 -0.1293562392835419 0 -0.012892303975098539 -0.12786221844410239 0 -0.011505986517222349 -0.14810326960451681 0 0.0027021066240326768 -0.1317064378292063 0 -0.011505986517222349 -0.14810326960451681 0 -0.032945469352336033 -0.1293562392835419 0 -0.012892303975098539 -0.12786221844410239 0 -0.011505986517222349 -0.14810326960451681 0 -0.032945469352336033 -0.1293562392835419 0 -0.011505986517222349 -0.14810326960451681 0 0.009933496317892726 -0.16685029992549011 0 -0.011505986517222349 -0.14810326960451681 0 -0.0085976242789068957 -0.177408956520272 0 0.009933496317892726 -0.16685029992549011 0 -0.0085976242789068957 -0.177408956520272 0 -0.003739977245034012 -0.19168309442994089 0 -0.02712874487570623 -0.18796761311505439 0 -0.0085976242789068957 -0.177408956520272 0 -0.003739977245034012 -0.19168309442994089 0 0.0034571977838801569 -0.17702496179755631 0 -0.0085976242789068957 -0.177408956520272 0 -0.02712874487570623 -0.18796761311505439 0 -0.0085976242789068957 -0.177408956520272 0 -0.033736789854580403 -0.16402697950055581 0 -0.02712874487570623 -0.18796761311505439 0 -0.011505986517222349 -0.14810326960451681 0 -0.0085976242789068957 -0.177408956520272 0 -0.033736789854580403 -0.16402697950055581 0 -0.033736789854580403 -0.16402697950055581 0 -0.041678182321736049 -0.18065303021324261 0 -0.02712874487570623 -0.18796761311505439 0 -0.033736789854580403 -0.16402697950055581 0 -0.041678182321736049 -0.18065303021324261 0 -0.060187329084152079 -0.17209125852752319 0 -0.041678182321736049 -0.18065303021324261 0 -0.060187329084152079 -0.17209125852752319 0 -0.045659865472505487 -0.198526269709837 0 -0.060187329084152079 -0.17209125852752319 0 -0.045659865472505487 -0.198526269709837 0 -0.033736789854580403 -0.16402697950055581 0 -0.060187329084152079 -0.17209125852752319 0 -0.051699405537506939 -0.14899167338562519 0 -0.060187329084152079 -0.17209125852752319 0 -0.051699405537506939 -0.14899167338562519 0 -0.072389231474787458 -0.1492400490994332 0 -0.051699405537506939 -0.14899167338562519 0 -0.059238207921678762 -0.13024384051707169 0 -0.072389231474787458 -0.1492400490994332 0 -0.033736789854580403 -0.16402697950055581 0 -0.051699405537506939 -0.14899167338562519 0 -0.032945469352336033 -0.1293562392835419 0 -0.051699405537506939 -0.14899167338562519 0 -0.059238207921678762 -0.13024384051707169 0 -0.032945469352336033 -0.1293562392835419 0 -0.025857267464119819 -0.25506418495113531 0 -0.02368513365757598 -0.23851275990414511 0 -0.036167443228362108 -0.24337299090061551 0 -0.01269776775011346 -0.25850600500130039 0 -0.02368513365757598 -0.23851275990414511 0 -0.01269776775011346 -0.25850600500130039 0 -0.02368513365757598 -0.23851275990414511 0 -0.01082738352359053 -0.24876902592697839 0 -0.02368513365757598 -0.23851275990414511 0 -0.0067432183097289999 -0.239968376336817 0 -0.0090267388034834407 -0.23007068799598671 0 -0.02368513365757598 -0.23851275990414511 0 -0.01082738352359053 -0.24876902592697839 0 -0.0067432183097289999 -0.239968376336817 0 -0.01082738352359053 -0.24876902592697839 0 -0.0029313858115674811 -0.24854412401401971 0 -0.0067432183097289999 -0.239968376336817 0 -0.0029313858115674811 -0.24854412401401971 0 -0.0067432183097289999 -0.239968376336817 0 0.0026199421412959989 -0.2430643023623929 0 -0.0067432183097289999 -0.239968376336817 0 0.0026199421412959989 -0.2430643023623929 0 0.0017465435191736189 -0.23378549097037141 0 -0.0067432183097289999 -0.239968376336817 0 -0.0090267388034834407 -0.23007068799598671 0 0.0017465435191736189 -0.23378549097037141 0 -0.0090267388034834407 -0.23007068799598671 0 -0.00080535468136348092 -0.21995366459000901 0 -0.01839049427805331 -0.2195873775130934 0 -0.0090267388034834407 -0.23007068799598671 0 -0.00080535468136348092 -0.21995366459000901 0 0.0017465435191736189 -0.23378549097037141 0 -0.02368513365757598 -0.23851275990414511 0 -0.0090267388034834407 -0.23007068799598671 0 -0.01839049427805331 -0.2195873775130934 0 -0.02368513365757598 -0.23851275990414511 0 -0.01839049427805331 -0.2195873775130934 0 -0.034672499565036527 -0.2185195148069887 0 -0.02368513365757598 -0.23851275990414511 0 -0.034672499565036527 -0.2185195148069887 0 -0.01839049427805331 -0.2195873775130934 0 -0.027127261386640289 -0.20489204062456881 0 -0.034672499565036527 -0.2185195148069887 0 -0.01839049427805331 -0.2195873775130934 0 -0.027127261386640289 -0.20489204062456881 0 -0.01084996336714465 -0.20584666152463099 0 -0.00080535468136348092 -0.21995366459000901 0 -0.01839049427805331 -0.2195873775130934 0 -0.01084996336714465 -0.20584666152463099 0 -0.00080535468136348092 -0.21995366459000901 0 -0.01084996336714465 -0.20584666152463099 0 0.01016515501406726 -0.20926501301563591 0 -0.01084996336714465 -0.20584666152463099 0 -0.003739977245034012 -0.19168309442994089 0 0.01016515501406726 -0.20926501301563591 0 -0.01084996336714465 -0.20584666152463099 0 -0.003739977245034012 -0.19168309442994089 0 -0.02712874487570623 -0.18796761311505439 0 -0.027127261386640289 -0.20489204062456881 0 -0.01084996336714465 -0.20584666152463099 0 -0.02712874487570623 -0.18796761311505439 0 -0.041678182321736049 -0.18065303021324261 0 -0.02712874487570623 -0.18796761311505439 0 -0.045659865472505487 -0.198526269709837 0 -0.02712874487570623 -0.18796761311505439 0 -0.045659865472505487 -0.198526269709837 0 -0.027127261386640289 -0.20489204062456881 0 -0.02712874487570623 -0.18796761311505439 0 -0.045659865472505487 -0.198526269709837 0 -0.045659865472505487 -0.198526269709837 0 -0.067682806497079445 -0.21107449474949169 0 -0.062708331551170268 -0.19442045911658551 0 -0.060187329084152079 -0.17209125852752319 0 -0.045659865472505487 -0.198526269709837 0 -0.062708331551170268 -0.19442045911658551 0 -0.045659865472505487 -0.198526269709837 0 -0.067682806497079445 -0.21107449474949169 0 -0.045659865472505487 -0.198526269709837 0 -0.054546183461555722 -0.22015285450131489 0 -0.067682806497079445 -0.21107449474949169 0 -0.045659865472505487 -0.198526269709837 0 -0.034672499565036527 -0.2185195148069887 0 -0.054546183461555722 -0.22015285450131489 0 -0.045659865472505487 -0.198526269709837 0 -0.034672499565036527 -0.2185195148069887 0 -0.027127261386640289 -0.20489204062456881 0 -0.045659865472505487 -0.198526269709837 0 -0.034672499565036527 -0.2185195148069887 0 -0.034672499565036527 -0.2185195148069887 0 -0.044145410485190079 -0.23242073182379891 0 -0.054546183461555722 -0.22015285450131489 0 -0.02368513365757598 -0.23851275990414511 0 -0.034672499565036527 -0.2185195148069887 0 -0.044145410485190079 -0.23242073182379891 0 -0.044145410485190079 -0.23242073182379891 0 -0.054546183461555722 -0.22015285450131489 0 -0.061280333386656921 -0.23284462843810469 0 -0.061280333386656921 -0.23284462843810469 0 -0.050191684441297867 -0.2485850187836515 0 -0.071591358857016049 -0.2429226102204386 0 -0.050191684441297867 -0.2485850187836515 0 -0.071591358857016049 -0.2429226102204386 0 -0.056939497423126581 -0.24878681181634871 0 -0.050191684441297867 -0.2485850187836515 0 -0.071591358857016049 -0.2429226102204386 0 -0.044145410485190079 -0.23242073182379891 0 -0.061280333386656921 -0.23284462843810469 0 -0.050191684441297867 -0.2485850187836515 0 -0.041398382443623198 -0.25192549838374201 0 -0.056939497423126581 -0.24878681181634871 0 -0.050191684441297867 -0.2485850187836515 0 -0.044145410485190079 -0.23242073182379891 0 -0.050191684441297867 -0.2485850187836515 0 -0.036167443228362108 -0.24337299090061551 0 -0.02368513365757598 -0.23851275990414511 0 -0.044145410485190079 -0.23242073182379891 0 -0.036167443228362108 -0.24337299090061551 0 -0.025857267464119819 -0.25506418495113531 0 -0.050191684441297867 -0.2485850187836515 0 -0.036167443228362108 -0.24337299090061551 0 -0.097628444613881649 -0.25834262822693399 0 -0.087470553331264578 -0.24262075389877999 0 -0.077955776651182085 -0.24454236002529731 0 -0.087470553331264578 -0.24262075389877999 0 -0.087928467376508473 -0.23859976953689591 0 -0.1005617376665941 -0.23997685579502359 0 -0.087928467376508473 -0.23859976953689591 0 -0.07453604668454375 -0.2421434382925548 0 -0.07383618536286593 -0.22753148747966839 0 -0.087928467376508473 -0.23859976953689591 0 -0.07453604668454375 -0.2421434382925548 0 -0.087928467376508473 -0.23859976953689591 0 -0.077955776651182085 -0.24454236002529731 0 -0.07453604668454375 -0.2421434382925548 0 -0.087470553331264578 -0.24262075389877999 0 -0.087928467376508473 -0.23859976953689591 0 -0.077955776651182085 -0.24454236002529731 0 -0.087470553331264578 -0.24262075389877999 0 -0.077955776651182085 -0.24454236002529731 0 -0.056939497423126581 -0.24878681181634871 0 -0.077955776651182085 -0.24454236002529731 0 -0.071591358857016049 -0.2429226102204386 0 -0.056939497423126581 -0.24878681181634871 0 -0.077955776651182085 -0.24454236002529731 0 -0.077955776651182085 -0.24454236002529731 0 -0.071591358857016049 -0.2429226102204386 0 -0.07453604668454375 -0.2421434382925548 0 -0.077955776651182085 -0.24454236002529731 0 -0.07453604668454375 -0.2421434382925548 0 -0.071591358857016049 -0.2429226102204386 0 -0.07453604668454375 -0.2421434382925548 0 -0.056939497423126581 -0.24878681181634871 0 -0.071591358857016049 -0.2429226102204386 0 -0.061280333386656921 -0.23284462843810469 0 -0.071591358857016049 -0.2429226102204386 0 -0.07453604668454375 -0.2421434382925548 0 -0.061280333386656921 -0.23284462843810469 0 -0.07453604668454375 -0.2421434382925548 0 -0.07383618536286593 -0.22753148747966839 0 -0.089705747521653334 -0.22362271978914661 0 -0.067682806497079445 -0.21107449474949169 0 -0.054546183461555722 -0.22015285450131489 0 -0.061280333386656921 -0.23284462843810469 0 -0.07383618536286593 -0.22753148747966839 0 -0.054546183461555722 -0.22015285450131489 0 -0.07383618536286593 -0.22753148747966839 0 -0.067682806497079445 -0.21107449474949169 0 -0.061280333386656921 -0.23284462843810469 0 -0.07453604668454375 -0.2421434382925548 0 -0.07383618536286593 -0.22753148747966839 0 -0.087928467376508473 -0.23859976953689591 0 -0.07383618536286593 -0.22753148747966839 0 -0.089705747521653334 -0.22362271978914661 0 -0.087928467376508473 -0.23859976953689591 0 -0.089705747521653334 -0.22362271978914661 0 -0.1005617376665941 -0.23997685579502359 0 -0.089705747521653334 -0.22362271978914661 0 -0.067682806497079445 -0.21107449474949169 0 -0.089705747521653334 -0.22362271978914661 0 -0.084027466008495671 -0.20735524824550181 0 -0.09921486728828334 -0.20109800384388701 0 -0.089705747521653334 -0.22362271978914661 0 -0.084027466008495671 -0.20735524824550181 0 -0.067682806497079445 -0.21107449474949169 0 -0.084027466008495671 -0.20735524824550181 0 -0.067682806497079445 -0.21107449474949169 0 -0.079506442726966622 -0.19362577459948219 0 -0.067682806497079445 -0.21107449474949169 0 -0.062708331551170268 -0.19442045911658551 0 -0.079506442726966622 -0.19362577459948219 0 -0.079506442726966622 -0.19362577459948219 0 -0.09921486728828334 -0.20109800384388701 0 -0.089369030920126963 -0.1732707743578942 0 -0.084027466008495671 -0.20735524824550181 0 -0.079506442726966622 -0.19362577459948219 0 -0.09921486728828334 -0.20109800384388701 0 -0.09921486728828334 -0.20109800384388701 0 -0.1156293974943295 -0.1822747327150937 0 -0.1210853022939376 -0.205467400633562 0 -0.1156293974943295 -0.1822747327150937 0 -0.13505851963374399 -0.18906788910329131 0 -0.09921486728828334 -0.20109800384388701 0 -0.1210853022939376 -0.205467400633562 0 -0.1156293974943295 -0.1822747327150937 0 -0.1210853022939376 -0.205467400633562 0 -0.10755849924533691 -0.2178899443088799 0 -0.11989889803527461 -0.22145143588075511 0 -0.1210853022939376 -0.205467400633562 0 -0.11989889803527461 -0.22145143588075511 0 -0.13086176299679239 -0.21746526838305219 0 -0.089705747521653334 -0.22362271978914661 0 -0.09921486728828334 -0.20109800384388701 0 -0.10755849924533691 -0.2178899443088799 0 -0.09921486728828334 -0.20109800384388701 0 -0.1210853022939376 -0.205467400633562 0 -0.10755849924533691 -0.2178899443088799 0 -0.089705747521653334 -0.22362271978914661 0 -0.11172868854622731 -0.23617094482880149 0 -0.1005617376665941 -0.23997685579502359 0 -0.089705747521653334 -0.22362271978914661 0 -0.11172868854622731 -0.23617094482880149 0 -0.089705747521653334 -0.22362271978914661 0 -0.10755849924533691 -0.2178899443088799 0 -0.11172868854622731 -0.23617094482880149 0 -0.11989889803527461 -0.22145143588075511 0 -0.11172868854622731 -0.23617094482880149 0 -0.127825895831608 -0.22987551408160201 0 -0.10755849924533691 -0.2178899443088799 0 -0.11989889803527461 -0.22145143588075511 0 -0.11172868854622731 -0.23617094482880149 0 -0.13218950310710981 -0.25272660122947088 0 -0.1218823470606431 -0.24640061544388489 0 -0.1098930818979398 -0.24798588601512411 0 -0.11172868854622731 -0.23617094482880149 0 -0.13375162957080131 -0.24871916986845621 0 -0.11172868854622731 -0.23617094482880149 0 -0.1218823470606431 -0.24640061544388489 0 -0.13375162957080131 -0.24871916986845621 0 -0.11172868854622731 -0.23617094482880149 0 -0.13375162957080131 -0.24871916986845621 0 -0.127825895831608 -0.22987551408160201 0 -0.11172868854622731 -0.23617094482880149 0 -0.1218823470606431 -0.24640061544388489 0 -0.1098930818979398 -0.24798588601512411 0 -0.097628444613881649 -0.25834262822693399 0 -0.087470553331264578 -0.24262075389877999 0 -0.1098930818979398 -0.24798588601512411 0 -0.087470553331264578 -0.24262075389877999 0 -0.1098930818979398 -0.24798588601512411 0 -0.1005617376665941 -0.23997685579502359 0 -0.087470553331264578 -0.24262075389877999 0 -0.1098930818979398 -0.24798588601512411 0 -0.11172868854622731 -0.23617094482880149 0 -0.1098930818979398 -0.24798588601512411 0 -0.1005617376665941 -0.23997685579502359 0 -0.087470553331264578 -0.24262075389877999 0 -0.1005617376665941 -0.23997685579502359 0 -0.072389231474787458 -0.1492400490994332 0 -0.089369030920126963 -0.1732707743578942 0 -0.096011965921864201 -0.14265464397282879 0 -0.077516787342341589 -0.1242022911324857 0 -0.093262550211769629 -0.1231040070079162 0 -0.096011965921864201 -0.14265464397282879 0 -0.077516787342341589 -0.1242022911324857 0 -0.072389231474787458 -0.1492400490994332 0 -0.096011965921864201 -0.14265464397282879 0 -0.077516787342341589 -0.1242022911324857 0 -0.059238207921678762 -0.13024384051707169 0 -0.072389231474787458 -0.1492400490994332 0 -0.060187329084152079 -0.17209125852752319 0 -0.072389231474787458 -0.1492400490994332 0 -0.089369030920126963 -0.1732707743578942 0 -0.060187329084152079 -0.17209125852752319 0 -0.079506442726966622 -0.19362577459948219 0 -0.089369030920126963 -0.1732707743578942 0 -0.060187329084152079 -0.17209125852752319 0 -0.062708331551170268 -0.19442045911658551 0 -0.079506442726966622 -0.19362577459948219 0 -0.089369030920126963 -0.1732707743578942 0 -0.1107512355661594 -0.16096683979900789 0 -0.096011965921864201 -0.14265464397282879 0 -0.09921486728828334 -0.20109800384388701 0 -0.089369030920126963 -0.1732707743578942 0 -0.1156293974943295 -0.1822747327150937 0 -0.089369030920126963 -0.1732707743578942 0 -0.1156293974943295 -0.1822747327150937 0 -0.1107512355661594 -0.16096683979900789 0 -0.1156293974943295 -0.1822747327150937 0 -0.13204392770037571 -0.1634514615863005 0 -0.1156293974943295 -0.1822747327150937 0 -0.1107512355661594 -0.16096683979900789 0 -0.13204392770037571 -0.1634514615863005 0 -0.1107512355661594 -0.16096683979900789 0 -0.12070185579410091 -0.1431825863629223 0 -0.13204392770037571 -0.1634514615863005 0 -0.1107512355661594 -0.16096683979900789 0 -0.12070185579410091 -0.1431825863629223 0 -0.096011965921864201 -0.14265464397282879 0 -0.1071147179002416 -0.1244919901550422 0 -0.12070185579410091 -0.1431825863629223 0 -0.096011965921864201 -0.14265464397282879 0 -0.093262550211769629 -0.1231040070079162 0 -0.1071147179002416 -0.1244919901550422 0 -0.096011965921864201 -0.14265464397282879 0 -0.1071147179002416 -0.1244919901550422 0 -0.12070185579410091 -0.1431825863629223 0 -0.1306137014228527 -0.1212095633787966 0 -0.12070185579410091 -0.1431825863629223 0 -0.14845845790642179 -0.14462819045750719 0 -0.1306137014228527 -0.1212095633787966 0 -0.14845845790642179 -0.14462819045750719 0 -0.1306137014228527 -0.1212095633787966 0 -0.15036797716661271 -0.14243845987679379 0 -0.14845845790642179 -0.14462819045750719 0 -0.1306137014228527 -0.1212095633787966 0 -0.15406265534163929 -0.1294064941378926 0 -0.15036797716661271 -0.14243845987679379 0 -0.1306137014228527 -0.1212095633787966 0 -0.15406265534163929 -0.1294064941378926 0 -0.15036797716661271 -0.14243845987679379 0 -0.1564494690737798 -0.13971242061594299 0 -0.1543278084257422 -0.1453912472931165 0 -0.14845845790642179 -0.14462819045750719 0 -0.15894149653025619 -0.15184230729274609 0 -0.15519343748037609 -0.14309809199123349 0 -0.15036797716661271 -0.14243845987679379 0 -0.1564494690737798 -0.13971242061594299 0 -0.1543278084257422 -0.1453912472931165 0 -0.15519343748037609 -0.14309809199123349 0 -0.15036797716661271 -0.14243845987679379 0 -0.1543278084257422 -0.1453912472931165 0 -0.15036797716661271 -0.14243845987679379 0 -0.14845845790642179 -0.14462819045750719 0 -0.15036797716661271 -0.14243845987679379 0 -0.14845845790642179 -0.14462819045750719 0 -0.12070185579410091 -0.1431825863629223 0 -0.14845845790642179 -0.14462819045750719 0 -0.13204392770037571 -0.1634514615863005 0 -0.14845845790642179 -0.14462819045750719 0 -0.13204392770037571 -0.1634514615863005 0 -0.13204392770037571 -0.1634514615863005 0 -0.1475860696211248 -0.17640031700015249 0 -0.13505851963374399 -0.18906788910329131 0 -0.1156293974943295 -0.1822747327150937 0 -0.13204392770037571 -0.1634514615863005 0 -0.13505851963374399 -0.18906788910329131 0 -0.1475860696211248 -0.17640031700015249 0 -0.1655722477793394 -0.1670875310098065 0 -0.15496537504316019 -0.19429807729602311 0 -0.1475860696211248 -0.17640031700015249 0 -0.13505851963374399 -0.18906788910329131 0 -0.15496537504316019 -0.19429807729602311 0 -0.1475860696211248 -0.17640031700015249 0 -0.14862352044039201 -0.16347018067920821 0 -0.1655722477793394 -0.1670875310098065 0 -0.14845845790642179 -0.14462819045750719 0 -0.13204392770037571 -0.1634514615863005 0 -0.14862352044039201 -0.16347018067920821 0 -0.14845845790642179 -0.14462819045750719 0 -0.14862352044039201 -0.16347018067920821 0 -0.1655722477793394 -0.1670875310098065 0 -0.13204392770037571 -0.1634514615863005 0 -0.1475860696211248 -0.17640031700015249 0 -0.14862352044039201 -0.16347018067920821 0 -0.1655722477793394 -0.1670875310098065 0 -0.1716614177265566 -0.15146656102038991 0 -0.1655722477793394 -0.1670875310098065 0 -0.15894149653025619 -0.15184230729274609 0 -0.1716614177265566 -0.15146656102038991 0 -0.1655722477793394 -0.1670875310098065 0 -0.17557921295501691 -0.18022020591375351 0 -0.1689483943248192 -0.19264195369377959 0 -0.1655722477793394 -0.1670875310098065 0 -0.15496537504316019 -0.19429807729602311 0 -0.1689483943248192 -0.19264195369377959 0 -0.1655722477793394 -0.1670875310098065 0 -0.15496537504316019 -0.19429807729602311 0 -0.1655722477793394 -0.1670875310098065 0 -0.17557921295501691 -0.18022020591375351 0 -0.17557921295501691 -0.18022020591375351 0 -0.18239484980351819 -0.16464781923938721 0 -0.1907059301477185 -0.18468107337543721 0 -0.1655722477793394 -0.1670875310098065 0 -0.17557921295501691 -0.18022020591375351 0 -0.18239484980351819 -0.16464781923938721 0 -0.1655722477793394 -0.1670875310098065 0 -0.18239484980351819 -0.16464781923938721 0 -0.1716614177265566 -0.15146656102038991 0 -0.18239484980351819 -0.16464781923938721 0 -0.1716614177265566 -0.15146656102038991 0 -0.1894311146879058 -0.1465309504005988 0 -0.17775058767377289 -0.13584559103097291 0 -0.1716614177265566 -0.15146656102038991 0 -0.1894311146879058 -0.1465309504005988 0 -0.17775058767377289 -0.13584559103097291 0 -0.1716614177265566 -0.15146656102038991 0 -0.17775058767377289 -0.13584559103097291 0 -0.1894311146879058 -0.1465309504005988 0 -0.17775058767377289 -0.13584559103097291 0 -0.19823449762692411 -0.13229999761030051 0 -0.18534812722118199 -0.1163550958908785 0 -0.17775058767377289 -0.13584559103097291 0 -0.18534812722118199 -0.1163550958908785 0 -0.15406265534163929 -0.1294064941378926 0 -0.16394560233522651 -0.1386698702264933 0 -0.15606779039194271 -0.1160101434681408 0 -0.17775058767377289 -0.13584559103097291 0 -0.16394560233522651 -0.1386698702264933 0 -0.15606779039194271 -0.1160101434681408 0 -0.17775058767377289 -0.13584559103097291 0 -0.15606779039194271 -0.1160101434681408 0 -0.15406265534163929 -0.1294064941378926 0 -0.16394560233522651 -0.1386698702264933 0 -0.1564494690737798 -0.13971242061594299 0 -0.16394560233522651 -0.1386698702264933 0 -0.1564494690737798 -0.13971242061594299 0 -0.15962849525536979 -0.1448502401790808 0 -0.14845845790642179 -0.14462819045750719 0 -0.1655722477793394 -0.1670875310098065 0 -0.14845845790642179 -0.14462819045750719 0 -0.1655722477793394 -0.1670875310098065 0 -0.15894149653025619 -0.15184230729274609 0 -0.15519343748037609 -0.14309809199123349 0 -0.1564494690737798 -0.13971242061594299 0 -0.15962849525536979 -0.1448502401790808 0 -0.1543278084257422 -0.1453912472931165 0 -0.15519343748037609 -0.14309809199123349 0 -0.15962849525536979 -0.1448502401790808 0 -0.1543278084257422 -0.1453912472931165 0 -0.15962849525536979 -0.1448502401790808 0 -0.15894149653025619 -0.15184230729274609 0 -0.15962849525536979 -0.1448502401790808 0 -0.15894149653025619 -0.15184230729274609 0 -0.1716614177265566 -0.15146656102038991 0 -0.17775058767377289 -0.13584559103097291 0 -0.16394560233522651 -0.1386698702264933 0 -0.1716614177265566 -0.15146656102038991 0 -0.16394560233522651 -0.1386698702264933 0 -0.15962849525536979 -0.1448502401790808 0 -0.1716614177265566 -0.15146656102038991 0 -0.1534429259631987 -0.25724555178864622 0 -0.15289321433053751 -0.246830478479277 0 -0.1378886282313006 -0.2381062402767252 0 -0.1534429259631987 -0.25724555178864622 0 -0.1378886282313006 -0.2381062402767252 0 -0.15348527020851541 -0.23913552791147211 0 -0.1378886282313006 -0.2381062402767252 0 -0.15430752157141919 -0.22794821467022949 0 -0.15289321433053751 -0.246830478479277 0 -0.15348527020851541 -0.23913552791147211 0 -0.1601832428566283 -0.24550858739866141 0 -0.15289321433053751 -0.246830478479277 0 -0.15348527020851541 -0.23913552791147211 0 -0.1378886282313006 -0.2381062402767252 0 -0.1459019403517107 -0.25564217047089421 0 -0.13375162957080131 -0.24871916986845621 0 -0.1378886282313006 -0.2381062402767252 0 -0.13375162957080131 -0.24871916986845621 0 -0.1378886282313006 -0.2381062402767252 0 -0.127825895831608 -0.22987551408160201 0 -0.13375162957080131 -0.24871916986845621 0 -0.1378886282313006 -0.2381062402767252 0 -0.13218950310710981 -0.25272660122947088 0 -0.1218823470606431 -0.24640061544388489 0 -0.13375162957080131 -0.24871916986845621 0 -0.127825895831608 -0.22987551408160201 0 -0.14435850230698141 -0.22150862358223991 0 -0.13086176299679239 -0.21746526838305219 0 -0.1378886282313006 -0.2381062402767252 0 -0.127825895831608 -0.22987551408160201 0 -0.14435850230698141 -0.22150862358223991 0 -0.11989889803527461 -0.22145143588075511 0 -0.127825895831608 -0.22987551408160201 0 -0.13086176299679239 -0.21746526838305219 0 -0.1378886282313006 -0.2381062402767252 0 -0.14435850230698141 -0.22150862358223991 0 -0.14435850230698141 -0.22150862358223991 0 -0.15430752157141919 -0.22794821467022949 0 -0.16410544360365359 -0.21493654602220469 0 -0.1378886282313006 -0.2381062402767252 0 -0.14435850230698141 -0.22150862358223991 0 -0.15430752157141919 -0.22794821467022949 0 -0.14435850230698141 -0.22150862358223991 0 -0.15496537504316019 -0.19429807729602311 0 -0.14435850230698141 -0.22150862358223991 0 -0.1373527607074172 -0.20563907323320921 0 -0.15496537504316019 -0.19429807729602311 0 -0.14435850230698141 -0.22150862358223991 0 -0.15496537504316019 -0.19429807729602311 0 -0.16410544360365359 -0.21493654602220469 0 -0.14435850230698141 -0.22150862358223991 0 -0.1373527607074172 -0.20563907323320921 0 -0.13086176299679239 -0.21746526838305219 0 -0.1210853022939376 -0.205467400633562 0 -0.1373527607074172 -0.20563907323320921 0 -0.13086176299679239 -0.21746526838305219 0 -0.1210853022939376 -0.205467400633562 0 -0.1373527607074172 -0.20563907323320921 0 -0.13505851963374399 -0.18906788910329131 0 -0.1373527607074172 -0.20563907323320921 0 -0.13505851963374399 -0.18906788910329131 0 -0.15496537504316019 -0.19429807729602311 0 -0.1689483943248192 -0.19264195369377959 0 -0.17994482166635981 -0.2014366202218163 0 -0.16410544360365359 -0.21493654602220469 0 -0.15496537504316019 -0.19429807729602311 0 -0.1689483943248192 -0.19264195369377959 0 -0.16410544360365359 -0.21493654602220469 0 -0.17557921295501691 -0.18022020591375351 0 -0.1689483943248192 -0.19264195369377959 0 -0.17994482166635981 -0.2014366202218163 0 -0.17557921295501691 -0.18022020591375351 0 -0.17994482166635981 -0.2014366202218163 0 -0.1907059301477185 -0.18468107337543721 0 -0.17994482166635981 -0.2014366202218163 0 -0.1784102433228649 -0.21681777692650089 0 -0.16410544360365359 -0.21493654602220469 0 -0.17994482166635981 -0.2014366202218163 0 -0.18904495760185211 -0.20873870471059999 0 -0.19252771524915421 -0.19930647688205899 0 -0.17994482166635981 -0.2014366202218163 0 -0.1784102433228649 -0.21681777692650089 0 -0.18904495760185211 -0.20873870471059999 0 -0.1784102433228649 -0.21681777692650089 0 -0.19175951728552271 -0.21959172261586679 0 -0.18904495760185211 -0.20873870471059999 0 -0.15430752157141919 -0.22794821467022949 0 -0.16410544360365359 -0.21493654602220469 0 -0.16877954452522659 -0.2255120540677526 0 -0.15430752157141919 -0.22794821467022949 0 -0.16877954452522659 -0.2255120540677526 0 -0.16324537569009509 -0.2357306359809743 0 -0.15348527020851541 -0.23913552791147211 0 -0.15430752157141919 -0.22794821467022949 0 -0.16324537569009509 -0.2357306359809743 0 -0.16877954452522659 -0.2255120540677526 0 -0.17781387366555559 -0.23090770197000129 0 -0.16324537569009509 -0.2357306359809743 0 -0.1784102433228649 -0.21681777692650089 0 -0.16410544360365359 -0.21493654602220469 0 -0.16877954452522659 -0.2255120540677526 0 -0.1784102433228649 -0.21681777692650089 0 -0.16877954452522659 -0.2255120540677526 0 -0.17781387366555559 -0.23090770197000129 0 -0.1784102433228649 -0.21681777692650089 0 -0.17781387366555559 -0.23090770197000129 0 -0.19175951728552271 -0.21959172261586679 0 -0.17781387366555559 -0.23090770197000129 0 -0.1805311654956796 -0.2411950136452527 0 -0.19410287643929239 -0.23312434657521411 0 -0.17781387366555559 -0.23090770197000129 0 -0.1805311654956796 -0.2411950136452527 0 -0.16955513552828311 -0.24305067226283769 0 -0.17679077873490559 -0.25046109420941731 0 -0.1805311654956796 -0.2411950136452527 0 -0.18863044441395099 -0.24733650333174401 0 -0.17679077873490559 -0.25046109420941731 0 -0.1805311654956796 -0.2411950136452527 0 -0.16955513552828311 -0.24305067226283769 0 -0.16709258238786229 -0.25188408856254202 0 -0.17679077873490559 -0.25046109420941731 0 -0.16955513552828311 -0.24305067226283769 0 -0.16709258238786229 -0.25188408856254202 0 -0.16955513552828311 -0.24305067226283769 0 -0.1601832428566283 -0.24550858739866141 0 -0.17781387366555559 -0.23090770197000129 0 -0.16955513552828311 -0.24305067226283769 0 -0.16324537569009509 -0.2357306359809743 0 -0.16955513552828311 -0.24305067226283769 0 -0.16324537569009509 -0.2357306359809743 0 -0.1601832428566283 -0.24550858739866141 0 -0.15348527020851541 -0.23913552791147211 0 -0.16324537569009509 -0.2357306359809743 0 -0.1601832428566283 -0.24550858739866141 0 -0.1593809120407062 -0.25278805690175971 0 -0.15289321433053751 -0.246830478479277 0 -0.1601832428566283 -0.24550858739866141 0 -0.20565562739327201 -0.24334207984173631 0 -0.19410287643929239 -0.23312434657521411 0 -0.21201774175915139 -0.2290986139018284 0 -0.21472073189145299 -0.25725591714607071 0 -0.20565562739327201 -0.24334207984173631 0 -0.22837296648480071 -0.23789375384220129 0 -0.20565562739327201 -0.24334207984173631 0 -0.21201774175915139 -0.2290986139018284 0 -0.22837296648480071 -0.23789375384220129 0 -0.20565562739327201 -0.24334207984173631 0 -0.18863044441395099 -0.24733650333174401 0 -0.19410287643929239 -0.23312434657521411 0 -0.1805311654956796 -0.2411950136452527 0 -0.18863044441395099 -0.24733650333174401 0 -0.19410287643929239 -0.23312434657521411 0 -0.17781387366555559 -0.23090770197000129 0 -0.19410287643929239 -0.23312434657521411 0 -0.19175951728552271 -0.21959172261586679 0 -0.19410287643929239 -0.23312434657521411 0 -0.19175951728552271 -0.21959172261586679 0 -0.20443040571370949 -0.21985141578154491 0 -0.21201774175915139 -0.2290986139018284 0 -0.20443040571370949 -0.21985141578154491 0 -0.22630383013383959 -0.21240708539258099 0 -0.19410287643929239 -0.23312434657521411 0 -0.21201774175915139 -0.2290986139018284 0 -0.20443040571370949 -0.21985141578154491 0 -0.20157622681128409 -0.2075672839719423 0 -0.21557055542943429 -0.1904257004922347 0 -0.22630383013383959 -0.21240708539258099 0 -0.20157622681128409 -0.2075672839719423 0 -0.22630383013383959 -0.21240708539258099 0 -0.20443040571370949 -0.21985141578154491 0 -0.20157622681128409 -0.2075672839719423 0 -0.22630383013383959 -0.21240708539258099 0 -0.19175951728552271 -0.21959172261586679 0 -0.20443040571370949 -0.21985141578154491 0 -0.20157622681128409 -0.2075672839719423 0 -0.19175951728552271 -0.21959172261586679 0 -0.20157622681128409 -0.2075672839719423 0 -0.19175951728552271 -0.21959172261586679 0 -0.18904495760185211 -0.20873870471059999 0 -0.20157622681128409 -0.2075672839719423 0 -0.18904495760185211 -0.20873870471059999 0 -0.20157622681128409 -0.2075672839719423 0 -0.19252771524915421 -0.19930647688205899 0 -0.17994482166635981 -0.2014366202218163 0 -0.19252771524915421 -0.19930647688205899 0 -0.1907059301477185 -0.18468107337543721 0 -0.20157622681128409 -0.2075672839719423 0 -0.19252771524915421 -0.19930647688205899 0 -0.20187756758401409 -0.19506767240709361 0 -0.19252771524915421 -0.19930647688205899 0 -0.20187756758401409 -0.19506767240709361 0 -0.1907059301477185 -0.18468107337543721 0 -0.20157622681128409 -0.2075672839719423 0 -0.21557055542943429 -0.1904257004922347 0 -0.20187756758401409 -0.19506767240709361 0 -0.21557055542943429 -0.1904257004922347 0 -0.2038146335316797 -0.1820121315948606 0 -0.20157622681128409 -0.2075672839719423 0 -0.20187756758401409 -0.19506767240709361 0 -0.21557055542943429 -0.1904257004922347 0 -0.21557055542943429 -0.1904257004922347 0 -0.23533053747689989 -0.1962925907305976 0 -0.22630383013383959 -0.21240708539258099 0 -0.23533053747689989 -0.1962925907305976 0 -0.25103143345639523 -0.21724688681321891 0 -0.25418198431724581 -0.18809916394242601 0 -0.22630383013383959 -0.21240708539258099 0 -0.25103143345639523 -0.21724688681321891 0 -0.23533053747689989 -0.1962925907305976 0 -0.22630383013383959 -0.21240708539258099 0 -0.25103143345639523 -0.21724688681321891 0 -0.21201774175915139 -0.2290986139018284 0 -0.22630383013383959 -0.21240708539258099 0 -0.22837296648480071 -0.23789375384220129 0 -0.22630383013383959 -0.21240708539258099 0 -0.22837296648480071 -0.23789375384220129 0 -0.25103143345639523 -0.21724688681321891 0 -0.22837296648480071 -0.23789375384220129 0 -0.25431856302814809 -0.24833495949118861 0 -0.25103143345639523 -0.21724688681321891 0 -0.2335542019388327 -0.26090262277066528 0 -0.22837296648480071 -0.23789375384220129 0 -0.25431856302814809 -0.24833495949118861 0 -0.20708483324238849 -0.15128624944667929 0 -0.22647357207813959 -0.15205360930679629 0 -0.2195633859389316 -0.1340578990397249 0 -0.20708483324238849 -0.15128624944667929 0 -0.19823449762692411 -0.13229999761030051 0 -0.2195633859389316 -0.1340578990397249 0 -0.19823449762692411 -0.13229999761030051 0 -0.2195633859389316 -0.1340578990397249 0 -0.21022893699736381 -0.1097241998529486 0 -0.17775058767377289 -0.13584559103097291 0 -0.19823449762692411 -0.13229999761030051 0 -0.1894311146879058 -0.1465309504005988 0 -0.20708483324238849 -0.15128624944667929 0 -0.1894311146879058 -0.1465309504005988 0 -0.19351686899232889 -0.15854259719770419 0 -0.20708483324238849 -0.15128624944667929 0 -0.19823449762692411 -0.13229999761030051 0 -0.1894311146879058 -0.1465309504005988 0 -0.20708483324238849 -0.15128624944667929 0 -0.19351686899232889 -0.15854259719770419 0 -0.19880271024428661 -0.17007658736909009 0 -0.18239484980351819 -0.16464781923938721 0 -0.1894311146879058 -0.1465309504005988 0 -0.19351686899232889 -0.15854259719770419 0 -0.18239484980351819 -0.16464781923938721 0 -0.19351686899232889 -0.15854259719770419 0 -0.19880271024428661 -0.17007658736909009 0 -0.18239484980351819 -0.16464781923938721 0 -0.19880271024428661 -0.17007658736909009 0 -0.1907059301477185 -0.18468107337543721 0 -0.19880271024428661 -0.17007658736909009 0 -0.1907059301477185 -0.18468107337543721 0 -0.2038146335316797 -0.1820121315948606 0 -0.20187756758401409 -0.19506767240709361 0 -0.1907059301477185 -0.18468107337543721 0 -0.2038146335316797 -0.1820121315948606 0 -0.21557055542943429 -0.1904257004922347 0 -0.2038146335316797 -0.1820121315948606 0 -0.21355186476225221 -0.16985639920369799 0 -0.19880271024428661 -0.17007658736909009 0 -0.2038146335316797 -0.1820121315948606 0 -0.21355186476225221 -0.16985639920369799 0 -0.20708483324238849 -0.15128624944667929 0 -0.21355186476225221 -0.16985639920369799 0 -0.22647357207813959 -0.15205360930679629 0 -0.20708483324238849 -0.15128624944667929 0 -0.19880271024428661 -0.17007658736909009 0 -0.21355186476225221 -0.16985639920369799 0 -0.22956488404758479 -0.1732841170125273 0 -0.2435592126657353 -0.1561425335328199 0 -0.22647357207813959 -0.15205360930679629 0 -0.21355186476225221 -0.16985639920369799 0 -0.22956488404758479 -0.1732841170125273 0 -0.22647357207813959 -0.15205360930679629 0 -0.21557055542943429 -0.1904257004922347 0 -0.21355186476225221 -0.16985639920369799 0 -0.22956488404758479 -0.1732841170125273 0 -0.21557055542943429 -0.1904257004922347 0 -0.22956488404758479 -0.1732841170125273 0 -0.21557055542943429 -0.1904257004922347 0 -0.23533053747689989 -0.1962925907305976 0 -0.22956488404758479 -0.1732841170125273 0 -0.23533053747689989 -0.1962925907305976 0 -0.22956488404758479 -0.1732841170125273 0 -0.25418198431724581 -0.18809916394242601 0 -0.22956488404758479 -0.1732841170125273 0 -0.25418198431724581 -0.18809916394242601 0 -0.2565438833259911 -0.1687602707777138 0 -0.22956488404758479 -0.1732841170125273 0 -0.2435592126657353 -0.1561425335328199 0 -0.22956488404758479 -0.1732841170125273 0 -0.2435592126657353 -0.1561425335328199 0 -0.2565438833259911 -0.1687602707777138 0 -0.2435592126657353 -0.1561425335328199 0 -0.22647357207813959 -0.15205360930679629 0 -0.2432602079730701 -0.13485583854350039 0 -0.22647357207813959 -0.15205360930679629 0 -0.2195633859389316 -0.1340578990397249 0 -0.2432602079730701 -0.13485583854350039 0 -0.2195633859389316 -0.1340578990397249 0 -0.2432602079730701 -0.13485583854350039 0 -0.23065476516460279 -0.11957242830579699 0 -0.2432602079730701 -0.13485583854350039 0 -0.2499653418643101 -0.1102460646797562 0 -0.23065476516460279 -0.11957242830579699 0 -0.2499653418643101 -0.1102460646797562 0 -0.2308399038819596 -0.1034577205422559 0 -0.23065476516460279 -0.11957242830579699 0 -0.2308399038819596 -0.1034577205422559 0 -0.25308440776240432 -0.086371671251396109 0 -0.2499653418643101 -0.1102460646797562 0 -0.2308399038819596 -0.1034577205422559 0 -0.25308440776240432 -0.086371671251396109 0 -0.2308399038819596 -0.1034577205422559 0 -0.21022893699736381 -0.1097241998529486 0 -0.21520721362926831 -0.098298511723915558 0 -0.2308399038819596 -0.1034577205422559 0 -0.22013457808717909 -0.089221868029860679 0 -0.21520721362926831 -0.098298511723915558 0 -0.2308399038819596 -0.1034577205422559 0 -0.23065476516460279 -0.11957242830579699 0 -0.21022893699736381 -0.1097241998529486 0 -0.2195633859389316 -0.1340578990397249 0 -0.23065476516460279 -0.11957242830579699 0 -0.21022893699736381 -0.1097241998529486 0 -0.2335598957907816 -0.079883889973887123 0 -0.24475965461883589 -0.059498385283178377 0 -0.2582325144520296 -0.070050845257802419 0 -0.2335598957907816 -0.079883889973887123 0 -0.2582325144520296 -0.070050845257802419 0 -0.25308440776240432 -0.086371671251396109 0 -0.2308399038819596 -0.1034577205422559 0 -0.2335598957907816 -0.079883889973887123 0 -0.25308440776240432 -0.086371671251396109 0 -0.2308399038819596 -0.1034577205422559 0 -0.22013457808717909 -0.089221868029860679 0 -0.2335598957907816 -0.079883889973887123 0 -0.22013457808717909 -0.089221868029860679 0 -0.2335598957907816 -0.079883889973887123 0 -0.21963876375789801 -0.077814354495200549 0 -0.2335598957907816 -0.079883889973887123 0 -0.21595644614104051 -0.065738508165203102 0 -0.24475965461883589 -0.059498385283178377 0 -0.21595644614104051 -0.065738508165203102 0 -0.24475965461883589 -0.059498385283178377 0 -0.2335598957907816 -0.079883889973887123 0 -0.21963876375789801 -0.077814354495200549 0 -0.21595644614104051 -0.065738508165203102 0 -0.20438945881064449 -0.068244458930106389 0 -0.21100771399754009 -0.086966924160961745 0 -0.21595644614104051 -0.065738508165203102 0 -0.21100771399754009 -0.086966924160961745 0 -0.20438945881064449 -0.068244458930106389 0 -0.21595644614104051 -0.065738508165203102 0 -0.21100771399754009 -0.086966924160961745 0 -0.21963876375789801 -0.077814354495200549 0 -0.21595644614104051 -0.065738508165203102 0 -0.21100771399754009 -0.086966924160961745 0 -0.20438945881064449 -0.068244458930106389 0 -0.21595644614104051 -0.065738508165203102 0 -0.20438945881064449 -0.068244458930106389 0 -0.21595644614104051 -0.065738508165203102 0 -0.20711132549122371 -0.057203435059411119 0 -0.20438945881064449 -0.068244458930106389 0 -0.21100771399754009 -0.086966924160961745 0 -0.19851231957361129 -0.085310821531315487 0 -0.22013457808717909 -0.089221868029860679 0 -0.21963876375789801 -0.077814354495200549 0 -0.21100771399754009 -0.086966924160961745 0 -0.22013457808717909 -0.089221868029860679 0 -0.21100771399754009 -0.086966924160961745 0 -0.21520721362926831 -0.098298511723915558 0 -0.21100771399754009 -0.086966924160961745 0 -0.19851231957361129 -0.085310821531315487 0 -0.20550431009004061 -0.095676697317907802 0 -0.21100771399754009 -0.086966924160961745 0 -0.21520721362926831 -0.098298511723915558 0 -0.20550431009004061 -0.095676697317907802 0 -0.19851231957361129 -0.085310821531315487 0 -0.18118326058104209 -0.08825419183970401 0 -0.18409944718507371 -0.07264022497537044 0 -0.19851231957361129 -0.085310821531315487 0 -0.19294566676858971 -0.096864600750783431 0 -0.18118326058104209 -0.08825419183970401 0 -0.19851231957361129 -0.085310821531315487 0 -0.20550431009004061 -0.095676697317907802 0 -0.19294566676858971 -0.096864600750783431 0 -0.20438945881064449 -0.068244458930106389 0 -0.19851231957361129 -0.085310821531315487 0 -0.18409944718507371 -0.07264022497537044 0 -0.20438945881064449 -0.068244458930106389 0 -0.18409944718507371 -0.07264022497537044 0 -0.18769526278089041 -0.057829612445021099 0 -0.20438945881064449 -0.068244458930106389 0 -0.18409944718507371 -0.07264022497537044 0 -0.21022893699736381 -0.1097241998529486 0 -0.21520721362926831 -0.098298511723915558 0 -0.20550431009004061 -0.095676697317907802 0 -0.21022893699736381 -0.1097241998529486 0 -0.20550431009004061 -0.095676697317907802 0 -0.19294566676858971 -0.096864600750783431 0 -0.19294566676858971 -0.096864600750783431 0 -0.18534812722118199 -0.1163550958908785 0 -0.21022893699736381 -0.1097241998529486 0 -0.19294566676858971 -0.096864600750783431 0 -0.18534812722118199 -0.1163550958908785 0 -0.19823449762692411 -0.13229999761030051 0 -0.21022893699736381 -0.1097241998529486 0 -0.18534812722118199 -0.1163550958908785 0 -0.18534812722118199 -0.1163550958908785 0 -0.17423934197139679 -0.1017815859784342 0 -0.15606779039194271 -0.1160101434681408 0 -0.17775058767377289 -0.13584559103097291 0 -0.18534812722118199 -0.1163550958908785 0 -0.15606779039194271 -0.1160101434681408 0 -0.16057304666404501 -0.10079887419961479 0 -0.17423934197139679 -0.1017815859784342 0 -0.15606779039194271 -0.1160101434681408 0 -0.16057304666404501 -0.10079887419961479 0 -0.16746185343044401 -0.091445336260546128 0 -0.1570966781871318 -0.090327755750333361 0 -0.16057304666404501 -0.10079887419961479 0 -0.17423934197139679 -0.1017815859784342 0 -0.16746185343044401 -0.091445336260546128 0 -0.17423934197139679 -0.1017815859784342 0 -0.18118326058104209 -0.08825419183970401 0 -0.16746185343044401 -0.091445336260546128 0 -0.19294566676858971 -0.096864600750783431 0 -0.18534812722118199 -0.1163550958908785 0 -0.17423934197139679 -0.1017815859784342 0 -0.19294566676858971 -0.096864600750783431 0 -0.17423934197139679 -0.1017815859784342 0 -0.18118326058104209 -0.08825419183970401 0 -0.18118326058104209 -0.08825419183970401 0 -0.18409944718507371 -0.07264022497537044 0 -0.16915717098214109 -0.081397787743409861 0 -0.18118326058104209 -0.08825419183970401 0 -0.16746185343044401 -0.091445336260546128 0 -0.16915717098214109 -0.081397787743409861 0 -0.18409944718507371 -0.07264022497537044 0 -0.1702117591297739 -0.06777753321031553 0 -0.16380943555950259 -0.077035991020633382 0 -0.18409944718507371 -0.07264022497537044 0 -0.16380943555950259 -0.077035991020633382 0 -0.16915717098214109 -0.081397787743409861 0 -0.18409944718507371 -0.07264022497537044 0 -0.17187825396406881 -0.057945450019426657 0 -0.18769526278089041 -0.057829612445021099 0 -0.18409944718507371 -0.07264022497537044 0 -0.16380943555950259 -0.077035991020633382 0 -0.18409944718507371 -0.07264022497537044 0 -0.1702117591297739 -0.06777753321031553 0 -0.17187825396406881 -0.057945450019426657 0 -0.16380943555950259 -0.077035991020633382 0 -0.16105989981045041 -0.063488466825831633 0 -0.14595160177326619 -0.062470528310013429 0 -0.1702117591297739 -0.06777753321031553 0 -0.16105989981045041 -0.063488466825831633 0 -0.17187825396406881 -0.057945450019426657 0 -0.1702117591297739 -0.06777753321031553 0 -0.16380943555950259 -0.077035991020633382 0 -0.16105989981045041 -0.063488466825831633 0 -0.16380943555950259 -0.077035991020633382 0 -0.16109871639751261 -0.084134952385501949 0 -0.14796844382834351 -0.080467891152587012 0 -0.16746185343044401 -0.091445336260546128 0 -0.16915717098214109 -0.081397787743409861 0 -0.16109871639751261 -0.084134952385501949 0 -0.16380943555950259 -0.077035991020633382 0 -0.16915717098214109 -0.081397787743409861 0 -0.16109871639751261 -0.084134952385501949 0 -0.16380943555950259 -0.077035991020633382 0 -0.16915717098214109 -0.081397787743409861 0 -0.16746185343044401 -0.091445336260546128 0 -0.16109871639751261 -0.084134952385501949 0 -0.1570966781871318 -0.090327755750333361 0 -0.16380943555950259 -0.077035991020633382 0 -0.14796844382834351 -0.080467891152587012 0 -0.14796844382834351 -0.080467891152587012 0 -0.13497135686491851 -0.078315161523928284 0 -0.1484932433812913 -0.094043062253026791 0 -0.1570966781871318 -0.090327755750333361 0 -0.14796844382834351 -0.080467891152587012 0 -0.1484932433812913 -0.094043062253026791 0 -0.16109871639751261 -0.084134952385501949 0 -0.1570966781871318 -0.090327755750333361 0 -0.14796844382834351 -0.080467891152587012 0 -0.16380943555950259 -0.077035991020633382 0 -0.14796844382834351 -0.080467891152587012 0 -0.14595160177326619 -0.062470528310013429 0 -0.16380943555950259 -0.077035991020633382 0 -0.14595160177326619 -0.062470528310013429 0 -0.14796844382834351 -0.080467891152587012 0 -0.13497135686491851 -0.078315161523928284 0 -0.14595160177326619 -0.062470528310013429 0 -0.1158705629695205 -0.060236298698018297 0 -0.13497135686491851 -0.078315161523928284 0 -0.1158705629695205 -0.060236298698018297 0 -0.13497135686491851 -0.078315161523928284 0 -0.13122182239868371 -0.062231763532838429 0 -0.13497135686491851 -0.078315161523928284 0 -0.13122182239868371 -0.062231763532838429 0 -0.14595160177326619 -0.062470528310013429 0 -0.112702195828283 -0.076339248342475546 0 -0.13497135686491851 -0.078315161523928284 0 -0.13438499311011279 -0.096174695905308166 0 -0.13497135686491851 -0.078315161523928284 0 -0.13438499311011279 -0.096174695905308166 0 -0.1484932433812913 -0.094043062253026791 0 -0.11276894493928399 -0.097790936300085646 0 -0.13438499311011279 -0.096174695905308166 0 -0.1306137014228527 -0.1212095633787966 0 -0.13438499311011279 -0.096174695905308166 0 -0.1306137014228527 -0.1212095633787966 0 -0.15606779039194271 -0.1160101434681408 0 -0.15406265534163929 -0.1294064941378926 0 -0.1306137014228527 -0.1212095633787966 0 -0.15606779039194271 -0.1160101434681408 0 -0.13438499311011279 -0.096174695905308166 0 -0.15606779039194271 -0.1160101434681408 0 -0.1484932433812913 -0.094043062253026791 0 -0.16057304666404501 -0.10079887419961479 0 -0.15606779039194271 -0.1160101434681408 0 -0.1484932433812913 -0.094043062253026791 0 -0.13438499311011279 -0.096174695905308166 0 -0.15606779039194271 -0.1160101434681408 0 -0.16057304666404501 -0.10079887419961479 0 -0.1570966781871318 -0.090327755750333361 0 -0.1484932433812913 -0.094043062253026791 0 -0.14513665439653431 -0.02122229521611602 0 -0.15148395360685291 -0.031475856168514699 0 -0.16129500549156001 -0.024264335985147129 0 -0.14513665439653431 -0.02122229521611602 0 -0.1346415055917565 -0.031432898451717602 0 -0.15148395360685291 -0.031475856168514699 0 -0.14513665439653431 -0.02122229521611602 0 -0.15327979458335059 -0.01391829646419882 0 -0.16129500549156001 -0.024264335985147129 0 -0.1412848112475209 -0.008091449167619497 0 -0.15773416148281841 -0.0035868741371463562 0 -0.14801408494475049 0.0031182785745780331 0 -0.15327979458335059 -0.01391829646419882 0 -0.1412848112475209 -0.008091449167619497 0 -0.15773416148281841 -0.0035868741371463562 0 -0.14513665439653431 -0.02122229521611602 0 -0.15327979458335059 -0.01391829646419882 0 -0.1412848112475209 -0.008091449167619497 0 -0.1236693299605585 -0.0137973575501921 0 -0.1412848112475209 -0.008091449167619497 0 -0.12735709500343681 0.004015926865657337 0 -0.1412848112475209 -0.008091449167619497 0 -0.12735709500343681 0.004015926865657337 0 -0.14801408494475049 0.0031182785745780331 0 -0.1236693299605585 -0.0137973575501921 0 -0.1412848112475209 -0.008091449167619497 0 -0.13426109495296229 -0.02049569832685658 0 -0.1236693299605585 -0.0137973575501921 0 -0.1221370268088495 -0.025998648103035 0 -0.13426109495296229 -0.02049569832685658 0 -0.14513665439653431 -0.02122229521611602 0 -0.1412848112475209 -0.008091449167619497 0 -0.13426109495296229 -0.02049569832685658 0 -0.14513665439653431 -0.02122229521611602 0 -0.13426109495296229 -0.02049569832685658 0 -0.1346415055917565 -0.031432898451717602 0 -0.1221370268088495 -0.025998648103035 0 -0.12530131535501859 -0.034952786400489197 0 -0.1346415055917565 -0.031432898451717602 0 -0.1221370268088495 -0.025998648103035 0 -0.13426109495296229 -0.02049569832685658 0 -0.1346415055917565 -0.031432898451717602 0 -0.12530131535501859 -0.034952786400489197 0 -0.1346415055917565 -0.031432898451717602 0 -0.12809376798702951 -0.047905065599393698 0 -0.1346415055917565 -0.031432898451717602 0 -0.12809376798702951 -0.047905065599393698 0 -0.14629371500633531 -0.042796653234188263 0 -0.12809376798702951 -0.047905065599393698 0 -0.14595160177326619 -0.062470528310013429 0 -0.12809376798702951 -0.047905065599393698 0 -0.14595160177326619 -0.062470528310013429 0 -0.14629371500633531 -0.042796653234188263 0 -0.13122182239868371 -0.062231763532838429 0 -0.12809376798702951 -0.047905065599393698 0 -0.14595160177326619 -0.062470528310013429 0 -0.1158705629695205 -0.060236298698018297 0 -0.13122182239868371 -0.062231763532838429 0 -0.12809376798702951 -0.047905065599393698 0 -0.14595160177326619 -0.062470528310013429 0 -0.14629371500633531 -0.042796653234188263 0 -0.15696853651444401 -0.052603520026387289 0 -0.16105989981045041 -0.063488466825831633 0 -0.14595160177326619 -0.062470528310013429 0 -0.15696853651444401 -0.052603520026387289 0 -0.15148395360685291 -0.031475856168514699 0 -0.14629371500633531 -0.042796653234188263 0 -0.16402488563849801 -0.041062174760887443 0 -0.1346415055917565 -0.031432898451717602 0 -0.15148395360685291 -0.031475856168514699 0 -0.14629371500633531 -0.042796653234188263 0 -0.14629371500633531 -0.042796653234188263 0 -0.16402488563849801 -0.041062174760887443 0 -0.15696853651444401 -0.052603520026387289 0 -0.15148395360685291 -0.031475856168514699 0 -0.16402488563849801 -0.041062174760887443 0 -0.16129500549156001 -0.024264335985147129 0 -0.16402488563849801 -0.041062174760887443 0 -0.17409393016306191 -0.030370879776367592 0 -0.16129500549156001 -0.024264335985147129 0 -0.16402488563849801 -0.041062174760887443 0 -0.15696853651444401 -0.052603520026387289 0 -0.17187825396406881 -0.057945450019426657 0 -0.16105989981045041 -0.063488466825831633 0 -0.15696853651444401 -0.052603520026387289 0 -0.17187825396406881 -0.057945450019426657 0 -0.16402488563849801 -0.041062174760887443 0 -0.17187825396406881 -0.057945450019426657 0 -0.18133558272394029 -0.043618149437272283 0 -0.17187825396406881 -0.057945450019426657 0 -0.18133558272394029 -0.043618149437272283 0 -0.18769526278089041 -0.057829612445021099 0 -0.18133558272394029 -0.043618149437272283 0 -0.17409393016306191 -0.030370879776367592 0 -0.18915768363079971 -0.025155098795753519 0 -0.16402488563849801 -0.041062174760887443 0 -0.18133558272394029 -0.043618149437272283 0 -0.17409393016306191 -0.030370879776367592 0 -0.17409393016306191 -0.030370879776367592 0 -0.17549551533112251 -0.014893414490097231 0 -0.18915768363079971 -0.025155098795753519 0 -0.16129500549156001 -0.024264335985147129 0 -0.16350931143073591 -0.01273440345064396 0 -0.17549551533112251 -0.014893414490097231 0 -0.17409393016306191 -0.030370879776367592 0 -0.16129500549156001 -0.024264335985147129 0 -0.17549551533112251 -0.014893414490097231 0 -0.15327979458335059 -0.01391829646419882 0 -0.16129500549156001 -0.024264335985147129 0 -0.16350931143073591 -0.01273440345064396 0 -0.15773416148281841 -0.0035868741371463562 0 -0.16716832075785379 -0.0032078365625175 0 -0.1619193683370386 0.0066468078375689294 0 -0.15773416148281841 -0.0035868741371463562 0 -0.16350931143073591 -0.01273440345064396 0 -0.16716832075785379 -0.0032078365625175 0 -0.15327979458335059 -0.01391829646419882 0 -0.15773416148281841 -0.0035868741371463562 0 -0.16350931143073591 -0.01273440345064396 0 -0.16350931143073591 -0.01273440345064396 0 -0.16716832075785379 -0.0032078365625175 0 -0.17549551533112251 -0.014893414490097231 0 -0.17549551533112251 -0.014893414490097231 0 -0.18154179604087481 -0.0036104187285780349 0 -0.18915768363079971 -0.025155098795753519 0 -0.18154179604087481 -0.0036104187285780349 0 -0.18915768363079971 -0.025155098795753519 0 -0.17549551533112251 -0.014893414490097231 0 -0.17584419881677341 0.0071523107965592754 0 -0.17549551533112251 -0.014893414490097231 0 -0.18154179604087481 -0.0036104187285780349 0 -0.17584419881677341 0.0071523107965592754 0 -0.16716832075785379 -0.0032078365625175 0 -0.17549551533112251 -0.014893414490097231 0 -0.17584419881677341 0.0071523107965592754 0 -0.18154179604087481 -0.0036104187285780349 0 -0.19066530249761049 -0.0041303576494283751 0 -0.18915768363079971 -0.025155098795753519 0 -0.18154179604087481 -0.0036104187285780349 0 -0.19066530249761049 -0.0041303576494283751 0 -0.18717715497560061 0.0062623078557712403 0 -0.19066530249761049 -0.0041303576494283751 0 -0.1989264366345522 -0.0080023544535597537 0 -0.18915768363079971 -0.025155098795753519 0 -0.19066530249761049 -0.0041303576494283751 0 -0.1989264366345522 -0.0080023544535597537 0 -0.1965234412062255 0.0098537758749781944 0 -0.1989264366345522 -0.0080023544535597537 0 -0.2007918169376324 -0.0191738513677071 0 -0.20680177871376751 -0.0119671669755851 0 -0.18915768363079971 -0.025155098795753519 0 -0.2007918169376324 -0.0191738513677071 0 -0.21013076049929519 -0.028334228638799381 0 -0.1989264366345522 -0.0080023544535597537 0 -0.18915768363079971 -0.025155098795753519 0 -0.2007918169376324 -0.0191738513677071 0 -0.2007918169376324 -0.0191738513677071 0 -0.21013076049929519 -0.028334228638799381 0 -0.20680177871376751 -0.0119671669755851 0 -0.21013076049929519 -0.028334228638799381 0 -0.21702438745170211 -0.0043907958627755336 0 -0.21921501925093501 -0.017985606360015789 0 -0.21013076049929519 -0.028334228638799381 0 -0.21702438745170211 -0.0043907958627755336 0 -0.21013076049929519 -0.028334228638799381 0 -0.22271521407306469 -0.037269361340154371 0 -0.21921501925093501 -0.017985606360015789 0 -0.21013076049929519 -0.028334228638799381 0 -0.21702438745170211 -0.0043907958627755336 0 -0.20680177871376751 -0.0119671669755851 0 -0.1989264366345522 -0.0080023544535597537 0 -0.20680177871376751 -0.0119671669755851 0 -0.20713549204565579 6.5395444916274768e-05 0 -0.21702438745170211 -0.0043907958627755336 0 -0.20680177871376751 -0.0119671669755851 0 -0.20713549204565579 6.5395444916274768e-05 0 -0.20438945881064449 -0.068244458930106389 0 -0.1967735712207245 -0.046699778862929052 0 -0.20438945881064449 -0.068244458930106389 0 -0.18769526278089041 -0.057829612445021099 0 -0.1967735712207245 -0.046699778862929052 0 -0.20438945881064449 -0.068244458930106389 0 -0.1967735712207245 -0.046699778862929052 0 -0.20711132549122371 -0.057203435059411119 0 -0.18133558272394029 -0.043618149437272283 0 -0.18769526278089041 -0.057829612445021099 0 -0.1967735712207245 -0.046699778862929052 0 -0.18133558272394029 -0.043618149437272283 0 -0.18915768363079971 -0.025155098795753519 0 -0.1967735712207245 -0.046699778862929052 0 -0.18915768363079971 -0.025155098795753519 0 -0.1967735712207245 -0.046699778862929052 0 -0.18915768363079971 -0.025155098795753519 0 -0.21013076049929519 -0.028334228638799381 0 -0.1967735712207245 -0.046699778862929052 0 -0.21013076049929519 -0.028334228638799381 0 -0.21132582579248671 -0.048130994279405613 0 -0.22271521407306469 -0.037269361340154371 0 -0.21013076049929519 -0.028334228638799381 0 -0.1967735712207245 -0.046699778862929052 0 -0.21132582579248671 -0.048130994279405613 0 -0.21595644614104051 -0.065738508165203102 0 -0.21132582579248671 -0.048130994279405613 0 -0.22271521407306469 -0.037269361340154371 0 -0.21595644614104051 -0.065738508165203102 0 -0.21132582579248671 -0.048130994279405613 0 -0.20711132549122371 -0.057203435059411119 0 -0.1967735712207245 -0.046699778862929052 0 -0.21132582579248671 -0.048130994279405613 0 -0.20711132549122371 -0.057203435059411119 0 -0.21595644614104051 -0.065738508165203102 0 -0.2284172135094342 -0.053659916570315727 0 -0.24475965461883589 -0.059498385283178377 0 -0.21595644614104051 -0.065738508165203102 0 -0.2284172135094342 -0.053659916570315727 0 -0.22271521407306469 -0.037269361340154371 0 -0.21595644614104051 -0.065738508165203102 0 -0.22271521407306469 -0.037269361340154371 0 -0.2284172135094342 -0.053659916570315727 0 -0.22271521407306469 -0.037269361340154371 0 -0.23903543051913109 -0.043198085603962481 0 -0.22271521407306469 -0.037269361340154371 0 -0.23903543051913109 -0.043198085603962481 0 -0.24161885061771041 -0.026720350447010301 0 -0.23903543051913109 -0.043198085603962481 0 -0.24161885061771041 -0.026720350447010301 0 -0.25766621977661042 -0.038842414379153638 0 -0.23903543051913109 -0.043198085603962481 0 -0.24475965461883589 -0.059498385283178377 0 -0.25766621977661042 -0.038842414379153638 0 -0.2284172135094342 -0.053659916570315727 0 -0.23903543051913109 -0.043198085603962481 0 -0.24475965461883589 -0.059498385283178377 0 -0.22947398200509031 -0.0088002145151058891 0 -0.22867745033346079 0.0038692188645070222 0 -0.2401015516947359 0.00075261550232862703 0 -0.21702438745170211 -0.0043907958627755336 0 -0.22947398200509031 -0.0088002145151058891 0 -0.22867745033346079 0.0038692188645070222 0 -0.21702438745170211 -0.0043907958627755336 0 -0.22947398200509031 -0.0088002145151058891 0 -0.21921501925093501 -0.017985606360015789 0 -0.22271521407306469 -0.037269361340154371 0 -0.22947398200509031 -0.0088002145151058891 0 -0.21921501925093501 -0.017985606360015789 0 -0.22271521407306469 -0.037269361340154371 0 -0.22947398200509031 -0.0088002145151058891 0 -0.22271521407306469 -0.037269361340154371 0 -0.22947398200509031 -0.0088002145151058891 0 -0.24161885061771041 -0.026720350447010301 0 -0.22947398200509031 -0.0088002145151058891 0 -0.24161885061771041 -0.026720350447010301 0 -0.2437457614006571 -0.011962382738850049 0 -0.24161885061771041 -0.026720350447010301 0 -0.2437457614006571 -0.011962382738850049 0 -0.2598032925822476 -0.0188915667982569 0 -0.22947398200509031 -0.0088002145151058891 0 -0.2437457614006571 -0.011962382738850049 0 -0.2401015516947359 0.00075261550232862703 0 -0.2437457614006571 -0.011962382738850049 0 -0.25267499080189931 -0.0034516002120552492 0 -0.2401015516947359 0.00075261550232862703 0 -0.25267499080189931 -0.0034516002120552492 0 -0.2598032925822476 -0.0188915667982569 0 -0.26909988492935111 -0.0018655285383734981 0 -0.2437457614006571 -0.011962382738850049 0 -0.25267499080189931 -0.0034516002120552492 0 -0.2598032925822476 -0.0188915667982569 0 -0.2598032925822476 -0.0188915667982569 0 -0.27267419604841259 -0.026924212746328481 0 -0.25766621977661042 -0.038842414379153638 0 -0.24161885061771041 -0.026720350447010301 0 -0.2598032925822476 -0.0188915667982569 0 -0.25766621977661042 -0.038842414379153638 0 -0.2598032925822476 -0.0188915667982569 0 -0.27267419604841259 -0.026924212746328481 0 -0.27804425228895369 -0.016131696666228459 0 -0.27267419604841259 -0.026924212746328481 0 -0.27804425228895369 -0.016131696666228459 0 -0.28378415359151371 -0.031280105512012511 0 -0.27804425228895369 -0.016131696666228459 0 -0.26909988492935111 -0.0018655285383734981 0 -0.2917254884257266 -0.0017566381736345419 0 -0.2598032925822476 -0.0188915667982569 0 -0.27804425228895369 -0.016131696666228459 0 -0.26909988492935111 -0.0018655285383734981 0 -0.27804425228895369 -0.016131696666228459 0 -0.2917254884257266 -0.0017566381736345419 0 -0.2928870998243559 -0.020527937726781 0 -0.27804425228895369 -0.016131696666228459 0 -0.2928870998243559 -0.020527937726781 0 -0.28378415359151371 -0.031280105512012511 0 -0.2928870998243559 -0.020527937726781 0 -0.29943422057661201 -0.032203920876667472 0 -0.28378415359151371 -0.031280105512012511 0 -0.2928870998243559 -0.020527937726781 0 -0.31144738423897378 -0.02126732740536201 0 -0.29943422057661201 -0.032203920876667472 0 -0.31144738423897378 -0.02126732740536201 0 -0.31110423911055801 -0.035316851109560482 0 -0.29943422057661201 -0.032203920876667472 0 -0.2917254884257266 -0.0017566381736345419 0 -0.31144738423897378 -0.02126732740536201 0 -0.31177688145040278 0.0050359958776742568 0 -0.2917254884257266 -0.0017566381736345419 0 -0.2928870998243559 -0.020527937726781 0 -0.31144738423897378 -0.02126732740536201 0 -0.2917254884257266 -0.0017566381736345419 0 -0.31144738423897378 -0.02126732740536201 0 -0.30323190850646392 -0.052883144282766713 0 -0.3023660715744253 -0.047018139519123002 0 -0.29757341552329353 -0.05219957266967655 0 -0.29931176789370939 -0.061629941742321552 0 -0.30659897303184058 -0.057135789817405573 0 -0.30728911182784302 -0.064893595009923935 0 -0.30323190850646392 -0.052883144282766713 0 -0.29931176789370939 -0.061629941742321552 0 -0.30659897303184058 -0.057135789817405573 0 -0.30323190850646392 -0.052883144282766713 0 -0.29757341552329353 -0.05219957266967655 0 -0.29931176789370939 -0.061629941742321552 0 -0.30659897303184058 -0.057135789817405573 0 -0.30728911182784302 -0.064893595009923935 0 -0.31405483352543062 -0.056831087900065053 0 -0.30323190850646392 -0.052883144282766713 0 -0.3023660715744253 -0.047018139519123002 0 -0.31025625293594222 -0.050033124508212908 0 -0.30659897303184058 -0.057135789817405573 0 -0.31025625293594222 -0.050033124508212908 0 -0.31405483352543062 -0.056831087900065053 0 -0.30323190850646392 -0.052883144282766713 0 -0.30659897303184058 -0.057135789817405573 0 -0.31025625293594222 -0.050033124508212908 0 -0.3023660715744253 -0.047018139519123002 0 -0.31110423911055801 -0.035316851109560482 0 -0.29943422057661201 -0.032203920876667472 0 -0.3023660715744253 -0.047018139519123002 0 -0.29943422057661201 -0.032203920876667472 0 -0.29166722635019171 -0.038853801873014321 0 -0.29943422057661201 -0.032203920876667472 0 -0.29166722635019171 -0.038853801873014321 0 -0.28378415359151371 -0.031280105512012511 0 -0.3023660715744253 -0.047018139519123002 0 -0.29166722635019171 -0.038853801873014321 0 -0.28390051605192418 -0.042754285685484159 0 -0.29166722635019171 -0.038853801873014321 0 -0.28378415359151371 -0.031280105512012511 0 -0.28390051605192418 -0.042754285685484159 0 -0.3023660715744253 -0.047018139519123002 0 -0.28390051605192418 -0.042754285685484159 0 -0.27356286309663053 -0.053258262401150697 0 -0.3023660715744253 -0.047018139519123002 0 -0.27356286309663053 -0.053258262401150697 0 -0.29757341552329353 -0.05219957266967655 0 -0.27356286309663053 -0.053258262401150697 0 -0.27532891164284878 -0.069285621960536392 0 -0.29757341552329353 -0.05219957266967655 0 -0.27532891164284878 -0.069285621960536392 0 -0.3023660715744253 -0.047018139519123002 0 -0.29757341552329353 -0.05219957266967655 0 -0.27356286309663053 -0.053258262401150697 0 -0.29757341552329353 -0.05219957266967655 0 -0.29931176789370939 -0.061629941742321552 0 -0.27532891164284878 -0.069285621960536392 0 -0.27267419604841259 -0.026924212746328481 0 -0.27375437843427658 -0.039043607324579933 0 -0.25766621977661042 -0.038842414379153638 0 -0.27356286309663053 -0.053258262401150697 0 -0.27375437843427658 -0.039043607324579933 0 -0.25766621977661042 -0.038842414379153638 0 -0.28378415359151371 -0.031280105512012511 0 -0.28390051605192418 -0.042754285685484159 0 -0.27375437843427658 -0.039043607324579933 0 -0.27267419604841259 -0.026924212746328481 0 -0.28378415359151371 -0.031280105512012511 0 -0.27375437843427658 -0.039043607324579933 0 -0.28390051605192418 -0.042754285685484159 0 -0.27356286309663053 -0.053258262401150697 0 -0.27375437843427658 -0.039043607324579933 0 -0.24475965461883589 -0.059498385283178377 0 -0.27356286309663053 -0.053258262401150697 0 -0.2582325144520296 -0.070050845257802419 0 -0.24475965461883589 -0.059498385283178377 0 -0.27356286309663053 -0.053258262401150697 0 -0.24475965461883589 -0.059498385283178377 0 -0.27356286309663053 -0.053258262401150697 0 -0.25766621977661042 -0.038842414379153638 0 -0.2582325144520296 -0.070050845257802419 0 -0.25308440776240432 -0.086371671251396109 0 -0.27532891164284878 -0.069285621960536392 0 -0.25308440776240432 -0.086371671251396109 0 -0.27532891164284878 -0.069285621960536392 0 -0.25308440776240432 -0.086371671251396109 0 -0.27361062541114611 -0.085405998149086934 0 -0.26907394573302829 -0.10103393024372311 0 -0.27361062541114611 -0.085405998149086934 0 -0.26907394573302829 -0.10103393024372311 0 -0.28494676303449051 -0.09097811142482605 0 -0.25308440776240432 -0.086371671251396109 0 -0.27361062541114611 -0.085405998149086934 0 -0.27532891164284878 -0.069285621960536392 0 -0.27356286309663053 -0.053258262401150697 0 -0.2582325144520296 -0.070050845257802419 0 -0.27532891164284878 -0.069285621960536392 0 -0.27361062541114611 -0.085405998149086934 0 -0.27532891164284878 -0.069285621960536392 0 -0.28561909888295839 -0.079360655864953042 0 -0.2432602079730701 -0.13485583854350039 0 -0.2499653418643101 -0.1102460646797562 0 -0.26490928006600228 -0.12397715003998409 0 -0.2499653418643101 -0.1102460646797562 0 -0.26490928006600228 -0.12397715003998409 0 -0.26907394573302829 -0.10103393024372311 0 -0.2499653418643101 -0.1102460646797562 0 -0.25308440776240432 -0.086371671251396109 0 -0.26907394573302829 -0.10103393024372311 0 -0.26907394573302829 -0.10103393024372311 0 -0.28789548083438649 -0.11161882002010511 0 -0.28494676303449051 -0.09097811142482605 0 -0.26490928006600228 -0.12397715003998409 0 -0.28789548083438649 -0.11161882002010511 0 -0.28428672055728371 -0.13281235115180859 0 -0.26490928006600228 -0.12397715003998409 0 -0.26907394573302829 -0.10103393024372311 0 -0.28789548083438649 -0.11161882002010511 0 -0.28789548083438649 -0.11161882002010511 0 -0.28428672055728371 -0.13281235115180859 0 -0.30877835781368662 -0.12931532841693749 0 -0.28789548083438649 -0.11161882002010511 0 -0.29765529442092259 -0.094840601490837839 0 -0.28494676303449051 -0.09097811142482605 0 -0.30761934067920371 -0.1042503242997595 0 -0.29765529442092259 -0.094840601490837839 0 -0.30832877355579341 -0.086934752854072747 0 -0.30761934067920371 -0.1042503242997595 0 -0.30832877355579341 -0.086934752854072747 0 -0.31968159473222052 -0.091584555267719248 0 -0.28789548083438649 -0.11161882002010511 0 -0.30761934067920371 -0.1042503242997595 0 -0.29765529442092259 -0.094840601490837839 0 -0.28789548083438649 -0.11161882002010511 0 -0.30761934067920371 -0.1042503242997595 0 -0.30877835781368662 -0.12931532841693749 0 -0.29931176789370939 -0.061629941742321552 0 -0.27532891164284878 -0.069285621960536392 0 -0.29568251685582603 -0.071589435967753134 0 -0.27532891164284878 -0.069285621960536392 0 -0.29568251685582603 -0.071589435967753134 0 -0.28561909888295839 -0.079360655864953042 0 -0.29568251685582603 -0.071589435967753134 0 -0.28561909888295839 -0.079360655864953042 0 -0.29849490204505058 -0.081938345925378783 0 -0.27361062541114611 -0.085405998149086934 0 -0.28561909888295839 -0.079360655864953042 0 -0.28494676303449051 -0.09097811142482605 0 -0.29765529442092259 -0.094840601490837839 0 -0.28494676303449051 -0.09097811142482605 0 -0.29849490204505058 -0.081938345925378783 0 -0.28561909888295839 -0.079360655864953042 0 -0.28494676303449051 -0.09097811142482605 0 -0.29849490204505058 -0.081938345925378783 0 -0.29849490204505058 -0.081938345925378783 0 -0.30832877355579341 -0.086934752854072747 0 -0.3066986514807607 -0.074546990101646726 0 -0.29765529442092259 -0.094840601490837839 0 -0.29849490204505058 -0.081938345925378783 0 -0.30832877355579341 -0.086934752854072747 0 -0.30832877355579341 -0.086934752854072747 0 -0.3066986514807607 -0.074546990101646726 0 -0.31636087034116728 -0.076704125898778439 0 -0.3066986514807607 -0.074546990101646726 0 -0.31411021802290889 -0.069356746280106005 0 -0.31636087034116728 -0.076704125898778439 0 -0.29568251685582603 -0.071589435967753134 0 -0.29849490204505058 -0.081938345925378783 0 -0.3066986514807607 -0.074546990101646726 0 -0.29568251685582603 -0.071589435967753134 0 -0.3066986514807607 -0.074546990101646726 0 -0.30728911182784302 -0.064893595009923935 0 -0.29931176789370939 -0.061629941742321552 0 -0.29568251685582603 -0.071589435967753134 0 -0.30728911182784302 -0.064893595009923935 0 -0.3066986514807607 -0.074546990101646726 0 -0.30728911182784302 -0.064893595009923935 0 -0.31411021802290889 -0.069356746280106005 0 -0.30728911182784302 -0.064893595009923935 0 -0.31630436981946819 -0.062936971351065629 0 -0.31411021802290889 -0.069356746280106005 0 -0.31630436981946819 -0.062936971351065629 0 -0.31411021802290889 -0.069356746280106005 0 -0.32389808664530562 -0.067702049039115322 0 -0.31630436981946819 -0.062936971351065629 0 -0.32389808664530562 -0.067702049039115322 0 -0.32481687078849097 -0.058022226865728103 0 -0.32389808664530562 -0.067702049039115322 0 -0.3259684841043719 -0.075020057435826168 0 -0.31636087034116728 -0.076704125898778439 0 -0.31411021802290889 -0.069356746280106005 0 -0.32389808664530562 -0.067702049039115322 0 -0.31636087034116728 -0.076704125898778439 0 -0.30832877355579341 -0.086934752854072747 0 -0.32608803180755441 -0.084321365842938284 0 -0.30832877355579341 -0.086934752854072747 0 -0.31968159473222052 -0.091584555267719248 0 -0.32608803180755441 -0.084321365842938284 0 -0.30832877355579341 -0.086934752854072747 0 -0.31636087034116728 -0.076704125898778439 0 -0.32608803180755441 -0.084321365842938284 0 -0.31968159473222052 -0.091584555267719248 0 -0.32608803180755441 -0.084321365842938284 0 -0.3259684841043719 -0.075020057435826168 0 -0.31636087034116728 -0.076704125898778439 0 -0.32608803180755441 -0.084321365842938284 0 -0.31968159473222052 -0.091584555267719248 0 -0.32608803180755441 -0.084321365842938284 0 -0.34030971713070318 -0.087052614945596102 0 -0.32608803180755441 -0.084321365842938284 0 -0.34030971713070318 -0.087052614945596102 0 -0.34745734249292459 -0.081176736816750444 0 -0.32608803180755441 -0.084321365842938284 0 -0.33752694762346008 -0.07135268896247253 0 -0.34745734249292459 -0.081176736816750444 0 -0.32608803180755441 -0.084321365842938284 0 -0.34745734249292459 -0.081176736816750444 0 -0.33752694762346008 -0.07135268896247253 0 -0.3489658634393657 -0.058384012082006782 0 -0.33645864726091979 -0.05858208772264157 0 -0.33752694762346008 -0.07135268896247253 0 -0.3489658634393657 -0.058384012082006782 0 -0.32389808664530562 -0.067702049039115322 0 -0.33752694762346008 -0.07135268896247253 0 -0.33645864726091979 -0.05858208772264157 0 -0.3259684841043719 -0.075020057435826168 0 -0.32608803180755441 -0.084321365842938284 0 -0.33752694762346008 -0.07135268896247253 0 -0.32608803180755441 -0.084321365842938284 0 -0.33752694762346008 -0.07135268896247253 0 -0.32389808664530562 -0.067702049039115322 0 -0.3259684841043719 -0.075020057435826168 0 -0.33752694762346008 -0.07135268896247253 0 -0.32454403747219479 -0.1081839716812668 0 -0.30877835781368662 -0.12931532841693749 0 -0.30761934067920371 -0.1042503242997595 0 -0.32454403747219479 -0.1081839716812668 0 -0.30877835781368662 -0.12931532841693749 0 -0.32454403747219479 -0.1081839716812668 0 -0.33570809008837621 -0.11845594114356341 0 -0.30877835781368662 -0.12931532841693749 0 -0.30761934067920371 -0.1042503242997595 0 -0.31968159473222052 -0.091584555267719248 0 -0.32454403747219479 -0.1081839716812668 0 -0.34030971713070318 -0.087052614945596102 0 -0.32454403747219479 -0.1081839716812668 0 -0.34278855512837281 -0.1049294584887832 0 -0.31968159473222052 -0.091584555267719248 0 -0.34030971713070318 -0.087052614945596102 0 -0.32454403747219479 -0.1081839716812668 0 -0.34030971713070318 -0.087052614945596102 0 -0.32454403747219479 -0.1081839716812668 0 -0.32454403747219479 -0.1081839716812668 0 -0.34278855512837281 -0.1049294584887832 0 -0.33570809008837621 -0.11845594114356341 0 -0.33570809008837621 -0.11845594114356341 0 -0.35404294059136687 -0.1217835462641018 0 -0.33688620478323589 -0.13358080389391511 0 -0.34278855512837281 -0.1049294584887832 0 -0.35404294059136687 -0.1217835462641018 0 -0.35932798989652742 -0.1047455147758234 0 -0.34278855512837281 -0.1049294584887832 0 -0.33570809008837621 -0.11845594114356341 0 -0.35404294059136687 -0.1217835462641018 0 -0.34278855512837281 -0.1049294584887832 0 -0.35932798989652742 -0.1047455147758234 0 -0.35079718399447979 -0.093651592615473511 0 -0.34030971713070318 -0.087052614945596102 0 -0.34278855512837281 -0.1049294584887832 0 -0.35079718399447979 -0.093651592615473511 0 -0.35932798989652742 -0.1047455147758234 0 -0.35079718399447979 -0.093651592615473511 0 -0.36132419909701757 -0.091459041133748031 0 -0.35932798989652742 -0.1047455147758234 0 -0.37367929427193591 -0.1014825750548952 0 -0.37212838853434238 -0.11808059788504249 0 -0.35932798989652742 -0.1047455147758234 0 -0.37367929427193591 -0.1014825750548952 0 -0.36132419909701757 -0.091459041133748031 0 -0.35404294059136687 -0.1217835462641018 0 -0.37212838853434238 -0.11808059788504249 0 -0.37028068739271691 -0.13083580994494901 0 -0.35404294059136687 -0.1217835462641018 0 -0.35932798989652742 -0.1047455147758234 0 -0.37212838853434238 -0.11808059788504249 0 -0.35069420168351129 -0.07223638641294812 0 -0.34745734249292459 -0.081176736816750444 0 -0.36882665317829499 -0.078032107790563188 0 -0.36882665317829499 -0.078032107790563188 0 -0.3489658634393657 -0.058384012082006782 0 -0.35069420168351129 -0.07223638641294812 0 -0.36882665317829499 -0.078032107790563188 0 -0.3489658634393657 -0.058384012082006782 0 -0.33752694762346008 -0.07135268896247253 0 -0.35069420168351129 -0.07223638641294812 0 -0.3489658634393657 -0.058384012082006782 0 -0.33752694762346008 -0.07135268896247253 0 -0.35069420168351129 -0.07223638641294812 0 -0.34745734249292459 -0.081176736816750444 0 -0.34745734249292459 -0.081176736816750444 0 -0.36882665317829499 -0.078032107790563188 0 -0.34745734249292459 -0.081176736816750444 0 -0.36132419909701757 -0.091459041133748031 0 -0.36882665317829499 -0.078032107790563188 0 -0.34030971713070318 -0.087052614945596102 0 -0.34745734249292459 -0.081176736816750444 0 -0.35079718399447979 -0.093651592615473511 0 -0.34745734249292459 -0.081176736816750444 0 -0.35079718399447979 -0.093651592615473511 0 -0.36132419909701757 -0.091459041133748031 0 -0.37367929427193591 -0.1014825750548952 0 -0.36132419909701757 -0.091459041133748031 0 -0.36882665317829499 -0.078032107790563188 0 -0.36882665317829499 -0.078032107790563188 0 -0.36862349457690058 -0.057461967220355487 0 -0.3489658634393657 -0.058384012082006782 0 -0.36882665317829499 -0.078032107790563188 0 -0.36862349457690058 -0.057461967220355487 0 -0.37947166312044489 -0.067272628224985004 0 -0.36862349457690058 -0.057461967220355487 0 -0.3489658634393657 -0.058384012082006782 0 -0.36066681755822472 -0.045118253717945672 0 -0.36862349457690058 -0.057461967220355487 0 -0.37355784227175309 -0.045246792894939887 0 -0.3815482533063424 -0.052412606119804542 0 -0.36862349457690058 -0.057461967220355487 0 -0.36066681755822472 -0.045118253717945672 0 -0.37355784227175309 -0.045246792894939887 0 -0.3489658634393657 -0.058384012082006782 0 -0.36066681755822472 -0.045118253717945672 0 -0.3489658634393657 -0.058384012082006782 0 -0.34511111307690212 -0.046137334811030092 0 -0.36066681755822472 -0.045118253717945672 0 -0.35304062521722218 -0.036039659744318157 0 -0.3553139768507978 -0.023567241021099371 0 -0.33371347875736079 -0.040226824134751989 0 -0.34511111307690212 -0.046137334811030092 0 -0.35304062521722218 -0.036039659744318157 0 -0.33371347875736079 -0.040226824134751989 0 -0.34511111307690212 -0.046137334811030092 0 -0.35304062521722218 -0.036039659744318157 0 -0.36066681755822472 -0.045118253717945672 0 -0.36066681755822472 -0.045118253717945672 0 -0.37236777167708351 -0.031852495353884333 0 -0.35304062521722218 -0.036039659744318157 0 -0.37236777167708351 -0.031852495353884333 0 -0.35304062521722218 -0.036039659744318157 0 -0.36066681755822472 -0.045118253717945672 0 -0.37236777167708351 -0.031852495353884333 0 -0.36066681755822472 -0.045118253717945672 0 -0.37355784227175309 -0.045246792894939887 0 -0.37236777167708351 -0.031852495353884333 0 -0.37236777167708351 -0.031852495353884333 0 -0.3739022591900184 -0.02415390189740213 0 -0.36770044175442279 -0.02036669541201027 0 -0.37236777167708351 -0.031852495353884333 0 -0.36770044175442279 -0.02036669541201027 0 -0.3553139768507978 -0.023567241021099371 0 -0.36770044175442279 -0.02036669541201027 0 -0.35847393927256738 -0.010652033510738681 0 -0.38297625517291389 -0.017448943304264108 0 -0.35304062521722218 -0.036039659744318157 0 -0.37236777167708351 -0.031852495353884333 0 -0.3553139768507978 -0.023567241021099371 0 -0.3739022591900184 -0.02415390189740213 0 -0.36770044175442279 -0.02036669541201027 0 -0.38297625517291389 -0.017448943304264108 0 -0.36770044175442279 -0.02036669541201027 0 -0.35847393927256738 -0.010652033510738681 0 -0.3553139768507978 -0.023567241021099371 0 -0.35847393927256738 -0.010652033510738681 0 -0.38297625517291389 -0.017448943304264108 0 -0.37278444596104371 -0.0079457960458173115 0 -0.35847393927256738 -0.010652033510738681 0 -0.38297625517291389 -0.017448943304264108 0 -0.37474494217865062 -0.0022388935110706832 0 -0.37278444596104371 -0.0079457960458173115 0 -0.36307869926690151 -0.00068504054922277494 0 -0.37278444596104371 -0.0079457960458173115 0 -0.36307869926690151 -0.00068504054922277494 0 -0.35847393927256738 -0.010652033510738681 0 -0.36307869926690151 -0.00068504054922277494 0 -0.34718119132474479 -0.01384164818341615 0 -0.36064890389212972 0.0125435277679194 0 -0.36307869926690151 -0.00068504054922277494 0 -0.35847393927256738 -0.010652033510738681 0 -0.34718119132474479 -0.01384164818341615 0 -0.34718119132474479 -0.01384164818341615 0 -0.36064890389212972 0.0125435277679194 0 -0.34718119132474479 -0.01384164818341615 0 -0.3553139768507978 -0.023567241021099371 0 -0.33371347875736079 -0.040226824134751989 0 -0.35847393927256738 -0.010652033510738681 0 -0.34718119132474479 -0.01384164818341615 0 -0.3553139768507978 -0.023567241021099371 0 -0.34718119132474479 -0.01384164818341615 0 -0.33035884889608558 -0.02420969997450095 0 -0.33371347875736079 -0.040226824134751989 0 -0.34718119132474479 -0.01384164818341615 0 -0.33371347875736079 -0.040226824134751989 0 -0.34718119132474479 -0.01384164818341615 0 -0.32828291010712762 -0.0049346835118845543 0 -0.34055428987364128 0.0059527955302196532 0 -0.34718119132474479 -0.01384164818341615 0 -0.33035884889608558 -0.02420969997450095 0 -0.32828291010712762 -0.0049346835118845543 0 -0.31144738423897378 -0.02126732740536201 0 -0.32828291010712762 -0.0049346835118845543 0 -0.31177688145040278 0.0050359958776742568 0 -0.31144738423897378 -0.02126732740536201 0 -0.33116928005221918 -0.040778016637091109 0 -0.31144738423897378 -0.02126732740536201 0 -0.33035884889608558 -0.02420969997450095 0 -0.32828291010712762 -0.0049346835118845543 0 -0.31144738423897378 -0.02126732740536201 0 -0.33035884889608558 -0.02420969997450095 0 -0.33116928005221918 -0.040778016637091109 0 -0.3023660715744253 -0.047018139519123002 0 -0.31110423911055801 -0.035316851109560482 0 -0.33116928005221918 -0.040778016637091109 0 -0.3023660715744253 -0.047018139519123002 0 -0.31025625293594222 -0.050033124508212908 0 -0.33116928005221918 -0.040778016637091109 0 -0.3023660715744253 -0.047018139519123002 0 -0.33116928005221918 -0.040778016637091109 0 -0.31144738423897378 -0.02126732740536201 0 -0.31110423911055801 -0.035316851109560482 0 -0.33116928005221918 -0.040778016637091109 0 -0.31025625293594222 -0.050033124508212908 0 -0.31770057673851387 -0.05020147555903863 0 -0.33116928005221918 -0.040778016637091109 0 -0.31025625293594222 -0.050033124508212908 0 -0.31770057673851387 -0.05020147555903863 0 -0.31405483352543062 -0.056831087900065053 0 -0.31770057673851387 -0.05020147555903863 0 -0.31405483352543062 -0.056831087900065053 0 -0.31936567051967829 -0.054711673150449433 0 -0.31630436981946819 -0.062936971351065629 0 -0.31936567051967829 -0.054711673150449433 0 -0.32481687078849097 -0.058022226865728103 0 -0.30728911182784302 -0.064893595009923935 0 -0.31630436981946819 -0.062936971351065629 0 -0.31405483352543062 -0.056831087900065053 0 -0.31630436981946819 -0.062936971351065629 0 -0.31405483352543062 -0.056831087900065053 0 -0.31936567051967829 -0.054711673150449433 0 -0.31770057673851387 -0.05020147555903863 0 -0.32448711316898249 -0.050622394842538963 0 -0.33116928005221918 -0.040778016637091109 0 -0.31936567051967829 -0.054711673150449433 0 -0.32481687078849097 -0.058022226865728103 0 -0.32448711316898249 -0.050622394842538963 0 -0.31770057673851387 -0.05020147555903863 0 -0.31936567051967829 -0.054711673150449433 0 -0.32448711316898249 -0.050622394842538963 0 -0.32481687078849097 -0.058022226865728103 0 -0.32770904195502032 -0.053173566283506987 0 -0.32448711316898249 -0.050622394842538963 0 -0.32770904195502032 -0.053173566283506987 0 -0.32448711316898249 -0.050622394842538963 0 -0.32972533979495861 -0.048040159006195682 0 -0.3489658634393657 -0.058384012082006782 0 -0.34511111307690212 -0.046137334811030092 0 -0.3326728772282519 -0.042265511425067279 0 -0.32972533979495861 -0.048040159006195682 0 -0.33645864726091979 -0.05858208772264157 0 -0.3326728772282519 -0.042265511425067279 0 -0.3489658634393657 -0.058384012082006782 0 -0.3326728772282519 -0.042265511425067279 0 -0.32770904195502032 -0.053173566283506987 0 -0.32972533979495861 -0.048040159006195682 0 -0.33645864726091979 -0.05858208772264157 0 -0.3489658634393657 -0.058384012082006782 0 -0.33645864726091979 -0.05858208772264157 0 -0.3326728772282519 -0.042265511425067279 0 -0.32389808664530562 -0.067702049039115322 0 -0.32481687078849097 -0.058022226865728103 0 -0.33645864726091979 -0.05858208772264157 0 -0.32481687078849097 -0.058022226865728103 0 -0.32770904195502032 -0.053173566283506987 0 -0.33645864726091979 -0.05858208772264157 0 -0.34511111307690212 -0.046137334811030092 0 -0.33371347875736079 -0.040226824134751989 0 -0.3326728772282519 -0.042265511425067279 0 -0.33035884889608558 -0.02420969997450095 0 -0.33116928005221918 -0.040778016637091109 0 -0.33371347875736079 -0.040226824134751989 0 -0.35304062521722218 -0.036039659744318157 0 -0.33371347875736079 -0.040226824134751989 0 -0.32448711316898249 -0.050622394842538963 0 -0.32972533979495861 -0.048040159006195682 0 -0.33116928005221918 -0.040778016637091109 0 -0.33116928005221918 -0.040778016637091109 0 -0.3326728772282519 -0.042265511425067279 0 -0.32972533979495861 -0.048040159006195682 0 -0.3326728772282519 -0.042265511425067279 0 -0.32972533979495861 -0.048040159006195682 0 -0.33116928005221918 -0.040778016637091109 0 -0.3326728772282519 -0.042265511425067279 0 -0.33116928005221918 -0.040778016637091109 0 -0.33371347875736079 -0.040226824134751989 0 -0.33116928005221918 -0.040778016637091109 0 -0.33371347875736079 -0.040226824134751989 0 -0.3326728772282519 -0.042265511425067279 0 -0.33371347875736079 -0.040226824134751989 0 -0.3326728772282519 -0.042265511425067279 0 -0.2907170577323625 -0.25177677077710309 0 -0.30853150187083839 -0.25429835417001312 0 -0.30748271917561598 -0.2431056607245809 0 -0.30748271917561598 -0.2431056607245809 0 -0.3004866401015065 -0.2269264896544945 0 -0.32066485276457768 -0.2334308190911655 0 -0.2907170577323625 -0.25177677077710309 0 -0.30748271917561598 -0.2431056607245809 0 -0.3004866401015065 -0.2269264896544945 0 -0.30853150187083839 -0.25429835417001312 0 -0.30748271917561598 -0.2431056607245809 0 -0.32023222063025569 -0.2489608815952247 0 -0.3004866401015065 -0.2269264896544945 0 -0.27575903677895092 -0.22208668823385669 0 -0.3004866401015065 -0.2269264896544945 0 -0.27309361240676189 -0.24179026653703889 0 -0.27575903677895092 -0.22208668823385669 0 -0.3004866401015065 -0.2269264896544945 0 -0.27575903677895092 -0.22208668823385669 0 -0.29482007196541532 -0.2089319155152673 0 -0.2907170577323625 -0.25177677077710309 0 -0.3004866401015065 -0.2269264896544945 0 -0.27309361240676189 -0.24179026653703889 0 -0.27309361240676189 -0.24179026653703889 0 -0.25431856302814809 -0.24833495949118861 0 -0.25103143345639523 -0.21724688681321891 0 -0.27575903677895092 -0.22208668823385669 0 -0.25103143345639523 -0.21724688681321891 0 -0.27309361240676189 -0.24179026653703889 0 -0.27575903677895092 -0.22208668823385669 0 -0.25103143345639523 -0.21724688681321891 0 -0.27575903677895092 -0.22208668823385669 0 -0.25103143345639523 -0.21724688681321891 0 -0.27708552823660842 -0.19790031786117671 0 -0.25103143345639523 -0.21724688681321891 0 -0.25418198431724581 -0.18809916394242601 0 -0.27708552823660842 -0.19790031786117671 0 -0.27708552823660842 -0.19790031786117671 0 -0.29482007196541532 -0.2089319155152673 0 -0.30195969341908391 -0.19078830755985379 0 -0.29482007196541532 -0.2089319155152673 0 -0.30195969341908391 -0.19078830755985379 0 -0.32674672588845421 -0.2120308859258328 0 -0.3004866401015065 -0.2269264896544945 0 -0.29482007196541532 -0.2089319155152673 0 -0.32674672588845421 -0.2120308859258328 0 -0.27575903677895092 -0.22208668823385669 0 -0.27708552823660842 -0.19790031786117671 0 -0.29482007196541532 -0.2089319155152673 0 -0.30195969341908391 -0.19078830755985379 0 -0.30674796742087651 -0.1684647150882764 0 -0.32123008678095788 -0.18729232698745699 0 -0.30674796742087651 -0.1684647150882764 0 -0.2930126781551784 -0.15044668515260809 0 -0.3206808779707625 -0.15110047818677941 0 -0.27724699849667023 -0.17157804188827869 0 -0.2930126781551784 -0.15044668515260809 0 -0.30674796742087651 -0.1684647150882764 0 -0.27724699849667023 -0.17157804188827869 0 -0.2930126781551784 -0.15044668515260809 0 -0.27708552823660842 -0.19790031786117671 0 -0.30195969341908391 -0.19078830755985379 0 -0.27724699849667023 -0.17157804188827869 0 -0.30195969341908391 -0.19078830755985379 0 -0.30674796742087651 -0.1684647150882764 0 -0.27724699849667023 -0.17157804188827869 0 -0.25418198431724581 -0.18809916394242601 0 -0.27708552823660842 -0.19790031786117671 0 -0.27724699849667023 -0.17157804188827869 0 -0.25418198431724581 -0.18809916394242601 0 -0.2565438833259911 -0.1687602707777138 0 -0.27724699849667023 -0.17157804188827869 0 -0.2435592126657353 -0.1561425335328199 0 -0.2565438833259911 -0.1687602707777138 0 -0.26683780591716472 -0.14870377212940841 0 -0.27724699849667023 -0.17157804188827869 0 -0.26683780591716472 -0.14870377212940841 0 -0.2930126781551784 -0.15044668515260809 0 -0.2565438833259911 -0.1687602707777138 0 -0.27724699849667023 -0.17157804188827869 0 -0.26683780591716472 -0.14870377212940841 0 -0.2435592126657353 -0.1561425335328199 0 -0.2432602079730701 -0.13485583854350039 0 -0.26683780591716472 -0.14870377212940841 0 -0.2432602079730701 -0.13485583854350039 0 -0.26490928006600228 -0.12397715003998409 0 -0.26683780591716472 -0.14870377212940841 0 -0.26490928006600228 -0.12397715003998409 0 -0.26683780591716472 -0.14870377212940841 0 -0.28428672055728371 -0.13281235115180859 0 -0.28428672055728371 -0.13281235115180859 0 -0.2930126781551784 -0.15044668515260809 0 -0.30877835781368662 -0.12931532841693749 0 -0.26683780591716472 -0.14870377212940841 0 -0.28428672055728371 -0.13281235115180859 0 -0.2930126781551784 -0.15044668515260809 0 -0.2930126781551784 -0.15044668515260809 0 -0.30877835781368662 -0.12931532841693749 0 -0.3206808779707625 -0.15110047818677941 0 -0.2930126781551784 -0.15044668515260809 0 -0.30877835781368662 -0.12931532841693749 0 -0.33570809008837621 -0.11845594114356341 0 -0.30877835781368662 -0.12931532841693749 0 -0.33688620478323589 -0.13358080389391511 0 -0.30877835781368662 -0.12931532841693749 0 -0.3206808779707625 -0.15110047818677941 0 -0.33688620478323589 -0.13358080389391511 0 -0.3206808779707625 -0.15110047818677941 0 -0.33688620478323589 -0.13358080389391511 0 -0.34399943231138669 -0.15408109000358611 0 -0.33688620478323589 -0.13358080389391511 0 -0.35929992868189681 -0.1386942596847188 0 -0.35404294059136687 -0.1217835462641018 0 -0.33688620478323589 -0.13358080389391511 0 -0.35929992868189681 -0.1386942596847188 0 -0.35404294059136687 -0.1217835462641018 0 -0.35929992868189681 -0.1386942596847188 0 -0.37028068739271691 -0.13083580994494901 0 -0.35929992868189681 -0.1386942596847188 0 -0.37028068739271691 -0.13083580994494901 0 -0.3804539816512269 -0.14482329966991631 0 -0.35929992868189681 -0.1386942596847188 0 -0.3804539816512269 -0.14482329966991631 0 -0.35929992868189681 -0.1386942596847188 0 -0.3655172116091886 -0.15688196674787641 0 -0.3804539816512269 -0.14482329966991631 0 -0.3655172116091886 -0.15688196674787641 0 -0.3804539816512269 -0.14482329966991631 0 -0.3655172116091886 -0.15688196674787641 0 -0.37839901512320262 -0.15996290040625341 0 -0.3804539816512269 -0.14482329966991631 0 -0.33688620478323589 -0.13358080389391511 0 -0.35929992868189681 -0.1386942596847188 0 -0.34399943231138669 -0.15408109000358611 0 -0.35929992868189681 -0.1386942596847188 0 -0.34399943231138669 -0.15408109000358611 0 -0.3655172116091886 -0.15688196674787641 0 -0.34399943231138669 -0.15408109000358611 0 -0.35323542112630057 -0.1671812377988513 0 -0.3655172116091886 -0.15688196674787641 0 -0.3655172116091886 -0.15688196674787641 0 -0.37378547386561772 -0.17392500984250869 0 -0.37839901512320262 -0.15996290040625341 0 -0.35323542112630057 -0.1671812377988513 0 -0.3655172116091886 -0.15688196674787641 0 -0.37378547386561772 -0.17392500984250869 0 -0.37378547386561772 -0.17392500984250869 0 -0.35240556330307887 -0.18479875362473361 0 -0.36895563931783232 -0.19259611207654981 0 -0.35323542112630057 -0.1671812377988513 0 -0.37378547386561772 -0.17392500984250869 0 -0.35240556330307887 -0.18479875362473361 0 -0.35323542112630057 -0.1671812377988513 0 -0.35240556330307887 -0.18479875362473361 0 -0.33400288196205857 -0.17193246321376471 0 -0.35240556330307887 -0.18479875362473361 0 -0.33400288196205857 -0.17193246321376471 0 -0.33669316521431608 -0.19324526314955739 0 -0.33400288196205857 -0.17193246321376471 0 -0.32123008678095788 -0.18729232698745699 0 -0.33669316521431608 -0.19324526314955739 0 -0.3206808779707625 -0.15110047818677941 0 -0.34399943231138669 -0.15408109000358611 0 -0.33400288196205857 -0.17193246321376471 0 -0.34399943231138669 -0.15408109000358611 0 -0.35323542112630057 -0.1671812377988513 0 -0.33400288196205857 -0.17193246321376471 0 -0.30674796742087651 -0.1684647150882764 0 -0.3206808779707625 -0.15110047818677941 0 -0.33400288196205857 -0.17193246321376471 0 -0.30674796742087651 -0.1684647150882764 0 -0.33400288196205857 -0.17193246321376471 0 -0.32123008678095788 -0.18729232698745699 0 -0.30195969341908391 -0.19078830755985379 0 -0.32123008678095788 -0.18729232698745699 0 -0.32674672588845421 -0.2120308859258328 0 -0.32674672588845421 -0.2120308859258328 0 -0.35024140450074381 -0.20994798342056251 0 -0.32674672588845421 -0.2120308859258328 0 -0.33669316521431608 -0.19324526314955739 0 -0.35024140450074381 -0.20994798342056251 0 -0.32674672588845421 -0.2120308859258328 0 -0.35024140450074381 -0.20994798342056251 0 -0.3377174746324717 -0.2284461722996495 0 -0.32123008678095788 -0.18729232698745699 0 -0.32674672588845421 -0.2120308859258328 0 -0.33669316521431608 -0.19324526314955739 0 -0.35240556330307887 -0.18479875362473361 0 -0.36895563931783232 -0.19259611207654981 0 -0.35024140450074381 -0.20994798342056251 0 -0.35240556330307887 -0.18479875362473361 0 -0.33669316521431608 -0.19324526314955739 0 -0.35024140450074381 -0.20994798342056251 0 -0.36895563931783232 -0.19259611207654981 0 -0.37373608311303341 -0.20786508091529229 0 -0.35024140450074381 -0.20994798342056251 0 -0.37373608311303341 -0.20786508091529229 0 -0.35024140450074381 -0.20994798342056251 0 -0.37373608311303341 -0.20786508091529229 0 -0.35024140450074381 -0.20994798342056251 0 -0.36602803805366552 -0.21914337572849349 0 -0.37373608311303341 -0.20786508091529229 0 -0.36602803805366552 -0.21914337572849349 0 -0.37785639846487218 -0.21906994256996459 0 -0.35024140450074381 -0.20994798342056251 0 -0.357966965356528 -0.23170644806675769 0 -0.3377174746324717 -0.2284461722996495 0 -0.35024140450074381 -0.20994798342056251 0 -0.357966965356528 -0.23170644806675769 0 -0.36602803805366552 -0.21914337572849349 0 -0.357966965356528 -0.23170644806675769 0 -0.36602803805366552 -0.21914337572849349 0 -0.36983275924353248 -0.22875232439276311 0 -0.36602803805366552 -0.21914337572849349 0 -0.36983275924353248 -0.22875232439276311 0 -0.37785639846487218 -0.21906994256996459 0 -0.357966965356528 -0.23170644806675769 0 -0.36983275924353248 -0.22875232439276311 0 -0.37747963509906429 -0.24508953120583671 0 -0.35872453044413888 -0.25078889886649508 0 -0.357966965356528 -0.23170644806675769 0 -0.37747963509906429 -0.24508953120583671 0 -0.357966965356528 -0.23170644806675769 0 -0.34395992200845399 -0.24382677409400949 0 -0.3377174746324717 -0.2284461722996495 0 -0.35872453044413888 -0.25078889886649508 0 -0.357966965356528 -0.23170644806675769 0 -0.34395992200845399 -0.24382677409400949 0 -0.33345250408021371 -0.25331871279766999 0 -0.34395992200845399 -0.24382677409400949 0 -0.33132333615916232 -0.2411148243472106 0 -0.33345250408021371 -0.25331871279766999 0 -0.33132333615916232 -0.2411148243472106 0 -0.32023222063025569 -0.2489608815952247 0 -0.34395992200845399 -0.24382677409400949 0 -0.33132333615916232 -0.2411148243472106 0 -0.3377174746324717 -0.2284461722996495 0 -0.32674672588845421 -0.2120308859258328 0 -0.3377174746324717 -0.2284461722996495 0 -0.32066485276457768 -0.2334308190911655 0 -0.33132333615916232 -0.2411148243472106 0 -0.3377174746324717 -0.2284461722996495 0 -0.32066485276457768 -0.2334308190911655 0 -0.3004866401015065 -0.2269264896544945 0 -0.32674672588845421 -0.2120308859258328 0 -0.32066485276457768 -0.2334308190911655 0 -0.30748271917561598 -0.2431056607245809 0 -0.32066485276457768 -0.2334308190911655 0 -0.32023222063025569 -0.2489608815952247 0 -0.33132333615916232 -0.2411148243472106 0 -0.32066485276457768 -0.2334308190911655 0 -0.32023222063025569 -0.2489608815952247 0 -0.43445882011373449 -0.25478651907497341 0 -0.43806130733353449 -0.23541812032183559 0 -0.43445882011373449 -0.25478651907497341 0 -0.4258852610480256 -0.24284815888716721 0 -0.43806130733353449 -0.23541812032183559 0 -0.4258852610480256 -0.24284815888716721 0 -0.42538833238501789 -0.2333934851751748 0 -0.41698539980062188 -0.23875950084572559 0 -0.43445882011373449 -0.25478651907497341 0 -0.4258852610480256 -0.24284815888716721 0 -0.42335340856967768 -0.24893549408922019 0 -0.4258852610480256 -0.24284815888716721 0 -0.42538833238501789 -0.2333934851751748 0 -0.43806130733353449 -0.23541812032183559 0 -0.43091611572645672 -0.22699763907763329 0 -0.42538833238501789 -0.2333934851751748 0 -0.43806130733353449 -0.23541812032183559 0 -0.43091611572645672 -0.22699763907763329 0 -0.44166379455333399 -0.21604972156869759 0 -0.43806130733353449 -0.23541812032183559 0 -0.43091611572645672 -0.22699763907763329 0 -0.43133498143110582 -0.21921018883561361 0 -0.44166379455333399 -0.21604972156869759 0 -0.43133498143110582 -0.21921018883561361 0 -0.4232485836513401 -0.22477446532261011 0 -0.4232102070061276 -0.21869015764887889 0 -0.43091611572645672 -0.22699763907763329 0 -0.43133498143110582 -0.21921018883561361 0 -0.4232485836513401 -0.22477446532261011 0 -0.43091611572645672 -0.22699763907763329 0 -0.4232485836513401 -0.22477446532261011 0 -0.42538833238501789 -0.2333934851751748 0 -0.4232485836513401 -0.22477446532261011 0 -0.42538833238501789 -0.2333934851751748 0 -0.41731365953457839 -0.2310953018814938 0 -0.4232485836513401 -0.22477446532261011 0 -0.41731365953457839 -0.2310953018814938 0 -0.4121948509493269 -0.2247325638453028 0 -0.41731365953457839 -0.2310953018814938 0 -0.4080561583250083 -0.23272886934204159 0 -0.41698539980062188 -0.23875950084572559 0 -0.4232485836513401 -0.22477446532261011 0 -0.4121948509493269 -0.2247325638453028 0 -0.41685681033243982 -0.21746512418924929 0 -0.4232485836513401 -0.22477446532261011 0 -0.41685681033243982 -0.21746512418924929 0 -0.4232102070061276 -0.21869015764887889 0 -0.4121948509493269 -0.2247325638453028 0 -0.4080561583250083 -0.23272886934204159 0 -0.39971520205611372 -0.2221352637332015 0 -0.4121948509493269 -0.2247325638453028 0 -0.40807454407470489 -0.21592977391801271 0 -0.41685681033243982 -0.21746512418924929 0 -0.4121948509493269 -0.2247325638453028 0 -0.39971520205611372 -0.2221352637332015 0 -0.40807454407470489 -0.21592977391801271 0 -0.41731365953457839 -0.2310953018814938 0 -0.4121948509493269 -0.2247325638453028 0 -0.4080561583250083 -0.23272886934204159 0 -0.4080561583250083 -0.23272886934204159 0 -0.40983148527785651 -0.24118391776602099 0 -0.41698539980062188 -0.23875950084572559 0 -0.42538833238501789 -0.2333934851751748 0 -0.41731365953457839 -0.2310953018814938 0 -0.41698539980062188 -0.23875950084572559 0 -0.40983148527785651 -0.24118391776602099 0 -0.41698539980062188 -0.23875950084572559 0 -0.41627810448972868 -0.24641300060905449 0 -0.4258852610480256 -0.24284815888716721 0 -0.42335340856967768 -0.24893549408922019 0 -0.41627810448972868 -0.24641300060905449 0 -0.4258852610480256 -0.24284815888716721 0 -0.41698539980062188 -0.23875950084572559 0 -0.41627810448972868 -0.24641300060905449 0 -0.41679144862722167 -0.25169429778568547 0 -0.42335340856967768 -0.24893549408922019 0 -0.41627810448972868 -0.24641300060905449 0 -0.41385673751816382 -0.25312989710486528 0 -0.41627810448972868 -0.24641300060905449 0 -0.4086566941719203 -0.24778871483445111 0 -0.40983148527785651 -0.24118391776602099 0 -0.41627810448972868 -0.24641300060905449 0 -0.4086566941719203 -0.24778871483445111 0 -0.40282532782868952 -0.25224285689579767 0 -0.4086566941719203 -0.24778871483445111 0 -0.40022281387448849 -0.24084313907701979 0 -0.40983148527785651 -0.24118391776602099 0 -0.4086566941719203 -0.24778871483445111 0 -0.40022281387448849 -0.24084313907701979 0 -0.4080561583250083 -0.23272886934204159 0 -0.40983148527785651 -0.24118391776602099 0 -0.40022281387448849 -0.24084313907701979 0 -0.40022281387448849 -0.24084313907701979 0 -0.3903832871219331 -0.2411545733314838 0 -0.38772777019650018 -0.2315142496456449 0 -0.3938256931015453 -0.25037754026629511 0 -0.40022281387448849 -0.24084313907701979 0 -0.3903832871219331 -0.2411545733314838 0 -0.3938256931015453 -0.25037754026629511 0 -0.3903832871219331 -0.2411545733314838 0 -0.37747963509906429 -0.24508953120583671 0 -0.3903832871219331 -0.2411545733314838 0 -0.37747963509906429 -0.24508953120583671 0 -0.38772777019650018 -0.2315142496456449 0 -0.37747963509906429 -0.24508953120583671 0 -0.37785639846487218 -0.21906994256996459 0 -0.37747963509906429 -0.24508953120583671 0 -0.37785639846487218 -0.21906994256996459 0 -0.38772777019650018 -0.2315142496456449 0 -0.36983275924353248 -0.22875232439276311 0 -0.37747963509906429 -0.24508953120583671 0 -0.37785639846487218 -0.21906994256996459 0 -0.37785639846487218 -0.21906994256996459 0 -0.38772777019650018 -0.2315142496456449 0 -0.38790285805175961 -0.2167146319195192 0 -0.4080561583250083 -0.23272886934204159 0 -0.40022281387448849 -0.24084313907701979 0 -0.39971520205611372 -0.2221352637332015 0 -0.40022281387448849 -0.24084313907701979 0 -0.39971520205611372 -0.2221352637332015 0 -0.38772777019650018 -0.2315142496456449 0 -0.39971520205611372 -0.2221352637332015 0 -0.38790285805175961 -0.2167146319195192 0 -0.40022281387448849 -0.24084313907701979 0 -0.38772777019650018 -0.2315142496456449 0 -0.39971520205611372 -0.2221352637332015 0 -0.39971520205611372 -0.2221352637332015 0 -0.39723076172532301 -0.205782178410022 0 -0.40807454407470489 -0.21592977391801271 0 -0.39971520205611372 -0.2221352637332015 0 -0.39723076172532301 -0.205782178410022 0 -0.38790285805175961 -0.2167146319195192 0 -0.39723076172532301 -0.205782178410022 0 -0.41303892827123678 -0.21093405469715851 0 -0.40807454407470489 -0.21592977391801271 0 -0.37373608311303341 -0.20786508091529229 0 -0.39723076172532301 -0.205782178410022 0 -0.38370630256805799 -0.1971119561512929 0 -0.37373608311303341 -0.20786508091529229 0 -0.39723076172532301 -0.205782178410022 0 -0.38790285805175961 -0.2167146319195192 0 -0.37373608311303341 -0.20786508091529229 0 -0.39723076172532301 -0.205782178410022 0 -0.37373608311303341 -0.20786508091529229 0 -0.37785639846487218 -0.21906994256996459 0 -0.38790285805175961 -0.2167146319195192 0 -0.36895563931783232 -0.19259611207654981 0 -0.38370630256805799 -0.1971119561512929 0 -0.3831693110633177 -0.1873742460103984 0 -0.36895563931783232 -0.19259611207654981 0 -0.37373608311303341 -0.20786508091529229 0 -0.38370630256805799 -0.1971119561512929 0 -0.38370630256805799 -0.1971119561512929 0 -0.39543971762078378 -0.19194216334420211 0 -0.3831693110633177 -0.1873742460103984 0 -0.39723076172532301 -0.205782178410022 0 -0.38370630256805799 -0.1971119561512929 0 -0.39543971762078378 -0.19194216334420211 0 -0.39723076172532301 -0.205782178410022 0 -0.39543971762078378 -0.19194216334420211 0 -0.40534117689708921 -0.19634387975323889 0 -0.39543971762078378 -0.19194216334420211 0 -0.40534117689708921 -0.19634387975323889 0 -0.40730162077548249 -0.18407395049314179 0 -0.39723076172532301 -0.205782178410022 0 -0.40534117689708921 -0.19634387975323889 0 -0.42072544033761272 -0.20369927590475301 0 -0.42032122747045741 -0.1927313373696285 0 -0.42072544033761272 -0.20369927590475301 0 -0.40730162077548249 -0.18407395049314179 0 -0.42072544033761272 -0.20369927590475301 0 -0.40730162077548249 -0.18407395049314179 0 -0.40534117689708921 -0.19634387975323889 0 -0.42072544033761272 -0.20369927590475301 0 -0.40730162077548249 -0.18407395049314179 0 -0.39723076172532301 -0.205782178410022 0 -0.41303892827123678 -0.21093405469715851 0 -0.42072544033761272 -0.20369927590475301 0 -0.39723076172532301 -0.205782178410022 0 -0.42072544033761272 -0.20369927590475301 0 -0.41303892827123678 -0.21093405469715851 0 -0.40807454407470489 -0.21592977391801271 0 -0.41685681033243982 -0.21746512418924929 0 -0.41303892827123678 -0.21093405469715851 0 -0.41685681033243982 -0.21746512418924929 0 -0.42140045260962489 -0.21331085224804261 0 -0.41685681033243982 -0.21746512418924929 0 -0.42140045260962489 -0.21331085224804261 0 -0.4232102070061276 -0.21869015764887889 0 -0.41303892827123678 -0.21093405469715851 0 -0.42140045260962489 -0.21331085224804261 0 -0.42072544033761272 -0.20369927590475301 0 -0.42512182626149492 -0.2033095177213731 0 -0.43378961613155448 -0.20908682079381441 0 -0.44184138868315109 -0.20247798044170351 0 -0.42072544033761272 -0.20369927590475301 0 -0.42512182626149492 -0.2033095177213731 0 -0.43133498143110582 -0.21921018883561361 0 -0.42072544033761272 -0.20369927590475301 0 -0.42512182626149492 -0.2033095177213731 0 -0.43133498143110582 -0.21921018883561361 0 -0.42512182626149492 -0.2033095177213731 0 -0.43378961613155448 -0.20908682079381441 0 -0.43133498143110582 -0.21921018883561361 0 -0.42140045260962489 -0.21331085224804261 0 -0.4232102070061276 -0.21869015764887889 0 -0.43133498143110582 -0.21921018883561361 0 -0.42072544033761272 -0.20369927590475301 0 -0.43133498143110582 -0.21921018883561361 0 -0.42140045260962489 -0.21331085224804261 0 -0.42072544033761272 -0.20369927590475301 0 -0.43133498143110582 -0.21921018883561361 0 -0.43378961613155448 -0.20908682079381441 0 -0.44166379455333399 -0.21604972156869759 0 -0.42032122747045741 -0.1927313373696285 0 -0.44184138868315109 -0.20247798044170351 0 -0.42032122747045741 -0.1927313373696285 0 -0.43099962817645188 -0.18319011649723049 0 -0.43833565968517207 -0.19112957676178299 0 -0.42032122747045741 -0.1927313373696285 0 -0.42512182626149492 -0.2033095177213731 0 -0.44184138868315109 -0.20247798044170351 0 -0.42032122747045741 -0.1927313373696285 0 -0.43833565968517207 -0.19112957676178299 0 -0.44184138868315109 -0.20247798044170351 0 -0.42032122747045741 -0.1927313373696285 0 -0.42072544033761272 -0.20369927590475301 0 -0.42512182626149492 -0.2033095177213731 0 -0.42549584187692119 -0.17333418479170171 0 -0.43099962817645188 -0.18319011649723049 0 -0.41834400919125792 -0.18158621355319651 0 -0.42032122747045741 -0.1927313373696285 0 -0.43099962817645188 -0.18319011649723049 0 -0.41834400919125792 -0.18158621355319651 0 -0.43099962817645188 -0.18319011649723049 0 -0.43495901877196291 -0.17485617288990979 0 -0.44455133712372419 -0.18300714728765441 0 -0.42549584187692119 -0.17333418479170171 0 -0.43099962817645188 -0.18319011649723049 0 -0.43495901877196291 -0.17485617288990979 0 -0.42549584187692119 -0.17333418479170171 0 -0.43495901877196291 -0.17485617288990979 0 -0.43155613508544272 -0.1669321437644439 0 -0.43495901877196291 -0.17485617288990979 0 -0.43155613508544272 -0.1669321437644439 0 -0.44219215159727421 -0.16781727210851849 0 -0.43155613508544272 -0.1669321437644439 0 -0.43166640735559808 -0.1552039120346444 0 -0.44219215159727421 -0.16781727210851849 0 -0.43155613508544272 -0.1669321437644439 0 -0.4214232379976206 -0.16216052115063159 0 -0.43166640735559808 -0.1552039120346444 0 -0.42549584187692119 -0.17333418479170171 0 -0.43155613508544272 -0.1669321437644439 0 -0.4214232379976206 -0.16216052115063159 0 -0.42549584187692119 -0.17333418479170171 0 -0.4214232379976206 -0.16216052115063159 0 -0.41110577652129249 -0.1670682470007229 0 -0.4214232379976206 -0.16216052115063159 0 -0.41110577652129249 -0.1670682470007229 0 -0.40669002996807779 -0.1495058137550834 0 -0.41110577652129249 -0.1670682470007229 0 -0.41834400919125792 -0.18158621355319651 0 -0.40730162077548249 -0.18407395049314179 0 -0.42549584187692119 -0.17333418479170171 0 -0.41110577652129249 -0.1670682470007229 0 -0.41834400919125792 -0.18158621355319651 0 -0.42032122747045741 -0.1927313373696285 0 -0.41834400919125792 -0.18158621355319651 0 -0.40730162077548249 -0.18407395049314179 0 -0.39543971762078378 -0.19194216334420211 0 -0.40730162077548249 -0.18407395049314179 0 -0.39267839793348491 -0.17927693187167279 0 -0.40730162077548249 -0.18407395049314179 0 -0.39267839793348491 -0.17927693187167279 0 -0.39387780121335469 -0.16444862508152899 0 -0.40730162077548249 -0.18407395049314179 0 -0.39387780121335469 -0.16444862508152899 0 -0.37378547386561772 -0.17392500984250869 0 -0.36895563931783232 -0.19259611207654981 0 -0.3831693110633177 -0.1873742460103984 0 -0.37378547386561772 -0.17392500984250869 0 -0.39267839793348491 -0.17927693187167279 0 -0.3831693110633177 -0.1873742460103984 0 -0.37378547386561772 -0.17392500984250869 0 -0.39267839793348491 -0.17927693187167279 0 -0.39387780121335469 -0.16444862508152899 0 -0.39543971762078378 -0.19194216334420211 0 -0.39267839793348491 -0.17927693187167279 0 -0.3831693110633177 -0.1873742460103984 0 -0.37378547386561772 -0.17392500984250869 0 -0.37839901512320262 -0.15996290040625341 0 -0.39387780121335469 -0.16444862508152899 0 -0.37839901512320262 -0.15996290040625341 0 -0.39387780121335469 -0.16444862508152899 0 -0.3804539816512269 -0.14482329966991631 0 -0.41110577652129249 -0.1670682470007229 0 -0.39387780121335469 -0.16444862508152899 0 -0.40669002996807779 -0.1495058137550834 0 -0.41110577652129249 -0.1670682470007229 0 -0.40730162077548249 -0.18407395049314179 0 -0.39387780121335469 -0.16444862508152899 0 -0.39387780121335469 -0.16444862508152899 0 -0.3804539816512269 -0.14482329966991631 0 -0.40669002996807779 -0.1495058137550834 0 -0.3804539816512269 -0.14482329966991631 0 -0.39647179587780151 -0.13189450107720049 0 -0.40669002996807779 -0.1495058137550834 0 -0.3804539816512269 -0.14482329966991631 0 -0.40669002996807779 -0.1495058137550834 0 -0.39387780121335469 -0.16444862508152899 0 -0.3804539816512269 -0.14482329966991631 0 -0.3804539816512269 -0.14482329966991631 0 -0.38278168804071749 -0.12940228238898679 0 -0.39647179587780151 -0.13189450107720049 0 -0.3804539816512269 -0.14482329966991631 0 -0.39647179587780151 -0.13189450107720049 0 -0.37212838853434238 -0.11808059788504249 0 -0.37028068739271691 -0.13083580994494901 0 -0.38278168804071749 -0.12940228238898679 0 -0.37028068739271691 -0.13083580994494901 0 -0.3804539816512269 -0.14482329966991631 0 -0.38278168804071749 -0.12940228238898679 0 -0.38278168804071749 -0.12940228238898679 0 -0.39647179587780151 -0.13189450107720049 0 -0.39044023874876249 -0.11757149150947201 0 -0.39647179587780151 -0.13189450107720049 0 -0.40828286160401828 -0.1310364195873514 0 -0.40669002996807779 -0.1495058137550834 0 -0.39647179587780151 -0.13189450107720049 0 -0.40828286160401828 -0.1310364195873514 0 -0.41122993917504558 -0.1199812866788818 0 -0.39647179587780151 -0.13189450107720049 0 -0.41122993917504558 -0.1199812866788818 0 -0.40828286160401828 -0.1310364195873514 0 -0.41930562378398423 -0.12797048681614909 0 -0.41122993917504558 -0.1199812866788818 0 -0.41930562378398423 -0.12797048681614909 0 -0.41533589961201212 -0.13938201891822019 0 -0.4273858072007774 -0.14414008567558009 0 -0.40828286160401828 -0.1310364195873514 0 -0.41533589961201212 -0.13938201891822019 0 -0.40669002996807779 -0.1495058137550834 0 -0.40828286160401828 -0.1310364195873514 0 -0.41930562378398423 -0.12797048681614909 0 -0.41533589961201212 -0.13938201891822019 0 -0.40669002996807779 -0.1495058137550834 0 -0.43166640735559808 -0.1552039120346444 0 -0.4214232379976206 -0.16216052115063159 0 -0.40669002996807779 -0.1495058137550834 0 -0.43166640735559808 -0.1552039120346444 0 -0.41533589961201212 -0.13938201891822019 0 -0.40669002996807779 -0.1495058137550834 0 -0.4273858072007774 -0.14414008567558009 0 -0.40669002996807779 -0.1495058137550834 0 -0.4273858072007774 -0.14414008567558009 0 -0.43166640735559808 -0.1552039120346444 0 -0.43166640735559808 -0.1552039120346444 0 -0.43525592456887258 -0.14374997194848471 0 -0.44410307239699631 -0.15282998285397989 0 -0.4273858072007774 -0.14414008567558009 0 -0.43166640735559808 -0.1552039120346444 0 -0.43525592456887258 -0.14374997194848471 0 -0.41930562378398423 -0.12797048681614909 0 -0.43525592456887258 -0.14374997194848471 0 -0.41930562378398423 -0.12797048681614909 0 -0.4273858072007774 -0.14414008567558009 0 -0.43525592456887258 -0.14374997194848471 0 -0.41930562378398423 -0.12797048681614909 0 -0.4273858072007774 -0.14414008567558009 0 -0.41930562378398423 -0.12797048681614909 0 -0.43525592456887258 -0.14374997194848471 0 -0.43389101300267191 -0.13422730327376839 0 -0.41930562378398423 -0.12797048681614909 0 -0.43389101300267191 -0.13422730327376839 0 -0.4149348530849476 -0.1169905694289516 0 -0.43389101300267191 -0.13422730327376839 0 -0.4149348530849476 -0.1169905694289516 0 -0.43389101300267191 -0.13422730327376839 0 -0.43160182387889101 -0.1187955019330571 0 -0.44085253015216358 -0.1237950587173612 0 -0.43389101300267191 -0.13422730327376839 0 -0.44872577578551592 -0.13320174295465559 0 -0.452847172920396 -0.1514640371185853 0 -0.44872577578551592 -0.13320174295465559 0 -0.45896755277767909 -0.12575633132281341 0 -0.45000974795797011 -0.119430952696417 0 -0.44872577578551592 -0.13320174295465559 0 -0.45000974795797011 -0.119430952696417 0 -0.44085253015216358 -0.1237950587173612 0 -0.43389101300267191 -0.13422730327376839 0 -0.44872577578551592 -0.13320174295465559 0 -0.44085253015216358 -0.1237950587173612 0 -0.43525592456887258 -0.14374997194848471 0 -0.43389101300267191 -0.13422730327376839 0 -0.452847172920396 -0.1514640371185853 0 -0.43525592456887258 -0.14374997194848471 0 -0.44410307239699631 -0.15282998285397989 0 -0.452847172920396 -0.1514640371185853 0 -0.44872577578551592 -0.13320174295465559 0 -0.452847172920396 -0.1514640371185853 0 -0.456386085566235 -0.14096643446963419 0 -0.43389101300267191 -0.13422730327376839 0 -0.452847172920396 -0.1514640371185853 0 -0.44410307239699631 -0.15282998285397989 0 -0.452847172920396 -0.1514640371185853 0 -0.45664278474311831 -0.16090201031420531 0 -0.452847172920396 -0.1514640371185853 0 -0.456386085566235 -0.14096643446963419 0 -0.46738274896045578 -0.15003021006820461 0 -0.452847172920396 -0.1514640371185853 0 -0.46738274896045578 -0.15003021006820461 0 -0.45664278474311831 -0.16090201031420531 0 -0.456386085566235 -0.14096643446963419 0 -0.46738274896045578 -0.15003021006820461 0 -0.47200539146090159 -0.13839174763128981 0 -0.456386085566235 -0.14096643446963419 0 -0.47200539146090159 -0.13839174763128981 0 -0.47750202174635031 -0.1215216316744509 0 -0.456386085566235 -0.14096643446963419 0 -0.45896755277767909 -0.12575633132281341 0 -0.47750202174635031 -0.1215216316744509 0 -0.456386085566235 -0.14096643446963419 0 -0.47750202174635031 -0.1215216316744509 0 -0.44872577578551592 -0.13320174295465559 0 -0.456386085566235 -0.14096643446963419 0 -0.45896755277767909 -0.12575633132281341 0 -0.47200539146090159 -0.13839174763128981 0 -0.48675070957056549 -0.14104871431286931 0 -0.47750202174635031 -0.1215216316744509 0 -0.50000000000000011 -0.12648838757554831 0 -0.48675070957056549 -0.14104871431286931 0 -0.5 -0.15043640832747529 0 -0.50000000000000011 -0.12648838757554831 0 -0.48675070957056549 -0.14104871431286931 0 -0.47750202174635031 -0.1215216316744509 0 -0.48675070957056549 -0.14104871431286931 0 -0.5 -0.15043640832747529 0 -0.48062174440056549 -0.15969986187448909 0 -0.46738274896045578 -0.15003021006820461 0 -0.47200539146090159 -0.13839174763128981 0 -0.48675070957056549 -0.14104871431286931 0 -0.48675070957056549 -0.14104871431286931 0 -0.48062174440056549 -0.15969986187448909 0 -0.46738274896045578 -0.15003021006820461 0 -0.48675070957056549 -0.14104871431286931 0 -0.48062174440056549 -0.15969986187448909 0 -0.48062174440056549 -0.15969986187448909 0 -0.46548313673471758 -0.16971310035941381 0 -0.46753260370971428 -0.1600862956540782 0 -0.46738274896045578 -0.15003021006820461 0 -0.48062174440056549 -0.15969986187448909 0 -0.46753260370971428 -0.1600862956540782 0 -0.48062174440056549 -0.15969986187448909 0 -0.47449277923056221 -0.17835100943610771 0 -0.46548313673471758 -0.16971310035941381 0 -0.48062174440056549 -0.15969986187448909 0 -0.47449277923056221 -0.17835100943610771 0 -0.5 -0.15043640832747529 0 -0.48062174440056549 -0.15969986187448909 0 -0.49999999999999828 -0.17438442907940241 0 -0.48062174440056549 -0.15969986187448909 0 -0.49999999999999828 -0.17438442907940241 0 -0.47449277923056221 -0.17835100943610771 0 -0.49999999999999828 -0.17438442907940241 0 -0.47449277923056221 -0.17835100943610771 0 -0.49999999999999828 -0.17438442907940241 0 -0.47449277923056221 -0.17835100943610771 0 -0.48549376880548989 -0.19132810400505559 0 -0.47449277923056221 -0.17835100943610771 0 -0.46892716456320649 -0.19528781647494389 0 -0.47449277923056221 -0.17835100943610771 0 -0.45952205817714309 -0.18067907836188021 0 -0.46892716456320649 -0.19528781647494389 0 -0.45952205817714309 -0.18067907836188021 0 -0.46548313673471758 -0.16971310035941381 0 -0.45289664290439807 -0.17180374819378549 0 -0.47449277923056221 -0.17835100943610771 0 -0.45952205817714309 -0.18067907836188021 0 -0.47449277923056221 -0.17835100943610771 0 -0.45952205817714309 -0.18067907836188021 0 -0.46548313673471758 -0.16971310035941381 0 -0.46548313673471758 -0.16971310035941381 0 -0.46753260370971428 -0.1600862956540782 0 -0.45664278474311831 -0.16090201031420531 0 -0.46738274896045578 -0.15003021006820461 0 -0.46753260370971428 -0.1600862956540782 0 -0.45664278474311831 -0.16090201031420531 0 -0.46548313673471758 -0.16971310035941381 0 -0.45664278474311831 -0.16090201031420531 0 -0.45289664290439807 -0.17180374819378549 0 -0.45664278474311831 -0.16090201031420531 0 -0.45289664290439807 -0.17180374819378549 0 -0.44219215159727421 -0.16781727210851849 0 -0.43166640735559808 -0.1552039120346444 0 -0.45664278474311831 -0.16090201031420531 0 -0.44219215159727421 -0.16781727210851849 0 -0.43166640735559808 -0.1552039120346444 0 -0.45664278474311831 -0.16090201031420531 0 -0.43166640735559808 -0.1552039120346444 0 -0.44410307239699631 -0.15282998285397989 0 -0.45664278474311831 -0.16090201031420531 0 -0.43495901877196291 -0.17485617288990979 0 -0.44219215159727421 -0.16781727210851849 0 -0.44455133712372419 -0.18300714728765441 0 -0.43099962817645188 -0.18319011649723049 0 -0.44455133712372419 -0.18300714728765441 0 -0.43833565968517207 -0.19112957676178299 0 -0.45952205817714309 -0.18067907836188021 0 -0.44455133712372419 -0.18300714728765441 0 -0.45396471697207569 -0.194241302212698 0 -0.45952205817714309 -0.18067907836188021 0 -0.44455133712372419 -0.18300714728765441 0 -0.45952205817714309 -0.18067907836188021 0 -0.45289664290439807 -0.17180374819378549 0 -0.44455133712372419 -0.18300714728765441 0 -0.45289664290439807 -0.17180374819378549 0 -0.44219215159727421 -0.16781727210851849 0 -0.44455133712372419 -0.18300714728765441 0 -0.44455133712372419 -0.18300714728765441 0 -0.43833565968517207 -0.19112957676178299 0 -0.45396471697207569 -0.194241302212698 0 -0.43833565968517207 -0.19112957676178299 0 -0.44184138868315109 -0.20247798044170351 0 -0.45396471697207569 -0.194241302212698 0 -0.44184138868315109 -0.20247798044170351 0 -0.46336154989584488 -0.2122246235137781 0 -0.45396471697207569 -0.194241302212698 0 -0.44184138868315109 -0.20247798044170351 0 -0.46336154989584488 -0.2122246235137781 0 -0.45338394269579491 -0.2190794284651259 0 -0.43378961613155448 -0.20908682079381441 0 -0.44184138868315109 -0.20247798044170351 0 -0.44166379455333399 -0.21604972156869759 0 -0.44184138868315109 -0.20247798044170351 0 -0.44166379455333399 -0.21604972156869759 0 -0.45338394269579491 -0.2190794284651259 0 -0.44184138868315109 -0.20247798044170351 0 -0.46336154989584488 -0.2122246235137781 0 -0.46336154989584488 -0.2122246235137781 0 -0.46892716456320649 -0.19528781647494389 0 -0.46336154989584488 -0.2122246235137781 0 -0.45396471697207569 -0.194241302212698 0 -0.46892716456320649 -0.19528781647494389 0 -0.45952205817714309 -0.18067907836188021 0 -0.45396471697207569 -0.194241302212698 0 -0.46892716456320649 -0.19528781647494389 0 -0.47449277923056221 -0.17835100943610771 0 -0.46892716456320649 -0.19528781647494389 0 -0.48549376880548989 -0.19132810400505559 0 -0.46892716456320649 -0.19528781647494389 0 -0.48549376880548989 -0.19132810400505559 0 -0.47978640147694102 -0.20418872613165631 0 -0.5 -0.20182215567114031 0 -0.48549376880548989 -0.19132810400505559 0 -0.47978640147694102 -0.20418872613165631 0 -0.49999999999999828 -0.17438442907940241 0 -0.5 -0.20182215567114031 0 -0.48549376880548989 -0.19132810400505559 0 -0.5 -0.20182215567114031 0 -0.48114952412016337 -0.22028093099336349 0 -0.49893749834448198 -0.22833723847294871 0 -0.5 -0.20182215567114031 0 -0.47978640147694102 -0.20418872613165631 0 -0.48114952412016337 -0.22028093099336349 0 -0.46336154989584488 -0.2122246235137781 0 -0.48114952412016337 -0.22028093099336349 0 -0.46336154989584488 -0.2122246235137781 0 -0.47978640147694102 -0.20418872613165631 0 -0.48114952412016337 -0.22028093099336349 0 -0.46336154989584488 -0.2122246235137781 0 -0.46892716456320649 -0.19528781647494389 0 -0.47978640147694102 -0.20418872613165631 0 -0.46336154989584488 -0.2122246235137781 0 -0.48114952412016337 -0.22028093099336349 0 -0.46857810181099829 -0.22486784275082261 0 -0.48114952412016337 -0.22028093099336349 0 -0.48798868478634799 -0.231470988200419 0 -0.47142395938804471 -0.23802335247430181 0 -0.48114952412016337 -0.22028093099336349 0 -0.47142395938804471 -0.23802335247430181 0 -0.46857810181099829 -0.22486784275082261 0 -0.48114952412016337 -0.22028093099336349 0 -0.48798868478634799 -0.231470988200419 0 -0.49893749834448198 -0.22833723847294871 0 -0.48114952412016337 -0.22028093099336349 0 -0.49893749834448198 -0.22833723847294871 0 -0.48798868478634799 -0.231470988200419 0 -0.49893749834448198 -0.22833723847294871 0 -0.4875835208682564 -0.24248539692068891 0 -0.5 -0.25669760885461612 0 -0.49893749834448198 -0.22833723847294871 0 -0.4875835208682564 -0.24248539692068891 0 -0.48798868478634799 -0.231470988200419 0 -0.4875835208682564 -0.24248539692068891 0 -0.47142395938804471 -0.23802335247430181 0 -0.47878778985378329 -0.25835102983948688 0 -0.4875835208682564 -0.24248539692068891 0 -0.47142395938804471 -0.23802335247430181 0 -0.45662330498375908 -0.25656877445722759 0 -0.47142395938804471 -0.23802335247430181 0 -0.45034617445999431 -0.24335722649563979 0 -0.47142395938804471 -0.23802335247430181 0 -0.45735065046854989 -0.23051648340969341 0 -0.45034617445999431 -0.24335722649563979 0 -0.46336154989584488 -0.2122246235137781 0 -0.46857810181099829 -0.22486784275082261 0 -0.45735065046854989 -0.23051648340969341 0 -0.46336154989584488 -0.2122246235137781 0 -0.45735065046854989 -0.23051648340969341 0 -0.47142395938804471 -0.23802335247430181 0 -0.46857810181099829 -0.22486784275082261 0 -0.45735065046854989 -0.23051648340969341 0 -0.46336154989584488 -0.2122246235137781 0 -0.45338394269579491 -0.2190794284651259 0 -0.45735065046854989 -0.23051648340969341 0 -0.45338394269579491 -0.2190794284651259 0 -0.45735065046854989 -0.23051648340969341 0 -0.43806130733353449 -0.23541812032183559 0 -0.44166379455333399 -0.21604972156869759 0 -0.43806130733353449 -0.23541812032183559 0 -0.44166379455333399 -0.21604972156869759 0 -0.45338394269579491 -0.2190794284651259 0 -0.43806130733353449 -0.23541812032183559 0 -0.45735065046854989 -0.23051648340969341 0 -0.45034617445999431 -0.24335722649563979 0 -0.43806130733353449 -0.23541812032183559 0 -0.43445882011373449 -0.25478651907497341 0 -0.45034617445999431 -0.24335722649563979 0 -0.43806130733353449 -0.23541812032183559 0 -0.41324955929443102 -0.038374170610562031 0 -0.41005136228565903 -0.05540387285823338 0 -0.42435348212729052 -0.04457483879584373 0 -0.41324955929443102 -0.038374170610562031 0 -0.41005136228565903 -0.05540387285823338 0 -0.39900851660089293 -0.046429079601448257 0 -0.41324955929443102 -0.038374170610562031 0 -0.40747857107326091 -0.02424585309778798 0 -0.40045416304880688 -0.034240371911693122 0 -0.41005136228565903 -0.05540387285823338 0 -0.4246600563061857 -0.059067830999859447 0 -0.41422906440869389 -0.068128229862373102 0 -0.41005136228565903 -0.05540387285823338 0 -0.4246600563061857 -0.059067830999859447 0 -0.42435348212729052 -0.04457483879584373 0 -0.4246600563061857 -0.059067830999859447 0 -0.42435348212729052 -0.04457483879584373 0 -0.43957367317472601 -0.045089571971719818 0 -0.4246600563061857 -0.059067830999859447 0 -0.43957367317472601 -0.045089571971719818 0 -0.44544580640037118 -0.056213229689383748 0 -0.41324955929443102 -0.038374170610562031 0 -0.42435348212729052 -0.04457483879584373 0 -0.42981912379901888 -0.030443092666165631 0 -0.42435348212729052 -0.04457483879584373 0 -0.42981912379901888 -0.030443092666165631 0 -0.43957367317472601 -0.045089571971719818 0 -0.41302196833726168 -0.01226972299954816 0 -0.4392085005598273 -0.024676348383282701 0 -0.42659341977192161 -0.010103830507352861 0 -0.41302196833726168 -0.01226972299954816 0 -0.4392085005598273 -0.024676348383282701 0 -0.42981912379901888 -0.030443092666165631 0 -0.41673372021425997 -0.022240754673565791 0 -0.4392085005598273 -0.024676348383282701 0 -0.41302196833726168 -0.01226972299954816 0 -0.41673372021425997 -0.022240754673565791 0 -0.4392085005598273 -0.024676348383282701 0 -0.43741768347029059 -0.01288367903972009 0 -0.42659341977192161 -0.010103830507352861 0 -0.4392085005598273 -0.024676348383282701 0 -0.4441818909265971 -0.00998157505946092 0 -0.42578104856505677 0.0031949168855625672 0 -0.43741768347029059 -0.01288367903972009 0 -0.4441818909265971 -0.00998157505946092 0 -0.42578104856505677 0.0031949168855625672 0 -0.43741768347029059 -0.01288367903972009 0 -0.42659341977192161 -0.010103830507352861 0 -0.42578104856505677 0.0031949168855625672 0 -0.43741768347029059 -0.01288367903972009 0 -0.42578104856505677 0.0031949168855625672 0 -0.42659341977192161 -0.010103830507352861 0 -0.41753789792717189 -0.0038843189997757009 0 -0.42578104856505677 0.0031949168855625672 0 -0.42659341977192161 -0.010103830507352861 0 -0.41753789792717189 -0.0038843189997757009 0 -0.41302196833726168 -0.01226972299954816 0 -0.41753789792717189 -0.0038843189997757009 0 -0.41302196833726168 -0.01226972299954816 0 -0.40771050441737638 -0.0035262849216432719 0 -0.41753789792717189 -0.0038843189997757009 0 -0.40771050441737638 -0.0035262849216432719 0 -0.41105156913745711 0.0034129409419674369 0 -0.42981912379901888 -0.030443092666165631 0 -0.40747857107326091 -0.02424585309778798 0 -0.41324955929443102 -0.038374170610562031 0 -0.42981912379901888 -0.030443092666165631 0 -0.40747857107326091 -0.02424585309778798 0 -0.42981912379901888 -0.030443092666165631 0 -0.41673372021425997 -0.022240754673565791 0 -0.40747857107326091 -0.02424585309778798 0 -0.41302196833726168 -0.01226972299954816 0 -0.41673372021425997 -0.022240754673565791 0 -0.40747857107326091 -0.02424585309778798 0 -0.41673372021425997 -0.022240754673565791 0 -0.40747857107326091 -0.02424585309778798 0 -0.40747857107326091 -0.02424585309778798 0 -0.38992317137517202 -0.02804917422583518 0 -0.40747857107326091 -0.02424585309778798 0 -0.38992317137517202 -0.02804917422583518 0 -0.38297625517291389 -0.017448943304264108 0 -0.40747857107326091 -0.02424585309778798 0 -0.38992317137517202 -0.02804917422583518 0 -0.40045416304880688 -0.034240371911693122 0 -0.40747857107326091 -0.02424585309778798 0 -0.39567459441968961 -0.012635194689989219 0 -0.38297625517291389 -0.017448943304264108 0 -0.40747857107326091 -0.02424585309778798 0 -0.38297625517291389 -0.017448943304264108 0 -0.41302196833726168 -0.01226972299954816 0 -0.40747857107326091 -0.02424585309778798 0 -0.39567459441968961 -0.012635194689989219 0 -0.41302196833726168 -0.01226972299954816 0 -0.40771050441737638 -0.0035262849216432719 0 -0.38683543611469601 0.0001369023841863784 0 -0.41302196833726168 -0.01226972299954816 0 -0.39567459441968961 -0.012635194689989219 0 -0.38683543611469601 0.0001369023841863784 0 -0.41302196833726168 -0.01226972299954816 0 -0.38683543611469601 0.0001369023841863784 0 -0.40771050441737638 -0.0035262849216432719 0 -0.38683543611469601 0.0001369023841863784 0 -0.40226596945639398 0.0014711925349297271 0 -0.39567459441968961 -0.012635194689989219 0 -0.38502252263107412 -0.0084426060797158468 0 -0.38683543611469601 0.0001369023841863784 0 -0.39567459441968961 -0.012635194689989219 0 -0.38502252263107412 -0.0084426060797158468 0 -0.38297625517291389 -0.017448943304264108 0 -0.38502252263107412 -0.0084426060797158468 0 -0.38009964520605882 -0.0090403485437739461 0 -0.38297625517291389 -0.017448943304264108 0 -0.37278444596104371 -0.0079457960458173115 0 -0.38009964520605882 -0.0090403485437739461 0 -0.38297625517291389 -0.017448943304264108 0 -0.37474494217865062 -0.0022388935110706832 0 -0.38502252263107412 -0.0084426060797158468 0 -0.38683543611469601 0.0001369023841863784 0 -0.37474494217865062 -0.0022388935110706832 0 -0.38502252263107412 -0.0084426060797158468 0 -0.38009964520605882 -0.0090403485437739461 0 -0.37474494217865062 -0.0022388935110706832 0 -0.37278444596104371 -0.0079457960458173115 0 -0.38009964520605882 -0.0090403485437739461 0 -0.37236777167708351 -0.031852495353884333 0 -0.38992317137517202 -0.02804917422583518 0 -0.37990921189048049 -0.023302515363219579 0 -0.37236777167708351 -0.031852495353884333 0 -0.38992317137517202 -0.02804917422583518 0 -0.38992317137517202 -0.02804917422583518 0 -0.38297625517291389 -0.017448943304264108 0 -0.37990921189048049 -0.023302515363219579 0 -0.3739022591900184 -0.02415390189740213 0 -0.38297625517291389 -0.017448943304264108 0 -0.37990921189048049 -0.023302515363219579 0 -0.37236777167708351 -0.031852495353884333 0 -0.3739022591900184 -0.02415390189740213 0 -0.37990921189048049 -0.023302515363219579 0 -0.37236777167708351 -0.031852495353884333 0 -0.37990921189048049 -0.023302515363219579 0 -0.38458287424021398 -0.039388642062709187 0 -0.39900851660089293 -0.046429079601448257 0 -0.3815482533063424 -0.052412606119804542 0 -0.37355784227175309 -0.045246792894939887 0 -0.37236777167708351 -0.031852495353884333 0 -0.38458287424021398 -0.039388642062709187 0 -0.37236777167708351 -0.031852495353884333 0 -0.38992317137517202 -0.02804917422583518 0 -0.38458287424021398 -0.039388642062709187 0 -0.37355784227175309 -0.045246792894939887 0 -0.38458287424021398 -0.039388642062709187 0 -0.3815482533063424 -0.052412606119804542 0 -0.38458287424021398 -0.039388642062709187 0 -0.39900851660089293 -0.046429079601448257 0 -0.40045416304880688 -0.034240371911693122 0 -0.38992317137517202 -0.02804917422583518 0 -0.38458287424021398 -0.039388642062709187 0 -0.40045416304880688 -0.034240371911693122 0 -0.41324955929443102 -0.038374170610562031 0 -0.39900851660089293 -0.046429079601448257 0 -0.40045416304880688 -0.034240371911693122 0 -0.39900851660089293 -0.046429079601448257 0 -0.39626447370361728 -0.06091275685647668 0 -0.3815482533063424 -0.052412606119804542 0 -0.41005136228565903 -0.05540387285823338 0 -0.39626447370361728 -0.06091275685647668 0 -0.40517181862379281 -0.066558370858305557 0 -0.41005136228565903 -0.05540387285823338 0 -0.39900851660089293 -0.046429079601448257 0 -0.39626447370361728 -0.06091275685647668 0 -0.36862349457690058 -0.057461967220355487 0 -0.3815482533063424 -0.052412606119804542 0 -0.37947166312044489 -0.067272628224985004 0 -0.3815482533063424 -0.052412606119804542 0 -0.37947166312044489 -0.067272628224985004 0 -0.39260231949431601 -0.074533368335879327 0 -0.36882665317829499 -0.078032107790563188 0 -0.39260231949431601 -0.074533368335879327 0 -0.39626447370361728 -0.06091275685647668 0 -0.3815482533063424 -0.052412606119804542 0 -0.39260231949431601 -0.074533368335879327 0 -0.3815482533063424 -0.052412606119804542 0 -0.39260231949431601 -0.074533368335879327 0 -0.36882665317829499 -0.078032107790563188 0 -0.37947166312044489 -0.067272628224985004 0 -0.39260231949431601 -0.074533368335879327 0 -0.36882665317829499 -0.078032107790563188 0 -0.39260231949431601 -0.074533368335879327 0 -0.39002829617667018 -0.099006697234722524 0 -0.36882665317829499 -0.078032107790563188 0 -0.39002829617667018 -0.099006697234722524 0 -0.37367929427193591 -0.1014825750548952 0 -0.36882665317829499 -0.078032107790563188 0 -0.39002829617667018 -0.099006697234722524 0 -0.39260231949431601 -0.074533368335879327 0 -0.39002829617667018 -0.099006697234722524 0 -0.39510370691593599 -0.098958215311000047 0 -0.39260231949431601 -0.074533368335879327 0 -0.40274583300482147 -0.094831984843681591 0 -0.39260231949431601 -0.074533368335879327 0 -0.39510370691593599 -0.098958215311000047 0 -0.40274583300482147 -0.094831984843681591 0 -0.40361170428446441 -0.083317353290434007 0 -0.39260231949431601 -0.074533368335879327 0 -0.40274583300482147 -0.094831984843681591 0 -0.40361170428446441 -0.083317353290434007 0 -0.39867569396630093 -0.073639632925658519 0 -0.40696916935602839 -0.074517235882718885 0 -0.39867569396630093 -0.073639632925658519 0 -0.40517181862379281 -0.066558370858305557 0 -0.40696916935602839 -0.074517235882718885 0 -0.39626447370361728 -0.06091275685647668 0 -0.39867569396630093 -0.073639632925658519 0 -0.40517181862379281 -0.066558370858305557 0 -0.39626447370361728 -0.06091275685647668 0 -0.39867569396630093 -0.073639632925658519 0 -0.39260231949431601 -0.074533368335879327 0 -0.40361170428446441 -0.083317353290434007 0 -0.39867569396630093 -0.073639632925658519 0 -0.39260231949431601 -0.074533368335879327 0 -0.39867569396630093 -0.073639632925658519 0 -0.39260231949431601 -0.074533368335879327 0 -0.37212838853434238 -0.11808059788504249 0 -0.38278168804071749 -0.12940228238898679 0 -0.39044023874876249 -0.11757149150947201 0 -0.37367929427193591 -0.1014825750548952 0 -0.37212838853434238 -0.11808059788504249 0 -0.39044023874876249 -0.11757149150947201 0 -0.37367929427193591 -0.1014825750548952 0 -0.39044023874876249 -0.11757149150947201 0 -0.39002829617667018 -0.099006697234722524 0 -0.39510370691593599 -0.098958215311000047 0 -0.40274583300482147 -0.094831984843681591 0 -0.41288934651532883 -0.11513060135148299 0 -0.39002829617667018 -0.099006697234722524 0 -0.39510370691593599 -0.098958215311000047 0 -0.41122993917504558 -0.1199812866788818 0 -0.39510370691593599 -0.098958215311000047 0 -0.41288934651532883 -0.11513060135148299 0 -0.39647179587780151 -0.13189450107720049 0 -0.39044023874876249 -0.11757149150947201 0 -0.41122993917504558 -0.1199812866788818 0 -0.39002829617667018 -0.099006697234722524 0 -0.41122993917504558 -0.1199812866788818 0 -0.39044023874876249 -0.11757149150947201 0 -0.39002829617667018 -0.099006697234722524 0 -0.41122993917504558 -0.1199812866788818 0 -0.39510370691593599 -0.098958215311000047 0 -0.41122993917504558 -0.1199812866788818 0 -0.41288934651532883 -0.11513060135148299 0 -0.41930562378398423 -0.12797048681614909 0 -0.41122993917504558 -0.1199812866788818 0 -0.4149348530849476 -0.1169905694289516 0 -0.41930562378398423 -0.12797048681614909 0 -0.41122993917504558 -0.1199812866788818 0 -0.41930562378398423 -0.12797048681614909 0 -0.4149348530849476 -0.1169905694289516 0 -0.41122993917504558 -0.1199812866788818 0 -0.41288934651532883 -0.11513060135148299 0 -0.4149348530849476 -0.1169905694289516 0 -0.41122993917504558 -0.1199812866788818 0 -0.4149348530849476 -0.1169905694289516 0 -0.41288934651532883 -0.11513060135148299 0 -0.4149348530849476 -0.1169905694289516 0 -0.41288934651532883 -0.11513060135148299 0 -0.4149348530849476 -0.1169905694289516 0 -0.41458672172207622 -0.10427776634057311 0 -0.40274583300482147 -0.094831984843681591 0 -0.41288934651532883 -0.11513060135148299 0 -0.4149348530849476 -0.1169905694289516 0 -0.41458672172207622 -0.10427776634057311 0 -0.43059848591229039 -0.1043464168163742 0 -0.40274583300482147 -0.094831984843681591 0 -0.41288934651532883 -0.11513060135148299 0 -0.41458672172207622 -0.10427776634057311 0 -0.41458672172207622 -0.10427776634057311 0 -0.41348552386521947 -0.090840815536544176 0 -0.43025813067654672 -0.08737754853092726 0 -0.40274583300482147 -0.094831984843681591 0 -0.41458672172207622 -0.10427776634057311 0 -0.41348552386521947 -0.090840815536544176 0 -0.43059848591229039 -0.1043464168163742 0 -0.43025813067654672 -0.08737754853092726 0 -0.44626211873963212 -0.091702264203795431 0 -0.41458672172207622 -0.10427776634057311 0 -0.43059848591229039 -0.1043464168163742 0 -0.43025813067654672 -0.08737754853092726 0 -0.41458672172207622 -0.10427776634057311 0 -0.43025813067654672 -0.08737754853092726 0 -0.4149348530849476 -0.1169905694289516 0 -0.43059848591229039 -0.1043464168163742 0 -0.43160182387889101 -0.1187955019330571 0 -0.4149348530849476 -0.1169905694289516 0 -0.43059848591229039 -0.1043464168163742 0 -0.43389101300267191 -0.13422730327376839 0 -0.4149348530849476 -0.1169905694289516 0 -0.43160182387889101 -0.1187955019330571 0 -0.43059848591229039 -0.1043464168163742 0 -0.43160182387889101 -0.1187955019330571 0 -0.44003429013576911 -0.11331979272890801 0 -0.43160182387889101 -0.1187955019330571 0 -0.44085253015216358 -0.1237950587173612 0 -0.44003429013576911 -0.11331979272890801 0 -0.41422906440869389 -0.068128229862373102 0 -0.41539885585273961 -0.080089681603359497 0 -0.42594434486026628 -0.073522222089585226 0 -0.4246600563061857 -0.059067830999859447 0 -0.41422906440869389 -0.068128229862373102 0 -0.42594434486026628 -0.073522222089585226 0 -0.41005136228565903 -0.05540387285823338 0 -0.40517181862379281 -0.066558370858305557 0 -0.41422906440869389 -0.068128229862373102 0 -0.40517181862379281 -0.066558370858305557 0 -0.41422906440869389 -0.068128229862373102 0 -0.40696916935602839 -0.074517235882718885 0 -0.41422906440869389 -0.068128229862373102 0 -0.40696916935602839 -0.074517235882718885 0 -0.41539885585273961 -0.080089681603359497 0 -0.41348552386521947 -0.090840815536544176 0 -0.41539885585273961 -0.080089681603359497 0 -0.43025813067654672 -0.08737754853092726 0 -0.40361170428446441 -0.083317353290434007 0 -0.41348552386521947 -0.090840815536544176 0 -0.41539885585273961 -0.080089681603359497 0 -0.40361170428446441 -0.083317353290434007 0 -0.40696916935602839 -0.074517235882718885 0 -0.41539885585273961 -0.080089681603359497 0 -0.40361170428446441 -0.083317353290434007 0 -0.40274583300482147 -0.094831984843681591 0 -0.41348552386521947 -0.090840815536544176 0 -0.41539885585273961 -0.080089681603359497 0 -0.43025813067654672 -0.08737754853092726 0 -0.42594434486026628 -0.073522222089585226 0 -0.4246600563061857 -0.059067830999859447 0 -0.44592953963101739 -0.07047733072128165 0 -0.43025813067654672 -0.08737754853092726 0 -0.42594434486026628 -0.073522222089585226 0 -0.44592953963101739 -0.07047733072128165 0 -0.4246600563061857 -0.059067830999859447 0 -0.42594434486026628 -0.073522222089585226 0 -0.44592953963101739 -0.07047733072128165 0 -0.44592953963101739 -0.07047733072128165 0 -0.45893666683642192 -0.056450303318209168 0 -0.44592953963101739 -0.07047733072128165 0 -0.44626211873963212 -0.091702264203795431 0 -0.46192575156697407 -0.079058111591217034 0 -0.43025813067654672 -0.08737754853092726 0 -0.44592953963101739 -0.07047733072128165 0 -0.43025813067654672 -0.08737754853092726 0 -0.44592953963101739 -0.07047733072128165 0 -0.44626211873963212 -0.091702264203795431 0 -0.44626211873963212 -0.091702264203795431 0 -0.46631049206888459 -0.091444160656324658 0 -0.46192575156697407 -0.079058111591217034 0 -0.44626211873963212 -0.091702264203795431 0 -0.46192575156697407 -0.079058111591217034 0 -0.46631049206888459 -0.091444160656324658 0 -0.46192575156697407 -0.079058111591217034 0 -0.47702460168979111 -0.087157524427869615 0 -0.44592953963101739 -0.07047733072128165 0 -0.46192575156697407 -0.079058111591217034 0 -0.45893666683642192 -0.056450303318209168 0 -0.46192575156697407 -0.079058111591217034 0 -0.47491389520024407 -0.068573693827893439 0 -0.45893666683642192 -0.056450303318209168 0 -0.46192575156697407 -0.079058111591217034 0 -0.47491389520024407 -0.068573693827893439 0 -0.44592953963101739 -0.07047733072128165 0 -0.46192575156697407 -0.079058111591217034 0 -0.45000974795797011 -0.119430952696417 0 -0.44085253015216358 -0.1237950587173612 0 -0.44003429013576911 -0.11331979272890801 0 -0.45000974795797011 -0.119430952696417 0 -0.44003429013576911 -0.11331979272890801 0 -0.44926481423485548 -0.10476542824413421 0 -0.43059848591229039 -0.1043464168163742 0 -0.44626211873963212 -0.091702264203795431 0 -0.43059848591229039 -0.1043464168163742 0 -0.44626211873963212 -0.091702264203795431 0 -0.44926481423485548 -0.10476542824413421 0 -0.43059848591229039 -0.1043464168163742 0 -0.44003429013576911 -0.11331979272890801 0 -0.44926481423485548 -0.10476542824413421 0 -0.44626211873963212 -0.091702264203795431 0 -0.44926481423485548 -0.10476542824413421 0 -0.46153012095291662 -0.1019472767233552 0 -0.44626211873963212 -0.091702264203795431 0 -0.46631049206888459 -0.091444160656324658 0 -0.46153012095291662 -0.1019472767233552 0 -0.46631049206888459 -0.091444160656324658 0 -0.46153012095291662 -0.1019472767233552 0 -0.4710589232177344 -0.098453604121520433 0 -0.46153012095291662 -0.1019472767233552 0 -0.46221413283232399 -0.11366089481890911 0 -0.47430793409480421 -0.10627177682285049 0 -0.44926481423485548 -0.10476542824413421 0 -0.46153012095291662 -0.1019472767233552 0 -0.46221413283232399 -0.11366089481890911 0 -0.45896755277767909 -0.12575633132281341 0 -0.46221413283232399 -0.11366089481890911 0 -0.47750202174635031 -0.1215216316744509 0 -0.45000974795797011 -0.119430952696417 0 -0.44926481423485548 -0.10476542824413421 0 -0.46221413283232399 -0.11366089481890911 0 -0.45896755277767909 -0.12575633132281341 0 -0.45000974795797011 -0.119430952696417 0 -0.46221413283232399 -0.11366089481890911 0 -0.47750202174635031 -0.1215216316744509 0 -0.47430793409480421 -0.10627177682285049 0 -0.48673501487359588 -0.1010237797652184 0 -0.46221413283232399 -0.11366089481890911 0 -0.47750202174635031 -0.1215216316744509 0 -0.47430793409480421 -0.10627177682285049 0 -0.47430793409480421 -0.10627177682285049 0 -0.47745372589702628 -0.099742000537211661 0 -0.48673501487359588 -0.1010237797652184 0 -0.46153012095291662 -0.1019472767233552 0 -0.47430793409480421 -0.10627177682285049 0 -0.4710589232177344 -0.098453604121520433 0 -0.46631049206888459 -0.091444160656324658 0 -0.4710589232177344 -0.098453604121520433 0 -0.47771303140197108 -0.093218841439257433 0 -0.47430793409480421 -0.10627177682285049 0 -0.4710589232177344 -0.098453604121520433 0 -0.47745372589702628 -0.099742000537211661 0 -0.4710589232177344 -0.098453604121520433 0 -0.47745372589702628 -0.099742000537211661 0 -0.47771303140197108 -0.093218841439257433 0 -0.47745372589702628 -0.099742000537211661 0 -0.48673501487359588 -0.1010237797652184 0 -0.47771303140197108 -0.093218841439257433 0 -0.48673501487359588 -0.1010237797652184 0 -0.47771303140197108 -0.093218841439257433 0 -0.47702460168979111 -0.087157524427869615 0 -0.47750202174635031 -0.1215216316744509 0 -0.48673501487359588 -0.1010237797652184 0 -0.4986179579264654 -0.1020768288792674 0 -0.48673501487359588 -0.1010237797652184 0 -0.49842317329231273 -0.098636270432611556 0 -0.47702460168979111 -0.087157524427869615 0 -0.48673501487359588 -0.1010237797652184 0 -0.49842317329231273 -0.098636270432611556 0 -0.4986179579264654 -0.1020768288792674 0 -0.49999999999999939 -0.099482120969144883 0 -0.49842317329231273 -0.098636270432611556 0 -0.4986179579264654 -0.1020768288792674 0 -0.49842317329231273 -0.098636270432611556 0 -0.4986179579264654 -0.1020768288792674 0 -0.49999999999999939 -0.099482120969144883 0 -0.49842317329231273 -0.098636270432611556 0 -0.50000000000000011 -0.12648838757554831 0 -0.47750202174635031 -0.1215216316744509 0 -0.4986179579264654 -0.1020768288792674 0 -0.47750202174635031 -0.1215216316744509 0 -0.4986179579264654 -0.1020768288792674 0 -0.47491389520024407 -0.068573693827893439 0 -0.47702460168979111 -0.087157524427869615 0 -0.4847984782487687 -0.075944598732494498 0 -0.47491389520024407 -0.068573693827893439 0 -0.47702460168979111 -0.087157524427869615 0 -0.47967839073812912 -0.064727650616396362 0 -0.4847984782487687 -0.075944598732494498 0 -0.48794163871831331 -0.064119883023254248 0 -0.47967839073812912 -0.064727650616396362 0 -0.47491389520024407 -0.068573693827893439 0 -0.4847984782487687 -0.075944598732494498 0 -0.47967839073812912 -0.064727650616396362 0 -0.47491389520024407 -0.068573693827893439 0 -0.46192575156697407 -0.079058111591217034 0 -0.47702460168979111 -0.087157524427869615 0 -0.46192575156697407 -0.079058111591217034 0 -0.47491389520024407 -0.068573693827893439 0 -0.47702460168979111 -0.087157524427869615 0 -0.46631049206888459 -0.091444160656324658 0 -0.47771303140197108 -0.093218841439257433 0 -0.47702460168979111 -0.087157524427869615 0 -0.47771303140197108 -0.093218841439257433 0 -0.47702460168979111 -0.087157524427869615 0 -0.49842317329231273 -0.098636270432611556 0 -0.49712708577170861 -0.075742961183477536 0 -0.4847984782487687 -0.075944598732494498 0 -0.49999999999999939 -0.099482120969144883 0 -0.49842317329231273 -0.098636270432611556 0 -0.5 -0.078030389970551228 0 -0.49842317329231273 -0.098636270432611556 0 -0.49712708577170861 -0.075742961183477536 0 -0.49842317329231273 -0.098636270432611556 0 -0.5 -0.078030389970551228 0 -0.49712708577170861 -0.075742961183477536 0 -0.49842317329231273 -0.098636270432611556 0 -0.47702460168979111 -0.087157524427869615 0 -0.4847984782487687 -0.075944598732494498 0 -0.49842317329231273 -0.098636270432611556 0 -0.47702460168979111 -0.087157524427869615 0 -0.5 -0.078030389970551228 0 -0.49712708577170861 -0.075742961183477536 0 -0.49999999999999928 -0.056578658971957581 0 -0.49712708577170861 -0.075742961183477536 0 -0.49583099825110311 -0.052849651934343489 0 -0.49712708577170861 -0.075742961183477536 0 -0.48794163871831331 -0.064119883023254248 0 -0.49583099825110311 -0.052849651934343489 0 -0.49712708577170861 -0.075742961183477536 0 -0.4847984782487687 -0.075944598732494498 0 -0.48794163871831331 -0.064119883023254248 0 -0.49712708577170861 -0.075742961183477536 0 -0.49999999999999928 -0.056578658971957581 0 -0.49583099825110311 -0.052849651934343489 0 -0.49583099825110311 -0.052849651934343489 0 -0.47748890114140963 -0.036443372127734748 0 -0.48227324058185622 -0.051334552649559453 0 -0.49999999999999928 -0.056578658971957581 0 -0.49583099825110311 -0.052849651934343489 0 -0.49999999999999928 -0.056578658971957581 0 -0.50000000000000144 -0.053559852644015388 0 -0.49583099825110311 -0.052849651934343489 0 -0.48794163871831331 -0.064119883023254248 0 -0.49583099825110311 -0.052849651934343489 0 -0.48227324058185622 -0.051334552649559453 0 -0.50000000000000144 -0.053559852644015388 0 -0.49583099825110311 -0.052849651934343489 0 -0.48598145264485831 -0.02728491224803695 0 -0.49583099825110311 -0.052849651934343489 0 -0.47748890114140963 -0.036443372127734748 0 -0.48598145264485831 -0.02728491224803695 0 -0.50000000000000144 -0.053559852644015388 0 -0.48598145264485831 -0.02728491224803695 0 -0.50000000000000144 -0.053559852644015388 0 -0.48598145264485831 -0.02728491224803695 0 -0.5 -0.025161366008633609 0 -0.49583099825110311 -0.052849651934343489 0 -0.47748890114140963 -0.036443372127734748 0 -0.47748890114140963 -0.036443372127734748 0 -0.48598145264485831 -0.02728491224803695 0 -0.47748890114140963 -0.036443372127734748 0 -0.47194379404182718 -0.042423275915137587 0 -0.48227324058185622 -0.051334552649559453 0 -0.47748890114140963 -0.036443372127734748 0 -0.47194379404182718 -0.042423275915137587 0 -0.47748890114140963 -0.036443372127734748 0 -0.47194379404182718 -0.042423275915137587 0 -0.47056077858213702 -0.03024644074295027 0 -0.47194379404182718 -0.042423275915137587 0 -0.46539503278239303 -0.037082973767017267 0 -0.47056077858213702 -0.03024644074295027 0 -0.47194379404182718 -0.042423275915137587 0 -0.47056077858213702 -0.03024644074295027 0 -0.47748890114140963 -0.036443372127734748 0 -0.47056077858213702 -0.03024644074295027 0 -0.47748890114140963 -0.036443372127734748 0 -0.47056077858213702 -0.03024644074295027 0 -0.47745882259212458 -0.028728106929589409 0 -0.47967839073812912 -0.064727650616396362 0 -0.47491389520024407 -0.068573693827893439 0 -0.47194379404182718 -0.042423275915137587 0 -0.47967839073812912 -0.064727650616396362 0 -0.47194379404182718 -0.042423275915137587 0 -0.48227324058185622 -0.051334552649559453 0 -0.47491389520024407 -0.068573693827893439 0 -0.47194379404182718 -0.042423275915137587 0 -0.47967839073812912 -0.064727650616396362 0 -0.48794163871831331 -0.064119883023254248 0 -0.48227324058185622 -0.051334552649559453 0 -0.47491389520024407 -0.068573693827893439 0 -0.47194379404182718 -0.042423275915137587 0 -0.45893666683642192 -0.056450303318209168 0 -0.45893666683642192 -0.056450303318209168 0 -0.45743491846808387 -0.04563500224908737 0 -0.44544580640037118 -0.056213229689383748 0 -0.47194379404182718 -0.042423275915137587 0 -0.45893666683642192 -0.056450303318209168 0 -0.45743491846808387 -0.04563500224908737 0 -0.47194379404182718 -0.042423275915137587 0 -0.45893666683642192 -0.056450303318209168 0 -0.46539503278239303 -0.037082973767017267 0 -0.44890774518284438 -0.02927164544362729 0 -0.46539503278239303 -0.037082973767017267 0 -0.45215967652477718 -0.036640332234541717 0 -0.44890774518284438 -0.02927164544362729 0 -0.46539503278239303 -0.037082973767017267 0 -0.44890774518284438 -0.02927164544362729 0 -0.46189821575704781 -0.02986243911986371 0 -0.47194379404182718 -0.042423275915137587 0 -0.46539503278239303 -0.037082973767017267 0 -0.45743491846808387 -0.04563500224908737 0 -0.46539503278239303 -0.037082973767017267 0 -0.46189821575704781 -0.02986243911986371 0 -0.47056077858213702 -0.03024644074295027 0 -0.46539503278239303 -0.037082973767017267 0 -0.45743491846808387 -0.04563500224908737 0 -0.45215967652477718 -0.036640332234541717 0 -0.42981912379901888 -0.030443092666165631 0 -0.45215967652477718 -0.036640332234541717 0 -0.45743491846808387 -0.04563500224908737 0 -0.45215967652477718 -0.036640332234541717 0 -0.43957367317472601 -0.045089571971719818 0 -0.42981912379901888 -0.030443092666165631 0 -0.45215967652477718 -0.036640332234541717 0 -0.43957367317472601 -0.045089571971719818 0 -0.45743491846808387 -0.04563500224908737 0 -0.43957367317472601 -0.045089571971719818 0 -0.44544580640037118 -0.056213229689383748 0 -0.4246600563061857 -0.059067830999859447 0 -0.44592953963101739 -0.07047733072128165 0 -0.44544580640037118 -0.056213229689383748 0 -0.44592953963101739 -0.07047733072128165 0 -0.45893666683642192 -0.056450303318209168 0 -0.44544580640037118 -0.056213229689383748 0 -0.4441818909265971 -0.00998157505946092 0 -0.45588653083934588 0.00041698580085632909 0 -0.44737850259376799 0.0077656591989471307 0 -0.4441818909265971 -0.00998157505946092 0 -0.4570262928383732 -0.018140378997512391 0 -0.45633913854906122 -0.0094275687658610888 0 -0.4441818909265971 -0.00998157505946092 0 -0.45633913854906122 -0.0094275687658610888 0 -0.45588653083934588 0.00041698580085632909 0 -0.43741768347029059 -0.01288367903972009 0 -0.4441818909265971 -0.00998157505946092 0 -0.44890774518284438 -0.02927164544362729 0 -0.42981912379901888 -0.030443092666165631 0 -0.45215967652477718 -0.036640332234541717 0 -0.4392085005598273 -0.024676348383282701 0 -0.4441818909265971 -0.00998157505946092 0 -0.44890774518284438 -0.02927164544362729 0 -0.46258273328813732 -0.023158067004484729 0 -0.43741768347029059 -0.01288367903972009 0 -0.44890774518284438 -0.02927164544362729 0 -0.43741768347029059 -0.01288367903972009 0 -0.4392085005598273 -0.024676348383282701 0 -0.44890774518284438 -0.02927164544362729 0 -0.4392085005598273 -0.024676348383282701 0 -0.44890774518284438 -0.02927164544362729 0 -0.45215967652477718 -0.036640332234541717 0 -0.4392085005598273 -0.024676348383282701 0 -0.44890774518284438 -0.02927164544362729 0 -0.4441818909265971 -0.00998157505946092 0 -0.46258273328813732 -0.023158067004484729 0 -0.46258273328813732 -0.023158067004484729 0 -0.46826183959192841 -0.01000530680732737 0 -0.47056077858213702 -0.03024644074295027 0 -0.4441818909265971 -0.00998157505946092 0 -0.4570262928383732 -0.018140378997512391 0 -0.46258273328813732 -0.023158067004484729 0 -0.4570262928383732 -0.018140378997512391 0 -0.46258273328813732 -0.023158067004484729 0 -0.44890774518284438 -0.02927164544362729 0 -0.46189821575704781 -0.02986243911986371 0 -0.46258273328813732 -0.023158067004484729 0 -0.46258273328813732 -0.023158067004484729 0 -0.47056077858213702 -0.03024644074295027 0 -0.46189821575704781 -0.02986243911986371 0 -0.46258273328813732 -0.023158067004484729 0 -0.47056077858213702 -0.03024644074295027 0 -0.4570262928383732 -0.018140378997512391 0 -0.46258273328813732 -0.023158067004484729 0 -0.46826183959192841 -0.01000530680732737 0 -0.4570262928383732 -0.018140378997512391 0 -0.46826183959192841 -0.01000530680732737 0 -0.45633913854906122 -0.0094275687658610888 0 -0.46826183959192841 -0.01000530680732737 0 -0.45633913854906122 -0.0094275687658610888 0 -0.45588653083934588 0.00041698580085632909 0 -0.46826183959192841 -0.01000530680732737 0 -0.47597217662329228 -0.0085245425598697612 0 -0.4659629006017233 0.010235827128295859 0 -0.46826183959192841 -0.01000530680732737 0 -0.47597217662329228 -0.0085245425598697612 0 -0.47580415800009379 -0.02093770259963601 0 -0.47597217662329228 -0.0085245425598697612 0 -0.48922725890134677 -0.010453537226696331 0 -0.48082517856277007 0.001845263919603602 0 -0.47597217662329228 -0.0085245425598697612 0 -0.47580415800009379 -0.02093770259963601 0 -0.48598145264485831 -0.02728491224803695 0 -0.47597217662329228 -0.0085245425598697612 0 -0.48598145264485831 -0.02728491224803695 0 -0.46826183959192841 -0.01000530680732737 0 -0.47056077858213702 -0.03024644074295027 0 -0.47580415800009379 -0.02093770259963601 0 -0.47597217662329228 -0.0085245425598697612 0 -0.48598145264485831 -0.02728491224803695 0 -0.4893389393206713 -0.02366416211133009 0 -0.46826183959192841 -0.01000530680732737 0 -0.47056077858213702 -0.03024644074295027 0 -0.47056077858213702 -0.03024644074295027 0 -0.47580415800009379 -0.02093770259963601 0 -0.47745882259212458 -0.028728106929589409 0 -0.47580415800009379 -0.02093770259963601 0 -0.47745882259212458 -0.028728106929589409 0 -0.48598145264485831 -0.02728491224803695 0 -0.47748890114140963 -0.036443372127734748 0 -0.47745882259212458 -0.028728106929589409 0 -0.48598145264485831 -0.02728491224803695 0 -0.48598145264485831 -0.02728491224803695 0 -0.4893389393206713 -0.02366416211133009 0 -0.5 -0.025161366008633609 0 -0.48598145264485831 -0.02728491224803695 0 -0.4893389393206713 -0.02366416211133009 0 -0.4893389393206713 -0.02366416211133009 0 -0.5 -0.025161366008633609 0 -0.48922725890134677 -0.010453537226696331 0 -0.48922725890134677 -0.010453537226696331 0 -0.5 0.0032371206267481911 0 -0.48082517856277007 0.001845263919603602 0 -0.5 -0.025161366008633609 0 -0.48922725890134677 -0.010453537226696331 0 -0.5 0.0032371206267481911 0 -0.47597217662329228 -0.0085245425598697612 0 -0.4893389393206713 -0.02366416211133009 0 -0.48922725890134677 -0.010453537226696331 0 -0.5 0.0032371206267481911 0 -0.48596576445654982 0.01457961489688041 0 -0.48082517856277007 0.001845263919603602 0 -0.48596576445654982 0.01457961489688041 0 -0.47541999506787802 0.025418180444172121 0 -0.5 0.031635607262129987 0 -0.5 0.0032371206267481911 0 -0.48596576445654982 0.01457961489688041 0 -0.5 0.031635607262129987 0 -0.48596576445654982 0.01457961489688041 0 -0.47541999506787802 0.025418180444172121 0 -0.47401658579892991 0.013489912392399149 0 -0.47541999506787802 0.025418180444172121 0 -0.46963945276383978 0.01793989872667965 0 -0.47401658579892991 0.013489912392399149 0 -0.47597217662329228 -0.0085245425598697612 0 -0.48082517856277007 0.001845263919603602 0 -0.4659629006017233 0.010235827128295859 0 -0.47401658579892991 0.013489912392399149 0 -0.48082517856277007 0.001845263919603602 0 -0.4659629006017233 0.010235827128295859 0 -0.46963945276383978 0.01793989872667965 0 -0.47401658579892991 0.013489912392399149 0 -0.4659629006017233 0.010235827128295859 0 -0.47597217662329228 -0.0085245425598697612 0 -0.4659629006017233 0.010235827128295859 0 -0.48596576445654982 0.01457961489688041 0 -0.47401658579892991 0.013489912392399149 0 -0.48082517856277007 0.001845263919603602 0 -0.5 0.060034093897511798 0 -0.47816362815030861 0.043832779932641487 0 -0.48068047186290208 0.063626500276227002 0 -0.47541999506787802 0.025418180444172121 0 -0.5 0.031635607262129987 0 -0.47816362815030861 0.043832779932641487 0 -0.5 0.060034093897511798 0 -0.5 0.031635607262129987 0 -0.47816362815030861 0.043832779932641487 0 -0.47541999506787802 0.025418180444172121 0 -0.47816362815030861 0.043832779932641487 0 -0.46442391639916691 0.036471327701905212 0 -0.47816362815030861 0.043832779932641487 0 -0.46119618507356652 0.049359273152949731 0 -0.48068047186290208 0.063626500276227002 0 -0.46119618507356652 0.049359273152949731 0 -0.46103932749027238 0.064238871702306077 0 -0.48068047186290208 0.063626500276227002 0 -0.46119618507356652 0.049359273152949731 0 -0.44286953411296898 0.045255716157198693 0 -0.46103932749027238 0.064238871702306077 0 -0.47816362815030861 0.043832779932641487 0 -0.46119618507356652 0.049359273152949731 0 -0.46442391639916691 0.036471327701905212 0 -0.46119618507356652 0.049359273152949731 0 -0.46442391639916691 0.036471327701905212 0 -0.45082509298125129 0.038608595210277222 0 -0.46442391639916691 0.036471327701905212 0 -0.45082509298125129 0.038608595210277222 0 -0.4583939967914884 0.024422211169287101 0 -0.45082509298125129 0.038608595210277222 0 -0.4583939967914884 0.024422211169287101 0 -0.46119618507356652 0.049359273152949731 0 -0.45082509298125129 0.038608595210277222 0 -0.44286953411296898 0.045255716157198693 0 -0.45082509298125129 0.038608595210277222 0 -0.4405409619944019 0.035432846457562263 0 -0.4458839614772655 0.023387518650519249 0 -0.45082509298125129 0.038608595210277222 0 -0.4405409619944019 0.035432846457562263 0 -0.44286953411296898 0.045255716157198693 0 -0.4405409619944019 0.035432846457562263 0 -0.44286953411296898 0.045255716157198693 0 -0.43229092530358848 0.04451632412921195 0 -0.44286953411296898 0.045255716157198693 0 -0.44282721760043869 0.062046251170956107 0 -0.46103932749027238 0.064238871702306077 0 -0.44286953411296898 0.045255716157198693 0 -0.44282721760043869 0.062046251170956107 0 -0.43188097302969042 0.056955122555226501 0 -0.44286953411296898 0.045255716157198693 0 -0.46103932749027238 0.064238871702306077 0 -0.46826183959192841 -0.01000530680732737 0 -0.45588653083934588 0.00041698580085632909 0 -0.4659629006017233 0.010235827128295859 0 -0.46826183959192841 -0.01000530680732737 0 -0.4659629006017233 0.010235827128295859 0 -0.45609316173783881 0.014082317838893479 0 -0.45588653083934588 0.00041698580085632909 0 -0.4659629006017233 0.010235827128295859 0 -0.46963945276383978 0.01793989872667965 0 -0.4659629006017233 0.010235827128295859 0 -0.4583939967914884 0.024422211169287101 0 -0.4659629006017233 0.010235827128295859 0 -0.4583939967914884 0.024422211169287101 0 -0.47541999506787802 0.025418180444172121 0 -0.46963945276383978 0.01793989872667965 0 -0.4583939967914884 0.024422211169287101 0 -0.47541999506787802 0.025418180444172121 0 -0.46442391639916691 0.036471327701905212 0 -0.4583939967914884 0.024422211169287101 0 -0.45609316173783881 0.014082317838893479 0 -0.4659629006017233 0.010235827128295859 0 -0.4583939967914884 0.024422211169287101 0 -0.45609316173783881 0.014082317838893479 0 -0.4583939967914884 0.024422211169287101 0 -0.4458839614772655 0.023387518650519249 0 -0.45082509298125129 0.038608595210277222 0 -0.4583939967914884 0.024422211169287101 0 -0.4458839614772655 0.023387518650519249 0 -0.4405409619944019 0.035432846457562263 0 -0.4458839614772655 0.023387518650519249 0 -0.43566193494816191 0.02574822372494872 0 -0.4458839614772655 0.023387518650519249 0 -0.4359559447540089 0.01018896392150693 0 -0.43566193494816191 0.02574822372494872 0 -0.4441818909265971 -0.00998157505946092 0 -0.44737850259376799 0.0077656591989471307 0 -0.4359559447540089 0.01018896392150693 0 -0.4458839614772655 0.023387518650519249 0 -0.44737850259376799 0.0077656591989471307 0 -0.4359559447540089 0.01018896392150693 0 -0.45609316173783881 0.014082317838893479 0 -0.4458839614772655 0.023387518650519249 0 -0.44737850259376799 0.0077656591989471307 0 -0.45609316173783881 0.014082317838893479 0 -0.45588653083934588 0.00041698580085632909 0 -0.44737850259376799 0.0077656591989471307 0 -0.4441818909265971 -0.00998157505946092 0 -0.4359559447540089 0.01018896392150693 0 -0.42578104856505677 0.0031949168855625672 0 -0.42578104856505677 0.0031949168855625672 0 -0.41622595309658328 0.016397403714119251 0 -0.42870406893849561 0.019163111370922251 0 -0.4359559447540089 0.01018896392150693 0 -0.42578104856505677 0.0031949168855625672 0 -0.42870406893849561 0.019163111370922251 0 -0.41753789792717189 -0.0038843189997757009 0 -0.42578104856505677 0.0031949168855625672 0 -0.41105156913745711 0.0034129409419674369 0 -0.42578104856505677 0.0031949168855625672 0 -0.40852807671777941 0.0155494406680463 0 -0.41622595309658328 0.016397403714119251 0 -0.42578104856505677 0.0031949168855625672 0 -0.40852807671777941 0.0155494406680463 0 -0.41105156913745711 0.0034129409419674369 0 -0.42578104856505677 0.0031949168855625672 0 -0.40852807671777941 0.0155494406680463 0 -0.42578104856505677 0.0031949168855625672 0 -0.41622595309658328 0.016397403714119251 0 -0.40852807671777941 0.0155494406680463 0 -0.41105156913745711 0.0034129409419674369 0 -0.40262572535869262 0.0089097845909437267 0 -0.40771050441737638 -0.0035262849216432719 0 -0.41105156913745711 0.0034129409419674369 0 -0.40226596945639398 0.0014711925349297271 0 -0.40667085762811028 0.029599890542676258 0 -0.41622595309658328 0.016397403714119251 0 -0.42870406893849561 0.019163111370922251 0 -0.40667085762811028 0.029599890542676258 0 -0.42870406893849561 0.019163111370922251 0 -0.40667085762811028 0.029599890542676258 0 -0.41990433555607742 0.03061685230769556 0 -0.42870406893849561 0.019163111370922251 0 -0.40852807671777941 0.0155494406680463 0 -0.40667085762811028 0.029599890542676258 0 -0.41622595309658328 0.016397403714119251 0 -0.40667085762811028 0.029599890542676258 0 -0.41622595309658328 0.016397403714119251 0 -0.41990433555607742 0.03061685230769556 0 -0.4284463216954002 0.029357354603554459 0 -0.42870406893849561 0.019163111370922251 0 -0.4359559447540089 0.01018896392150693 0 -0.42870406893849561 0.019163111370922251 0 -0.43566193494816191 0.02574822372494872 0 -0.4284463216954002 0.029357354603554459 0 -0.42870406893849561 0.019163111370922251 0 -0.43566193494816191 0.02574822372494872 0 -0.4284463216954002 0.029357354603554459 0 -0.43566193494816191 0.02574822372494872 0 -0.43264023121812112 0.033917661463996759 0 -0.4405409619944019 0.035432846457562263 0 -0.43264023121812112 0.033917661463996759 0 -0.43229092530358848 0.04451632412921195 0 -0.43264023121812112 0.033917661463996759 0 -0.43229092530358848 0.04451632412921195 0 -0.42532103781614489 0.037340924150209003 0 -0.4405409619944019 0.035432846457562263 0 -0.43566193494816191 0.02574822372494872 0 -0.43264023121812112 0.033917661463996759 0 -0.43229092530358848 0.04451632412921195 0 -0.42532103781614489 0.037340924150209003 0 -0.42042490988599091 0.046091327469671317 0 -0.4284463216954002 0.029357354603554459 0 -0.43264023121812112 0.033917661463996759 0 -0.42532103781614489 0.037340924150209003 0 -0.41990433555607742 0.03061685230769556 0 -0.4284463216954002 0.029357354603554459 0 -0.42532103781614489 0.037340924150209003 0 -0.43229092530358848 0.04451632412921195 0 -0.43188097302969042 0.056955122555226501 0 -0.42585725303016408 0.051510102087770737 0 -0.44286953411296898 0.045255716157198693 0 -0.43229092530358848 0.04451632412921195 0 -0.43188097302969042 0.056955122555226501 0 -0.43229092530358848 0.04451632412921195 0 -0.42585725303016408 0.051510102087770737 0 -0.42042490988599091 0.046091327469671317 0 -0.43188097302969042 0.056955122555226501 0 -0.41883220390138681 0.058477634196973202 0 -0.43131469147834472 0.070632617455275076 0 -0.43188097302969042 0.056955122555226501 0 -0.42585725303016408 0.051510102087770737 0 -0.41883220390138681 0.058477634196973202 0 -0.41883220390138681 0.058477634196973202 0 -0.40840220717331749 0.048304634434869917 0 -0.39985653820026013 0.060860810446949978 0 -0.42585725303016408 0.051510102087770737 0 -0.41883220390138681 0.058477634196973202 0 -0.42042490988599091 0.046091327469671317 0 -0.41883220390138681 0.058477634196973202 0 -0.40840220717331749 0.048304634434869917 0 -0.42042490988599091 0.046091327469671317 0 -0.41990433555607742 0.03061685230769556 0 -0.42532103781614489 0.037340924150209003 0 -0.4122967326089878 0.037821593301397609 0 -0.42532103781614489 0.037340924150209003 0 -0.42042490988599091 0.046091327469671317 0 -0.4122967326089878 0.037821593301397609 0 -0.40840220717331749 0.048304634434869917 0 -0.4122967326089878 0.037821593301397609 0 -0.40579981868685489 0.041495006097714962 0 -0.40840220717331749 0.048304634434869917 0 -0.42042490988599091 0.046091327469671317 0 -0.4122967326089878 0.037821593301397609 0 -0.4122967326089878 0.037821593301397609 0 -0.40278544391907911 0.034968452634622761 0 -0.40579981868685489 0.041495006097714962 0 -0.40667085762811028 0.029599890542676258 0 -0.4122967326089878 0.037821593301397609 0 -0.40278544391907911 0.034968452634622761 0 -0.40667085762811028 0.029599890542676258 0 -0.41990433555607742 0.03061685230769556 0 -0.4122967326089878 0.037821593301397609 0 -0.40667085762811028 0.029599890542676258 0 -0.40278544391907911 0.034968452634622761 0 -0.40667085762811028 0.029599890542676258 0 -0.38856614517843069 0.038175802748282091 0 -0.40667085762811028 0.029599890542676258 0 -0.38856614517843069 0.038175802748282091 0 -0.39127510487050182 0.027903964450529759 0 -0.40667085762811028 0.029599890542676258 0 -0.40278544391907911 0.034968452634622761 0 -0.38856614517843069 0.038175802748282091 0 -0.40278544391907911 0.034968452634622761 0 -0.40579981868685489 0.041495006097714962 0 -0.3977250587697031 0.045015474274426849 0 -0.40840220717331749 0.048304634434869917 0 -0.40579981868685489 0.041495006097714962 0 -0.3977250587697031 0.045015474274426849 0 -0.40278544391907911 0.034968452634622761 0 -0.3977250587697031 0.045015474274426849 0 -0.38856614517843069 0.038175802748282091 0 -0.40840220717331749 0.048304634434869917 0 -0.3977250587697031 0.045015474274426849 0 -0.39985653820026013 0.060860810446949978 0 -0.3977250587697031 0.045015474274426849 0 -0.39985653820026013 0.060860810446949978 0 -0.38472691017257071 0.052921849058569698 0 -0.39985653820026013 0.060860810446949978 0 -0.38472691017257071 0.052921849058569698 0 -0.38510762700538009 0.066428587654483159 0 -0.38472691017257071 0.052921849058569698 0 -0.37046143272875132 0.04675171495388801 0 -0.37000681959492809 0.05831264468359916 0 -0.38472691017257071 0.052921849058569698 0 -0.38510762700538009 0.066428587654483159 0 -0.37000681959492809 0.05831264468359916 0 -0.38856614517843069 0.038175802748282091 0 -0.37871402691879819 0.03757115751491092 0 -0.37046143272875132 0.04675171495388801 0 -0.38856614517843069 0.038175802748282091 0 -0.37046143272875132 0.04675171495388801 0 -0.38472691017257071 0.052921849058569698 0 -0.38856614517843069 0.038175802748282091 0 -0.37046143272875132 0.04675171495388801 0 -0.38856614517843069 0.038175802748282091 0 -0.38315308642314733 0.033917821982192238 0 -0.39127510487050182 0.027903964450529759 0 -0.38856614517843069 0.038175802748282091 0 -0.38315308642314733 0.033917821982192238 0 -0.37871402691879819 0.03757115751491092 0 -0.3977250587697031 0.045015474274426849 0 -0.38472691017257071 0.052921849058569698 0 -0.38856614517843069 0.038175802748282091 0 -0.37871402691879819 0.03757115751491092 0 -0.3764786745208083 0.032098692741998169 0 -0.37046143272875132 0.04675171495388801 0 -0.38315308642314733 0.033917821982192238 0 -0.3764786745208083 0.032098692741998169 0 -0.38155727091044611 0.028316364585127811 0 -0.38315308642314733 0.033917821982192238 0 -0.37871402691879819 0.03757115751491092 0 -0.3764786745208083 0.032098692741998169 0 -0.3764786745208083 0.032098692741998169 0 -0.38155727091044611 0.028316364585127811 0 -0.37960108001976323 0.022263106047543741 0 -0.37960108001976323 0.022263106047543741 0 -0.37998819155715241 0.0057865511937031933 0 -0.37123175334181557 0.027162262264614271 0 -0.3764786745208083 0.032098692741998169 0 -0.37960108001976323 0.022263106047543741 0 -0.37123175334181557 0.027162262264614271 0 -0.38155727091044611 0.028316364585127811 0 -0.38533699425949169 0.022674384769296389 0 -0.37960108001976323 0.022263106047543741 0 -0.38155727091044611 0.028316364585127811 0 -0.38533699425949169 0.022674384769296389 0 -0.39127510487050182 0.027903964450529759 0 -0.38315308642314733 0.033917821982192238 0 -0.38155727091044611 0.028316364585127811 0 -0.39127510487050182 0.027903964450529759 0 -0.39054146691731162 0.018060194648231769 0 -0.38533699425949169 0.022674384769296389 0 -0.39127510487050182 0.027903964450529759 0 -0.38533699425949169 0.022674384769296389 0 -0.3837100485794358 0.01682829411504885 0 -0.37960108001976323 0.022263106047543741 0 -0.39054146691731162 0.018060194648231769 0 -0.38533699425949169 0.022674384769296389 0 -0.3837100485794358 0.01682829411504885 0 -0.3837100485794358 0.01682829411504885 0 -0.37960108001976323 0.022263106047543741 0 -0.37998819155715241 0.0057865511937031933 0 -0.37998819155715241 0.0057865511937031933 0 -0.38683543611469601 0.0001369023841863784 0 -0.36064890389212972 0.0125435277679194 0 -0.37998819155715241 0.0057865511937031933 0 -0.38683543611469601 0.0001369023841863784 0 -0.38901012294298121 0.0062908016400105649 0 -0.38683543611469601 0.0001369023841863784 0 -0.38901012294298121 0.0062908016400105649 0 -0.39501457079486157 0.0055715078560810288 0 -0.37998819155715241 0.0057865511937031933 0 -0.38901012294298121 0.0062908016400105649 0 -0.38744744785130802 0.01185902438546781 0 -0.3837100485794358 0.01682829411504885 0 -0.37998819155715241 0.0057865511937031933 0 -0.38744744785130802 0.01185902438546781 0 -0.38901012294298121 0.0062908016400105649 0 -0.38744744785130802 0.01185902438546781 0 -0.39422738021243581 0.01127211946813913 0 -0.39054146691731162 0.018060194648231769 0 -0.3837100485794358 0.01682829411504885 0 -0.38744744785130802 0.01185902438546781 0 -0.39054146691731162 0.018060194648231769 0 -0.39422738021243581 0.01127211946813913 0 -0.39743955081534421 0.016339100765178138 0 -0.39054146691731162 0.018060194648231769 0 -0.38744744785130802 0.01185902438546781 0 -0.39422738021243581 0.01127211946813913 0 -0.39422738021243581 0.01127211946813913 0 -0.39501457079486157 0.0055715078560810288 0 -0.40262572535869262 0.0089097845909437267 0 -0.39422738021243581 0.01127211946813913 0 -0.40262572535869262 0.0089097845909437267 0 -0.39743955081534421 0.016339100765178138 0 -0.38683543611469601 0.0001369023841863784 0 -0.39501457079486157 0.0055715078560810288 0 -0.40226596945639398 0.0014711925349297271 0 -0.38901012294298121 0.0062908016400105649 0 -0.39422738021243581 0.01127211946813913 0 -0.39501457079486157 0.0055715078560810288 0 -0.41105156913745711 0.0034129409419674369 0 -0.40226596945639398 0.0014711925349297271 0 -0.40262572535869262 0.0089097845909437267 0 -0.39501457079486157 0.0055715078560810288 0 -0.40226596945639398 0.0014711925349297271 0 -0.40262572535869262 0.0089097845909437267 0 -0.40852807671777941 0.0155494406680463 0 -0.40262572535869262 0.0089097845909437267 0 -0.39743955081534421 0.016339100765178138 0 -0.40852807671777941 0.0155494406680463 0 -0.39127510487050182 0.027903964450529759 0 -0.40852807671777941 0.0155494406680463 0 -0.40667085762811028 0.029599890542676258 0 -0.39127510487050182 0.027903964450529759 0 -0.40852807671777941 0.0155494406680463 0 -0.39127510487050182 0.027903964450529759 0 -0.39743955081534421 0.016339100765178138 0 -0.39054146691731162 0.018060194648231769 0 -0.39127510487050182 0.027903964450529759 0 -0.39743955081534421 0.016339100765178138 0 -0.39792088922733271 0.1160922105611595 0 -0.40104213778508202 0.092866093853817611 0 -0.41467909406405851 0.1139188519362445 0 -0.39792088922733271 0.1160922105611595 0 -0.3782625711058698 0.101617738696854 0 -0.40104213778508202 0.092866093853817611 0 -0.3782625711058698 0.101617738696854 0 -0.38372255811484618 0.13025780258704611 0 -0.3782625711058698 0.101617738696854 0 -0.38372255811484618 0.13025780258704611 0 -0.36747352968705388 0.12273486311700831 0 -0.39792088922733271 0.1160922105611595 0 -0.3782625711058698 0.101617738696854 0 -0.38372255811484618 0.13025780258704611 0 -0.39792088922733271 0.1160922105611595 0 -0.3782625711058698 0.101617738696854 0 -0.3782625711058698 0.101617738696854 0 -0.40104213778508202 0.092866093853817611 0 -0.37470600383380392 0.082961959162170973 0 -0.39520328107527708 0.075997639864115257 0 -0.40104213778508202 0.092866093853817611 0 -0.37470600383380392 0.082961959162170973 0 -0.3782625711058698 0.101617738696854 0 -0.37470600383380392 0.082961959162170973 0 -0.40104213778508202 0.092866093853817611 0 -0.37470600383380392 0.082961959162170973 0 -0.38510762700538009 0.066428587654483159 0 -0.37000681959492809 0.05831264468359916 0 -0.37470600383380392 0.082961959162170973 0 -0.38510762700538009 0.066428587654483159 0 -0.39520328107527708 0.075997639864115257 0 -0.37470600383380392 0.082961959162170973 0 -0.39985653820026013 0.060860810446949978 0 -0.39520328107527708 0.075997639864115257 0 -0.41322693425173768 0.074694678089132868 0 -0.39985653820026013 0.060860810446949978 0 -0.38510762700538009 0.066428587654483159 0 -0.39520328107527708 0.075997639864115257 0 -0.39520328107527708 0.075997639864115257 0 -0.40104213778508202 0.092866093853817611 0 -0.41322693425173768 0.074694678089132868 0 -0.40104213778508202 0.092866093853817611 0 -0.41322693425173768 0.074694678089132868 0 -0.42957324029363853 0.085693113452461764 0 -0.41883220390138681 0.058477634196973202 0 -0.41322693425173768 0.074694678089132868 0 -0.43131469147834472 0.070632617455275076 0 -0.41883220390138681 0.058477634196973202 0 -0.39985653820026013 0.060860810446949978 0 -0.41322693425173768 0.074694678089132868 0 -0.43131469147834472 0.070632617455275076 0 -0.42957324029363853 0.085693113452461764 0 -0.4470315618909167 0.073148927984774167 0 -0.41322693425173768 0.074694678089132868 0 -0.43131469147834472 0.070632617455275076 0 -0.42957324029363853 0.085693113452461764 0 -0.44282721760043869 0.062046251170956107 0 -0.43188097302969042 0.056955122555226501 0 -0.43131469147834472 0.070632617455275076 0 -0.42957324029363853 0.085693113452461764 0 -0.42737827173636012 0.1027702285454639 0 -0.44343173260412461 0.097571970950778963 0 -0.40104213778508202 0.092866093853817611 0 -0.42737827173636012 0.1027702285454639 0 -0.41467909406405851 0.1139188519362445 0 -0.40104213778508202 0.092866093853817611 0 -0.42737827173636012 0.1027702285454639 0 -0.40104213778508202 0.092866093853817611 0 -0.42957324029363853 0.085693113452461764 0 -0.42737827173636012 0.1027702285454639 0 -0.39792088922733271 0.1160922105611595 0 -0.41467909406405851 0.1139188519362445 0 -0.417579207348795 0.13056668242546571 0 -0.39792088922733271 0.1160922105611595 0 -0.417579207348795 0.13056668242546571 0 -0.41467909406405851 0.1139188519362445 0 -0.42608096723388439 0.1205091241492761 0 -0.417579207348795 0.13056668242546571 0 -0.42737827173636012 0.1027702285454639 0 -0.41467909406405851 0.1139188519362445 0 -0.42608096723388439 0.1205091241492761 0 -0.42737827173636012 0.1027702285454639 0 -0.42608096723388439 0.1205091241492761 0 -0.43826405507869293 0.1195835460605416 0 -0.42608096723388439 0.1205091241492761 0 -0.43826405507869293 0.1195835460605416 0 -0.43293323699752101 0.1317554923945817 0 -0.43826405507869293 0.1195835460605416 0 -0.45371440568763749 0.1126743632371118 0 -0.44901593584904892 0.12912088192892021 0 -0.42737827173636012 0.1027702285454639 0 -0.43826405507869293 0.1195835460605416 0 -0.45371440568763749 0.1126743632371118 0 -0.4523882543875366 0.10983005993361 0 -0.45371440568763749 0.1126743632371118 0 -0.42737827173636012 0.1027702285454639 0 -0.4523882543875366 0.10983005993361 0 -0.44343173260412461 0.097571970950778963 0 -0.42737827173636012 0.1027702285454639 0 -0.4523882543875366 0.10983005993361 0 -0.45371440568763749 0.1126743632371118 0 -0.42737827173636012 0.1027702285454639 0 -0.45371440568763749 0.1126743632371118 0 -0.44343173260412461 0.097571970950778963 0 -0.45084974973894648 0.096020795281878568 0 -0.45306155814551219 0.1028275296158008 0 -0.44343173260412461 0.097571970950778963 0 -0.45084974973894648 0.096020795281878568 0 -0.44733932132275389 0.088290098875458828 0 -0.4523882543875366 0.10983005993361 0 -0.44343173260412461 0.097571970950778963 0 -0.45306155814551219 0.1028275296158008 0 -0.4523882543875366 0.10983005993361 0 -0.45306155814551219 0.1028275296158008 0 -0.45661100561120399 0.109540819014999 0 -0.45306155814551219 0.1028275296158008 0 -0.46084618436187341 0.10490351706993729 0 -0.45661100561120399 0.109540819014999 0 -0.45306155814551219 0.1028275296158008 0 -0.46084618436187341 0.10490351706993729 0 -0.45799439118323759 0.099220837031069903 0 -0.46084618436187341 0.10490351706993729 0 -0.4635407771028337 0.1124237257980706 0 -0.45661100561120399 0.109540819014999 0 -0.45799439118323759 0.099220837031069903 0 -0.46723244863383712 0.097971273043108306 0 -0.45594156200913483 0.091684632610025046 0 -0.45084974973894648 0.096020795281878568 0 -0.45799439118323759 0.099220837031069903 0 -0.45594156200913483 0.091684632610025046 0 -0.45084974973894648 0.096020795281878568 0 -0.45306155814551219 0.1028275296158008 0 -0.45799439118323759 0.099220837031069903 0 -0.46084618436187341 0.10490351706993729 0 -0.45799439118323759 0.099220837031069903 0 -0.46723244863383712 0.097971273043108306 0 -0.46084618436187341 0.10490351706993729 0 -0.46723244863383712 0.097971273043108306 0 -0.46686982756835349 0.1074114054382402 0 -0.46084618436187341 0.10490351706993729 0 -0.46686982756835349 0.1074114054382402 0 -0.4635407771028337 0.1124237257980706 0 -0.45371440568763749 0.1126743632371118 0 -0.46425598871103851 0.13528374379222011 0 -0.4635407771028337 0.1124237257980706 0 -0.45674497769142258 0.1138140594952527 0 -0.46958882025875243 0.12035793204680111 0 -0.46686982756835349 0.1074114054382402 0 -0.4635407771028337 0.1124237257980706 0 -0.47044075898603932 0.11380610730348489 0 -0.4635407771028337 0.1124237257980706 0 -0.46958882025875243 0.12035793204680111 0 -0.47044075898603932 0.11380610730348489 0 -0.45674497769142258 0.1138140594952527 0 -0.45371440568763749 0.1126743632371118 0 -0.46425598871103851 0.13528374379222011 0 -0.45674497769142258 0.1138140594952527 0 -0.46958882025875243 0.12035793204680111 0 -0.46425598871103851 0.13528374379222011 0 -0.4523882543875366 0.10983005993361 0 -0.45661100561120399 0.109540819014999 0 -0.45371440568763749 0.1126743632371118 0 -0.45674497769142258 0.1138140594952527 0 -0.45661100561120399 0.109540819014999 0 -0.45371440568763749 0.1126743632371118 0 -0.45674497769142258 0.1138140594952527 0 -0.45371440568763749 0.1126743632371118 0 -0.4635407771028337 0.1124237257980706 0 -0.45674497769142258 0.1138140594952527 0 -0.45661100561120399 0.109540819014999 0 -0.44282721760043869 0.062046251170956107 0 -0.4470315618909167 0.073148927984774167 0 -0.46103932749027238 0.064238871702306077 0 -0.44282721760043869 0.062046251170956107 0 -0.43131469147834472 0.070632617455275076 0 -0.4470315618909167 0.073148927984774167 0 -0.42957324029363853 0.085693113452461764 0 -0.44343173260412461 0.097571970950778963 0 -0.44733932132275389 0.088290098875458828 0 -0.42957324029363853 0.085693113452461764 0 -0.4470315618909167 0.073148927984774167 0 -0.44733932132275389 0.088290098875458828 0 -0.4470315618909167 0.073148927984774167 0 -0.44733932132275389 0.088290098875458828 0 -0.46047789149500767 0.082617330138573752 0 -0.45084974973894648 0.096020795281878568 0 -0.44733932132275389 0.088290098875458828 0 -0.45594156200913483 0.091684632610025046 0 -0.44733932132275389 0.088290098875458828 0 -0.45594156200913483 0.091684632610025046 0 -0.46047789149500767 0.082617330138573752 0 -0.46723244863383712 0.097971273043108306 0 -0.45594156200913483 0.091684632610025046 0 -0.46047789149500767 0.082617330138573752 0 -0.46047789149500767 0.082617330138573752 0 -0.46103932749027238 0.064238871702306077 0 -0.47920912086757578 0.083222027247413538 0 -0.4470315618909167 0.073148927984774167 0 -0.46047789149500767 0.082617330138573752 0 -0.46103932749027238 0.064238871702306077 0 -0.46103932749027238 0.064238871702306077 0 -0.48068047186290208 0.063626500276227002 0 -0.47920912086757578 0.083222027247413538 0 -0.46103932749027238 0.064238871702306077 0 -0.47920912086757578 0.083222027247413538 0 -0.46723244863383712 0.097971273043108306 0 -0.46047789149500767 0.082617330138573752 0 -0.47920912086757578 0.083222027247413538 0 -0.48068047186290208 0.063626500276227002 0 -0.47920912086757578 0.083222027247413538 0 -0.5 0.088432580532893601 0 -0.47920912086757578 0.083222027247413538 0 -0.49737891424487929 0.102205182792521 0 -0.47920912086757578 0.083222027247413538 0 -0.5 0.088432580532893601 0 -0.49737891424487929 0.102205182792521 0 -0.5 0.060034093897511798 0 -0.48068047186290208 0.063626500276227002 0 -0.5 0.088432580532893601 0 -0.47827810320487629 0.116675775998883 0 -0.48837893466537508 0.1117690854599766 0 -0.4842723158563047 0.1301441798928954 0 -0.47827810320487629 0.116675775998883 0 -0.47512549980118862 0.10796659812409699 0 -0.48837893466537508 0.1117690854599766 0 -0.47827810320487629 0.116675775998883 0 -0.46958882025875243 0.12035793204680111 0 -0.4842723158563047 0.1301441798928954 0 -0.47827810320487629 0.116675775998883 0 -0.47044075898603932 0.11380610730348489 0 -0.47512549980118862 0.10796659812409699 0 -0.46686982756835349 0.1074114054382402 0 -0.47044075898603932 0.11380610730348489 0 -0.47512549980118862 0.10796659812409699 0 -0.47827810320487629 0.116675775998883 0 -0.46958882025875243 0.12035793204680111 0 -0.47044075898603932 0.11380610730348489 0 -0.46723244863383712 0.097971273043108306 0 -0.47512549980118862 0.10796659812409699 0 -0.48162445158666772 0.1005823670901454 0 -0.46723244863383712 0.097971273043108306 0 -0.47920912086757578 0.083222027247413538 0 -0.48162445158666772 0.1005823670901454 0 -0.46723244863383712 0.097971273043108306 0 -0.46686982756835349 0.1074114054382402 0 -0.47512549980118862 0.10796659812409699 0 -0.47512549980118862 0.10796659812409699 0 -0.48162445158666772 0.1005823670901454 0 -0.48837893466537508 0.1117690854599766 0 -0.48162445158666772 0.1005823670901454 0 -0.49737891424487929 0.102205182792521 0 -0.48837893466537508 0.1117690854599766 0 -0.47920912086757578 0.083222027247413538 0 -0.48162445158666772 0.1005823670901454 0 -0.49737891424487929 0.102205182792521 0 -0.5 0.088432580532893601 0 -0.49737891424487929 0.102205182792521 0 -0.5 0.1168310671682755 0 -0.49737891424487929 0.102205182792521 0 -0.5 0.1168310671682755 0 -0.48837893466537508 0.1117690854599766 0 -0.5 0.1168310671682755 0 -0.48837893466537508 0.1117690854599766 0 -0.4842723158563047 0.1301441798928954 0 -0.5 0.1168310671682755 0 -0.4842723158563047 0.1301441798928954 0 -0.5 0.14522955380365729 0 -0.46958882025875243 0.12035793204680111 0 -0.4842723158563047 0.1301441798928954 0 -0.46425598871103851 0.13528374379222011 0 -0.4842723158563047 0.1301441798928954 0 -0.47479757173443998 0.15789312434732811 0 -0.46425598871103851 0.13528374379222011 0 -0.47479757173443998 0.15789312434732811 0 -0.46425598871103851 0.13528374379222011 0 -0.4842723158563047 0.1301441798928954 0 -0.5 0.14522955380365729 0 -0.47479757173443998 0.15789312434732811 0 -0.5 0.14522955380365729 0 -0.49999999999999972 0.17362804043903909 0 -0.47479757173443998 0.15789312434732811 0 -0.49999999999999972 0.17362804043903909 0 -0.47479757173443998 0.15789312434732811 0 -0.49999999999999972 0.17362804043903909 0 -0.49200992699072321 0.1743962810239672 0 -0.47479757173443998 0.15789312434732811 0 -0.48341269367675271 0.17637066895233999 0 -0.49170634683837577 0.1941587336203292 0 -0.49368671912131301 0.1828531969182482 0 -0.49999999999999972 0.17362804043903909 0 -0.5 0.19278741936367841 0 -0.49368671912131301 0.1828531969182482 0 -0.48341269367675271 0.17637066895233999 0 -0.49170634683837577 0.1941587336203292 0 -0.49368671912131301 0.1828531969182482 0 -0.49999999999999972 0.17362804043903909 0 -0.49200992699072321 0.1743962810239672 0 -0.49200992699072321 0.1743962810239672 0 -0.48341269367675271 0.17637066895233999 0 -0.49368671912131301 0.1828531969182482 0 -0.49200992699072321 0.1743962810239672 0 -0.48341269367675271 0.17637066895233999 0 -0.48341269367675271 0.17637066895233999 0 -0.45591042926964898 0.18268667049205081 0 -0.47274380268756999 0.19288508587190861 0 -0.48341269367675271 0.17637066895233999 0 -0.45591042926964898 0.18268667049205081 0 -0.49200992699072321 0.1743962810239672 0 -0.48341269367675271 0.17637066895233999 0 -0.47479757173443998 0.15789312434732811 0 -0.48341269367675271 0.17637066895233999 0 -0.47479757173443998 0.15789312434732811 0 -0.48341269367675271 0.17637066895233999 0 -0.47479757173443998 0.15789312434732811 0 -0.45723956394668003 0.16387676974864759 0 -0.48341269367675271 0.17637066895233999 0 -0.45723956394668003 0.16387676974864759 0 -0.45591042926964898 0.18268667049205081 0 -0.45591042926964898 0.18268667049205081 0 -0.43992511097516529 0.17411109905454999 0 -0.4284081648625454 0.1890026720317621 0 -0.45591042926964898 0.18268667049205081 0 -0.4284081648625454 0.1890026720317621 0 -0.45723956394668003 0.16387676974864759 0 -0.45591042926964898 0.18268667049205081 0 -0.43992511097516529 0.17411109905454999 0 -0.45723956394668003 0.16387676974864759 0 -0.43992511097516529 0.17411109905454999 0 -0.43892522612619872 0.15930650560997939 0 -0.43892522612619872 0.15930650560997939 0 -0.43796764784210812 0.14528805014891141 0 -0.45386540436598038 0.14482430837095511 0 -0.45723956394668003 0.16387676974864759 0 -0.43892522612619872 0.15930650560997939 0 -0.45386540436598038 0.14482430837095511 0 -0.45386540436598038 0.14482430837095511 0 -0.43293323699752101 0.1317554923945817 0 -0.43826405507869293 0.1195835460605416 0 -0.44901593584904892 0.12912088192892021 0 -0.43293323699752101 0.1317554923945817 0 -0.43796764784210812 0.14528805014891141 0 -0.45386540436598038 0.14482430837095511 0 -0.43293323699752101 0.1317554923945817 0 -0.44901593584904892 0.12912088192892021 0 -0.45386540436598038 0.14482430837095511 0 -0.43293323699752101 0.1317554923945817 0 -0.45371440568763749 0.1126743632371118 0 -0.44901593584904892 0.12912088192892021 0 -0.46425598871103851 0.13528374379222011 0 -0.44901593584904892 0.12912088192892021 0 -0.46425598871103851 0.13528374379222011 0 -0.45386540436598038 0.14482430837095511 0 -0.47479757173443998 0.15789312434732811 0 -0.45723956394668003 0.16387676974864759 0 -0.45386540436598038 0.14482430837095511 0 -0.47479757173443998 0.15789312434732811 0 -0.46425598871103851 0.13528374379222011 0 -0.45386540436598038 0.14482430837095511 0 -0.47479757173443998 0.15789312434732811 0 -0.45386540436598038 0.14482430837095511 0 -0.48226153920099157 0.23766317590200001 0 -0.47864167104372218 0.246590621409366 0 -0.48932095354102823 0.25454658797793611 0 -0.47315400564016008 0.2364435414805684 0 -0.47864167104372218 0.246590621409366 0 -0.46938038244821267 0.25133041049185839 0 -0.47315400564016008 0.2364435414805684 0 -0.48226153920099157 0.23766317590200001 0 -0.47864167104372218 0.246590621409366 0 -0.49106398183666961 0.22759324404760359 0 -0.48932095354102823 0.25454658797793611 0 -0.5 0.23810140997737081 0 -0.49106398183666961 0.22759324404760359 0 -0.48932095354102823 0.25454658797793611 0 -0.48226153920099157 0.23766317590200001 0 -0.49106398183666961 0.22759324404760359 0 -0.48932095354102823 0.25454658797793611 0 -0.5 0.23810140997737081 0 -0.49106398183666961 0.22759324404760359 0 -0.50000000000000022 0.21194679828831781 0 -0.49106398183666961 0.22759324404760359 0 -0.47912708394337772 0.2231418845945258 0 -0.48726644121087642 0.21298690825741631 0 -0.48226153920099157 0.23766317590200001 0 -0.49106398183666961 0.22759324404760359 0 -0.47912708394337772 0.2231418845945258 0 -0.47315400564016008 0.2364435414805684 0 -0.48226153920099157 0.23766317590200001 0 -0.47912708394337772 0.2231418845945258 0 -0.47315400564016008 0.2364435414805684 0 -0.47912708394337772 0.2231418845945258 0 -0.46764368341616458 0.22415830119077751 0 -0.47912708394337772 0.2231418845945258 0 -0.47360767850491831 0.20951316246361981 0 -0.46764368341616458 0.22415830119077751 0 -0.47360767850491831 0.20951316246361981 0 -0.48726644121087642 0.21298690825741631 0 -0.49170634683837577 0.1941587336203292 0 -0.47912708394337772 0.2231418845945258 0 -0.47360767850491831 0.20951316246361981 0 -0.48726644121087642 0.21298690825741631 0 -0.49106398183666961 0.22759324404760359 0 -0.50000000000000022 0.21194679828831781 0 -0.48726644121087642 0.21298690825741631 0 -0.50000000000000022 0.21194679828831781 0 -0.48726644121087642 0.21298690825741631 0 -0.49170634683837577 0.1941587336203292 0 -0.50000000000000022 0.21194679828831781 0 -0.49170634683837577 0.1941587336203292 0 -0.50000000000000022 0.21194679828831781 0 -0.5 0.19278741936367841 0 -0.49170634683837577 0.1941587336203292 0 -0.49368671912131301 0.1828531969182482 0 -0.5 0.19278741936367841 0 -0.49170634683837577 0.1941587336203292 0 -0.48341269367675271 0.17637066895233999 0 -0.49170634683837577 0.1941587336203292 0 -0.47274380268756999 0.19288508587190861 0 -0.47360767850491831 0.20951316246361981 0 -0.49170634683837577 0.1941587336203292 0 -0.47274380268756999 0.19288508587190861 0 -0.47360767850491831 0.20951316246361981 0 -0.47274380268756999 0.19288508587190861 0 -0.45820261548712909 0.20353130823034371 0 -0.45591042926964898 0.18268667049205081 0 -0.47274380268756999 0.19288508587190861 0 -0.45820261548712909 0.20353130823034371 0 -0.45591042926964898 0.18268667049205081 0 -0.43516662619925378 0.20614333559983469 0 -0.4284081648625454 0.1890026720317621 0 -0.45591042926964898 0.18268667049205081 0 -0.45820261548712909 0.20353130823034371 0 -0.43516662619925378 0.20614333559983469 0 -0.44192508753596349 0.22328399916790689 0 -0.43516662619925378 0.20614333559983469 0 -0.45032248765871591 0.2151961798839368 0 -0.44192508753596349 0.22328399916790689 0 -0.43516662619925378 0.20614333559983469 0 -0.45032248765871591 0.2151961798839368 0 -0.45820261548712909 0.20353130823034371 0 -0.43516662619925378 0.20614333559983469 0 -0.45032248765871591 0.2151961798839368 0 -0.46109406183397039 0.21551848415653921 0 -0.45620465585954723 0.2251951411450015 0 -0.45032248765871591 0.2151961798839368 0 -0.45820261548712909 0.20353130823034371 0 -0.46109406183397039 0.21551848415653921 0 -0.47360767850491831 0.20951316246361981 0 -0.45820261548712909 0.20353130823034371 0 -0.46109406183397039 0.21551848415653921 0 -0.47360767850491831 0.20951316246361981 0 -0.46109406183397039 0.21551848415653921 0 -0.46764368341616458 0.22415830119077751 0 -0.47315400564016008 0.2364435414805684 0 -0.46764368341616458 0.22415830119077751 0 -0.45925329591452863 0.2407771106774913 0 -0.46764368341616458 0.22415830119077751 0 -0.45620465585954723 0.2251951411450015 0 -0.45925329591452863 0.2407771106774913 0 -0.46109406183397039 0.21551848415653921 0 -0.46764368341616458 0.22415830119077751 0 -0.45620465585954723 0.2251951411450015 0 -0.45032248765871591 0.2151961798839368 0 -0.45620465585954723 0.2251951411450015 0 -0.44192508753596349 0.22328399916790689 0 -0.44192508753596349 0.22328399916790689 0 -0.44062222049055039 0.24203477259657111 0 -0.43146145522804691 0.2313120115293863 0 -0.45620465585954723 0.2251951411450015 0 -0.44062222049055039 0.24203477259657111 0 -0.45620465585954723 0.2251951411450015 0 -0.44192508753596349 0.22328399916790689 0 -0.44062222049055039 0.24203477259657111 0 -0.44062222049055039 0.24203477259657111 0 -0.45046339488490522 0.249057113070103 0 -0.44442574262614493 0.25832327296872359 0 -0.44062222049055039 0.24203477259657111 0 -0.45046339488490522 0.249057113070103 0 -0.45925329591452863 0.2407771106774913 0 -0.45620465585954723 0.2251951411450015 0 -0.44062222049055039 0.24203477259657111 0 -0.45925329591452863 0.2407771106774913 0 -0.45046339488490522 0.249057113070103 0 -0.45925329591452863 0.2407771106774913 0 -0.45807104112411212 0.25534721177055669 0 -0.45925329591452863 0.2407771106774913 0 -0.46938038244821267 0.25133041049185839 0 -0.45807104112411212 0.25534721177055669 0 -0.47315400564016008 0.2364435414805684 0 -0.45925329591452863 0.2407771106774913 0 -0.46938038244821267 0.25133041049185839 0 -0.4198454647722451 0.23985190764030939 0 -0.40081965837488509 0.24074316727492401 0 -0.40585136056822319 0.25674789398696107 0 -0.4198454647722451 0.23985190764030939 0 -0.405480724964072 0.22581663549259839 0 -0.40081965837488509 0.24074316727492401 0 -0.44062222049055039 0.24203477259657111 0 -0.4198454647722451 0.23985190764030939 0 -0.42503978512155383 0.25887440404814072 0 -0.44062222049055039 0.24203477259657111 0 -0.4198454647722451 0.23985190764030939 0 -0.43146145522804691 0.2313120115293863 0 -0.4198454647722451 0.23985190764030939 0 -0.43146145522804691 0.2313120115293863 0 -0.42370673975344808 0.22056464269113771 0 -0.44192508753596349 0.22328399916790689 0 -0.43146145522804691 0.2313120115293863 0 -0.42370673975344808 0.22056464269113771 0 -0.4198454647722451 0.23985190764030939 0 -0.42370673975344808 0.22056464269113771 0 -0.405480724964072 0.22581663549259839 0 -0.42370673975344808 0.22056464269113771 0 -0.40708390191205951 0.20882890034131879 0 -0.405480724964072 0.22581663549259839 0 -0.42370673975344808 0.22056464269113771 0 -0.40708390191205951 0.20882890034131879 0 -0.42107335870595469 0.2022269477122331 0 -0.44192508753596349 0.22328399916790689 0 -0.42370673975344808 0.22056464269113771 0 -0.43516662619925378 0.20614333559983469 0 -0.42370673975344808 0.22056464269113771 0 -0.43516662619925378 0.20614333559983469 0 -0.42107335870595469 0.2022269477122331 0 -0.43516662619925378 0.20614333559983469 0 -0.4284081648625454 0.1890026720317621 0 -0.42107335870595469 0.2022269477122331 0 -0.43516662619925378 0.20614333559983469 0 -0.4284081648625454 0.1890026720317621 0 -0.4284081648625454 0.1890026720317621 0 -0.40915969581062839 0.19342315750049971 0 -0.4284081648625454 0.1890026720317621 0 -0.42107335870595469 0.2022269477122331 0 -0.40915969581062839 0.19342315750049971 0 -0.40708390191205951 0.20882890034131879 0 -0.42107335870595469 0.2022269477122331 0 -0.40915969581062839 0.19342315750049971 0 -0.40708390191205951 0.20882890034131879 0 -0.40915969581062839 0.19342315750049971 0 -0.38991122675871148 0.19784364296923759 0 -0.40915969581062839 0.19342315750049971 0 -0.38991122675871148 0.19784364296923759 0 -0.40915969581062839 0.19342315750049971 0 -0.38991122675871148 0.19784364296923759 0 -0.39569501158598158 0.17813944679546001 0 -0.39158905321283283 0.2136173787495643 0 -0.38435338999826391 0.22831720607051781 0 -0.36414166766971379 0.2074649771098355 0 -0.38991122675871148 0.19784364296923759 0 -0.39158905321283283 0.2136173787495643 0 -0.36414166766971379 0.2074649771098355 0 -0.40708390191205951 0.20882890034131879 0 -0.39158905321283283 0.2136173787495643 0 -0.405480724964072 0.22581663549259839 0 -0.40708390191205951 0.20882890034131879 0 -0.38991122675871148 0.19784364296923759 0 -0.39158905321283283 0.2136173787495643 0 -0.405480724964072 0.22581663549259839 0 -0.38435338999826391 0.22831720607051781 0 -0.40081965837488509 0.24074316727492401 0 -0.39158905321283283 0.2136173787495643 0 -0.405480724964072 0.22581663549259839 0 -0.38435338999826391 0.22831720607051781 0 -0.37619177155740557 0.24036243622333081 0 -0.38790582398472923 0.24962922847932231 0 -0.36318679658289171 0.25196182354824148 0 -0.38435338999826391 0.22831720607051781 0 -0.37619177155740557 0.24036243622333081 0 -0.38790582398472923 0.24962922847932231 0 -0.38435338999826391 0.22831720607051781 0 -0.38790582398472923 0.24962922847932231 0 -0.40081965837488509 0.24074316727492401 0 -0.38790582398472923 0.24962922847932231 0 -0.40081965837488509 0.24074316727492401 0 -0.40585136056822319 0.25674789398696107 0 -0.40926453963391513 0.14045102348790381 0 -0.42614672387873248 0.14526589422012931 0 -0.41883635224822963 0.16472684775983329 0 -0.40926453963391513 0.14045102348790381 0 -0.41883635224822963 0.16472684775983329 0 -0.40926453963391513 0.14045102348790381 0 -0.41883635224822963 0.16472684775983329 0 -0.40029434983296169 0.15790366282291429 0 -0.40926453963391513 0.14045102348790381 0 -0.417579207348795 0.13056668242546571 0 -0.40026410281127539 0.13237877311027449 0 -0.40926453963391513 0.14045102348790381 0 -0.417579207348795 0.13056668242546571 0 -0.42614672387873248 0.14526589422012931 0 -0.417579207348795 0.13056668242546571 0 -0.43293323699752101 0.1317554923945817 0 -0.42614672387873248 0.14526589422012931 0 -0.42608096723388439 0.1205091241492761 0 -0.417579207348795 0.13056668242546571 0 -0.43293323699752101 0.1317554923945817 0 -0.43796764784210812 0.14528805014891141 0 -0.43293323699752101 0.1317554923945817 0 -0.42614672387873248 0.14526589422012931 0 -0.43892522612619872 0.15930650560997939 0 -0.43796764784210812 0.14528805014891141 0 -0.42614672387873248 0.14526589422012931 0 -0.43892522612619872 0.15930650560997939 0 -0.42614672387873248 0.14526589422012931 0 -0.41883635224822963 0.16472684775983329 0 -0.43992511097516529 0.17411109905454999 0 -0.43892522612619872 0.15930650560997939 0 -0.41883635224822963 0.16472684775983329 0 -0.4284081648625454 0.1890026720317621 0 -0.41883635224822963 0.16472684775983329 0 -0.43992511097516529 0.17411109905454999 0 -0.4284081648625454 0.1890026720317621 0 -0.41883635224822963 0.16472684775983329 0 -0.40915969581062839 0.19342315750049971 0 -0.41883635224822963 0.16472684775983329 0 -0.39569501158598158 0.17813944679546001 0 -0.4284081648625454 0.1890026720317621 0 -0.40915969581062839 0.19342315750049971 0 -0.41883635224822963 0.16472684775983329 0 -0.40029434983296169 0.15790366282291429 0 -0.39569501158598158 0.17813944679546001 0 -0.38484252596519369 0.16167484958157691 0 -0.41883635224822963 0.16472684775983329 0 -0.40029434983296169 0.15790366282291429 0 -0.39569501158598158 0.17813944679546001 0 -0.39569501158598158 0.17813944679546001 0 -0.38484252596519369 0.16167484958157691 0 -0.36525228834216061 0.17922160577889321 0 -0.38991122675871148 0.19784364296923759 0 -0.39569501158598158 0.17813944679546001 0 -0.36525228834216061 0.17922160577889321 0 -0.39283331973148827 0.14452614648979731 0 -0.38372255811484618 0.13025780258704611 0 -0.36636290901460722 0.1509782344479508 0 -0.38484252596519369 0.16167484958157691 0 -0.39283331973148827 0.14452614648979731 0 -0.36636290901460722 0.1509782344479508 0 -0.40029434983296169 0.15790366282291429 0 -0.38484252596519369 0.16167484958157691 0 -0.39283331973148827 0.14452614648979731 0 -0.40926453963391513 0.14045102348790381 0 -0.40029434983296169 0.15790366282291429 0 -0.39283331973148827 0.14452614648979731 0 -0.39283331973148827 0.14452614648979731 0 -0.40026410281127539 0.13237877311027449 0 -0.38372255811484618 0.13025780258704611 0 -0.39792088922733271 0.1160922105611595 0 -0.417579207348795 0.13056668242546571 0 -0.40026410281127539 0.13237877311027449 0 -0.39792088922733271 0.1160922105611595 0 -0.40026410281127539 0.13237877311027449 0 -0.38372255811484618 0.13025780258704611 0 -0.40926453963391513 0.14045102348790381 0 -0.39283331973148827 0.14452614648979731 0 -0.40026410281127539 0.13237877311027449 0 -0.38372255811484618 0.13025780258704611 0 -0.36636290901460722 0.1509782344479508 0 -0.36747352968705388 0.12273486311700831 0 -0.36636290901460722 0.1509782344479508 0 -0.36747352968705388 0.12273486311700831 0 -0.35528769071996391 0.12689780186549679 0 -0.36636290901460722 0.1509782344479508 0 -0.36747352968705388 0.12273486311700831 0 -0.35528769071996391 0.12689780186549679 0 -0.33512599087492562 0.1447950320020088 0 -0.35528769071996391 0.12689780186549679 0 -0.35168351666373848 0.14314256241625531 0 -0.33512599087492562 0.1447950320020088 0 -0.35528769071996391 0.12689780186549679 0 -0.33512599087492562 0.1447950320020088 0 -0.34115039425197219 0.12498493974687711 0 -0.35528769071996391 0.12689780186549679 0 -0.35168351666373848 0.14314256241625531 0 -0.36636290901460722 0.1509782344479508 0 -0.35168351666373848 0.14314256241625531 0 -0.36636290901460722 0.1509782344479508 0 -0.34333519974196419 0.16612441953572921 0 -0.38484252596519369 0.16167484958157691 0 -0.36636290901460722 0.1509782344479508 0 -0.36525228834216061 0.17922160577889321 0 -0.36636290901460722 0.1509782344479508 0 -0.36525228834216061 0.17922160577889321 0 -0.36525228834216061 0.17922160577889321 0 -0.34333519974196419 0.16612441953572921 0 -0.34654591437965571 0.19533490523866279 0 -0.36636290901460722 0.1509782344479508 0 -0.36525228834216061 0.17922160577889321 0 -0.34333519974196419 0.16612441953572921 0 -0.34333519974196419 0.16612441953572921 0 -0.31496429102988749 0.16269226213852109 0 -0.33512599087492562 0.1447950320020088 0 -0.34333519974196419 0.16612441953572921 0 -0.34654591437965571 0.19533490523866279 0 -0.32412519241006588 0.1878495682783011 0 -0.31496429102988749 0.16269226213852109 0 -0.32412519241006588 0.1878495682783011 0 -0.34333519974196419 0.16612441953572921 0 -0.31496429102988749 0.16269226213852109 0 -0.32412519241006588 0.1878495682783011 0 -0.31303823693556859 0.17707572181323081 0 -0.31496429102988749 0.16269226213852109 0 -0.32412519241006588 0.1878495682783011 0 -0.31303823693556859 0.17707572181323081 0 -0.32412519241006588 0.1878495682783011 0 -0.3108046026399135 0.18379038091696129 0 -0.31496429102988749 0.16269226213852109 0 -0.31353256245119709 0.1587605055712967 0 -0.31354631638020197 0.13395604467094269 0 -0.33512599087492562 0.1447950320020088 0 -0.3122891553291075 0.14635758184588041 0 -0.31353256245119709 0.1587605055712967 0 -0.33512599087492562 0.1447950320020088 0 -0.3122891553291075 0.14635758184588041 0 -0.31496429102988749 0.16269226213852109 0 -0.31353256245119709 0.1587605055712967 0 -0.33512599087492562 0.1447950320020088 0 -0.31496429102988749 0.16269226213852109 0 -0.33512599087492562 0.1447950320020088 0 -0.31354631638020197 0.13395604467094269 0 -0.32917568526667751 0.12578156900391591 0 -0.33512599087492562 0.1447950320020088 0 -0.31354631638020197 0.13395604467094269 0 -0.32917568526667751 0.12578156900391591 0 -0.32114709127587232 0.11611322513389059 0 -0.32917568526667751 0.12578156900391591 0 -0.33512599087492562 0.1447950320020088 0 -0.34115039425197219 0.12498493974687711 0 -0.35168351666373848 0.14314256241625531 0 -0.34333519974196419 0.16612441953572921 0 -0.33512599087492562 0.1447950320020088 0 -0.36303104699726713 0.23570834844077809 0 -0.34244699517042121 0.23816418055786151 0 -0.36318679658289171 0.25196182354824148 0 -0.34244699517042121 0.23816418055786151 0 -0.36318679658289171 0.25196182354824148 0 -0.33952374355129727 0.25899057541505788 0 -0.37619177155740557 0.24036243622333081 0 -0.36303104699726713 0.23570834844077809 0 -0.36318679658289171 0.25196182354824148 0 -0.38435338999826391 0.22831720607051781 0 -0.37619177155740557 0.24036243622333081 0 -0.36303104699726713 0.23570834844077809 0 -0.38435338999826391 0.22831720607051781 0 -0.36303104699726713 0.23570834844077809 0 -0.36414166766971379 0.2074649771098355 0 -0.36303104699726713 0.23570834844077809 0 -0.36414166766971379 0.2074649771098355 0 -0.36303104699726713 0.23570834844077809 0 -0.35084793517488477 0.2210857468323085 0 -0.34244699517042121 0.23816418055786151 0 -0.36303104699726713 0.23570834844077809 0 -0.35084793517488477 0.2210857468323085 0 -0.36414166766971379 0.2074649771098355 0 -0.35084793517488477 0.2210857468323085 0 -0.36414166766971379 0.2074649771098355 0 -0.34654591437965571 0.19533490523866279 0 -0.36525228834216061 0.17922160577889321 0 -0.36414166766971379 0.2074649771098355 0 -0.38991122675871148 0.19784364296923759 0 -0.36525228834216061 0.17922160577889321 0 -0.36414166766971379 0.2074649771098355 0 -0.36525228834216061 0.17922160577889321 0 -0.36414166766971379 0.2074649771098355 0 -0.34654591437965571 0.19533490523866279 0 -0.32412519241006588 0.1878495682783011 0 -0.33328609379024349 0.2130068744180813 0 -0.34654591437965571 0.19533490523866279 0 -0.32412519241006588 0.1878495682783011 0 -0.33328609379024349 0.2130068744180813 0 -0.32412519241006588 0.1878495682783011 0 -0.33328609379024349 0.2130068744180813 0 -0.31080006153106382 0.20197173666100501 0 -0.32412519241006588 0.1878495682783011 0 -0.31080006153106382 0.20197173666100501 0 -0.3108046026399135 0.18379038091696129 0 -0.33328609379024349 0.2130068744180813 0 -0.31873218963182409 0.22654972870499029 0 -0.31080006153106382 0.20197173666100501 0 -0.35084793517488477 0.2210857468323085 0 -0.34654591437965571 0.19533490523866279 0 -0.33328609379024349 0.2130068744180813 0 -0.35084793517488477 0.2210857468323085 0 -0.33328609379024349 0.2130068744180813 0 -0.34244699517042121 0.23816418055786151 0 -0.33328609379024349 0.2130068744180813 0 -0.34244699517042121 0.23816418055786151 0 -0.33328609379024349 0.2130068744180813 0 -0.31873218963182409 0.22654972870499029 0 -0.34244699517042121 0.23816418055786151 0 -0.31873218963182409 0.22654972870499029 0 -0.32200613725511351 0.24850726385495631 0 -0.34244699517042121 0.23816418055786151 0 -0.31873218963182409 0.22654972870499029 0 -0.32200613725511351 0.24850726385495631 0 -0.30672251365844311 0.23743048015470111 0 -0.32200613725511351 0.24850726385495631 0 -0.34244699517042121 0.23816418055786151 0 -0.33952374355129727 0.25899057541505788 0 -0.29125564533142001 0.24067530578368901 0 -0.30672251365844311 0.23743048015470111 0 -0.30640548876467488 0.25787073169030861 0 -0.32200613725511351 0.24850726385495631 0 -0.30672251365844311 0.23743048015470111 0 -0.30640548876467488 0.25787073169030861 0 -0.29125564533142001 0.24067530578368901 0 -0.30672251365844311 0.23743048015470111 0 -0.29521310730918271 0.21354937073956171 0 -0.31873218963182409 0.22654972870499029 0 -0.30672251365844311 0.23743048015470111 0 -0.29521310730918271 0.21354937073956171 0 -0.29125564533142001 0.24067530578368901 0 -0.29521310730918271 0.21354937073956171 0 -0.29125564533142001 0.24067530578368901 0 -0.29521310730918271 0.21354937073956171 0 -0.27258595833473342 0.22149207507906341 0 -0.29521310730918271 0.21354937073956171 0 -0.28878760701375322 0.1984352968903606 0 -0.27490594785389072 0.20112241201531189 0 -0.31873218963182409 0.22654972870499029 0 -0.29521310730918271 0.21354937073956171 0 -0.31080006153106382 0.20197173666100501 0 -0.29521310730918271 0.21354937073956171 0 -0.29917056928694541 0.1864234356954344 0 -0.29521310730918271 0.21354937073956171 0 -0.31080006153106382 0.20197173666100501 0 -0.29917056928694541 0.1864234356954344 0 -0.31080006153106382 0.20197173666100501 0 -0.3108046026399135 0.18379038091696129 0 -0.29917056928694541 0.1864234356954344 0 -0.28878760701375322 0.1984352968903606 0 -0.29917056928694541 0.1864234356954344 0 -0.28955343229492791 0.1852490896997587 0 -0.29521310730918271 0.21354937073956171 0 -0.28878760701375322 0.1984352968903606 0 -0.29917056928694541 0.1864234356954344 0 -0.28878760701375322 0.1984352968903606 0 -0.27938784373491388 0.18917199981814359 0 -0.28955343229492791 0.1852490896997587 0 -0.27938784373491388 0.18917199981814359 0 -0.27490594785389072 0.20112241201531189 0 -0.26439180367967152 0.18225540552070321 0 -0.28878760701375322 0.1984352968903606 0 -0.27938784373491388 0.18917199981814359 0 -0.27490594785389072 0.20112241201531189 0 -0.27490594785389072 0.20112241201531189 0 -0.25370102580463139 0.2052288024824625 0 -0.26439180367967152 0.18225540552070321 0 -0.25370102580463139 0.2052288024824625 0 -0.26439180367967152 0.18225540552070321 0 -0.23359887481107691 0.1809086922627815 0 -0.27490594785389072 0.20112241201531189 0 -0.25370102580463139 0.2052288024824625 0 -0.27258595833473342 0.22149207507906341 0 -0.29521310730918271 0.21354937073956171 0 -0.27490594785389072 0.20112241201531189 0 -0.27258595833473342 0.22149207507906341 0 -0.29125564533142001 0.24067530578368901 0 -0.27258595833473342 0.22149207507906341 0 -0.26834113505385238 0.23837358332174549 0 -0.27258595833473342 0.22149207507906341 0 -0.25272375818517617 0.22994970808158929 0 -0.26834113505385238 0.23837358332174549 0 -0.25370102580463139 0.2052288024824625 0 -0.27258595833473342 0.22149207507906341 0 -0.25272375818517617 0.22994970808158929 0 -0.25272375818517617 0.22994970808158929 0 -0.25621817608628389 0.2460965770837312 0 -0.26834113505385238 0.23837358332174549 0 -0.25621817608628389 0.2460965770837312 0 -0.26834113505385238 0.23837358332174549 0 -0.26892213733164849 0.25365425058065472 0 -0.29125564533142001 0.24067530578368901 0 -0.26834113505385238 0.23837358332174549 0 -0.26892213733164849 0.25365425058065472 0 -0.29370567785695612 0.15770531643225719 0 -0.28412418886142132 0.16518528890623771 0 -0.28065913062351988 0.14575155473079041 0 -0.30159211447790629 0.14759241864651959 0 -0.29370567785695612 0.15770531643225719 0 -0.28065913062351988 0.14575155473079041 0 -0.29682817834931757 0.13068013418198679 0 -0.30159211447790629 0.14759241864651959 0 -0.28065913062351988 0.14575155473079041 0 -0.29682817834931757 0.13068013418198679 0 -0.28065913062351988 0.14575155473079041 0 -0.28285123447775751 0.1183560919224374 0 -0.31354631638020197 0.13395604467094269 0 -0.29682817834931757 0.13068013418198679 0 -0.30159211447790629 0.14759241864651959 0 -0.31354631638020197 0.13395604467094269 0 -0.3122891553291075 0.14635758184588041 0 -0.30159211447790629 0.14759241864651959 0 -0.31353256245119709 0.1587605055712967 0 -0.3122891553291075 0.14635758184588041 0 -0.30159211447790629 0.14759241864651959 0 -0.31496429102988749 0.16269226213852109 0 -0.31353256245119709 0.1587605055712967 0 -0.30488677357152572 0.1641353808659653 0 -0.30159211447790629 0.14759241864651959 0 -0.30488677357152572 0.1641353808659653 0 -0.29370567785695612 0.15770531643225719 0 -0.31353256245119709 0.1587605055712967 0 -0.30159211447790629 0.14759241864651959 0 -0.30488677357152572 0.1641353808659653 0 -0.31496429102988749 0.16269226213852109 0 -0.30225886166240762 0.17397067591913981 0 -0.31303823693556859 0.17707572181323081 0 -0.31496429102988749 0.16269226213852109 0 -0.30225886166240762 0.17397067591913981 0 -0.31496429102988749 0.16269226213852109 0 -0.30488677357152572 0.1641353808659653 0 -0.30225886166240762 0.17397067591913981 0 -0.30488677357152572 0.1641353808659653 0 -0.30225886166240762 0.17397067591913981 0 -0.29597535979189887 0.1670989905046398 0 -0.30488677357152572 0.1641353808659653 0 -0.29370567785695612 0.15770531643225719 0 -0.29597535979189887 0.1670989905046398 0 -0.31303823693556859 0.17707572181323081 0 -0.3108046026399135 0.18379038091696129 0 -0.30225886166240762 0.17397067591913981 0 -0.30225886166240762 0.17397067591913981 0 -0.29917056928694541 0.1864234356954344 0 -0.28955343229492791 0.1852490896997587 0 -0.3108046026399135 0.18379038091696129 0 -0.30225886166240762 0.17397067591913981 0 -0.29917056928694541 0.1864234356954344 0 -0.30225886166240762 0.17397067591913981 0 -0.28955343229492791 0.1852490896997587 0 -0.30225886166240762 0.17397067591913981 0 -0.28955343229492791 0.1852490896997587 0 -0.29024545837739651 0.173916500811098 0 -0.28955343229492791 0.1852490896997587 0 -0.29024545837739651 0.173916500811098 0 -0.27889874324695868 0.17762520371433099 0 -0.29024545837739651 0.173916500811098 0 -0.28412418886142132 0.16518528890623771 0 -0.27889874324695868 0.17762520371433099 0 -0.27938784373491388 0.18917199981814359 0 -0.28955343229492791 0.1852490896997587 0 -0.27889874324695868 0.17762520371433099 0 -0.29370567785695612 0.15770531643225719 0 -0.29597535979189887 0.1670989905046398 0 -0.28412418886142132 0.16518528890623771 0 -0.30225886166240762 0.17397067591913981 0 -0.29024545837739651 0.173916500811098 0 -0.29597535979189887 0.1670989905046398 0 -0.29024545837739651 0.173916500811098 0 -0.29597535979189887 0.1670989905046398 0 -0.28412418886142132 0.16518528890623771 0 -0.28412418886142132 0.16518528890623771 0 -0.26844272787379447 0.16268744982768751 0 -0.27889874324695868 0.17762520371433099 0 -0.28412418886142132 0.16518528890623771 0 -0.26844272787379447 0.16268744982768751 0 -0.28065913062351988 0.14575155473079041 0 -0.26844272787379447 0.16268744982768751 0 -0.27889874324695868 0.17762520371433099 0 -0.26439180367967152 0.18225540552070321 0 -0.27938784373491388 0.18917199981814359 0 -0.27889874324695868 0.17762520371433099 0 -0.26439180367967152 0.18225540552070321 0 -0.26844272787379447 0.16268744982768751 0 -0.26439180367967152 0.18225540552070321 0 -0.247018622616726 0.15992587597476091 0 -0.26844272787379447 0.16268744982768751 0 -0.25846103874104392 0.14702121199507179 0 -0.247018622616726 0.15992587597476091 0 -0.26844272787379447 0.16268744982768751 0 -0.25846103874104392 0.14702121199507179 0 -0.28065913062351988 0.14575155473079041 0 -0.25846103874104392 0.14702121199507179 0 -0.28065913062351988 0.14575155473079041 0 -0.25922316449870308 0.12628093809151891 0 -0.28065913062351988 0.14575155473079041 0 -0.25922316449870308 0.12628093809151891 0 -0.28285123447775751 0.1183560919224374 0 -0.25846103874104392 0.14702121199507179 0 -0.25922316449870308 0.12628093809151891 0 -0.2369615480924761 0.1404602413506009 0 -0.25922316449870308 0.12628093809151891 0 -0.25136603029008331 0.1103208693098497 0 -0.26687835675477128 0.1014348965859585 0 -0.25136603029008331 0.1103208693098497 0 -0.26687835675477128 0.1014348965859585 0 -0.24377998071086901 0.096378574065869249 0 -0.26687835675477128 0.1014348965859585 0 -0.28737892951993471 0.098967158637655914 0 -0.27569457229827071 0.081243623470509244 0 -0.26687835675477128 0.1014348965859585 0 -0.28285123447775751 0.1183560919224374 0 -0.28737892951993471 0.098967158637655914 0 -0.25922316449870308 0.12628093809151891 0 -0.26687835675477128 0.1014348965859585 0 -0.28285123447775751 0.1183560919224374 0 -0.29682817834931757 0.13068013418198679 0 -0.28285123447775751 0.1183560919224374 0 -0.30549209578720232 0.10774456093924389 0 -0.28285123447775751 0.1183560919224374 0 -0.28737892951993471 0.098967158637655914 0 -0.30549209578720232 0.10774456093924389 0 -0.28737892951993471 0.098967158637655914 0 -0.30549209578720232 0.10774456093924389 0 -0.29743787519420251 0.08153307720754506 0 -0.30549209578720232 0.10774456093924389 0 -0.29743787519420251 0.08153307720754506 0 -0.31354631638020197 0.13395604467094269 0 -0.29682817834931757 0.13068013418198679 0 -0.30549209578720232 0.10774456093924389 0 -0.31354631638020197 0.13395604467094269 0 -0.30549209578720232 0.10774456093924389 0 -0.29926204670725021 0.066629363318123747 0 -0.30931237829482389 0.073252958087475881 0 -0.31697319293959142 0.061410437985649477 0 -0.29926204670725021 0.066629363318123747 0 -0.30931237829482389 0.073252958087475881 0 -0.29743787519420251 0.08153307720754506 0 -0.30549209578720232 0.10774456093924389 0 -0.29743787519420251 0.08153307720754506 0 -0.31312795334666071 0.083579729522452809 0 -0.30931237829482389 0.073252958087475881 0 -0.29743787519420251 0.08153307720754506 0 -0.31312795334666071 0.083579729522452809 0 -0.28737892951993471 0.098967158637655914 0 -0.29743787519420251 0.08153307720754506 0 -0.27569457229827071 0.081243623470509244 0 -0.29743787519420251 0.08153307720754506 0 -0.28743776060402371 0.060458689408765323 0 -0.28938365460120269 0.05532159347584624 0 -0.29743787519420251 0.08153307720754506 0 -0.28938365460120269 0.05532159347584624 0 -0.29926204670725021 0.066629363318123747 0 -0.29743787519420251 0.08153307720754506 0 -0.28938365460120269 0.05532159347584624 0 -0.29743787519420251 0.08153307720754506 0 -0.27569457229827071 0.081243623470509244 0 -0.28743776060402371 0.060458689408765323 0 -0.27569457229827071 0.081243623470509244 0 -0.26257114212692878 0.06573449919026883 0 -0.28743776060402371 0.060458689408765323 0 -0.26257114212692878 0.06573449919026883 0 -0.28743776060402371 0.060458689408765323 0 -0.26687835675477128 0.1014348965859585 0 -0.25261226255175379 0.080423606239198905 0 -0.24377998071086901 0.096378574065869249 0 -0.26687835675477128 0.1014348965859585 0 -0.27569457229827071 0.081243623470509244 0 -0.25261226255175379 0.080423606239198905 0 -0.26257114212692878 0.06573449919026883 0 -0.23770452364983391 0.071010308971772351 0 -0.25261226255175379 0.080423606239198905 0 -0.26257114212692878 0.06573449919026883 0 -0.23770452364983391 0.071010308971772351 0 -0.27569457229827071 0.081243623470509244 0 -0.25261226255175379 0.080423606239198905 0 -0.26257114212692878 0.06573449919026883 0 -0.2522816967992324 0.037264740289820159 0 -0.27263172987273521 0.051913181220590639 0 -0.24906194248509719 0.058488871325365822 0 -0.26257114212692878 0.06573449919026883 0 -0.27263172987273521 0.051913181220590639 0 -0.24906194248509719 0.058488871325365822 0 -0.2522816967992324 0.037264740289820159 0 -0.2684979789729644 0.03593820420606865 0 -0.27263172987273521 0.051913181220590639 0 -0.2684979789729644 0.03593820420606865 0 -0.27263172987273521 0.051913181220590639 0 -0.28132943400820298 0.02911010974414751 0 -0.27263172987273521 0.051913181220590639 0 -0.28132943400820298 0.02911010974414751 0 -0.28938365460120269 0.05532159347584624 0 -0.26257114212692878 0.06573449919026883 0 -0.27263172987273521 0.051913181220590639 0 -0.28743776060402371 0.060458689408765323 0 -0.25267499080189931 -0.0034516002120552492 0 -0.26909988492935111 -0.0018655285383734981 0 -0.25157722050270093 0.012682655753942951 0 -0.26909988492935111 -0.0018655285383734981 0 -0.25157722050270093 0.012682655753942951 0 -0.27200359261247947 0.017754051058092819 0 -0.2522816967992324 0.037264740289820159 0 -0.25157722050270093 0.012682655753942951 0 -0.27200359261247947 0.017754051058092819 0 -0.2522816967992324 0.037264740289820159 0 -0.2684979789729644 0.03593820420606865 0 -0.27200359261247947 0.017754051058092819 0 -0.2522816967992324 0.037264740289820159 0 -0.27200359261247947 0.017754051058092819 0 -0.27200359261247947 0.017754051058092819 0 -0.28831373269731447 0.017122983851404761 0 -0.28132943400820298 0.02911010974414751 0 -0.2684979789729644 0.03593820420606865 0 -0.27200359261247947 0.017754051058092819 0 -0.28132943400820298 0.02911010974414751 0 -0.26909988492935111 -0.0018655285383734981 0 -0.2917254884257266 -0.0017566381736345419 0 -0.27200359261247947 0.017754051058092819 0 -0.2917254884257266 -0.0017566381736345419 0 -0.27200359261247947 0.017754051058092819 0 -0.28831373269731447 0.017122983851404761 0 -0.2917254884257266 -0.0017566381736345419 0 -0.28831373269731447 0.017122983851404761 0 -0.29997880334656019 0.01439552450637107 0 -0.2917254884257266 -0.0017566381736345419 0 -0.27200359261247947 0.017754051058092819 0 -0.28831373269731447 0.017122983851404761 0 -0.29656482898857922 0.02610767777843559 0 -0.29997880334656019 0.01439552450637107 0 -0.28831373269731447 0.017122983851404761 0 -0.28132943400820298 0.02911010974414751 0 -0.29656482898857922 0.02610767777843559 0 -0.28132943400820298 0.02911010974414751 0 -0.29656482898857922 0.02610767777843559 0 -0.29344050585463782 0.03493273697686209 0 -0.29656482898857922 0.02610767777843559 0 -0.31039051656375261 0.022327184027059441 0 -0.30541723396373921 0.038711125382435783 0 -0.31039051656375261 0.022327184027059441 0 -0.30541723396373921 0.038711125382435783 0 -0.32038394146944787 0.031620215762440292 0 -0.29656482898857922 0.02610767777843559 0 -0.31039051656375261 0.022327184027059441 0 -0.29997880334656019 0.01439552450637107 0 -0.31039051656375261 0.022327184027059441 0 -0.31177688145040278 0.0050359958776742568 0 -0.29997880334656019 0.01439552450637107 0 -0.2917254884257266 -0.0017566381736345419 0 -0.31177688145040278 0.0050359958776742568 0 -0.29997880334656019 0.01439552450637107 0 -0.27263172987273521 0.051913181220590639 0 -0.28743776060402371 0.060458689408765323 0 -0.28938365460120269 0.05532159347584624 0 -0.28938365460120269 0.05532159347584624 0 -0.29045052645802971 0.045802035002429492 0 -0.29738278035354182 0.050541329601553678 0 -0.28938365460120269 0.05532159347584624 0 -0.29738278035354182 0.050541329601553678 0 -0.29780899910201009 0.056562827273038227 0 -0.29926204670725021 0.066629363318123747 0 -0.28938365460120269 0.05532159347584624 0 -0.29780899910201009 0.056562827273038227 0 -0.28132943400820298 0.02911010974414751 0 -0.28938365460120269 0.05532159347584624 0 -0.29045052645802971 0.045802035002429492 0 -0.28132943400820298 0.02911010974414751 0 -0.28938365460120269 0.05532159347584624 0 -0.28132943400820298 0.02911010974414751 0 -0.29344050585463782 0.03493273697686209 0 -0.29045052645802971 0.045802035002429492 0 -0.29344050585463782 0.03493273697686209 0 -0.29045052645802971 0.045802035002429492 0 -0.30541723396373921 0.038711125382435783 0 -0.29045052645802971 0.045802035002429492 0 -0.30541723396373921 0.038711125382435783 0 -0.29738278035354182 0.050541329601553678 0 -0.29045052645802971 0.045802035002429492 0 -0.30541723396373921 0.038711125382435783 0 -0.29656482898857922 0.02610767777843559 0 -0.29344050585463782 0.03493273697686209 0 -0.30541723396373921 0.038711125382435783 0 -0.30541723396373921 0.038711125382435783 0 -0.30520751474604563 0.05375902269662923 0 -0.31780711793698518 0.045521831715634557 0 -0.29926204670725021 0.066629363318123747 0 -0.30520751474604563 0.05375902269662923 0 -0.31697319293959142 0.061410437985649477 0 -0.30541723396373921 0.038711125382435783 0 -0.30520751474604563 0.05375902269662923 0 -0.29738278035354182 0.050541329601553678 0 -0.30520751474604563 0.05375902269662923 0 -0.29738278035354182 0.050541329601553678 0 -0.29780899910201009 0.056562827273038227 0 -0.29926204670725021 0.066629363318123747 0 -0.30520751474604563 0.05375902269662923 0 -0.29780899910201009 0.056562827273038227 0 -0.32553678940662539 0.052415823907368687 0 -0.31780711793698518 0.045521831715634557 0 -0.33422422494732851 0.04449049745268327 0 -0.31697319293959142 0.061410437985649477 0 -0.32553678940662539 0.052415823907368687 0 -0.31780711793698518 0.045521831715634557 0 -0.30520751474604563 0.05375902269662923 0 -0.31697319293959142 0.061410437985649477 0 -0.31780711793698518 0.045521831715634557 0 -0.31697319293959142 0.061410437985649477 0 -0.32808937753058609 0.059947696530402161 0 -0.32553678940662539 0.052415823907368687 0 -0.31780711793698518 0.045521831715634557 0 -0.32038394146944787 0.031620215762440292 0 -0.33422422494732851 0.04449049745268327 0 -0.30541723396373921 0.038711125382435783 0 -0.31780711793698518 0.045521831715634557 0 -0.32038394146944787 0.031620215762440292 0 -0.30541723396373921 0.038711125382435783 0 -0.32038394146944787 0.031620215762440292 0 -0.32038394146944787 0.031620215762440292 0 -0.33422422494732851 0.04449049745268327 0 -0.33422422494732851 0.04449049745268327 0 -0.34051642268078958 0.02208187176518148 0 -0.34924074101412461 0.03711639968071382 0 -0.32038394146944787 0.031620215762440292 0 -0.33422422494732851 0.04449049745268327 0 -0.34051642268078958 0.02208187176518148 0 -0.33422422494732851 0.04449049745268327 0 -0.34715076893326918 0.04673829876922056 0 -0.34924074101412461 0.03711639968071382 0 -0.33422422494732851 0.04449049745268327 0 -0.34806450842520742 0.057360779142928031 0 -0.34715076893326918 0.04673829876922056 0 -0.33422422494732851 0.04449049745268327 0 -0.34806450842520742 0.057360779142928031 0 -0.33422422494732851 0.04449049745268327 0 -0.33482930480244999 0.055095026294593591 0 -0.34806450842520742 0.057360779142928031 0 -0.3407399656121517 0.06083029771636933 0 -0.33482930480244999 0.055095026294593591 0 -0.33440717105718593 0.063083878638897639 0 -0.3407399656121517 0.06083029771636933 0 -0.33482930480244999 0.055095026294593591 0 -0.34806450842520742 0.057360779142928031 0 -0.32808937753058609 0.059947696530402161 0 -0.33482930480244999 0.055095026294593591 0 -0.33440717105718593 0.063083878638897639 0 -0.32808937753058609 0.059947696530402161 0 -0.32553678940662539 0.052415823907368687 0 -0.33482930480244999 0.055095026294593591 0 -0.32553678940662539 0.052415823907368687 0 -0.33422422494732851 0.04449049745268327 0 -0.33482930480244999 0.055095026294593591 0 -0.31039051656375261 0.022327184027059441 0 -0.31177688145040278 0.0050359958776742568 0 -0.3261420213634148 0.01391490981329808 0 -0.32828291010712762 -0.0049346835118845543 0 -0.31177688145040278 0.0050359958776742568 0 -0.3261420213634148 0.01391490981329808 0 -0.31039051656375261 0.022327184027059441 0 -0.32038394146944787 0.031620215762440292 0 -0.3261420213634148 0.01391490981329808 0 -0.31039051656375261 0.022327184027059441 0 -0.32038394146944787 0.031620215762440292 0 -0.32038394146944787 0.031620215762440292 0 -0.34051642268078958 0.02208187176518148 0 -0.32038394146944787 0.031620215762440292 0 -0.3261420213634148 0.01391490981329808 0 -0.34051642268078958 0.02208187176518148 0 -0.3261420213634148 0.01391490981329808 0 -0.34051642268078958 0.02208187176518148 0 -0.34055428987364128 0.0059527955302196532 0 -0.32828291010712762 -0.0049346835118845543 0 -0.3261420213634148 0.01391490981329808 0 -0.34055428987364128 0.0059527955302196532 0 -0.34051642268078958 0.02208187176518148 0 -0.34055428987364128 0.0059527955302196532 0 -0.36064890389212972 0.0125435277679194 0 -0.34718119132474479 -0.01384164818341615 0 -0.34055428987364128 0.0059527955302196532 0 -0.36064890389212972 0.0125435277679194 0 -0.34051642268078958 0.02208187176518148 0 -0.36064890389212972 0.0125435277679194 0 -0.34051642268078958 0.02208187176518148 0 -0.35699945364537122 0.027147445145089769 0 -0.34924074101412461 0.03711639968071382 0 -0.34051642268078958 0.02208187176518148 0 -0.35699945364537122 0.027147445145089769 0 -0.36064890389212972 0.0125435277679194 0 -0.35699945364537122 0.027147445145089769 0 -0.36163302121541668 0.029781402687577421 0 -0.35940737946489582 0.035374977024224222 0 -0.37998819155715241 0.0057865511937031933 0 -0.36738966121720701 0.029980518529024301 0 -0.37123175334181557 0.027162262264614271 0 -0.37998819155715241 0.0057865511937031933 0 -0.36738966121720701 0.029980518529024301 0 -0.3645477689834325 0.020181962352102071 0 -0.37998819155715241 0.0057865511937031933 0 -0.36738966121720701 0.029980518529024301 0 -0.36273559053419291 0.026622670051971411 0 -0.36738966121720701 0.029980518529024301 0 -0.3645477689834325 0.020181962352102071 0 -0.35699945364537122 0.027147445145089769 0 -0.36163302121541668 0.029781402687577421 0 -0.36273559053419291 0.026622670051971411 0 -0.35699945364537122 0.027147445145089769 0 -0.36273559053419291 0.026622670051971411 0 -0.3645477689834325 0.020181962352102071 0 -0.36163302121541668 0.029781402687577421 0 -0.36273559053419291 0.026622670051971411 0 -0.36738966121720701 0.029980518529024301 0 -0.35699945364537122 0.027147445145089769 0 -0.3645477689834325 0.020181962352102071 0 -0.36064890389212972 0.0125435277679194 0 -0.3645477689834325 0.020181962352102071 0 -0.36064890389212972 0.0125435277679194 0 -0.37998819155715241 0.0057865511937031933 0 -0.3645477689834325 0.020181962352102071 0 -0.36064890389212972 0.0125435277679194 0 -0.38683543611469601 0.0001369023841863784 0 -0.36064890389212972 0.0125435277679194 0 -0.37474494217865062 -0.0022388935110706832 0 -0.38683543611469601 0.0001369023841863784 0 -0.36064890389212972 0.0125435277679194 0 -0.37474494217865062 -0.0022388935110706832 0 -0.36307869926690151 -0.00068504054922277494 0 -0.36064890389212972 0.0125435277679194 0 -0.35479113087726238 0.05417448586434577 0 -0.34715076893326918 0.04673829876922056 0 -0.35593663516940488 0.04278932274017315 0 -0.35479113087726238 0.05417448586434577 0 -0.35147867423579721 0.06053566178096708 0 -0.3622197730044176 0.060127746183944272 0 -0.35479113087726238 0.05417448586434577 0 -0.35147867423579721 0.06053566178096708 0 -0.35479113087726238 0.05417448586434577 0 -0.34806450842520742 0.057360779142928031 0 -0.35147867423579721 0.06053566178096708 0 -0.35479113087726238 0.05417448586434577 0 -0.34806450842520742 0.057360779142928031 0 -0.34806450842520742 0.057360779142928031 0 -0.35147867423579721 0.06053566178096708 0 -0.3447014191436914 0.063951910484466787 0 -0.34806450842520742 0.057360779142928031 0 -0.35147867423579721 0.06053566178096708 0 -0.3407399656121517 0.06083029771636933 0 -0.34806450842520742 0.057360779142928031 0 -0.3407399656121517 0.06083029771636933 0 -0.34806450842520742 0.057360779142928031 0 -0.3447014191436914 0.063951910484466787 0 -0.35479113087726238 0.05417448586434577 0 -0.34806450842520742 0.057360779142928031 0 -0.34715076893326918 0.04673829876922056 0 -0.34715076893326918 0.04673829876922056 0 -0.34924074101412461 0.03711639968071382 0 -0.35593663516940488 0.04278932274017315 0 -0.36738966121720701 0.029980518529024301 0 -0.35479113087726238 0.05417448586434577 0 -0.35593663516940488 0.04278932274017315 0 -0.35699945364537122 0.027147445145089769 0 -0.34924074101412461 0.03711639968071382 0 -0.35940737946489582 0.035374977024224222 0 -0.34924074101412461 0.03711639968071382 0 -0.35593663516940488 0.04278932274017315 0 -0.35940737946489582 0.035374977024224222 0 -0.36738966121720701 0.029980518529024301 0 -0.35479113087726238 0.05417448586434577 0 -0.36677646394688163 0.041367990420506082 0 -0.37123175334181557 0.027162262264614271 0 -0.37046143272875132 0.04675171495388801 0 -0.36738966121720701 0.029980518529024301 0 -0.35479113087726238 0.05417448586434577 0 -0.37123175334181557 0.027162262264614271 0 -0.36677646394688163 0.041367990420506082 0 -0.37046143272875132 0.04675171495388801 0 -0.3764786745208083 0.032098692741998169 0 -0.37123175334181557 0.027162262264614271 0 -0.37046143272875132 0.04675171495388801 0 -0.36163302121541668 0.029781402687577421 0 -0.36738966121720701 0.029980518529024301 0 -0.35940737946489582 0.035374977024224222 0 -0.36738966121720701 0.029980518529024301 0 -0.35593663516940488 0.04278932274017315 0 -0.35940737946489582 0.035374977024224222 0 -0.36738966121720701 0.029980518529024301 0 -0.37123175334181557 0.027162262264614271 0 -0.36677646394688163 0.041367990420506082 0 -0.36677646394688163 0.041367990420506082 0 -0.37046143272875132 0.04675171495388801 0 -0.36802302346639398 0.047906750352184523 0 -0.36677646394688163 0.041367990420506082 0 -0.36802302346639398 0.047906750352184523 0 -0.37046143272875132 0.04675171495388801 0 -0.37000681959492809 0.05831264468359916 0 -0.36802302346639398 0.047906750352184523 0 -0.37000681959492809 0.05831264468359916 0 -0.37046143272875132 0.04675171495388801 0 -0.36802302346639398 0.047906750352184523 0 -0.37000681959492809 0.05831264468359916 0 -0.37046143272875132 0.04675171495388801 0 -0.36802302346639398 0.047906750352184523 0 -0.35479113087726238 0.05417448586434577 0 -0.36802302346639398 0.047906750352184523 0 -0.35479113087726238 0.05417448586434577 0 -0.36802302346639398 0.047906750352184523 0 -0.3622197730044176 0.060127746183944272 0 -0.35479113087726238 0.05417448586434577 0 -0.36677646394688163 0.041367990420506082 0 -0.36802302346639398 0.047906750352184523 0 -0.36802302346639398 0.047906750352184523 0 -0.3622197730044176 0.060127746183944272 0 -0.37000681959492809 0.05831264468359916 0 -0.35147867423579721 0.06053566178096708 0 -0.36926886504626422 0.077079019973005369 0 -0.3622197730044176 0.060127746183944272 0 -0.37000681959492809 0.05831264468359916 0 -0.36926886504626422 0.077079019973005369 0 -0.37000681959492809 0.05831264468359916 0 -0.36926886504626422 0.077079019973005369 0 -0.37079498002478778 0.078498176574577722 0 -0.36926886504626422 0.077079019973005369 0 -0.34551673285671652 0.071984855543133663 0 -0.36912013352382872 0.080861301107253064 0 -0.37000681959492809 0.05831264468359916 0 -0.37079498002478778 0.078498176574577722 0 -0.37470600383380392 0.082961959162170973 0 -0.35147867423579721 0.06053566178096708 0 -0.3622197730044176 0.060127746183944272 0 -0.36926886504626422 0.077079019973005369 0 -0.37000681959492809 0.05831264468359916 0 -0.37470600383380392 0.082961959162170973 0 -0.37000681959492809 0.05831264468359916 0 -0.36926886504626422 0.077079019973005369 0 -0.36926886504626422 0.077079019973005369 0 -0.37079498002478778 0.078498176574577722 0 -0.34551673285671652 0.071984855543133663 0 -0.34763839367566191 0.079069075487607554 0 -0.36912013352382872 0.080861301107253064 0 -0.34551673285671652 0.071984855543133663 0 -0.36912013352382872 0.080861301107253064 0 -0.35147867423579721 0.06053566178096708 0 -0.36926886504626422 0.077079019973005369 0 -0.34551673285671652 0.071984855543133663 0 -0.34408269824063842 0.074738747125954852 0 -0.34763839367566191 0.079069075487607554 0 -0.34179116264722731 0.080399472229040897 0 -0.34408269824063842 0.074738747125954852 0 -0.34551673285671652 0.071984855543133663 0 -0.34763839367566191 0.079069075487607554 0 -0.34408269824063842 0.074738747125954852 0 -0.34551673285671652 0.071984855543133663 0 -0.35147867423579721 0.06053566178096708 0 -0.34551673285671652 0.071984855543133663 0 -0.3447014191436914 0.063951910484466787 0 -0.35147867423579721 0.06053566178096708 0 -0.34551673285671652 0.071984855543133663 0 -0.34763839367566191 0.079069075487607554 0 -0.36858415035949882 0.094491491786065696 0 -0.34763839367566191 0.079069075487607554 0 -0.36858415035949882 0.094491491786065696 0 -0.35198293914272999 0.094145145766245733 0 -0.34456144318064219 0.08667329674911145 0 -0.34763839367566191 0.079069075487607554 0 -0.35198293914272999 0.094145145766245733 0 -0.34456144318064219 0.08667329674911145 0 -0.35198293914272999 0.094145145766245733 0 -0.34431035454597703 0.093789606507308373 0 -0.34456144318064219 0.08667329674911145 0 -0.34763839367566191 0.079069075487607554 0 -0.34179116264722731 0.080399472229040897 0 -0.3782625711058698 0.101617738696854 0 -0.37470600383380392 0.082961959162170973 0 -0.36858415035949882 0.094491491786065696 0 -0.34763839367566191 0.079069075487607554 0 -0.36912013352382872 0.080861301107253064 0 -0.36858415035949882 0.094491491786065696 0 -0.36926886504626422 0.077079019973005369 0 -0.37079498002478778 0.078498176574577722 0 -0.36912013352382872 0.080861301107253064 0 -0.36926886504626422 0.077079019973005369 0 -0.36912013352382872 0.080861301107253064 0 -0.36912013352382872 0.080861301107253064 0 -0.37470600383380392 0.082961959162170973 0 -0.37079498002478778 0.078498176574577722 0 -0.36912013352382872 0.080861301107253064 0 -0.37470600383380392 0.082961959162170973 0 -0.36912013352382872 0.080861301107253064 0 -0.37470600383380392 0.082961959162170973 0 -0.36858415035949882 0.094491491786065696 0 -0.36912013352382872 0.080861301107253064 0 -0.36858415035949882 0.094491491786065696 0 -0.36858415035949882 0.094491491786065696 0 -0.36747352968705388 0.12273486311700831 0 -0.3782625711058698 0.101617738696854 0 -0.36858415035949882 0.094491491786065696 0 -0.36858415035949882 0.094491491786065696 0 -0.36006702585218792 0.10838608290929221 0 -0.35198293914272999 0.094145145766245733 0 -0.36858415035949882 0.094491491786065696 0 -0.36006702585218792 0.10838608290929221 0 -0.36747352968705388 0.12273486311700831 0 -0.3782625711058698 0.101617738696854 0 -0.36858415035949882 0.094491491786065696 0 -0.36747352968705388 0.12273486311700831 0 -0.36006702585218792 0.10838608290929221 0 -0.36747352968705388 0.12273486311700831 0 -0.35832203275528268 0.1183511860346923 0 -0.35528769071996391 0.12689780186549679 0 -0.36747352968705388 0.12273486311700831 0 -0.35832203275528268 0.1183511860346923 0 -0.35528769071996391 0.12689780186549679 0 -0.35832203275528268 0.1183511860346923 0 -0.35045988476192508 0.115385996246972 0 -0.36006702585218792 0.10838608290929221 0 -0.35832203275528268 0.1183511860346923 0 -0.35045988476192508 0.115385996246972 0 -0.35045988476192508 0.115385996246972 0 -0.34547580274860562 0.10394098399483009 0 -0.33570271963636877 0.11206429961599181 0 -0.35528769071996391 0.12689780186549679 0 -0.35045988476192508 0.115385996246972 0 -0.34115039425197219 0.12498493974687711 0 -0.36006702585218792 0.10838608290929221 0 -0.35198293914272999 0.094145145766245733 0 -0.34547580274860562 0.10394098399483009 0 -0.36006702585218792 0.10838608290929221 0 -0.35045988476192508 0.115385996246972 0 -0.34547580274860562 0.10394098399483009 0 -0.35198293914272999 0.094145145766245733 0 -0.34547580274860562 0.10394098399483009 0 -0.34431035454597703 0.093789606507308373 0 -0.34547580274860562 0.10394098399483009 0 -0.34431035454597703 0.093789606507308373 0 -0.335413749579693 0.097286071719103154 0 -0.34547580274860562 0.10394098399483009 0 -0.335413749579693 0.097286071719103154 0 -0.33570271963636877 0.11206429961599181 0 -0.335413749579693 0.097286071719103154 0 -0.33570271963636877 0.11206429961599181 0 -0.32444247844199348 0.1047035033472971 0 -0.35045988476192508 0.115385996246972 0 -0.34115039425197219 0.12498493974687711 0 -0.33570271963636877 0.11206429961599181 0 -0.32917568526667751 0.12578156900391591 0 -0.33570271963636877 0.11206429961599181 0 -0.32114709127587232 0.11611322513389059 0 -0.32917568526667751 0.12578156900391591 0 -0.34115039425197219 0.12498493974687711 0 -0.33570271963636877 0.11206429961599181 0 -0.31354631638020197 0.13395604467094269 0 -0.30549209578720232 0.10774456093924389 0 -0.32114709127587232 0.11611322513389059 0 -0.30549209578720232 0.10774456093924389 0 -0.32114709127587232 0.11611322513389059 0 -0.32444247844199348 0.1047035033472971 0 -0.33570271963636877 0.11206429961599181 0 -0.32114709127587232 0.11611322513389059 0 -0.32444247844199348 0.1047035033472971 0 -0.30549209578720232 0.10774456093924389 0 -0.32444247844199348 0.1047035033472971 0 -0.32445673593083119 0.090309359328255762 0 -0.30549209578720232 0.10774456093924389 0 -0.32445673593083119 0.090309359328255762 0 -0.31312795334666071 0.083579729522452809 0 -0.335413749579693 0.097286071719103154 0 -0.32444247844199348 0.1047035033472971 0 -0.32445673593083119 0.090309359328255762 0 -0.32445673593083119 0.090309359328255762 0 -0.3275606083710243 0.080211281293741998 0 -0.31312795334666071 0.083579729522452809 0 -0.3275606083710243 0.080211281293741998 0 -0.31312795334666071 0.083579729522452809 0 -0.31976082328641481 0.073112182403608325 0 -0.30931237829482389 0.073252958087475881 0 -0.31312795334666071 0.083579729522452809 0 -0.31976082328641481 0.073112182403608325 0 -0.30931237829482389 0.073252958087475881 0 -0.31697319293959142 0.061410437985649477 0 -0.31976082328641481 0.073112182403608325 0 -0.31697319293959142 0.061410437985649477 0 -0.31976082328641481 0.073112182403608325 0 -0.32886731949388731 0.069155273298144179 0 -0.31697319293959142 0.061410437985649477 0 -0.32808937753058609 0.059947696530402161 0 -0.32886731949388731 0.069155273298144179 0 -0.3275606083710243 0.080211281293741998 0 -0.31976082328641481 0.073112182403608325 0 -0.32886731949388731 0.069155273298144179 0 -0.32886731949388731 0.069155273298144179 0 -0.33770721458858299 0.069047958238937293 0 -0.336378655355973 0.076693290193422539 0 -0.3275606083710243 0.080211281293741998 0 -0.32886731949388731 0.069155273298144179 0 -0.336378655355973 0.076693290193422539 0 -0.33440717105718593 0.063083878638897639 0 -0.32886731949388731 0.069155273298144179 0 -0.33770721458858299 0.069047958238937293 0 -0.32808937753058609 0.059947696530402161 0 -0.33440717105718593 0.063083878638897639 0 -0.32886731949388731 0.069155273298144179 0 -0.3407399656121517 0.06083029771636933 0 -0.33440717105718593 0.063083878638897639 0 -0.33770721458858299 0.069047958238937293 0 -0.3407399656121517 0.06083029771636933 0 -0.3447014191436914 0.063951910484466787 0 -0.33770721458858299 0.069047958238937293 0 -0.34551673285671652 0.071984855543133663 0 -0.3447014191436914 0.063951910484466787 0 -0.33770721458858299 0.069047958238937293 0 -0.34408269824063842 0.074738747125954852 0 -0.33770721458858299 0.069047958238937293 0 -0.336378655355973 0.076693290193422539 0 -0.34408269824063842 0.074738747125954852 0 -0.34551673285671652 0.071984855543133663 0 -0.33770721458858299 0.069047958238937293 0 -0.34551673285671652 0.071984855543133663 0 -0.33770721458858299 0.069047958238937293 0 -0.34408269824063842 0.074738747125954852 0 -0.336378655355973 0.076693290193422539 0 -0.34179116264722731 0.080399472229040897 0 -0.336378655355973 0.076693290193422539 0 -0.34179116264722731 0.080399472229040897 0 -0.33708436589161489 0.085963183755354639 0 -0.34456144318064219 0.08667329674911145 0 -0.34179116264722731 0.080399472229040897 0 -0.33708436589161489 0.085963183755354639 0 -0.34456144318064219 0.08667329674911145 0 -0.34431035454597703 0.093789606507308373 0 -0.33708436589161489 0.085963183755354639 0 -0.34431035454597703 0.093789606507308373 0 -0.335413749579693 0.097286071719103154 0 -0.33708436589161489 0.085963183755354639 0 -0.335413749579693 0.097286071719103154 0 -0.32445673593083119 0.090309359328255762 0 -0.33708436589161489 0.085963183755354639 0 -0.32445673593083119 0.090309359328255762 0 -0.3275606083710243 0.080211281293741998 0 -0.33708436589161489 0.085963183755354639 0 -0.3275606083710243 0.080211281293741998 0 -0.336378655355973 0.076693290193422539 0 -0.33708436589161489 0.085963183755354639 0 -0.38891458820749281 0.47713565504117422 0 -0.42172655890518862 0.5 0 -0.3640375775585698 0.5 0 -0.38891458820749281 0.47713565504117422 0 -0.37103467036260362 0.45695891695805302 0 -0.36943712044780219 0.47475959506207249 0 -0.39694697642853649 0.45370639251272787 0 -0.37103467036260362 0.45695891695805302 0 -0.38891458820749281 0.47713565504117422 0 -0.39694697642853649 0.45370639251272787 0 -0.37103467036260362 0.45695891695805302 0 -0.38249991962136642 0.44345487931465249 0 -0.39694697642853649 0.45370639251272787 0 -0.37103467036260362 0.45695891695805302 0 -0.38249991962136642 0.44345487931465249 0 -0.39694697642853649 0.45370639251272787 0 -0.40464661760035381 0.43350824459614162 0 -0.38891458820749281 0.47713565504117422 0 -0.39694697642853649 0.45370639251272787 0 -0.41631826774707797 0.4711213942969617 0 -0.39694697642853649 0.45370639251272787 0 -0.42285928249446952 0.45045386806740279 0 -0.41631826774707797 0.4711213942969617 0 -0.42285928249446952 0.45045386806740279 0 -0.42501824733507809 0.43459816807542118 0 -0.40464661760035381 0.43350824459614162 0 -0.39694697642853649 0.45370639251272787 0 -0.42285928249446952 0.45045386806740279 0 -0.39694697642853649 0.45370639251272787 0 -0.42285928249446952 0.45045386806740279 0 -0.40464661760035381 0.43350824459614162 0 -0.42285928249446952 0.45045386806740279 0 -0.43521244088076849 0.46107148678855758 0 -0.44877158856040261 0.44720134362207808 0 -0.42285928249446952 0.45045386806740279 0 -0.44877158856040261 0.44720134362207808 0 -0.42285928249446952 0.45045386806740279 0 -0.43592409671607729 0.44045812782560079 0 -0.44877158856040261 0.44720134362207808 0 -0.42285928249446952 0.45045386806740279 0 -0.43592409671607729 0.44045812782560079 0 -0.42501824733507809 0.43459816807542118 0 -0.42285928249446952 0.45045386806740279 0 -0.43521244088076849 0.46107148678855758 0 -0.41631826774707797 0.4711213942969617 0 -0.41631826774707797 0.4711213942969617 0 -0.42172655890518862 0.5 0 -0.43935827984199688 0.47473889959161758 0 -0.43521244088076849 0.46107148678855758 0 -0.41631826774707797 0.4711213942969617 0 -0.43935827984199688 0.47473889959161758 0 -0.38891458820749281 0.47713565504117422 0 -0.41631826774707797 0.4711213942969617 0 -0.42172655890518862 0.5 0 -0.42172655890518862 0.5 0 -0.43935827984199688 0.47473889959161758 0 -0.47784082473980471 0.47626967285504462 0 -0.42172655890518862 0.5 0 -0.5 0.5 0 -0.47784082473980471 0.47626967285504462 0 -0.43935827984199688 0.47473889959161758 0 -0.47784082473980471 0.47626967285504462 0 -0.4487547857598953 0.46184192836472759 0 -0.5 0.5 0 -0.47784082473980471 0.47626967285504462 0 -0.49999999999999589 0.44077113011354369 0 -0.47784082473980471 0.47626967285504462 0 -0.47438579428019922 0.44398623686781052 0 -0.4627013265822788 0.4545376326069438 0 -0.47784082473980471 0.47626967285504462 0 -0.49999999999999589 0.44077113011354369 0 -0.47438579428019922 0.44398623686781052 0 -0.49999999999999589 0.44077113011354369 0 -0.47438579428019922 0.44398623686781052 0 -0.48180565015534738 0.42787197640755792 0 -0.49999999999999589 0.44077113011354369 0 -0.47438579428019922 0.44398623686781052 0 -0.47438579428019922 0.44398623686781052 0 -0.4627013265822788 0.4545376326069438 0 -0.44877158856040261 0.44720134362207808 0 -0.47438579428019922 0.44398623686781052 0 -0.44877158856040261 0.44720134362207808 0 -0.47438579428019922 0.44398623686781052 0 -0.44877158856040261 0.44720134362207808 0 -0.46289485375526918 0.43579199928955081 0 -0.44877158856040261 0.44720134362207808 0 -0.44878504691792248 0.43547483269414872 0 -0.46289485375526918 0.43579199928955081 0 -0.47784082473980471 0.47626967285504462 0 -0.4627013265822788 0.4545376326069438 0 -0.4487547857598953 0.46184192836472759 0 -0.4627013265822788 0.4545376326069438 0 -0.4487547857598953 0.46184192836472759 0 -0.44877158856040261 0.44720134362207808 0 -0.4487547857598953 0.46184192836472759 0 -0.44877158856040261 0.44720134362207808 0 -0.43521244088076849 0.46107148678855758 0 -0.4487547857598953 0.46184192836472759 0 -0.44877158856040261 0.44720134362207808 0 -0.43521244088076849 0.46107148678855758 0 -0.43935827984199688 0.47473889959161758 0 -0.4487547857598953 0.46184192836472759 0 -0.44877158856040261 0.44720134362207808 0 -0.44508566455651338 0.43839632914573512 0 -0.44878504691792248 0.43547483269414872 0 -0.44877158856040261 0.44720134362207808 0 -0.44878504691792248 0.43547483269414872 0 -0.43592409671607729 0.44045812782560079 0 -0.44877158856040261 0.44720134362207808 0 -0.44508566455651338 0.43839632914573512 0 -0.44531233658805403 0.42513554986162888 0 -0.44878504691792248 0.43547483269414872 0 -0.44880957839306629 0.41410011360809668 0 -0.44878504691792248 0.43547483269414872 0 -0.44880957839306629 0.41410011360809668 0 -0.43788570063392329 0.43164093021736671 0 -0.44531233658805403 0.42513554986162888 0 -0.44878504691792248 0.43547483269414872 0 -0.43592409671607729 0.44045812782560079 0 -0.44508566455651338 0.43839632914573512 0 -0.43788570063392329 0.43164093021736671 0 -0.44508566455651338 0.43839632914573512 0 -0.43788570063392329 0.43164093021736671 0 -0.44878504691792248 0.43547483269414872 0 -0.44508566455651338 0.43839632914573512 0 -0.44878504691792248 0.43547483269414872 0 -0.44531233658805403 0.42513554986162888 0 -0.44880957839306629 0.41410011360809668 0 -0.42391867717568832 0.41711337076656618 0 -0.44880957839306629 0.41410011360809668 0 -0.46585669794528167 0.42199291516666237 0 -0.4641229039382897 0.40091036417177778 0 -0.44878504691792248 0.43547483269414872 0 -0.46585669794528167 0.42199291516666237 0 -0.44878504691792248 0.43547483269414872 0 -0.44880957839306629 0.41410011360809668 0 -0.46585669794528167 0.42199291516666237 0 -0.44878504691792248 0.43547483269414872 0 -0.46585669794528167 0.42199291516666237 0 -0.46289485375526918 0.43579199928955081 0 -0.47438579428019922 0.44398623686781052 0 -0.46289485375526918 0.43579199928955081 0 -0.48180565015534738 0.42787197640755792 0 -0.46585669794528167 0.42199291516666237 0 -0.46289485375526918 0.43579199928955081 0 -0.48180565015534738 0.42787197640755792 0 -0.46585669794528167 0.42199291516666237 0 -0.48292834897264081 0.4085109976391762 0 -0.4641229039382897 0.40091036417177778 0 -0.46585669794528167 0.42199291516666237 0 -0.48292834897264081 0.4085109976391762 0 -0.46585669794528167 0.42199291516666237 0 -0.48180565015534738 0.42787197640755792 0 -0.48292834897264081 0.4085109976391762 0 -0.48292834897264081 0.4085109976391762 0 -0.5 0.41790010511261683 0 -0.5 0.39502908011169002 0 -0.48180565015534738 0.42787197640755792 0 -0.48292834897264081 0.4085109976391762 0 -0.5 0.41790010511261683 0 -0.49999999999999589 0.44077113011354369 0 -0.48180565015534738 0.42787197640755792 0 -0.5 0.41790010511261683 0 -0.48850556386005051 0.3766603246979251 0 -0.5 0.39502908011169002 0 -0.47832653283541199 0.38608194873200979 0 -0.48850556386005051 0.3766603246979251 0 -0.5 0.39502908011169002 0 -0.5 0.36887446842263683 0 -0.48292834897264081 0.4085109976391762 0 -0.5 0.39502908011169002 0 -0.47832653283541199 0.38608194873200979 0 -0.48292834897264081 0.4085109976391762 0 -0.5 0.39502908011169002 0 -0.48292834897264081 0.4085109976391762 0 -0.47832653283541199 0.38608194873200979 0 -0.4641229039382897 0.40091036417177778 0 -0.48850556386005051 0.3766603246979251 0 -0.47832653283541199 0.38608194873200979 0 -0.48259334700195489 0.36409898273387958 0 -0.47832653283541199 0.38608194873200979 0 -0.46059005399087027 0.38292215568240928 0 -0.4641229039382897 0.40091036417177778 0 -0.47832653283541199 0.38608194873200979 0 -0.46059005399087027 0.38292215568240928 0 -0.46572599417265398 0.36772482908493609 0 -0.44880957839306629 0.41410011360809668 0 -0.4641229039382897 0.40091036417177778 0 -0.44883410986820999 0.3927253945220448 0 -0.46059005399087027 0.38292215568240928 0 -0.4641229039382897 0.40091036417177778 0 -0.44883410986820999 0.3927253945220448 0 -0.44880957839306629 0.41410011360809668 0 -0.44883410986820999 0.3927253945220448 0 -0.43699833754743561 0.40294499431243458 0 -0.44880957839306629 0.41410011360809668 0 -0.44883410986820999 0.3927253945220448 0 -0.44883410986820999 0.3927253945220448 0 -0.43978391516082421 0.3912231797547942 0 -0.43699833754743561 0.40294499431243458 0 -0.44883410986820999 0.3927253945220448 0 -0.43978391516082421 0.3912231797547942 0 -0.44802713623065987 0.37645115623263098 0 -0.44883410986820999 0.3927253945220448 0 -0.44885864134335329 0.37135067543599282 0 -0.44883410986820999 0.3927253945220448 0 -0.44802713623065987 0.37645115623263098 0 -0.44885864134335329 0.37135067543599282 0 -0.43978391516082421 0.3912231797547942 0 -0.44802713623065987 0.37645115623263098 0 -0.42527607699699133 0.39277117395206662 0 -0.46059005399087027 0.38292215568240928 0 -0.44883410986820999 0.3927253945220448 0 -0.44885864134335329 0.37135067543599282 0 -0.44802713623065987 0.37645115623263098 0 -0.4250431626101242 0.37647010748543319 0 -0.42527607699699133 0.39277117395206662 0 -0.44802713623065987 0.37645115623263098 0 -0.42527607699699133 0.39277117395206662 0 -0.4250431626101242 0.37647010748543319 0 -0.4134887672477453 0.38574914578498593 0 -0.40122768387689522 0.38158953953487368 0 -0.4250431626101242 0.37647010748543319 0 -0.40122768387689522 0.38158953953487368 0 -0.4250431626101242 0.37647010748543319 0 -0.4134887672477453 0.38574914578498593 0 -0.42527607699699133 0.39277117395206662 0 -0.4250431626101242 0.37647010748543319 0 -0.40122768387689522 0.38158953953487368 0 -0.40086489287733429 0.37467411733839928 0 -0.4134887672477453 0.38574914578498593 0 -0.40798835104355652 0.39359067917546098 0 -0.40557429982823212 0.38794008425198068 0 -0.4134887672477453 0.38574914578498593 0 -0.40122768387689522 0.38158953953487368 0 -0.40557429982823212 0.38794008425198068 0 -0.40798835104355652 0.39359067917546098 0 -0.42527607699699133 0.39277117395206662 0 -0.40252501776332311 0.40909119167150271 0 -0.42527607699699133 0.39277117395206662 0 -0.40252501776332311 0.40909119167150271 0 -0.4134887672477453 0.38574914578498593 0 -0.40798835104355652 0.39359067917546098 0 -0.42527607699699133 0.39277117395206662 0 -0.42527607699699133 0.39277117395206662 0 -0.43699833754743561 0.40294499431243458 0 -0.42391867717568832 0.41711337076656618 0 -0.43978391516082421 0.3912231797547942 0 -0.42527607699699133 0.39277117395206662 0 -0.43699833754743561 0.40294499431243458 0 -0.44880957839306629 0.41410011360809668 0 -0.43699833754743561 0.40294499431243458 0 -0.42391867717568832 0.41711337076656618 0 -0.44531233658805403 0.42513554986162888 0 -0.42391867717568832 0.41711337076656618 0 -0.43788570063392329 0.43164093021736671 0 -0.44531233658805403 0.42513554986162888 0 -0.42391867717568832 0.41711337076656618 0 -0.43788570063392329 0.43164093021736671 0 -0.42391867717568832 0.41711337076656618 0 -0.42501824733507809 0.43459816807542118 0 -0.43592409671607729 0.44045812782560079 0 -0.43788570063392329 0.43164093021736671 0 -0.42501824733507809 0.43459816807542118 0 -0.42391867717568832 0.41711337076656618 0 -0.42501824733507809 0.43459816807542118 0 -0.40464661760035381 0.43350824459614162 0 -0.42527607699699133 0.39277117395206662 0 -0.42391867717568832 0.41711337076656618 0 -0.40252501776332311 0.40909119167150271 0 -0.42391867717568832 0.41711337076656618 0 -0.40252501776332311 0.40909119167150271 0 -0.40464661760035381 0.43350824459614162 0 -0.42391867717568832 0.41711337076656618 0 -0.40252501776332311 0.40909119167150271 0 -0.40252501776332311 0.40909119167150271 0 -0.37875820238401509 0.42613984176471847 0 -0.40252501776332311 0.40909119167150271 0 -0.40464661760035381 0.43350824459614162 0 -0.37875820238401509 0.42613984176471847 0 -0.38249991962136642 0.44345487931465249 0 -0.40464661760035381 0.43350824459614162 0 -0.37875820238401509 0.42613984176471847 0 -0.40252501776332311 0.40909119167150271 0 -0.37875820238401509 0.42613984176471847 0 -0.37769092578324193 0.39977892163450779 0 -0.37769092578324193 0.39977892163450779 0 -0.38963770449155072 0.39285491215608792 0 -0.37686086334024771 0.38257038446795849 0 -0.40252501776332311 0.40909119167150271 0 -0.37769092578324193 0.39977892163450779 0 -0.38963770449155072 0.39285491215608792 0 -0.40252501776332311 0.40909119167150271 0 -0.37769092578324193 0.39977892163450779 0 -0.37686086334024771 0.38257038446795849 0 -0.39363670834615189 0.38450398520198442 0 -0.40086489287733429 0.37467411733839928 0 -0.38963770449155072 0.39285491215608792 0 -0.37686086334024771 0.38257038446795849 0 -0.39363670834615189 0.38450398520198442 0 -0.37686086334024771 0.38257038446795849 0 -0.40086489287733429 0.37467411733839928 0 -0.37686086334024771 0.38257038446795849 0 -0.40086489287733429 0.37467411733839928 0 -0.39033592763893787 0.37070590072739279 0 -0.39363670834615189 0.38450398520198442 0 -0.40122768387689522 0.38158953953487368 0 -0.39959239714473138 0.39083097251260251 0 -0.38963770449155072 0.39285491215608792 0 -0.39363670834615189 0.38450398520198442 0 -0.39959239714473138 0.39083097251260251 0 -0.39363670834615189 0.38450398520198442 0 -0.40122768387689522 0.38158953953487368 0 -0.40086489287733429 0.37467411733839928 0 -0.40122768387689522 0.38158953953487368 0 -0.40557429982823212 0.38794008425198068 0 -0.39959239714473138 0.39083097251260251 0 -0.40798835104355652 0.39359067917546098 0 -0.40557429982823212 0.38794008425198068 0 -0.39959239714473138 0.39083097251260251 0 -0.40252501776332311 0.40909119167150271 0 -0.38963770449155072 0.39285491215608792 0 -0.39959239714473138 0.39083097251260251 0 -0.40798835104355652 0.39359067917546098 0 -0.40252501776332311 0.40909119167150271 0 -0.39959239714473138 0.39083097251260251 0 -0.3926828114571661 0.35541775914535301 0 -0.40105078960399698 0.34662517948293931 0 -0.40586906590548888 0.3393029225754271 0 -0.3926828114571661 0.35541775914535301 0 -0.39400561065841477 0.34382680172727831 0 -0.40586906590548888 0.3393029225754271 0 -0.3926828114571661 0.35541775914535301 0 -0.40586906590548888 0.3393029225754271 0 -0.3926828114571661 0.35541775914535301 0 -0.39969836615416421 0.35756427730283669 0 -0.39341808057325789 0.36431669671432632 0 -0.3926828114571661 0.35541775914535301 0 -0.40105078960399698 0.34662517948293931 0 -0.39969836615416421 0.35756427730283669 0 -0.3926828114571661 0.35541775914535301 0 -0.39400561065841477 0.34382680172727831 0 -0.38539473684528258 0.34837828204789067 0 -0.40105078960399698 0.34662517948293931 0 -0.40525205349158999 0.35429039595711992 0 -0.40888688292129022 0.34941903462410451 0 -0.40105078960399698 0.34662517948293931 0 -0.4080564418273247 0.34368885170405422 0 -0.40888688292129022 0.34941903462410451 0 -0.40105078960399698 0.34662517948293931 0 -0.40525205349158999 0.35429039595711992 0 -0.39969836615416421 0.35756427730283669 0 -0.40525205349158999 0.35429039595711992 0 -0.39969836615416421 0.35756427730283669 0 -0.40553625032349627 0.36037170931698131 0 -0.40553625032349627 0.36037170931698131 0 -0.40544017780568847 0.3661562974108753 0 -0.40025021147547779 0.36436392320030081 0 -0.40544017780568847 0.3661562974108753 0 -0.40025021147547779 0.36436392320030081 0 -0.397742957241214 0.36844985128713797 0 -0.39969836615416421 0.35756427730283669 0 -0.40553625032349627 0.36037170931698131 0 -0.40025021147547779 0.36436392320030081 0 -0.40544017780568847 0.3661562974108753 0 -0.40086489287733429 0.37467411733839928 0 -0.397742957241214 0.36844985128713797 0 -0.40086489287733429 0.37467411733839928 0 -0.397742957241214 0.36844985128713797 0 -0.39033592763893787 0.37070590072739279 0 -0.397742957241214 0.36844985128713797 0 -0.39341808057325789 0.36431669671432632 0 -0.39033592763893787 0.37070590072739279 0 -0.39969836615416421 0.35756427730283669 0 -0.40025021147547779 0.36436392320030081 0 -0.39341808057325789 0.36431669671432632 0 -0.40025021147547779 0.36436392320030081 0 -0.397742957241214 0.36844985128713797 0 -0.39341808057325789 0.36431669671432632 0 -0.3926828114571661 0.35541775914535301 0 -0.39341808057325789 0.36431669671432632 0 -0.37949655700884349 0.37153259571527891 0 -0.37949655700884349 0.37153259571527891 0 -0.37823932191431281 0.35548757599615399 0 -0.37024808467873749 0.36543132639488701 0 -0.3926828114571661 0.35541775914535301 0 -0.37949655700884349 0.37153259571527891 0 -0.37823932191431281 0.35548757599615399 0 -0.3926828114571661 0.35541775914535301 0 -0.37949655700884349 0.37153259571527891 0 -0.39341808057325789 0.36431669671432632 0 -0.39033592763893787 0.37070590072739279 0 -0.37949655700884349 0.37153259571527891 0 -0.37686086334024771 0.38257038446795849 0 -0.39033592763893787 0.37070590072739279 0 -0.37949655700884349 0.37153259571527891 0 -0.37823932191431281 0.35548757599615399 0 -0.38539473684528258 0.34837828204789067 0 -0.3787015959315434 0.33902802614693439 0 -0.3926828114571661 0.35541775914535301 0 -0.37823932191431281 0.35548757599615399 0 -0.38539473684528258 0.34837828204789067 0 -0.3787015959315434 0.33902802614693439 0 -0.37816355277066899 0.32985684687273281 0 -0.39158393304450312 0.32769252248945308 0 -0.39400561065841477 0.34382680172727831 0 -0.38539473684528258 0.34837828204789067 0 -0.3787015959315434 0.33902802614693439 0 -0.39158393304450312 0.32769252248945308 0 -0.37442838800096029 0.32044424157556423 0 -0.37816355277066899 0.32985684687273281 0 -0.39158393304450312 0.32769252248945308 0 -0.37442838800096029 0.32044424157556423 0 -0.38613629988198012 0.31665983269396758 0 -0.39158393304450312 0.32769252248945308 0 -0.37442838800096029 0.32044424157556423 0 -0.38613629988198012 0.31665983269396758 0 -0.37442838800096029 0.32044424157556423 0 -0.37415321332832258 0.31386652142517069 0 -0.39158393304450312 0.32769252248945308 0 -0.4039094095666334 0.320812311378052 0 -0.40925887999808552 0.33516025262174892 0 -0.38613629988198012 0.31665983269396758 0 -0.39830358576524327 0.31266849694114901 0 -0.39158393304450312 0.32769252248945308 0 -0.39830358576524327 0.31266849694114901 0 -0.39158393304450312 0.32769252248945308 0 -0.4039094095666334 0.320812311378052 0 -0.39830358576524327 0.31266849694114901 0 -0.4039094095666334 0.320812311378052 0 -0.40826549608127172 0.31275764886218971 0 -0.3787015959315434 0.33902802614693439 0 -0.40777024278950652 0.33697950655941222 0 -0.39158393304450312 0.32769252248945308 0 -0.40925887999808552 0.33516025262174892 0 -0.39158393304450312 0.32769252248945308 0 -0.40777024278950652 0.33697950655941222 0 -0.40925887999808552 0.33516025262174892 0 -0.3787015959315434 0.33902802614693439 0 -0.39158393304450312 0.32769252248945308 0 -0.40777024278950652 0.33697950655941222 0 -0.39400561065841477 0.34382680172727831 0 -0.3787015959315434 0.33902802614693439 0 -0.40777024278950652 0.33697950655941222 0 -0.39400561065841477 0.34382680172727831 0 -0.40586906590548888 0.3393029225754271 0 -0.40777024278950652 0.33697950655941222 0 -0.40105078960399698 0.34662517948293931 0 -0.40586906590548888 0.3393029225754271 0 -0.40105078960399698 0.34662517948293931 0 -0.40586906590548888 0.3393029225754271 0 -0.4080564418273247 0.34368885170405422 0 -0.4080564418273247 0.34368885170405422 0 -0.41125860555200922 0.34134685969384471 0 -0.40895905381070002 0.33957121871677393 0 -0.40586906590548888 0.3393029225754271 0 -0.4080564418273247 0.34368885170405422 0 -0.40895905381070002 0.33957121871677393 0 -0.4080564418273247 0.34368885170405422 0 -0.41125860555200922 0.34134685969384471 0 -0.41366919887348358 0.34576378073699821 0 -0.41125860555200922 0.34134685969384471 0 -0.41273643032526569 0.33662953043248711 0 -0.41433336845197538 0.3415594658204692 0 -0.41125860555200922 0.34134685969384471 0 -0.41433336845197538 0.3415594658204692 0 -0.41366919887348358 0.34576378073699821 0 -0.41125860555200922 0.34134685969384471 0 -0.41273643032526569 0.33662953043248711 0 -0.40895905381070002 0.33957121871677393 0 -0.41273643032526569 0.33662953043248711 0 -0.40777024278950652 0.33697950655941222 0 -0.41273643032526569 0.33662953043248711 0 -0.40895905381070002 0.33957121871677393 0 -0.40777024278950652 0.33697950655941222 0 -0.41273643032526569 0.33662953043248711 0 -0.40777024278950652 0.33697950655941222 0 -0.40925887999808552 0.33516025262174892 0 -0.40777024278950652 0.33697950655941222 0 -0.40925887999808552 0.33516025262174892 0 -0.40586906590548888 0.3393029225754271 0 -0.40895905381070002 0.33957121871677393 0 -0.40777024278950652 0.33697950655941222 0 -0.40586906590548888 0.3393029225754271 0 -0.40777024278950652 0.33697950655941222 0 -0.41273643032526569 0.33662953043248711 0 -0.40925887999808552 0.33516025262174892 0 -0.40925887999808552 0.33516025262174892 0 -0.42024067891477529 0.32173946694831868 0 -0.40925887999808552 0.33516025262174892 0 -0.42071708592719742 0.33131558094746122 0 -0.42024067891477529 0.32173946694831868 0 -0.41273643032526569 0.33662953043248711 0 -0.40925887999808552 0.33516025262174892 0 -0.42071708592719742 0.33131558094746122 0 -0.41273643032526569 0.33662953043248711 0 -0.4199209072431685 0.34318781838679219 0 -0.41433336845197538 0.3415594658204692 0 -0.4199209072431685 0.34318781838679219 0 -0.41433336845197538 0.3415594658204692 0 -0.41366919887348358 0.34576378073699821 0 -0.40925887999808552 0.33516025262174892 0 -0.41892768793075841 0.31754462100172592 0 -0.42141481873501418 0.31567829233095179 0 -0.40925887999808552 0.33516025262174892 0 -0.411263050936583 0.31954773430139438 0 -0.41892768793075841 0.31754462100172592 0 -0.40925887999808552 0.33516025262174892 0 -0.42141481873501418 0.31567829233095179 0 -0.40925887999808552 0.33516025262174892 0 -0.42024067891477529 0.32173946694831868 0 -0.42141481873501418 0.31567829233095179 0 -0.411263050936583 0.31954773430139438 0 -0.40826549608127172 0.31275764886218971 0 -0.41647318301620623 0.31168328686166002 0 -0.4039094095666334 0.320812311378052 0 -0.411263050936583 0.31954773430139438 0 -0.40826549608127172 0.31275764886218971 0 -0.4039094095666334 0.320812311378052 0 -0.40925887999808552 0.33516025262174892 0 -0.411263050936583 0.31954773430139438 0 -0.411263050936583 0.31954773430139438 0 -0.41892768793075841 0.31754462100172592 0 -0.41647318301620623 0.31168328686166002 0 -0.41892768793075841 0.31754462100172592 0 -0.42141481873501418 0.31567829233095179 0 -0.41892768793075841 0.31754462100172592 0 -0.42141481873501418 0.31567829233095179 0 -0.41647318301620623 0.31168328686166002 0 -0.42024067891477529 0.32173946694831868 0 -0.43790895006943947 0.32081412042189511 0 -0.43122247783146522 0.30831868127488848 0 -0.42024067891477529 0.32173946694831868 0 -0.42938605365092247 0.3272194948190838 0 -0.43790895006943947 0.32081412042189511 0 -0.42024067891477529 0.32173946694831868 0 -0.42141481873501418 0.31567829233095179 0 -0.43122247783146522 0.30831868127488848 0 -0.42024067891477529 0.32173946694831868 0 -0.43122247783146522 0.30831868127488848 0 -0.42071708592719742 0.33131558094746122 0 -0.42024067891477529 0.32173946694831868 0 -0.42938605365092247 0.3272194948190838 0 -0.42938605365092247 0.3272194948190838 0 -0.43674098495811231 0.33493788649063261 0 -0.43790895006943947 0.32081412042189511 0 -0.43790895006943947 0.32081412042189511 0 -0.4401847358662575 0.3127477530096977 0 -0.43122247783146522 0.30831868127488848 0 -0.41273643032526569 0.33662953043248711 0 -0.43674098495811231 0.33493788649063261 0 -0.42071708592719742 0.33131558094746122 0 -0.42938605365092247 0.3272194948190838 0 -0.43674098495811231 0.33493788649063261 0 -0.41273643032526569 0.33662953043248711 0 -0.4199209072431685 0.34318781838679219 0 -0.43385085243219867 0.34555045147446217 0 -0.41273643032526569 0.33662953043248711 0 -0.42071708592719742 0.33131558094746122 0 -0.43674098495811231 0.33493788649063261 0 -0.41273643032526569 0.33662953043248711 0 -0.43385085243219867 0.34555045147446217 0 -0.41273643032526569 0.33662953043248711 0 -0.43674098495811231 0.33493788649063261 0 -0.43385085243219867 0.34555045147446217 0 -0.43385085243219867 0.34555045147446217 0 -0.4302486007270056 0.35272204188882378 0 -0.42573384958437638 0.34916959158482058 0 -0.43385085243219867 0.34555045147446217 0 -0.43539550265875948 0.35741731211322858 0 -0.44110397924445488 0.35756373905142852 0 -0.43539550265875948 0.35741731211322858 0 -0.4302486007270056 0.35272204188882378 0 -0.42757171946388478 0.35850981688022993 0 -0.43385085243219867 0.34555045147446217 0 -0.43539550265875948 0.35741731211322858 0 -0.4302486007270056 0.35272204188882378 0 -0.4302486007270056 0.35272204188882378 0 -0.42480748600639012 0.35482075793933809 0 -0.42573384958437638 0.34916959158482058 0 -0.4302486007270056 0.35272204188882378 0 -0.42757171946388478 0.35850981688022993 0 -0.42480748600639012 0.35482075793933809 0 -0.42757171946388478 0.35850981688022993 0 -0.42480748600639012 0.35482075793933809 0 -0.42195212413097077 0.36043988011418487 0 -0.4199209072431685 0.34318781838679219 0 -0.43385085243219867 0.34555045147446217 0 -0.42573384958437638 0.34916959158482058 0 -0.42480748600639012 0.35482075793933809 0 -0.42573384958437638 0.34916959158482058 0 -0.41984140151311927 0.3495668882346864 0 -0.4199209072431685 0.34318781838679219 0 -0.42573384958437638 0.34916959158482058 0 -0.41984140151311927 0.3495668882346864 0 -0.4199209072431685 0.34318781838679219 0 -0.41984140151311927 0.3495668882346864 0 -0.41366919887348358 0.34576378073699821 0 -0.41984140151311927 0.3495668882346864 0 -0.41366919887348358 0.34576378073699821 0 -0.41404230344944593 0.35073751764187411 0 -0.42480748600639012 0.35482075793933809 0 -0.41984140151311927 0.3495668882346864 0 -0.41755863725870102 0.35684421707679032 0 -0.42480748600639012 0.35482075793933809 0 -0.41755863725870102 0.35684421707679032 0 -0.42195212413097077 0.36043988011418487 0 -0.41984140151311927 0.3495668882346864 0 -0.41755863725870102 0.35684421707679032 0 -0.41404230344944593 0.35073751764187411 0 -0.41755863725870102 0.35684421707679032 0 -0.41125051028190041 0.35540848222164118 0 -0.41404230344944593 0.35073751764187411 0 -0.41125051028190041 0.35540848222164118 0 -0.40888688292129022 0.34941903462410451 0 -0.41404230344944593 0.35073751764187411 0 -0.41755863725870102 0.35684421707679032 0 -0.41125051028190041 0.35540848222164118 0 -0.41142088061722581 0.36176204086772412 0 -0.40553625032349627 0.36037170931698131 0 -0.41125051028190041 0.35540848222164118 0 -0.41142088061722581 0.36176204086772412 0 -0.40525205349158999 0.35429039595711992 0 -0.40553625032349627 0.36037170931698131 0 -0.41125051028190041 0.35540848222164118 0 -0.40525205349158999 0.35429039595711992 0 -0.41125051028190041 0.35540848222164118 0 -0.40888688292129022 0.34941903462410451 0 -0.4080564418273247 0.34368885170405422 0 -0.40888688292129022 0.34941903462410451 0 -0.41366919887348358 0.34576378073699821 0 -0.40888688292129022 0.34941903462410451 0 -0.41366919887348358 0.34576378073699821 0 -0.41404230344944593 0.35073751764187411 0 -0.4250431626101242 0.37647010748543319 0 -0.40086489287733429 0.37467411733839928 0 -0.42486892241442098 0.36677785020884007 0 -0.40086489287733429 0.37467411733839928 0 -0.42486892241442098 0.36677785020884007 0 -0.40086489287733429 0.37467411733839928 0 -0.41378193274770297 0.36450427419225789 0 -0.42486892241442098 0.36677785020884007 0 -0.40544017780568847 0.3661562974108753 0 -0.40086489287733429 0.37467411733839928 0 -0.41378193274770297 0.36450427419225789 0 -0.40544017780568847 0.3661562974108753 0 -0.41142088061722581 0.36176204086772412 0 -0.41378193274770297 0.36450427419225789 0 -0.40553625032349627 0.36037170931698131 0 -0.40544017780568847 0.3661562974108753 0 -0.41142088061722581 0.36176204086772412 0 -0.41755863725870102 0.35684421707679032 0 -0.41378193274770297 0.36450427419225789 0 -0.42195212413097077 0.36043988011418487 0 -0.41378193274770297 0.36450427419225789 0 -0.42486892241442098 0.36677785020884007 0 -0.42195212413097077 0.36043988011418487 0 -0.41755863725870102 0.35684421707679032 0 -0.41142088061722581 0.36176204086772412 0 -0.41378193274770297 0.36450427419225789 0 -0.4250431626101242 0.37647010748543319 0 -0.44885864134335329 0.37135067543599282 0 -0.4250431626101242 0.37647010748543319 0 -0.42486892241442098 0.36677785020884007 0 -0.44885864134335329 0.37135067543599282 0 -0.42486892241442098 0.36677785020884007 0 -0.448872951951507 0.35888158307927881 0 -0.43539550265875948 0.35741731211322858 0 -0.42486892241442098 0.36677785020884007 0 -0.44110397924445488 0.35756373905142852 0 -0.43539550265875948 0.35741731211322858 0 -0.42757171946388478 0.35850981688022993 0 -0.42486892241442098 0.36677785020884007 0 -0.42757171946388478 0.35850981688022993 0 -0.42486892241442098 0.36677785020884007 0 -0.42195212413097077 0.36043988011418487 0 -0.42486892241442098 0.36677785020884007 0 -0.44885864134335329 0.37135067543599282 0 -0.448872951951507 0.35888158307927881 0 -0.44802713623065987 0.37645115623263098 0 -0.4250431626101242 0.37647010748543319 0 -0.44885864134335329 0.37135067543599282 0 -0.42486892241442098 0.36677785020884007 0 -0.44110397924445488 0.35756373905142852 0 -0.448872951951507 0.35888158307927881 0 -0.44885864134335329 0.37135067543599282 0 -0.448872951951507 0.35888158307927881 0 -0.44885864134335329 0.37135067543599282 0 -0.448872951951507 0.35888158307927881 0 -0.45634368000688869 0.36512471152292858 0 -0.43385085243219867 0.34555045147446217 0 -0.45496527453913199 0.35447137251643651 0 -0.44889299330712729 0.34242966823447613 0 -0.43385085243219867 0.34555045147446217 0 -0.45496527453913199 0.35447137251643651 0 -0.43385085243219867 0.34555045147446217 0 -0.44887533288597797 0.35680703170406669 0 -0.45496527453913199 0.35447137251643651 0 -0.43385085243219867 0.34555045147446217 0 -0.44110397924445488 0.35756373905142852 0 -0.44887533288597797 0.35680703170406669 0 -0.44110397924445488 0.35756373905142852 0 -0.44887533288597797 0.35680703170406669 0 -0.448872951951507 0.35888158307927881 0 -0.44887533288597797 0.35680703170406669 0 -0.448872951951507 0.35888158307927881 0 -0.44887533288597797 0.35680703170406669 0 -0.448872951951507 0.35888158307927881 0 -0.45496527453913199 0.35447137251643651 0 -0.448872951951507 0.35888158307927881 0 -0.45496527453913199 0.35447137251643651 0 -0.47186707529616939 0.3513175305497272 0 -0.448872951951507 0.35888158307927881 0 -0.47186707529616939 0.3513175305497272 0 -0.448872951951507 0.35888158307927881 0 -0.45634368000688869 0.36512471152292858 0 -0.47186707529616939 0.3513175305497272 0 -0.45911772068334677 0.34536620346235469 0 -0.45496527453913199 0.35447137251643651 0 -0.47186707529616939 0.3513175305497272 0 -0.45911772068334677 0.34536620346235469 0 -0.45496527453913199 0.35447137251643651 0 -0.44889299330712729 0.34242966823447613 0 -0.46572599417265398 0.36772482908493609 0 -0.45634368000688869 0.36512471152292858 0 -0.47186707529616939 0.3513175305497272 0 -0.46059005399087027 0.38292215568240928 0 -0.44885864134335329 0.37135067543599282 0 -0.46572599417265398 0.36772482908493609 0 -0.44885864134335329 0.37135067543599282 0 -0.46572599417265398 0.36772482908493609 0 -0.44885864134335329 0.37135067543599282 0 -0.46572599417265398 0.36772482908493609 0 -0.45634368000688869 0.36512471152292858 0 -0.47832653283541199 0.38608194873200979 0 -0.46572599417265398 0.36772482908493609 0 -0.48259334700195489 0.36409898273387958 0 -0.46572599417265398 0.36772482908493609 0 -0.48259334700195489 0.36409898273387958 0 -0.47186707529616939 0.3513175305497272 0 -0.46572599417265398 0.36772482908493609 0 -0.48259334700195489 0.36409898273387958 0 -0.47186707529616939 0.3513175305497272 0 -0.494861198640831 0.34375347802017348 0 -0.47186707529616939 0.3513175305497272 0 -0.48536711719674469 0.35339641184703091 0 -0.494861198640831 0.34375347802017348 0 -0.48259334700195489 0.36409898273387958 0 -0.47186707529616939 0.3513175305497272 0 -0.48536711719674469 0.35339641184703091 0 -0.48259334700195489 0.36409898273387958 0 -0.49214684784802371 0.35441565608434311 0 -0.48536711719674469 0.35339641184703091 0 -0.49214684784802371 0.35441565608434311 0 -0.5 0.36887446842263683 0 -0.5 0.34271985673358363 0 -0.49214684784802371 0.35441565608434311 0 -0.48536711719674469 0.35339641184703091 0 -0.494861198640831 0.34375347802017348 0 -0.49214684784802371 0.35441565608434311 0 -0.494861198640831 0.34375347802017348 0 -0.5 0.34271985673358363 0 -0.48850556386005051 0.3766603246979251 0 -0.48259334700195489 0.36409898273387958 0 -0.5 0.36887446842263683 0 -0.48259334700195489 0.36409898273387958 0 -0.49214684784802371 0.35441565608434311 0 -0.5 0.36887446842263683 0 -0.485708092488497 0.3189911195031831 0 -0.5 0.31656524504453032 0 -0.48475009422380527 0.3315545986069256 0 -0.485708092488497 0.3189911195031831 0 -0.5 0.31656524504453032 0 -0.48583489694974541 0.30845327583860088 0 -0.5 0.31656524504453032 0 -0.5 0.34271985673358363 0 -0.48475009422380527 0.3315545986069256 0 -0.494861198640831 0.34375347802017348 0 -0.5 0.34271985673358363 0 -0.48475009422380527 0.3315545986069256 0 -0.48475009422380527 0.3315545986069256 0 -0.46074553959095882 0.3332462425487791 0 -0.47186707529616939 0.3513175305497272 0 -0.494861198640831 0.34375347802017348 0 -0.48475009422380527 0.3315545986069256 0 -0.47186707529616939 0.3513175305497272 0 -0.48475009422380527 0.3315545986069256 0 -0.46074553959095882 0.3332462425487791 0 -0.48475009422380527 0.3315545986069256 0 -0.47224737878043732 0.31939135852267558 0 -0.46074553959095882 0.3332462425487791 0 -0.485708092488497 0.3189911195031831 0 -0.48475009422380527 0.3315545986069256 0 -0.47224737878043732 0.31939135852267558 0 -0.485708092488497 0.3189911195031831 0 -0.47224737878043732 0.31939135852267558 0 -0.48583489694974541 0.30845327583860088 0 -0.47224737878043732 0.31939135852267558 0 -0.46258830912673421 0.31343425170936878 0 -0.46074553959095882 0.3332462425487791 0 -0.46258830912673421 0.31343425170936878 0 -0.46074553959095882 0.3332462425487791 0 -0.45107709460752138 0.31557533431346357 0 -0.45911772068334677 0.34536620346235469 0 -0.47186707529616939 0.3513175305497272 0 -0.46074553959095882 0.3332462425487791 0 -0.45911772068334677 0.34536620346235469 0 -0.46074553959095882 0.3332462425487791 0 -0.44889299330712729 0.34242966823447613 0 -0.43674098495811231 0.33493788649063261 0 -0.46074553959095882 0.3332462425487791 0 -0.43674098495811231 0.33493788649063261 0 -0.46074553959095882 0.3332462425487791 0 -0.44889299330712729 0.34242966823447613 0 -0.43674098495811231 0.33493788649063261 0 -0.46074553959095882 0.3332462425487791 0 -0.43790895006943947 0.32081412042189511 0 -0.43674098495811231 0.33493788649063261 0 -0.43385085243219867 0.34555045147446217 0 -0.44889299330712729 0.34242966823447613 0 -0.46074553959095882 0.3332462425487791 0 -0.45107709460752138 0.31557533431346357 0 -0.43790895006943947 0.32081412042189511 0 -0.45107709460752138 0.31557533431346357 0 -0.43790895006943947 0.32081412042189511 0 -0.4401847358662575 0.3127477530096977 0 -0.44444415583193408 0.29216055381020578 0 -0.43122247783146522 0.30831868127488848 0 -0.44810052680614793 0.29565349026271098 0 -0.43122247783146522 0.30831868127488848 0 -0.44368336155109173 0.30649675881006838 0 -0.44810052680614793 0.29565349026271098 0 -0.43122247783146522 0.30831868127488848 0 -0.4401847358662575 0.3127477530096977 0 -0.44368336155109173 0.30649675881006838 0 -0.43122247783146522 0.30831868127488848 0 -0.44444415583193408 0.29216055381020578 0 -0.44810052680614793 0.29565349026271098 0 -0.43122247783146522 0.30831868127488848 0 -0.45107709460752138 0.31557533431346357 0 -0.4401847358662575 0.3127477530096977 0 -0.44368336155109173 0.30649675881006838 0 -0.44368336155109173 0.30649675881006838 0 -0.44996115485610377 0.3015940899144034 0 -0.4551770389262465 0.30483297142504889 0 -0.44368336155109173 0.30649675881006838 0 -0.44996115485610377 0.3015940899144034 0 -0.44810052680614793 0.29565349026271098 0 -0.45288369214092922 0.29939313915978533 0 -0.44996115485610377 0.3015940899144034 0 -0.44810052680614793 0.29565349026271098 0 -0.45288369214092922 0.29939313915978533 0 -0.44996115485610377 0.3015940899144034 0 -0.4551770389262465 0.30483297142504889 0 -0.45107709460752138 0.31557533431346357 0 -0.44368336155109173 0.30649675881006838 0 -0.4551770389262465 0.30483297142504889 0 -0.44702735364695217 0.27675533545947301 0 -0.43422108619098299 0.29621681389521232 0 -0.44444415583193408 0.29216055381020578 0 -0.44702735364695217 0.27675533545947301 0 -0.43422108619098299 0.29621681389521232 0 -0.44702735364695217 0.27675533545947301 0 -0.43274811138672559 0.28469846643612018 0 -0.43422108619098299 0.29621681389521232 0 -0.44810052680614793 0.29565349026271098 0 -0.4493542421043164 0.28919027156790111 0 -0.45395006383388498 0.28587005882998617 0 -0.44444415583193408 0.29216055381020578 0 -0.44810052680614793 0.29565349026271098 0 -0.4493542421043164 0.28919027156790111 0 -0.44444415583193408 0.29216055381020578 0 -0.4493542421043164 0.28919027156790111 0 -0.44702735364695217 0.27675533545947301 0 -0.4493542421043164 0.28919027156790111 0 -0.45395006383388498 0.28587005882998617 0 -0.44702735364695217 0.27675533545947301 0 -0.44810052680614793 0.29565349026271098 0 -0.45395006383388498 0.28587005882998617 0 -0.46497857578083068 0.28298829925053381 0 -0.44810052680614793 0.29565349026271098 0 -0.4593999708052337 0.29480301670676529 0 -0.46497857578083068 0.28298829925053381 0 -0.44810052680614793 0.29565349026271098 0 -0.46497857578083068 0.28298829925053381 0 -0.45288369214092922 0.29939313915978533 0 -0.44810052680614793 0.29565349026271098 0 -0.4593999708052337 0.29480301670676529 0 -0.4593999708052337 0.29480301670676529 0 -0.46827174088950307 0.29409138505043392 0 -0.46497857578083068 0.28298829925053381 0 -0.46258830912673421 0.31343425170936878 0 -0.45107709460752138 0.31557533431346357 0 -0.4551770389262465 0.30483297142504889 0 -0.45288369214092922 0.29939313915978533 0 -0.4593999708052337 0.29480301670676529 0 -0.4551770389262465 0.30483297142504889 0 -0.4593999708052337 0.29480301670676529 0 -0.4551770389262465 0.30483297142504889 0 -0.46625021185001803 0.30380681263807602 0 -0.4593999708052337 0.29480301670676529 0 -0.46827174088950307 0.29409138505043392 0 -0.46625021185001803 0.30380681263807602 0 -0.47224737878043732 0.31939135852267558 0 -0.46258830912673421 0.31343425170936878 0 -0.46625021185001803 0.30380681263807602 0 -0.46258830912673421 0.31343425170936878 0 -0.4551770389262465 0.30483297142504889 0 -0.46625021185001803 0.30380681263807602 0 -0.47551717359816043 0.30301602212345602 0 -0.4769183937012712 0.29196404103452073 0 -0.48583489694974541 0.30845327583860088 0 -0.47224737878043732 0.31939135852267558 0 -0.46625021185001803 0.30380681263807602 0 -0.47551717359816043 0.30301602212345602 0 -0.47224737878043732 0.31939135852267558 0 -0.47551717359816043 0.30301602212345602 0 -0.48583489694974541 0.30845327583860088 0 -0.46827174088950307 0.29409138505043392 0 -0.46625021185001803 0.30380681263807602 0 -0.47551717359816043 0.30301602212345602 0 -0.46827174088950307 0.29409138505043392 0 -0.46497857578083068 0.28298829925053381 0 -0.4769183937012712 0.29196404103452073 0 -0.4769183937012712 0.29196404103452073 0 -0.48757792524538679 0.2814999319082685 0 -0.48583489694974541 0.30845327583860088 0 -0.46827174088950307 0.29409138505043392 0 -0.47551717359816043 0.30301602212345602 0 -0.4769183937012712 0.29196404103452073 0 -0.46497857578083068 0.28298829925053381 0 -0.47783287987075052 0.28169384510791978 0 -0.4769183937012712 0.29196404103452073 0 -0.47783287987075052 0.28169384510791978 0 -0.4769183937012712 0.29196404103452073 0 -0.48757792524538679 0.2814999319082685 0 -0.5 0.29041063335547701 0 -0.48757792524538679 0.2814999319082685 0 -0.48583489694974541 0.30845327583860088 0 -0.48757792524538679 0.2814999319082685 0 -0.48583489694974541 0.30845327583860088 0 -0.5 0.31656524504453032 0 -0.5 0.29041063335547701 0 -0.48583489694974541 0.30845327583860088 0 -0.5 0.23810140997737081 0 -0.5 0.26425602166642381 0 -0.48932095354102823 0.25454658797793611 0 -0.48757792524538679 0.2814999319082685 0 -0.48932095354102823 0.25454658797793611 0 -0.48366697684514259 0.26703881783025729 0 -0.48757792524538679 0.2814999319082685 0 -0.5 0.26425602166642381 0 -0.48932095354102823 0.25454658797793611 0 -0.48757792524538679 0.2814999319082685 0 -0.48932095354102823 0.25454658797793611 0 -0.5 0.29041063335547701 0 -0.48757792524538679 0.2814999319082685 0 -0.5 0.26425602166642381 0 -0.46497857578083068 0.28298829925053381 0 -0.48185662475551339 0.27032310823835648 0 -0.46497857578083068 0.28298829925053381 0 -0.47783287987075052 0.28169384510791978 0 -0.48185662475551339 0.27032310823835648 0 -0.48366697684514259 0.26703881783025729 0 -0.45893043448094739 0.2699305570534084 0 -0.48757792524538679 0.2814999319082685 0 -0.48366697684514259 0.26703881783025729 0 -0.48185662475551339 0.27032310823835648 0 -0.48366697684514259 0.26703881783025729 0 -0.48185662475551339 0.27032310823835648 0 -0.47235815296560851 0.27257019559313889 0 -0.46497857578083068 0.28298829925053381 0 -0.48185662475551339 0.27032310823835648 0 -0.47235815296560851 0.27257019559313889 0 -0.48366697684514259 0.26703881783025729 0 -0.46959483388743167 0.25994315597580908 0 -0.45893043448094739 0.2699305570534084 0 -0.48366697684514259 0.26703881783025729 0 -0.47235815296560851 0.27257019559313889 0 -0.45893043448094739 0.2699305570534084 0 -0.47783287987075052 0.28169384510791978 0 -0.48757792524538679 0.2814999319082685 0 -0.48185662475551339 0.27032310823835648 0 -0.48932095354102823 0.25454658797793611 0 -0.48366697684514259 0.26703881783025729 0 -0.47792533453874358 0.25606878273296479 0 -0.48366697684514259 0.26703881783025729 0 -0.46959483388743167 0.25994315597580908 0 -0.47792533453874358 0.25606878273296479 0 -0.47864167104372218 0.246590621409366 0 -0.48932095354102823 0.25454658797793611 0 -0.47792533453874358 0.25606878273296479 0 -0.47864167104372218 0.246590621409366 0 -0.47792533453874358 0.25606878273296479 0 -0.46938038244821267 0.25133041049185839 0 -0.46959483388743167 0.25994315597580908 0 -0.47792533453874358 0.25606878273296479 0 -0.46938038244821267 0.25133041049185839 0 -0.46959483388743167 0.25994315597580908 0 -0.46938038244821267 0.25133041049185839 0 -0.45807104112411212 0.25534721177055669 0 -0.46959483388743167 0.25994315597580908 0 -0.45807104112411212 0.25534721177055669 0 -0.45893043448094739 0.2699305570534084 0 -0.45807104112411212 0.25534721177055669 0 -0.45893043448094739 0.2699305570534084 0 -0.44442574262614493 0.25832327296872359 0 -0.45395006383388498 0.28587005882998617 0 -0.46497857578083068 0.28298829925053381 0 -0.45893043448094739 0.2699305570534084 0 -0.45395006383388498 0.28587005882998617 0 -0.45893043448094739 0.2699305570534084 0 -0.44702735364695217 0.27675533545947301 0 -0.46497857578083068 0.28298829925053381 0 -0.47235815296560851 0.27257019559313889 0 -0.45893043448094739 0.2699305570534084 0 -0.45893043448094739 0.2699305570534084 0 -0.43419389211675241 0.27282229627655952 0 -0.45893043448094739 0.2699305570534084 0 -0.44442574262614493 0.25832327296872359 0 -0.43419389211675241 0.27282229627655952 0 -0.45893043448094739 0.2699305570534084 0 -0.44702735364695217 0.27675533545947301 0 -0.43419389211675241 0.27282229627655952 0 -0.44702735364695217 0.27675533545947301 0 -0.43419389211675241 0.27282229627655952 0 -0.43274811138672559 0.28469846643612018 0 -0.45046339488490522 0.249057113070103 0 -0.45807104112411212 0.25534721177055669 0 -0.44442574262614493 0.25832327296872359 0 -0.44062222049055039 0.24203477259657111 0 -0.44442574262614493 0.25832327296872359 0 -0.42503978512155383 0.25887440404814072 0 -0.44062222049055039 0.24203477259657111 0 -0.42503978512155383 0.25887440404814072 0 -0.44442574262614493 0.25832327296872359 0 -0.42503978512155383 0.25887440404814072 0 -0.43419389211675241 0.27282229627655952 0 -0.42503978512155383 0.25887440404814072 0 -0.40945734975255721 0.27571403549971041 0 -0.40585136056822319 0.25674789398696107 0 -0.4198454647722451 0.23985190764030939 0 -0.42503978512155383 0.25887440404814072 0 -0.40585136056822319 0.25674789398696107 0 -0.40945734975255721 0.27571403549971041 0 -0.43419389211675241 0.27282229627655952 0 -0.42503978512155383 0.25887440404814072 0 -0.40945734975255721 0.27571403549971041 0 -0.42503978512155383 0.25887440404814072 0 -0.40945734975255721 0.27571403549971041 0 -0.43419389211675241 0.27282229627655952 0 -0.40945734975255721 0.27571403549971041 0 -0.43419389211675241 0.27282229627655952 0 -0.4229835889384117 0.28415291652507912 0 -0.43419389211675241 0.27282229627655952 0 -0.43274811138672559 0.28469846643612018 0 -0.4229835889384117 0.28415291652507912 0 -0.43274811138672559 0.28469846643612018 0 -0.43422108619098299 0.29621681389521232 0 -0.42519236151645012 0.29288975242762622 0 -0.43274811138672559 0.28469846643612018 0 -0.42519236151645012 0.29288975242762622 0 -0.4229835889384117 0.28415291652507912 0 -0.42141481873501418 0.31567829233095179 0 -0.43422108619098299 0.29621681389521232 0 -0.42141481873501418 0.31567829233095179 0 -0.43422108619098299 0.29621681389521232 0 -0.42237726971740519 0.30236741203524931 0 -0.44444415583193408 0.29216055381020578 0 -0.43422108619098299 0.29621681389521232 0 -0.43122247783146522 0.30831868127488848 0 -0.42141481873501418 0.31567829233095179 0 -0.43422108619098299 0.29621681389521232 0 -0.43122247783146522 0.30831868127488848 0 -0.43422108619098299 0.29621681389521232 0 -0.42519236151645012 0.29288975242762622 0 -0.42237726971740519 0.30236741203524931 0 -0.42141481873501418 0.31567829233095179 0 -0.43122247783146522 0.30831868127488848 0 -0.42237726971740519 0.30236741203524931 0 -0.41647318301620623 0.31168328686166002 0 -0.40812109447663159 0.30329838776079099 0 -0.42141481873501418 0.31567829233095179 0 -0.42237726971740519 0.30236741203524931 0 -0.41647318301620623 0.31168328686166002 0 -0.42237726971740519 0.30236741203524931 0 -0.40812109447663159 0.30329838776079099 0 -0.41256551749876041 0.29129965580367562 0 -0.40826549608127172 0.31275764886218971 0 -0.41647318301620623 0.31168328686166002 0 -0.40812109447663159 0.30329838776079099 0 -0.40945734975255721 0.27571403549971041 0 -0.4229835889384117 0.28415291652507912 0 -0.41256551749876041 0.29129965580367562 0 -0.42519236151645012 0.29288975242762622 0 -0.4229835889384117 0.28415291652507912 0 -0.41256551749876041 0.29129965580367562 0 -0.42519236151645012 0.29288975242762622 0 -0.42237726971740519 0.30236741203524931 0 -0.41256551749876041 0.29129965580367562 0 -0.40945734975255721 0.27571403549971041 0 -0.39180528154043992 0.29479027846244049 0 -0.39350738277932218 0.27757861076756318 0 -0.40945734975255721 0.27571403549971041 0 -0.39180528154043992 0.29479027846244049 0 -0.40812109447663159 0.30329838776079099 0 -0.41256551749876041 0.29129965580367562 0 -0.39180528154043992 0.29479027846244049 0 -0.40945734975255721 0.27571403549971041 0 -0.41256551749876041 0.29129965580367562 0 -0.39180528154043992 0.29479027846244049 0 -0.38613629988198012 0.31665983269396758 0 -0.39830358576524327 0.31266849694114901 0 -0.39180528154043992 0.29479027846244049 0 -0.39830358576524327 0.31266849694114901 0 -0.40812109447663159 0.30329838776079099 0 -0.39180528154043992 0.29479027846244049 0 -0.39830358576524327 0.31266849694114901 0 -0.40826549608127172 0.31275764886218971 0 -0.40812109447663159 0.30329838776079099 0 -0.39180528154043992 0.29479027846244049 0 -0.37819889022761238 0.29924868842846319 0 -0.37415321332832258 0.31386652142517069 0 -0.38613629988198012 0.31665983269396758 0 -0.39180528154043992 0.29479027846244049 0 -0.37415321332832258 0.31386652142517069 0 -0.39180528154043992 0.29479027846244049 0 -0.37415321332832258 0.31386652142517069 0 -0.39180528154043992 0.29479027846244049 0 -0.37819889022761238 0.29924868842846319 0 -0.37870614451813112 0.28175948497688769 0 -0.39180528154043992 0.29479027846244049 0 -0.37870614451813112 0.28175948497688769 0 -0.39350738277932218 0.27757861076756318 0 -0.37870614451813112 0.28175948497688769 0 -0.37647038179830861 0.26645711442365799 0 -0.39350738277932218 0.27757861076756318 0 -0.37647038179830861 0.26645711442365799 0 -0.39336972403141229 0.26369738761855421 0 -0.39350738277932218 0.27757861076756318 0 -0.38790582398472923 0.24962922847932231 0 -0.37647038179830861 0.26645711442365799 0 -0.39336972403141229 0.26369738761855421 0 -0.38790582398472923 0.24962922847932231 0 -0.37647038179830861 0.26645711442365799 0 -0.36318679658289171 0.25196182354824148 0 -0.40945734975255721 0.27571403549971041 0 -0.40585136056822319 0.25674789398696107 0 -0.39336972403141229 0.26369738761855421 0 -0.38790582398472923 0.24962922847932231 0 -0.40585136056822319 0.25674789398696107 0 -0.39336972403141229 0.26369738761855421 0 -0.40945734975255721 0.27571403549971041 0 -0.39336972403141229 0.26369738761855421 0 -0.39350738277932218 0.27757861076756318 0 -0.40945734975255721 0.27571403549971041 0 -0.39350738277932218 0.27757861076756318 0 -0.35583614606747688 0.27501819518035592 0 -0.36318679658289171 0.25196182354824148 0 -0.33952374355129727 0.25899057541505788 0 -0.37647038179830861 0.26645711442365799 0 -0.35583614606747688 0.27501819518035592 0 -0.36318679658289171 0.25196182354824148 0 -0.37870614451813112 0.28175948497688769 0 -0.37647038179830861 0.26645711442365799 0 -0.35583614606747688 0.27501819518035592 0 -0.37819889022761238 0.29924868842846319 0 -0.37870614451813112 0.28175948497688769 0 -0.36775571630023218 0.2927315942663431 0 -0.37870614451813112 0.28175948497688769 0 -0.35583614606747688 0.27501819518035592 0 -0.36775571630023218 0.2927315942663431 0 -0.37819889022761238 0.29924868842846319 0 -0.36899777432263853 0.30469822459034263 0 -0.37415321332832258 0.31386652142517069 0 -0.36899777432263853 0.30469822459034263 0 -0.36272901898995358 0.31473918551029578 0 -0.37415321332832258 0.31386652142517069 0 -0.37819889022761238 0.29924868842846319 0 -0.36775571630023218 0.2927315942663431 0 -0.36899777432263853 0.30469822459034263 0 -0.36775571630023218 0.2927315942663431 0 -0.36899777432263853 0.30469822459034263 0 -0.35931620367806588 0.30475084950198522 0 -0.36775571630023218 0.2927315942663431 0 -0.35931620367806588 0.30475084950198522 0 -0.35261706249820868 0.29381533636168528 0 -0.36899777432263853 0.30469822459034263 0 -0.35931620367806588 0.30475084950198522 0 -0.36272901898995358 0.31473918551029578 0 -0.35931620367806588 0.30475084950198522 0 -0.35261706249820868 0.29381533636168528 0 -0.34344143829887858 0.30736403781452232 0 -0.35931620367806588 0.30475084950198522 0 -0.34344143829887858 0.30736403781452232 0 -0.35467675850453528 0.31743756764607989 0 -0.35931620367806588 0.30475084950198522 0 -0.35467675850453528 0.31743756764607989 0 -0.36272901898995358 0.31473918551029578 0 -0.35583614606747688 0.27501819518035592 0 -0.36775571630023218 0.2927315942663431 0 -0.35261706249820868 0.29381533636168528 0 -0.35583614606747688 0.27501819518035592 0 -0.35261706249820868 0.29381533636168528 0 -0.33673580814638959 0.28921200504521999 0 -0.35261706249820868 0.29381533636168528 0 -0.33673580814638959 0.28921200504521999 0 -0.34344143829887858 0.30736403781452232 0 -0.33673580814638959 0.28921200504521999 0 -0.32075162894010661 0.28280614760534989 0 -0.33379142081270979 0.2734424933293601 0 -0.34344143829887858 0.30736403781452232 0 -0.31699951866320542 0.30755322334125379 0 -0.34344143829887858 0.30736403781452232 0 -0.31699951866320542 0.30755322334125379 0 -0.33459812393413729 0.32207732583041709 0 -0.33673580814638959 0.28921200504521999 0 -0.34344143829887858 0.30736403781452232 0 -0.31699951866320542 0.30755322334125379 0 -0.33673580814638959 0.28921200504521999 0 -0.31699951866320542 0.30755322334125379 0 -0.32075162894010661 0.28280614760534989 0 -0.31699951866320542 0.30755322334125379 0 -0.32075162894010661 0.28280614760534989 0 -0.30493521127791462 0.28695781074044469 0 -0.32075162894010661 0.28280614760534989 0 -0.31931282352829687 0.26617321261290411 0 -0.33379142081270979 0.2734424933293601 0 -0.32075162894010661 0.28280614760534989 0 -0.31931282352829687 0.26617321261290411 0 -0.30493521127791462 0.28695781074044469 0 -0.35583614606747688 0.27501819518035592 0 -0.33673580814638959 0.28921200504521999 0 -0.33379142081270979 0.2734424933293601 0 -0.35583614606747688 0.27501819518035592 0 -0.33379142081270979 0.2734424933293601 0 -0.33952374355129727 0.25899057541505788 0 -0.31931282352829687 0.26617321261290411 0 -0.33379142081270979 0.2734424933293601 0 -0.33952374355129727 0.25899057541505788 0 -0.32200613725511351 0.24850726385495631 0 -0.31931282352829687 0.26617321261290411 0 -0.33952374355129727 0.25899057541505788 0 -0.32200613725511351 0.24850726385495631 0 -0.31931282352829687 0.26617321261290411 0 -0.30640548876467488 0.25787073169030861 0 -0.31931282352829687 0.26617321261290411 0 -0.30640548876467488 0.25787073169030861 0 -0.3010630097917536 0.27273037638764702 0 -0.31931282352829687 0.26617321261290411 0 -0.3010630097917536 0.27273037638764702 0 -0.30493521127791462 0.28695781074044469 0 -0.31931282352829687 0.26617321261290411 0 -0.30493521127791462 0.28695781074044469 0 -0.3010630097917536 0.27273037638764702 0 -0.29309283898050847 0.28048055459605348 0 -0.30493521127791462 0.28695781074044469 0 -0.3010630097917536 0.27273037638764702 0 -0.29309283898050847 0.28048055459605348 0 -0.28156868640737281 0.27216957229852412 0 -0.30640548876467488 0.25787073169030861 0 -0.3010630097917536 0.27273037638764702 0 -0.28156868640737281 0.27216957229852412 0 -0.30640548876467488 0.25787073169030861 0 -0.28156868640737281 0.27216957229852412 0 -0.28729818335365731 0.26780124082781631 0 -0.28156868640737281 0.27216957229852412 0 -0.28729818335365731 0.26780124082781631 0 -0.27880962639343299 0.26078065685839158 0 -0.29309283898050847 0.28048055459605348 0 -0.28156868640737281 0.27216957229852412 0 -0.28401529333418091 0.28255904946725641 0 -0.30640548876467488 0.25787073169030861 0 -0.28156868640737281 0.27216957229852412 0 -0.29125564533142001 0.24067530578368901 0 -0.30640548876467488 0.25787073169030861 0 -0.28729818335365731 0.26780124082781631 0 -0.29125564533142001 0.24067530578368901 0 -0.28729818335365731 0.26780124082781631 0 -0.27880962639343299 0.26078065685839158 0 -0.29125564533142001 0.24067530578368901 0 -0.28729818335365731 0.26780124082781631 0 -0.29125564533142001 0.24067530578368901 0 -0.26892213733164849 0.25365425058065472 0 -0.27880962639343299 0.26078065685839158 0 -0.26892213733164849 0.25365425058065472 0 -0.27880962639343299 0.26078065685839158 0 -0.26500347954306669 0.26960291480127369 0 -0.28156868640737281 0.27216957229852412 0 -0.25673188405007052 0.28646841290673969 0 -0.28156868640737281 0.27216957229852412 0 -0.26500347954306669 0.26960291480127369 0 -0.25673188405007052 0.28646841290673969 0 -0.28156868640737281 0.27216957229852412 0 -0.27880962639343299 0.26078065685839158 0 -0.26500347954306669 0.26960291480127369 0 -0.28156868640737281 0.27216957229852412 0 -0.27479408276187339 0.28687287199942368 0 -0.28401529333418091 0.28255904946725641 0 -0.26500347954306669 0.26960291480127369 0 -0.25265925142613249 0.26128234508680298 0 -0.25673188405007052 0.28646841290673969 0 -0.26892213733164849 0.25365425058065472 0 -0.26500347954306669 0.26960291480127369 0 -0.25265925142613249 0.26128234508680298 0 -0.25621817608628389 0.2460965770837312 0 -0.26892213733164849 0.25365425058065472 0 -0.25265925142613249 0.26128234508680298 0 -0.25505401324638421 0.30366623925853881 0 -0.26661761067819428 0.2958317928062858 0 -0.26721257633701828 0.30790943684761429 0 -0.25505401324638421 0.30366623925853881 0 -0.26721257633701828 0.30790943684761429 0 -0.25901197930261888 0.31383205914145501 0 -0.26721257633701828 0.30790943684761429 0 -0.25901197930261888 0.31383205914145501 0 -0.26528599585519008 0.31471464054907522 0 -0.25505401324638421 0.30366623925853881 0 -0.25901197930261888 0.31383205914145501 0 -0.24885494741763489 0.31718848033418301 0 -0.25505401324638421 0.30366623925853881 0 -0.25673188405007052 0.28646841290673969 0 -0.26661761067819428 0.2958317928062858 0 -0.26661761067819428 0.2958317928062858 0 -0.27573637841232751 0.29432500902679382 0 -0.27326763327687947 0.30016750757533939 0 -0.28156868640737281 0.27216957229852412 0 -0.25673188405007052 0.28646841290673969 0 -0.27479408276187339 0.28687287199942368 0 -0.26661761067819428 0.2958317928062858 0 -0.27479408276187339 0.28687287199942368 0 -0.27573637841232751 0.29432500902679382 0 -0.25673188405007052 0.28646841290673969 0 -0.26661761067819428 0.2958317928062858 0 -0.27479408276187339 0.28687287199942368 0 -0.27479408276187339 0.28687287199942368 0 -0.28401529333418091 0.28255904946725641 0 -0.28313816676434478 0.29069510378855717 0 -0.27479408276187339 0.28687287199942368 0 -0.27573637841232751 0.29432500902679382 0 -0.28313816676434478 0.29069510378855717 0 -0.27573637841232751 0.29432500902679382 0 -0.28086439858034518 0.29805776896436298 0 -0.28313816676434478 0.29069510378855717 0 -0.28086439858034518 0.29805776896436298 0 -0.27753065875984329 0.30327410754998058 0 -0.28274061889410179 0.30278083970340541 0 -0.27753065875984329 0.30327410754998058 0 -0.27514776209796898 0.30785266251660498 0 -0.28274061889410179 0.30278083970340541 0 -0.27753065875984329 0.30327410754998058 0 -0.27326763327687947 0.30016750757533939 0 -0.27348155140824082 0.30658246875079598 0 -0.28086439858034518 0.29805776896436298 0 -0.27753065875984329 0.30327410754998058 0 -0.27326763327687947 0.30016750757533939 0 -0.27573637841232751 0.29432500902679382 0 -0.28086439858034518 0.29805776896436298 0 -0.27326763327687947 0.30016750757533939 0 -0.26661761067819428 0.2958317928062858 0 -0.27326763327687947 0.30016750757533939 0 -0.26721257633701828 0.30790943684761429 0 -0.26721257633701828 0.30790943684761429 0 -0.27514776209796898 0.30785266251660498 0 -0.27123720609067609 0.3158529302113221 0 -0.26721257633701828 0.30790943684761429 0 -0.27348155140824082 0.30658246875079598 0 -0.27514776209796898 0.30785266251660498 0 -0.26721257633701828 0.30790943684761429 0 -0.27514776209796898 0.30785266251660498 0 -0.27326763327687947 0.30016750757533939 0 -0.26721257633701828 0.30790943684761429 0 -0.27348155140824082 0.30658246875079598 0 -0.27514776209796898 0.30785266251660498 0 -0.2851872012256097 0.31550597615259851 0 -0.27753065875984329 0.30327410754998058 0 -0.27348155140824082 0.30658246875079598 0 -0.27514776209796898 0.30785266251660498 0 -0.27348155140824082 0.30658246875079598 0 -0.27514776209796898 0.30785266251660498 0 -0.27514776209796898 0.30785266251660498 0 -0.2905575990275322 0.30774240886798532 0 -0.27514776209796898 0.30785266251660498 0 -0.2905575990275322 0.30774240886798532 0 -0.2851872012256097 0.31550597615259851 0 -0.2896026760048197 0.2969772506180926 0 -0.2905575990275322 0.30774240886798532 0 -0.30493521127791462 0.28695781074044469 0 -0.27514776209796898 0.30785266251660498 0 -0.28274061889410179 0.30278083970340541 0 -0.2905575990275322 0.30774240886798532 0 -0.2905575990275322 0.30774240886798532 0 -0.2851872012256097 0.31550597615259851 0 -0.28274061889410179 0.30278083970340541 0 -0.2896026760048197 0.2969772506180926 0 -0.2905575990275322 0.30774240886798532 0 -0.28086439858034518 0.29805776896436298 0 -0.28274061889410179 0.30278083970340541 0 -0.2896026760048197 0.2969772506180926 0 -0.28401529333418091 0.28255904946725641 0 -0.28313816676434478 0.29069510378855717 0 -0.29095683727235372 0.28753395384208091 0 -0.28086439858034518 0.29805776896436298 0 -0.2896026760048197 0.2969772506180926 0 -0.28313816676434478 0.29069510378855717 0 -0.2896026760048197 0.2969772506180926 0 -0.28313816676434478 0.29069510378855717 0 -0.29095683727235372 0.28753395384208091 0 -0.2896026760048197 0.2969772506180926 0 -0.29095683727235372 0.28753395384208091 0 -0.30493521127791462 0.28695781074044469 0 -0.29309283898050847 0.28048055459605348 0 -0.29095683727235372 0.28753395384208091 0 -0.30493521127791462 0.28695781074044469 0 -0.29309283898050847 0.28048055459605348 0 -0.28401529333418091 0.28255904946725641 0 -0.29095683727235372 0.28753395384208091 0 -0.31699951866320542 0.30755322334125379 0 -0.2905575990275322 0.30774240886798532 0 -0.30563014257680821 0.31779627416788381 0 -0.31699951866320542 0.30755322334125379 0 -0.2905575990275322 0.30774240886798532 0 -0.2905575990275322 0.30774240886798532 0 -0.30493521127791462 0.28695781074044469 0 -0.31699951866320542 0.30755322334125379 0 -0.2905575990275322 0.30774240886798532 0 -0.30493521127791462 0.28695781074044469 0 -0.30538608464820588 0.33090408634228141 0 -0.28942706780696309 0.31873813168532672 0 -0.30563014257680821 0.31779627416788381 0 -0.30538608464820588 0.33090408634228141 0 -0.31811651498789978 0.32488887006413791 0 -0.30563014257680821 0.31779627416788381 0 -0.30538608464820588 0.33090408634228141 0 -0.2937791937433501 0.31637108240395312 0 -0.30538608464820588 0.33090408634228141 0 -0.3017933608705089 0.344447887165377 0 -0.32134510148944728 0.34307004099923799 0 -0.30538608464820588 0.33090408634228141 0 -0.29093013722955491 0.33661105704622479 0 -0.3017933608705089 0.344447887165377 0 -0.30538608464820588 0.33090408634228141 0 -0.29093013722955491 0.33661105704622479 0 -0.2885751077852815 0.32830696870384862 0 -0.29093013722955491 0.33661105704622479 0 -0.28224162025157051 0.34582573333151501 0 -0.3017933608705089 0.344447887165377 0 -0.2885751077852815 0.32830696870384862 0 -0.28146834572906437 0.33465123959114113 0 -0.2790455690922089 0.3243844570517187 0 -0.29093013722955491 0.33661105704622479 0 -0.2885751077852815 0.32830696870384862 0 -0.28146834572906437 0.33465123959114113 0 -0.29093013722955491 0.33661105704622479 0 -0.28146834572906437 0.33465123959114113 0 -0.28224162025157051 0.34582573333151501 0 -0.30538608464820588 0.33090408634228141 0 -0.2885751077852815 0.32830696870384862 0 -0.28942706780696309 0.31873813168532672 0 -0.30538608464820588 0.33090408634228141 0 -0.28942706780696309 0.31873813168532672 0 -0.2937791937433501 0.31637108240395312 0 -0.28942706780696309 0.31873813168532672 0 -0.2937791937433501 0.31637108240395312 0 -0.2851872012256097 0.31550597615259851 0 -0.2905575990275322 0.30774240886798532 0 -0.30563014257680821 0.31779627416788381 0 -0.2937791937433501 0.31637108240395312 0 -0.2905575990275322 0.30774240886798532 0 -0.2937791937433501 0.31637108240395312 0 -0.2851872012256097 0.31550597615259851 0 -0.28942706780696309 0.31873813168532672 0 -0.2937791937433501 0.31637108240395312 0 -0.2885751077852815 0.32830696870384862 0 -0.28942706780696309 0.31873813168532672 0 -0.2790455690922089 0.3243844570517187 0 -0.28942706780696309 0.31873813168532672 0 -0.2790455690922089 0.3243844570517187 0 -0.2851872012256097 0.31550597615259851 0 -0.2790455690922089 0.3243844570517187 0 -0.28942706780696309 0.31873813168532672 0 -0.2851872012256097 0.31550597615259851 0 -0.2790455690922089 0.3243844570517187 0 -0.28942706780696309 0.31873813168532672 0 -0.2851872012256097 0.31550597615259851 0 -0.27514776209796898 0.30785266251660498 0 -0.2851872012256097 0.31550597615259851 0 -0.27699557949655113 0.31645322234696882 0 -0.2851872012256097 0.31550597615259851 0 -0.27699557949655113 0.31645322234696882 0 -0.2790455690922089 0.3243844570517187 0 -0.27514776209796898 0.30785266251660498 0 -0.27699557949655113 0.31645322234696882 0 -0.27123720609067609 0.3158529302113221 0 -0.27001263578126711 0.32263717043347712 0 -0.2790455690922089 0.3243844570517187 0 -0.25910260253645218 0.33523110656146687 0 -0.26721257633701828 0.30790943684761429 0 -0.27123720609067609 0.3158529302113221 0 -0.26528599585519008 0.31471464054907522 0 -0.27699557949655113 0.31645322234696882 0 -0.27123720609067609 0.3158529302113221 0 -0.27001263578126711 0.32263717043347712 0 -0.27123720609067609 0.3158529302113221 0 -0.26528599585519008 0.31471464054907522 0 -0.26368222169044719 0.32126413599590953 0 -0.27123720609067609 0.3158529302113221 0 -0.27001263578126711 0.32263717043347712 0 -0.26368222169044719 0.32126413599590953 0 -0.27699557949655113 0.31645322234696882 0 -0.27001263578126711 0.32263717043347712 0 -0.2790455690922089 0.3243844570517187 0 -0.2790455690922089 0.3243844570517187 0 -0.25910260253645218 0.33523110656146687 0 -0.2790455690922089 0.3243844570517187 0 -0.26824012707650141 0.34000504592112352 0 -0.28146834572906437 0.33465123959114113 0 -0.2790455690922089 0.3243844570517187 0 -0.26824012707650141 0.34000504592112352 0 -0.2790455690922089 0.3243844570517187 0 -0.26824012707650141 0.34000504592112352 0 -0.25910260253645218 0.33523110656146687 0 -0.28146834572906437 0.33465123959114113 0 -0.26824012707650141 0.34000504592112352 0 -0.28224162025157051 0.34582573333151501 0 -0.25910260253645218 0.33523110656146687 0 -0.25407523553642281 0.3497448278934856 0 -0.23915963598069589 0.34607775607121571 0 -0.25910260253645218 0.33523110656146687 0 -0.25407523553642281 0.3497448278934856 0 -0.26309588156361569 0.34576168367824162 0 -0.26824012707650141 0.34000504592112352 0 -0.25910260253645218 0.33523110656146687 0 -0.26309588156361569 0.34576168367824162 0 -0.25910260253645218 0.33523110656146687 0 -0.25451497659773847 0.32559442806853028 0 -0.24843663428782739 0.33758714710907461 0 -0.25451497659773847 0.32559442806853028 0 -0.25901197930261888 0.31383205914145501 0 -0.24885494741763489 0.31718848033418301 0 -0.25451497659773847 0.32559442806853028 0 -0.25901197930261888 0.31383205914145501 0 -0.26368222169044719 0.32126413599590953 0 -0.25901197930261888 0.31383205914145501 0 -0.26528599585519008 0.31471464054907522 0 -0.26368222169044719 0.32126413599590953 0 -0.27001263578126711 0.32263717043347712 0 -0.25910260253645218 0.33523110656146687 0 -0.26368222169044719 0.32126413599590953 0 -0.25910260253645218 0.33523110656146687 0 -0.25451497659773847 0.32559442806853028 0 -0.26368222169044719 0.32126413599590953 0 -0.26470209097228098 0.37140351159401941 0 -0.25562758441007077 0.36194187249828802 0 -0.266880351992417 0.3582272519812631 0 -0.26470209097228098 0.37140351159401941 0 -0.25213085833087667 0.37355178257669552 0 -0.25562758441007077 0.36194187249828802 0 -0.25213085833087667 0.37355178257669552 0 -0.25562758441007077 0.36194187249828802 0 -0.24329038266145239 0.36134909741814653 0 -0.25562758441007077 0.36194187249828802 0 -0.25407523553642281 0.3497448278934856 0 -0.24329038266145239 0.36134909741814653 0 -0.25407523553642281 0.3497448278934856 0 -0.26309588156361569 0.34576168367824162 0 -0.266880351992417 0.3582272519812631 0 -0.25562758441007077 0.36194187249828802 0 -0.25407523553642281 0.3497448278934856 0 -0.266880351992417 0.3582272519812631 0 -0.266880351992417 0.3582272519812631 0 -0.27640009279511962 0.35155878343443242 0 -0.28837447244510311 0.36628710188532532 0 -0.26309588156361569 0.34576168367824162 0 -0.266880351992417 0.3582272519812631 0 -0.27640009279511962 0.35155878343443242 0 -0.26824012707650141 0.34000504592112352 0 -0.26309588156361569 0.34576168367824162 0 -0.27640009279511962 0.35155878343443242 0 -0.26824012707650141 0.34000504592112352 0 -0.27640009279511962 0.35155878343443242 0 -0.28224162025157051 0.34582573333151501 0 -0.266880351992417 0.3582272519812631 0 -0.28837447244510311 0.36628710188532532 0 -0.266880351992417 0.3582272519812631 0 -0.28837447244510311 0.36628710188532532 0 -0.27747916353329311 0.37529003384729942 0 -0.26470209097228098 0.37140351159401941 0 -0.266880351992417 0.3582272519812631 0 -0.27747916353329311 0.37529003384729942 0 -0.28837447244510311 0.36628710188532532 0 -0.28714059247178902 0.37543321948423419 0 -0.27747916353329311 0.37529003384729942 0 -0.28837447244510311 0.36628710188532532 0 -0.28956810344150979 0.35324588380912608 0 -0.30292150033679799 0.36018321991941088 0 -0.28837447244510311 0.36628710188532532 0 -0.29874239202075642 0.37528196759933868 0 -0.28714059247178902 0.37543321948423419 0 -0.28224162025157051 0.34582573333151501 0 -0.3017933608705089 0.344447887165377 0 -0.28224162025157051 0.34582573333151501 0 -0.28956810344150979 0.35324588380912608 0 -0.3017933608705089 0.344447887165377 0 -0.27640009279511962 0.35155878343443242 0 -0.28224162025157051 0.34582573333151501 0 -0.28956810344150979 0.35324588380912608 0 -0.27640009279511962 0.35155878343443242 0 -0.28837447244510311 0.36628710188532532 0 -0.28956810344150979 0.35324588380912608 0 -0.3017933608705089 0.344447887165377 0 -0.31193410579265052 0.3536039280541286 0 -0.30292150033679799 0.36018321991941088 0 -0.28956810344150979 0.35324588380912608 0 -0.3017933608705089 0.344447887165377 0 -0.30292150033679799 0.36018321991941088 0 -0.3017933608705089 0.344447887165377 0 -0.32134510148944728 0.34307004099923799 0 -0.3017933608705089 0.344447887165377 0 -0.31193410579265052 0.3536039280541286 0 -0.32134510148944728 0.34307004099923799 0 -0.31193410579265052 0.3536039280541286 0 -0.30292150033679799 0.36018321991941088 0 -0.31340485972314069 0.36375751913665871 0 -0.28837447244510311 0.36628710188532532 0 -0.30292150033679799 0.36018321991941088 0 -0.30986859289778912 0.37434695178938759 0 -0.28837447244510311 0.36628710188532532 0 -0.30986859289778912 0.37434695178938759 0 -0.28837447244510311 0.36628710188532532 0 -0.30986859289778912 0.37434695178938759 0 -0.29874239202075642 0.37528196759933868 0 -0.30292150033679799 0.36018321991941088 0 -0.30986859289778912 0.37434695178938759 0 -0.31340485972314069 0.36375751913665871 0 -0.30986859289778912 0.37434695178938759 0 -0.31340485972314069 0.36375751913665871 0 -0.32167824364597858 0.36970754211250728 0 -0.31340485972314069 0.36375751913665871 0 -0.32243327870136801 0.35950699838777223 0 -0.32167824364597858 0.36970754211250728 0 -0.32243327870136801 0.35950699838777223 0 -0.32167824364597858 0.36970754211250728 0 -0.33132177355711989 0.36851943955526861 0 -0.32167824364597858 0.36970754211250728 0 -0.33132177355711989 0.36851943955526861 0 -0.33136271335047512 0.38240680169344993 0 -0.32243327870136801 0.35950699838777223 0 -0.33132177355711989 0.36851943955526861 0 -0.33989838930305449 0.35721367281084643 0 -0.33132177355711989 0.36851943955526861 0 -0.34304766554360439 0.37232322735168022 0 -0.33136271335047512 0.38240680169344993 0 -0.33132177355711989 0.36851943955526861 0 -0.34304766554360439 0.37232322735168022 0 -0.33989838930305449 0.35721367281084643 0 -0.33989838930305449 0.35721367281084643 0 -0.32134510148944728 0.34307004099923799 0 -0.33989838930305449 0.35721367281084643 0 -0.32134510148944728 0.34307004099923799 0 -0.3500233487104954 0.34104903357308669 0 -0.32243327870136801 0.35950699838777223 0 -0.33989838930305449 0.35721367281084643 0 -0.32134510148944728 0.34307004099923799 0 -0.31193410579265052 0.3536039280541286 0 -0.32243327870136801 0.35950699838777223 0 -0.32134510148944728 0.34307004099923799 0 -0.31193410579265052 0.3536039280541286 0 -0.31340485972314069 0.36375751913665871 0 -0.32243327870136801 0.35950699838777223 0 -0.30538608464820588 0.33090408634228141 0 -0.32134510148944728 0.34307004099923799 0 -0.30538608464820588 0.33090408634228141 0 -0.32134510148944728 0.34307004099923799 0 -0.31811651498789978 0.32488887006413791 0 -0.32134510148944728 0.34307004099923799 0 -0.31811651498789978 0.32488887006413791 0 -0.33459812393413729 0.32207732583041709 0 -0.31699951866320542 0.30755322334125379 0 -0.30563014257680821 0.31779627416788381 0 -0.31811651498789978 0.32488887006413791 0 -0.31699951866320542 0.30755322334125379 0 -0.31811651498789978 0.32488887006413791 0 -0.33459812393413729 0.32207732583041709 0 -0.32134510148944728 0.34307004099923799 0 -0.34342889555096417 0.33131534648734451 0 -0.3500233487104954 0.34104903357308669 0 -0.32134510148944728 0.34307004099923799 0 -0.33459812393413729 0.32207732583041709 0 -0.34342889555096417 0.33131534648734451 0 -0.32134510148944728 0.34307004099923799 0 -0.3500233487104954 0.34104903357308669 0 -0.3500233487104954 0.34104903357308669 0 -0.35650114511620551 0.33294276438790088 0 -0.36794029410566942 0.33226259727897972 0 -0.34342889555096417 0.33131534648734451 0 -0.3500233487104954 0.34104903357308669 0 -0.35650114511620551 0.33294276438790088 0 -0.33459812393413729 0.32207732583041709 0 -0.34342889555096417 0.33131534648734451 0 -0.35467675850453528 0.31743756764607989 0 -0.34344143829887858 0.30736403781452232 0 -0.33459812393413729 0.32207732583041709 0 -0.35467675850453528 0.31743756764607989 0 -0.35650114511620551 0.33294276438790088 0 -0.35467675850453528 0.31743756764607989 0 -0.36272901898995358 0.31473918551029578 0 -0.34342889555096417 0.33131534648734451 0 -0.35650114511620551 0.33294276438790088 0 -0.35467675850453528 0.31743756764607989 0 -0.35650114511620551 0.33294276438790088 0 -0.36272901898995358 0.31473918551029578 0 -0.37415321332832258 0.31386652142517069 0 -0.35650114511620551 0.33294276438790088 0 -0.37415321332832258 0.31386652142517069 0 -0.35650114511620551 0.33294276438790088 0 -0.37442838800096029 0.32044424157556423 0 -0.37415321332832258 0.31386652142517069 0 -0.37816355277066899 0.32985684687273281 0 -0.37442838800096029 0.32044424157556423 0 -0.36794029410566942 0.33226259727897972 0 -0.3787015959315434 0.33902802614693439 0 -0.3500233487104954 0.34104903357308669 0 -0.36794029410566942 0.33226259727897972 0 -0.35650114511620551 0.33294276438790088 0 -0.37442838800096029 0.32044424157556423 0 -0.36794029410566942 0.33226259727897972 0 -0.3787015959315434 0.33902802614693439 0 -0.3500233487104954 0.34104903357308669 0 -0.3787015959315434 0.33902802614693439 0 -0.37816355277066899 0.32985684687273281 0 -0.36794029410566942 0.33226259727897972 0 -0.3787015959315434 0.33902802614693439 0 -0.3500233487104954 0.34104903357308669 0 -0.36501658974902518 0.35367198233662939 0 -0.37823932191431281 0.35548757599615399 0 -0.3787015959315434 0.33902802614693439 0 -0.36501658974902518 0.35367198233662939 0 -0.37823932191431281 0.35548757599615399 0 -0.36501658974902518 0.35367198233662939 0 -0.37024808467873749 0.36543132639488701 0 -0.36501658974902518 0.35367198233662939 0 -0.37024808467873749 0.36543132639488701 0 -0.35845167711666143 0.37135730462245548 0 -0.37949655700884349 0.37153259571527891 0 -0.37024808467873749 0.36543132639488701 0 -0.36758280318953013 0.37627165255961892 0 -0.37024808467873749 0.36543132639488701 0 -0.35845167711666143 0.37135730462245548 0 -0.36758280318953013 0.37627165255961892 0 -0.36501658974902518 0.35367198233662939 0 -0.35845167711666143 0.37135730462245548 0 -0.35334750121980912 0.35582299833575448 0 -0.34304766554360439 0.37232322735168022 0 -0.33989838930305449 0.35721367281084643 0 -0.35845167711666143 0.37135730462245548 0 -0.33989838930305449 0.35721367281084643 0 -0.35845167711666143 0.37135730462245548 0 -0.35334750121980912 0.35582299833575448 0 -0.33989838930305449 0.35721367281084643 0 -0.35845167711666143 0.37135730462245548 0 -0.33989838930305449 0.35721367281084643 0 -0.3500233487104954 0.34104903357308669 0 -0.35334750121980912 0.35582299833575448 0 -0.3500233487104954 0.34104903357308669 0 -0.36501658974902518 0.35367198233662939 0 -0.35334750121980912 0.35582299833575448 0 -0.35285683380316007 0.39046665159751448 0 -0.36027192889352422 0.40897543894708011 0 -0.34270265381785459 0.40768080501023862 0 -0.34304766554360439 0.37232322735168022 0 -0.35845167711666143 0.37135730462245548 0 -0.35285683380316007 0.39046665159751448 0 -0.37686086334024771 0.38257038446795849 0 -0.35285683380316007 0.39046665159751448 0 -0.37686086334024771 0.38257038446795849 0 -0.35285683380316007 0.39046665159751448 0 -0.36758280318953013 0.37627165255961892 0 -0.35845167711666143 0.37135730462245548 0 -0.35285683380316007 0.39046665159751448 0 -0.36758280318953013 0.37627165255961892 0 -0.37686086334024771 0.38257038446795849 0 -0.37949655700884349 0.37153259571527891 0 -0.36758280318953013 0.37627165255961892 0 -0.37769092578324193 0.39977892163450779 0 -0.35285683380316007 0.39046665159751448 0 -0.37769092578324193 0.39977892163450779 0 -0.37686086334024771 0.38257038446795849 0 -0.35285683380316007 0.39046665159751448 0 -0.37769092578324193 0.39977892163450779 0 -0.35285683380316007 0.39046665159751448 0 -0.36027192889352422 0.40897543894708011 0 -0.37875820238401509 0.42613984176471847 0 -0.37769092578324193 0.39977892163450779 0 -0.36027192889352422 0.40897543894708011 0 -0.37875820238401509 0.42613984176471847 0 -0.36027192889352422 0.40897543894708011 0 -0.36048507512927641 0.42545129427310208 0 -0.37875820238401509 0.42613984176471847 0 -0.36048507512927641 0.42545129427310208 0 -0.35499138700470761 0.44318849185793469 0 -0.37875820238401509 0.42613984176471847 0 -0.35499138700470761 0.44318849185793469 0 -0.34691622899781399 0.42161541908905831 0 -0.33223168701086447 0.43660936806356893 0 -0.35499138700470761 0.44318849185793469 0 -0.36048507512927641 0.42545129427310208 0 -0.34691622899781399 0.42161541908905831 0 -0.35499138700470761 0.44318849185793469 0 -0.36027192889352422 0.40897543894708011 0 -0.34691622899781399 0.42161541908905831 0 -0.34270265381785459 0.40768080501023862 0 -0.36027192889352422 0.40897543894708011 0 -0.36048507512927641 0.42545129427310208 0 -0.34691622899781399 0.42161541908905831 0 -0.34270265381785459 0.40768080501023862 0 -0.32841174735063311 0.41773478988879181 0 -0.32505653004414181 0.39961172552874852 0 -0.34691622899781399 0.42161541908905831 0 -0.34270265381785459 0.40768080501023862 0 -0.32841174735063311 0.41773478988879181 0 -0.34691622899781399 0.42161541908905831 0 -0.32841174735063311 0.41773478988879181 0 -0.33223168701086447 0.43660936806356893 0 -0.32841174735063311 0.41773478988879181 0 -0.33223168701086447 0.43660936806356893 0 -0.31148998866141242 0.43181261152586448 0 -0.32841174735063311 0.41773478988879181 0 -0.31441363705571701 0.41408607272300291 0 -0.32505653004414181 0.39961172552874852 0 -0.32841174735063311 0.41773478988879181 0 -0.31441363705571701 0.41408607272300291 0 -0.31148998866141242 0.43181261152586448 0 -0.32505653004414181 0.39961172552874852 0 -0.31219235154091651 0.39185403334122892 0 -0.30619500853749271 0.39725637532293351 0 -0.32505653004414181 0.39961172552874852 0 -0.31778050989885959 0.38527433798844479 0 -0.31219235154091651 0.39185403334122892 0 -0.35285683380316007 0.39046665159751448 0 -0.32505653004414181 0.39961172552874852 0 -0.33136271335047512 0.38240680169344993 0 -0.35285683380316007 0.39046665159751448 0 -0.34270265381785459 0.40768080501023862 0 -0.32505653004414181 0.39961172552874852 0 -0.35285683380316007 0.39046665159751448 0 -0.32505653004414181 0.39961172552874852 0 -0.35285683380316007 0.39046665159751448 0 -0.33136271335047512 0.38240680169344993 0 -0.34304766554360439 0.37232322735168022 0 -0.35285683380316007 0.39046665159751448 0 -0.33136271335047512 0.38240680169344993 0 -0.30986859289778912 0.37434695178938759 0 -0.32167824364597858 0.36970754211250728 0 -0.33136271335047512 0.38240680169344993 0 -0.30986859289778912 0.37434695178938759 0 -0.33136271335047512 0.38240680169344993 0 -0.32505653004414181 0.39961172552874852 0 -0.33136271335047512 0.38240680169344993 0 -0.31778050989885959 0.38527433798844479 0 -0.30986859289778912 0.37434695178938759 0 -0.33136271335047512 0.38240680169344993 0 -0.31778050989885959 0.38527433798844479 0 -0.30986859289778912 0.37434695178938759 0 -0.31778050989885959 0.38527433798844479 0 -0.30574515252343709 0.38648905476423068 0 -0.30986859289778912 0.37434695178938759 0 -0.30574515252343709 0.38648905476423068 0 -0.29874239202075642 0.37528196759933868 0 -0.30574515252343709 0.38648905476423068 0 -0.29874239202075642 0.37528196759933868 0 -0.29146244090030071 0.40289140707507309 0 -0.31778050989885959 0.38527433798844479 0 -0.30574515252343709 0.38648905476423068 0 -0.31219235154091651 0.39185403334122892 0 -0.32505653004414181 0.39961172552874852 0 -0.30619500853749271 0.39725637532293351 0 -0.29725622628512233 0.40875679945997928 0 -0.32505653004414181 0.39961172552874852 0 -0.29725622628512233 0.40875679945997928 0 -0.30574515252343709 0.38648905476423068 0 -0.30619500853749271 0.39725637532293351 0 -0.29146244090030071 0.40289140707507309 0 -0.30574515252343709 0.38648905476423068 0 -0.31219235154091651 0.39185403334122892 0 -0.30619500853749271 0.39725637532293351 0 -0.30619500853749271 0.39725637532293351 0 -0.29146244090030071 0.40289140707507309 0 -0.29725622628512233 0.40875679945997928 0 -0.29146244090030071 0.40289140707507309 0 -0.2882496590958894 0.39023794275143442 0 -0.278827461574497 0.39790462172635238 0 -0.28396634188800352 0.38487377460497352 0 -0.2882496590958894 0.39023794275143442 0 -0.278827461574497 0.39790462172635238 0 -0.29146244090030071 0.40289140707507309 0 -0.278827461574497 0.39790462172635238 0 -0.27940045790464241 0.41220012044695847 0 -0.29874239202075642 0.37528196759933868 0 -0.29146244090030071 0.40289140707507309 0 -0.29874239202075642 0.37528196759933868 0 -0.29146244090030071 0.40289140707507309 0 -0.2882496590958894 0.39023794275143442 0 -0.29874239202075642 0.37528196759933868 0 -0.28396634188800352 0.38487377460497352 0 -0.28714059247178902 0.37543321948423419 0 -0.29874239202075642 0.37528196759933868 0 -0.28396634188800352 0.38487377460497352 0 -0.2882496590958894 0.39023794275143442 0 -0.28396634188800352 0.38487377460497352 0 -0.28714059247178902 0.37543321948423419 0 -0.27747916353329311 0.37529003384729942 0 -0.28396634188800352 0.38487377460497352 0 -0.27747916353329311 0.37529003384729942 0 -0.26775424033426293 0.38456849691175748 0 -0.28396634188800352 0.38487377460497352 0 -0.26775424033426293 0.38456849691175748 0 -0.278827461574497 0.39790462172635238 0 -0.26470209097228098 0.37140351159401941 0 -0.27747916353329311 0.37529003384729942 0 -0.26775424033426293 0.38456849691175748 0 -0.278827461574497 0.39790462172635238 0 -0.26298604578065232 0.3973558675440883 0 -0.2677584473194361 0.40899541659639099 0 -0.26775424033426293 0.38456849691175748 0 -0.278827461574497 0.39790462172635238 0 -0.26298604578065232 0.3973558675440883 0 -0.26298604578065232 0.3973558675440883 0 -0.25152819264859128 0.38883491631829081 0 -0.2490618870264745 0.40647588616764979 0 -0.26298604578065232 0.3973558675440883 0 -0.2677584473194361 0.40899541659639099 0 -0.2490618870264745 0.40647588616764979 0 -0.25213085833087667 0.37355178257669552 0 -0.26775424033426293 0.38456849691175748 0 -0.25152819264859128 0.38883491631829081 0 -0.26775424033426293 0.38456849691175748 0 -0.26298604578065232 0.3973558675440883 0 -0.25152819264859128 0.38883491631829081 0 -0.26470209097228098 0.37140351159401941 0 -0.25213085833087667 0.37355178257669552 0 -0.26775424033426293 0.38456849691175748 0 -0.2572482915111563 0.42152384209731297 0 -0.26330490497154813 0.43976041958731371 0 -0.24092688658692171 0.43286849171069308 0 -0.2572482915111563 0.42152384209731297 0 -0.27163392734069919 0.42205675226444578 0 -0.26330490497154813 0.43976041958731371 0 -0.2572482915111563 0.42152384209731297 0 -0.2677584473194361 0.40899541659639099 0 -0.2490618870264745 0.40647588616764979 0 -0.2572482915111563 0.42152384209731297 0 -0.2677584473194361 0.40899541659639099 0 -0.27163392734069919 0.42205675226444578 0 -0.27940045790464241 0.41220012044695847 0 -0.27163392734069919 0.42205675226444578 0 -0.28418248977984512 0.43050084655080739 0 -0.2677584473194361 0.40899541659639099 0 -0.27940045790464241 0.41220012044695847 0 -0.27163392734069919 0.42205675226444578 0 -0.278827461574497 0.39790462172635238 0 -0.2677584473194361 0.40899541659639099 0 -0.27940045790464241 0.41220012044695847 0 -0.27163392734069919 0.42205675226444578 0 -0.28418248977984512 0.43050084655080739 0 -0.26330490497154813 0.43976041958731371 0 -0.28418248977984512 0.43050084655080739 0 -0.29943060469912958 0.42576946359573847 0 -0.28981068171355151 0.44369098771903792 0 -0.29146244090030071 0.40289140707507309 0 -0.28418248977984512 0.43050084655080739 0 -0.29146244090030071 0.40289140707507309 0 -0.27940045790464241 0.41220012044695847 0 -0.28418248977984512 0.43050084655080739 0 -0.28418248977984512 0.43050084655080739 0 -0.29725622628512233 0.40875679945997928 0 -0.29943060469912958 0.42576946359573847 0 -0.29146244090030071 0.40289140707507309 0 -0.28418248977984512 0.43050084655080739 0 -0.29725622628512233 0.40875679945997928 0 -0.31441363705571701 0.41408607272300291 0 -0.32505653004414181 0.39961172552874852 0 -0.29725622628512233 0.40875679945997928 0 -0.31441363705571701 0.41408607272300291 0 -0.29725622628512233 0.40875679945997928 0 -0.29943060469912958 0.42576946359573847 0 -0.31441363705571701 0.41408607272300291 0 -0.29943060469912958 0.42576946359573847 0 -0.31148998866141242 0.43181261152586448 0 -0.29943060469912958 0.42576946359573847 0 -0.31148998866141242 0.43181261152586448 0 -0.28981068171355151 0.44369098771903792 0 -0.31148998866141242 0.43181261152586448 0 -0.30120616623050861 0.45239726712555162 0 -0.31718999816658727 0.45065056632578487 0 -0.31148998866141242 0.43181261152586448 0 -0.30120616623050861 0.45239726712555162 0 -0.31148998866141242 0.43181261152586448 0 -0.30120616623050861 0.45239726712555162 0 -0.28981068171355151 0.44369098771903792 0 -0.30120616623050861 0.45239726712555162 0 -0.29092234379960469 0.47298192272523881 0 -0.30745775624609217 0.47728579204436761 0 -0.30120616623050861 0.45239726712555162 0 -0.30745775624609217 0.47728579204436761 0 -0.31718999816658727 0.45065056632578487 0 -0.2852957606144535 0.45730244818253718 0 -0.28186649269177161 0.46567885888970018 0 -0.29092234379960469 0.47298192272523881 0 -0.30120616623050861 0.45239726712555162 0 -0.29092234379960469 0.47298192272523881 0 -0.30120616623050861 0.45239726712555162 0 -0.2852957606144535 0.45730244818253718 0 -0.29092234379960469 0.47298192272523881 0 -0.2852957606144535 0.45730244818253718 0 -0.28186649269177161 0.46567885888970018 0 -0.27690253865938408 0.45811028602654041 0 -0.28418248977984512 0.43050084655080739 0 -0.28981068171355151 0.44369098771903792 0 -0.27690253865938408 0.45811028602654041 0 -0.30120616623050861 0.45239726712555162 0 -0.2852957606144535 0.45730244818253718 0 -0.28981068171355151 0.44369098771903792 0 -0.2852957606144535 0.45730244818253718 0 -0.28981068171355151 0.44369098771903792 0 -0.27690253865938408 0.45811028602654041 0 -0.28418248977984512 0.43050084655080739 0 -0.27690253865938408 0.45811028602654041 0 -0.28418248977984512 0.43050084655080739 0 -0.27690253865938408 0.45811028602654041 0 -0.26330490497154813 0.43976041958731371 0 -0.2852957606144535 0.45730244818253718 0 -0.27690253865938408 0.45811028602654041 0 -0.28186649269177161 0.46567885888970018 0 -0.27690253865938408 0.45811028602654041 0 -0.27835780074514338 0.47366975871288508 0 -0.27690253865938408 0.45811028602654041 0 -0.25345677561811758 0.46036691342989022 0 -0.27690253865938408 0.45811028602654041 0 -0.25345677561811758 0.46036691342989022 0 -0.26590293397843329 0.47057525233348851 0 -0.25345677561811758 0.46036691342989022 0 -0.25315469521642581 0.4750486889203015 0 -0.26590293397843329 0.47057525233348851 0 -0.25345677561811758 0.46036691342989022 0 -0.26330490497154813 0.43976041958731371 0 -0.24129970279445639 0.44943490890582899 0 -0.27690253865938408 0.45811028602654041 0 -0.25345677561811758 0.46036691342989022 0 -0.26330490497154813 0.43976041958731371 0 -0.26169037092037989 0.4910190989046625 0 -0.25397816739109252 0.5 0 -0.27113802145370669 0.49283981386083792 0 -0.26169037092037989 0.4910190989046625 0 -0.25474868654415728 0.48692894813519849 0 -0.26689660829256312 0.48430763362261348 0 -0.26169037092037989 0.4910190989046625 0 -0.25397816739109252 0.5 0 -0.25474868654415728 0.48692894813519849 0 -0.25315469521642581 0.4750486889203015 0 -0.26689660829256312 0.48430763362261348 0 -0.25315469521642581 0.4750486889203015 0 -0.26689660829256312 0.48430763362261348 0 -0.26590293397843329 0.47057525233348851 0 -0.25474868654415728 0.48692894813519849 0 -0.25315469521642581 0.4750486889203015 0 -0.26689660829256312 0.48430763362261348 0 -0.27690253865938408 0.45811028602654041 0 -0.26590293397843329 0.47057525233348851 0 -0.26946370716205509 0.4860372782758946 0 -0.27690253865938408 0.45811028602654041 0 -0.26946370716205509 0.4860372782758946 0 -0.27690253865938408 0.45811028602654041 0 -0.27835780074514338 0.47366975871288508 0 -0.26946370716205509 0.4860372782758946 0 -0.26689660829256312 0.48430763362261348 0 -0.26590293397843329 0.47057525233348851 0 -0.26946370716205509 0.4860372782758946 0 -0.28186649269177161 0.46567885888970018 0 -0.27835780074514338 0.47366975871288508 0 -0.28298297564177088 0.4743823417855309 0 -0.27835780074514338 0.47366975871288508 0 -0.2798907507987049 0.48286402398659151 0 -0.28298297564177088 0.4743823417855309 0 -0.27835780074514338 0.47366975871288508 0 -0.2798907507987049 0.48286402398659151 0 -0.26946370716205509 0.4860372782758946 0 -0.26946370716205509 0.4860372782758946 0 -0.28063852136870049 0.49356657832492562 0 -0.26946370716205509 0.4860372782758946 0 -0.27113802145370669 0.49283981386083792 0 -0.28063852136870049 0.49356657832492562 0 -0.2798907507987049 0.48286402398659151 0 -0.26946370716205509 0.4860372782758946 0 -0.28063852136870049 0.49356657832492562 0 -0.25397816739109252 0.5 0 -0.27113802145370669 0.49283981386083792 0 -0.27742446875513049 0.50000000000000155 0 -0.26689660829256312 0.48430763362261348 0 -0.26946370716205509 0.4860372782758946 0 -0.27113802145370669 0.49283981386083792 0 -0.26169037092037989 0.4910190989046625 0 -0.26689660829256312 0.48430763362261348 0 -0.27113802145370669 0.49283981386083792 0 -0.26689660829256312 0.48430763362261348 0 -0.26946370716205509 0.4860372782758946 0 -0.27113802145370669 0.49283981386083792 0 -0.28063852136870049 0.49356657832492562 0 -0.27742446875513049 0.50000000000000155 0 -0.28063852136870049 0.49356657832492562 0 -0.27742446875513049 0.50000000000000155 0 -0.28063852136870049 0.49356657832492562 0 -0.27742446875513049 0.50000000000000155 0 -0.29018685806186229 0.50000000000000122 0 -0.28063852136870049 0.49356657832492562 0 -0.29018685806186229 0.50000000000000122 0 -0.29092234379960469 0.47298192272523881 0 -0.28063852136870049 0.49356657832492562 0 -0.29018685806186229 0.50000000000000122 0 -0.29018685806186229 0.50000000000000122 0 -0.29092234379960469 0.47298192272523881 0 -0.30745775624609217 0.47728579204436761 0 -0.28063852136870049 0.49356657832492562 0 -0.29092234379960469 0.47298192272523881 0 -0.2798907507987049 0.48286402398659151 0 -0.28063852136870049 0.49356657832492562 0 -0.29092234379960469 0.47298192272523881 0 -0.28186649269177161 0.46567885888970018 0 -0.28298297564177088 0.4743823417855309 0 -0.29092234379960469 0.47298192272523881 0 -0.2798907507987049 0.48286402398659151 0 -0.28298297564177088 0.4743823417855309 0 -0.29092234379960469 0.47298192272523881 0 -0.29018685806186229 0.50000000000000122 0 -0.30745775624609217 0.47728579204436761 0 -0.3640375775585698 0.5 0 -0.30745775624609217 0.47728579204436761 0 -0.33122457162539992 0.46023714195115112 0 -0.3640375775585698 0.5 0 -0.30745775624609217 0.47728579204436761 0 -0.33122457162539992 0.46023714195115112 0 -0.30745775624609217 0.47728579204436761 0 -0.31718999816658727 0.45065056632578487 0 -0.33122457162539992 0.46023714195115112 0 -0.33223168701086447 0.43660936806356893 0 -0.31148998866141242 0.43181261152586448 0 -0.31718999816658727 0.45065056632578487 0 -0.33223168701086447 0.43660936806356893 0 -0.31718999816658727 0.45065056632578487 0 -0.33122457162539992 0.46023714195115112 0 -0.33122457162539992 0.46023714195115112 0 -0.35499138700470761 0.44318849185793469 0 -0.33223168701086447 0.43660936806356893 0 -0.33122457162539992 0.46023714195115112 0 -0.35499138700470761 0.44318849185793469 0 -0.33122457162539992 0.46023714195115112 0 -0.35376164566254242 0.46494380824906301 0 -0.35499138700470761 0.44318849185793469 0 -0.38249991962136642 0.44345487931465249 0 -0.35499138700470761 0.44318849185793469 0 -0.37103467036260362 0.45695891695805302 0 -0.38249991962136642 0.44345487931465249 0 -0.37875820238401509 0.42613984176471847 0 -0.35499138700470761 0.44318849185793469 0 -0.35376164566254242 0.46494380824906301 0 -0.35499138700470761 0.44318849185793469 0 -0.37103467036260362 0.45695891695805302 0 -0.35376164566254242 0.46494380824906301 0 -0.37103467036260362 0.45695891695805302 0 -0.36943712044780219 0.47475959506207249 0 -0.33122457162539992 0.46023714195115112 0 -0.35376164566254242 0.46494380824906301 0 -0.3640375775585698 0.5 0 -0.38891458820749281 0.47713565504117422 0 -0.36943712044780219 0.47475959506207249 0 -0.3640375775585698 0.5 0 -0.35376164566254242 0.46494380824906301 0 -0.36943712044780219 0.47475959506207249 0 -0.3640375775585698 0.5 0 -0.1410608215807003 0.47118489318428192 0 -0.1506389915883973 0.47451242435581331 0 -0.15779819732271971 0.4695739402503486 0 -0.1410608215807003 0.47118489318428192 0 -0.15779819732271971 0.4695739402503486 0 -0.1455325599989582 0.47665965757352818 0 -0.14983465253105441 0.48099067897208148 0 -0.1405957742956809 0.47995063378193648 0 -0.14983465253105441 0.48099067897208148 0 -0.14427471349546869 0.48965289008050411 0 -0.1405957742956809 0.47995063378193648 0 -0.1455325599989582 0.47665965757352818 0 -0.1410608215807003 0.47118489318428192 0 -0.1506389915883973 0.47451242435581331 0 -0.1455325599989582 0.47665965757352818 0 -0.1410608215807003 0.47118489318428192 0 -0.1405957742956809 0.47995063378193648 0 -0.1506389915883973 0.47451242435581331 0 -0.15682389603308189 0.47748605108520858 0 -0.15779819732271971 0.4695739402503486 0 -0.1506389915883973 0.47451242435581331 0 -0.14983465253105441 0.48099067897208148 0 -0.15682389603308189 0.47748605108520858 0 -0.1455325599989582 0.47665965757352818 0 -0.1506389915883973 0.47451242435581331 0 -0.14983465253105441 0.48099067897208148 0 -0.14983465253105441 0.48099067897208148 0 -0.1558122254133027 0.48316327461493752 0 -0.15682389603308189 0.47748605108520858 0 -0.14983465253105441 0.48099067897208148 0 -0.1558122254133027 0.48316327461493752 0 -0.15140604362779489 0.486968875654338 0 -0.1558122254133027 0.48316327461493752 0 -0.15140604362779489 0.486968875654338 0 -0.15545271364459581 0.49281799385228547 0 -0.14983465253105441 0.48099067897208148 0 -0.15140604362779489 0.486968875654338 0 -0.14427471349546869 0.48965289008050411 0 -0.15140604362779489 0.486968875654338 0 -0.15545271364459581 0.49281799385228547 0 -0.14427471349546869 0.48965289008050411 0 -0.15453849507163009 0.5 0 -0.14427471349546869 0.48965289008050411 0 -0.12543772684428189 0.5 0 -0.15453849507163009 0.5 0 -0.15545271364459581 0.49281799385228547 0 -0.14427471349546869 0.48965289008050411 0 -0.14427471349546869 0.48965289008050411 0 -0.12543772684428189 0.5 0 -0.13178312884530541 0.48627570230508688 0 -0.14427471349546869 0.48965289008050411 0 -0.13178312884530541 0.48627570230508688 0 -0.1405957742956809 0.47995063378193648 0 -0.13178312884530541 0.48627570230508688 0 -0.1317912103042716 0.47600940211286807 0 -0.11642361318749669 0.48420448820259387 0 -0.1317912103042716 0.47600940211286807 0 -0.14083201439797821 0.46516349611765162 0 -0.12052644250191399 0.4682622397032008 0 -0.13178312884530541 0.48627570230508688 0 -0.1405957742956809 0.47995063378193648 0 -0.1317912103042716 0.47600940211286807 0 -0.1410608215807003 0.47118489318428192 0 -0.1405957742956809 0.47995063378193648 0 -0.1317912103042716 0.47600940211286807 0 -0.1410608215807003 0.47118489318428192 0 -0.1317912103042716 0.47600940211286807 0 -0.14083201439797821 0.46516349611765162 0 -0.12618187852634369 0.45882241462805679 0 -0.14083201439797821 0.46516349611765162 0 -0.12052644250191399 0.4682622397032008 0 -0.14083201439797821 0.46516349611765162 0 -0.12052644250191399 0.4682622397032008 0 -0.12618187852634369 0.45882241462805679 0 -0.13621980461969219 0.45775649261309698 0 -0.13482926781972801 0.45201676164804122 0 -0.13621980461969219 0.45775649261309698 0 -0.13482926781972801 0.45201676164804122 0 -0.1430360577347192 0.45502329805863873 0 -0.13621980461969219 0.45775649261309698 0 -0.14083201439797821 0.46516349611765162 0 -0.1430360577347192 0.45502329805863873 0 -0.12618187852634369 0.45882241462805679 0 -0.13621980461969219 0.45775649261309698 0 -0.14083201439797821 0.46516349611765162 0 -0.12618187852634369 0.45882241462805679 0 -0.13482926781972801 0.45201676164804122 0 -0.1248743097581413 0.44162978393037222 0 -0.13482926781972801 0.45201676164804122 0 -0.13973201497409549 0.44099892737807922 0 -0.1415241139788854 0.4488412036993919 0 -0.13482926781972801 0.45201676164804122 0 -0.1415241139788854 0.4488412036993919 0 -0.1430360577347192 0.45502329805863873 0 -0.13973201497409549 0.44099892737807922 0 -0.13491063247587859 0.43073185275000708 0 -0.1248743097581413 0.44162978393037222 0 -0.13482926781972801 0.45201676164804122 0 -0.13973201497409549 0.44099892737807922 0 -0.1248743097581413 0.44162978393037222 0 -0.13973201497409549 0.44099892737807922 0 -0.14849911538699881 0.44732582771280882 0 -0.14949031039727409 0.43903968606904947 0 -0.14849911538699881 0.44732582771280882 0 -0.1430360577347192 0.45502329805863873 0 -0.15230793746503779 0.45507497120342549 0 -0.13973201497409549 0.44099892737807922 0 -0.1415241139788854 0.4488412036993919 0 -0.14849911538699881 0.44732582771280882 0 -0.1415241139788854 0.4488412036993919 0 -0.14849911538699881 0.44732582771280882 0 -0.1430360577347192 0.45502329805863873 0 -0.14849911538699881 0.44732582771280882 0 -0.15230793746503779 0.45507497120342549 0 -0.15767924869329919 0.44641741059368378 0 -0.14949031039727409 0.43903968606904947 0 -0.15767924869329919 0.44641741059368378 0 -0.15912083936695831 0.4347249498771325 0 -0.14849911538699881 0.44732582771280882 0 -0.14949031039727409 0.43903968606904947 0 -0.15767924869329919 0.44641741059368378 0 -0.14083201439797821 0.46516349611765162 0 -0.16113758629404229 0.46206475253210239 0 -0.15779819732271971 0.4695739402503486 0 -0.1410608215807003 0.47118489318428192 0 -0.14083201439797821 0.46516349611765162 0 -0.15779819732271971 0.4695739402503486 0 -0.14083201439797821 0.46516349611765162 0 -0.16113758629404229 0.46206475253210239 0 -0.14083201439797821 0.46516349611765162 0 -0.15230793746503779 0.45507497120342549 0 -0.16113758629404229 0.46206475253210239 0 -0.14083201439797821 0.46516349611765162 0 -0.1430360577347192 0.45502329805863873 0 -0.15230793746503779 0.45507497120342549 0 -0.16113758629404229 0.46206475253210239 0 -0.16940388650370539 0.44815354093755089 0 -0.18144315819010631 0.45896600894655282 0 -0.16113758629404229 0.46206475253210239 0 -0.18144315819010631 0.45896600894655282 0 -0.16113758629404229 0.46206475253210239 0 -0.17453557306473899 0.46796298731641428 0 -0.15779819732271971 0.4695739402503486 0 -0.15230793746503779 0.45507497120342549 0 -0.16113758629404229 0.46206475253210239 0 -0.16013216473902109 0.45292766881669072 0 -0.16113758629404229 0.46206475253210239 0 -0.16013216473902109 0.45292766881669072 0 -0.16940388650370539 0.44815354093755089 0 -0.15767924869329919 0.44641741059368378 0 -0.16940388650370539 0.44815354093755089 0 -0.15912083936695831 0.4347249498771325 0 -0.15230793746503779 0.45507497120342549 0 -0.16013216473902109 0.45292766881669072 0 -0.15767924869329919 0.44641741059368378 0 -0.16013216473902109 0.45292766881669072 0 -0.15767924869329919 0.44641741059368378 0 -0.16940388650370539 0.44815354093755089 0 -0.1829590266345629 0.45699162349075462 0 -0.18255950863604661 0.43173185523385532 0 -0.1829590266345629 0.45699162349075462 0 -0.19557533522393281 0.44055915781337712 0 -0.18255950863604661 0.43173185523385532 0 -0.16940388650370539 0.44815354093755089 0 -0.1829590266345629 0.45699162349075462 0 -0.18255950863604661 0.43173185523385532 0 -0.16113758629404229 0.46206475253210239 0 -0.17453557306473899 0.46796298731641428 0 -0.18144315819010631 0.45896600894655282 0 -0.17453557306473899 0.46796298731641428 0 -0.18144315819010631 0.45896600894655282 0 -0.17453557306473899 0.46796298731641428 0 -0.18311948649431831 0.46713679563994498 0 -0.16940388650370539 0.44815354093755089 0 -0.18144315819010631 0.45896600894655282 0 -0.1829590266345629 0.45699162349075462 0 -0.18144315819010631 0.45896600894655282 0 -0.1829590266345629 0.45699162349075462 0 -0.18144315819010631 0.45896600894655282 0 -0.1829865290739871 0.45873048193697258 0 -0.1829590266345629 0.45699162349075462 0 -0.18144315819010631 0.45896600894655282 0 -0.1829865290739871 0.45873048193697258 0 -0.1829865290739871 0.45873048193697258 0 -0.1829590266345629 0.45699162349075462 0 -0.17453557306473899 0.46796298731641428 0 -0.18144315819010631 0.45896600894655282 0 -0.18311948649431831 0.46713679563994498 0 -0.1829865290739871 0.45873048193697258 0 -0.18311948649431831 0.46713679563994498 0 -0.18144315819010631 0.45896600894655282 0 -0.1829865290739871 0.45873048193697258 0 -0.18311948649431831 0.46713679563994498 0 -0.18311948649431831 0.46713679563994498 0 -0.18337937489664821 0.48356839781997168 0 -0.19511197543601369 0.47606725323690458 0 -0.18311948649431831 0.46713679563994498 0 -0.18337937489664821 0.48356839781997168 0 -0.18311948649431831 0.46713679563994498 0 -0.18337937489664821 0.48356839781997168 0 -0.17485937494801759 0.47808814193434568 0 -0.17453557306473899 0.46796298731641428 0 -0.18311948649431831 0.46713679563994498 0 -0.17485937494801759 0.47808814193434568 0 -0.17453557306473899 0.46796298731641428 0 -0.15779819732271971 0.4695739402503486 0 -0.17453557306473899 0.46796298731641428 0 -0.16499414335466689 0.48039049058434952 0 -0.17453557306473899 0.46796298731641428 0 -0.16499414335466689 0.48039049058434952 0 -0.15779819732271971 0.4695739402503486 0 -0.17453557306473899 0.46796298731641428 0 -0.17485937494801759 0.47808814193434568 0 -0.16499414335466689 0.48039049058434952 0 -0.17485937494801759 0.47808814193434568 0 -0.16499414335466689 0.48039049058434952 0 -0.1699453859209171 0.49288017845899518 0 -0.1558122254133027 0.48316327461493752 0 -0.16499414335466689 0.48039049058434952 0 -0.15682389603308189 0.47748605108520858 0 -0.16499414335466689 0.48039049058434952 0 -0.15682389603308189 0.47748605108520858 0 -0.15779819732271971 0.4695739402503486 0 -0.15453849507163009 0.5 0 -0.1699453859209171 0.49288017845899518 0 -0.18363926329897839 0.49999999999999828 0 -0.15453849507163009 0.5 0 -0.15545271364459581 0.49281799385228547 0 -0.1699453859209171 0.49288017845899518 0 -0.15545271364459581 0.49281799385228547 0 -0.16499414335466689 0.48039049058434952 0 -0.1699453859209171 0.49288017845899518 0 -0.15545271364459581 0.49281799385228547 0 -0.16499414335466689 0.48039049058434952 0 -0.1558122254133027 0.48316327461493752 0 -0.15545271364459581 0.49281799385228547 0 -0.16499414335466689 0.48039049058434952 0 -0.18337937489664821 0.48356839781997168 0 -0.18363926329897839 0.49999999999999828 0 -0.18337937489664821 0.48356839781997168 0 -0.1699453859209171 0.49288017845899518 0 -0.18363926329897839 0.49999999999999828 0 -0.18337937489664821 0.48356839781997168 0 -0.17485937494801759 0.47808814193434568 0 -0.1699453859209171 0.49288017845899518 0 -0.18337937489664821 0.48356839781997168 0 -0.18363926329897839 0.49999999999999828 0 -0.19848883175809501 0.48685236178056529 0 -0.18363926329897839 0.49999999999999828 0 -0.19848883175809501 0.48685236178056529 0 -0.20708556466301639 0.5 0 -0.18311948649431831 0.46713679563994498 0 -0.19511197543601369 0.47606725323690458 0 -0.20656524953558469 0.46488016823659339 0 -0.18337937489664821 0.48356839781997168 0 -0.19848883175809501 0.48685236178056529 0 -0.19511197543601369 0.47606725323690458 0 -0.19848883175809501 0.48685236178056529 0 -0.19511197543601369 0.47606725323690458 0 -0.206747867840962 0.47700509082497228 0 -0.19511197543601369 0.47606725323690458 0 -0.206747867840962 0.47700509082497228 0 -0.20656524953558469 0.46488016823659339 0 -0.19848883175809501 0.48685236178056529 0 -0.206747867840962 0.47700509082497228 0 -0.21585796601610141 0.48648558657266339 0 -0.206747867840962 0.47700509082497228 0 -0.21852396914967101 0.47285401242330122 0 -0.20656524953558469 0.46488016823659339 0 -0.206747867840962 0.47700509082497228 0 -0.21852396914967101 0.47285401242330122 0 -0.21585796601610141 0.48648558657266339 0 -0.20708556466301639 0.5 0 -0.21585796601610141 0.48648558657266339 0 -0.23053186602705439 0.5 0 -0.19848883175809501 0.48685236178056529 0 -0.20708556466301639 0.5 0 -0.21585796601610141 0.48648558657266339 0 -0.21585796601610141 0.48648558657266339 0 -0.23053186602705439 0.5 0 -0.2373192826940049 0.48342253064983348 0 -0.21852396914967101 0.47285401242330122 0 -0.2373192826940049 0.48342253064983348 0 -0.23001101257685119 0.46262354083324181 0 -0.21852396914967101 0.47285401242330122 0 -0.21585796601610141 0.48648558657266339 0 -0.2373192826940049 0.48342253064983348 0 -0.25474868654415728 0.48692894813519849 0 -0.25315469521642581 0.4750486889203015 0 -0.2373192826940049 0.48342253064983348 0 -0.25315469521642581 0.4750486889203015 0 -0.2373192826940049 0.48342253064983348 0 -0.23001101257685119 0.46262354083324181 0 -0.25397816739109252 0.5 0 -0.23053186602705439 0.5 0 -0.2373192826940049 0.48342253064983348 0 -0.25397816739109252 0.5 0 -0.25474868654415728 0.48692894813519849 0 -0.2373192826940049 0.48342253064983348 0 -0.26330490497154813 0.43976041958731371 0 -0.24129970279445639 0.44943490890582899 0 -0.24092688658692171 0.43286849171069308 0 -0.24129970279445639 0.44943490890582899 0 -0.2242493546558077 0.44235471361969553 0 -0.24092688658692171 0.43286849171069308 0 -0.25345677561811758 0.46036691342989022 0 -0.23001101257685119 0.46262354083324181 0 -0.25345677561811758 0.46036691342989022 0 -0.24129970279445639 0.44943490890582899 0 -0.23001101257685119 0.46262354083324181 0 -0.25345677561811758 0.46036691342989022 0 -0.25315469521642581 0.4750486889203015 0 -0.23001101257685119 0.46262354083324181 0 -0.24129970279445639 0.44943490890582899 0 -0.23001101257685119 0.46262354083324181 0 -0.2242493546558077 0.44235471361969553 0 -0.23001101257685119 0.46262354083324181 0 -0.2242493546558077 0.44235471361969553 0 -0.2144914677851314 0.45380351874251162 0 -0.2242493546558077 0.44235471361969553 0 -0.20880164963731279 0.443380440886459 0 -0.2144914677851314 0.45380351874251162 0 -0.20880164963731279 0.443380440886459 0 -0.2144914677851314 0.45380351874251162 0 -0.20415969833182021 0.45549933815243238 0 -0.23001101257685119 0.46262354083324181 0 -0.2144914677851314 0.45380351874251162 0 -0.20656524953558469 0.46488016823659339 0 -0.21852396914967101 0.47285401242330122 0 -0.23001101257685119 0.46262354083324181 0 -0.20656524953558469 0.46488016823659339 0 -0.23001101257685119 0.46262354083324181 0 -0.20656524953558469 0.46488016823659339 0 -0.2144914677851314 0.45380351874251162 0 -0.20415969833182021 0.45549933815243238 0 -0.20656524953558469 0.46488016823659339 0 -0.1829865290739871 0.45873048193697258 0 -0.1829590266345629 0.45699162349075462 0 -0.20415969833182021 0.45549933815243238 0 -0.1829865290739871 0.45873048193697258 0 -0.20415969833182021 0.45549933815243238 0 -0.18311948649431831 0.46713679563994498 0 -0.20415969833182021 0.45549933815243238 0 -0.20656524953558469 0.46488016823659339 0 -0.1829865290739871 0.45873048193697258 0 -0.18311948649431831 0.46713679563994498 0 -0.20415969833182021 0.45549933815243238 0 -0.18311948649431831 0.46713679563994498 0 -0.20656524953558469 0.46488016823659339 0 -0.1829590266345629 0.45699162349075462 0 -0.19557533522393281 0.44055915781337712 0 -0.1829590266345629 0.45699162349075462 0 -0.20415969833182021 0.45549933815243238 0 -0.19557533522393281 0.44055915781337712 0 -0.20880164963731279 0.443380440886459 0 -0.20415969833182021 0.45549933815243238 0 -0.19557533522393281 0.44055915781337712 0 -0.19557533522393281 0.44055915781337712 0 -0.20819164381331129 0.42412669213600601 0 -0.19557533522393281 0.44055915781337712 0 -0.19413142888046839 0.4217351031076268 0 -0.18255950863604661 0.43173185523385532 0 -0.19557533522393281 0.44055915781337712 0 -0.19413142888046839 0.4217351031076268 0 -0.20819164381331129 0.42412669213600601 0 -0.19413142888046839 0.4217351031076268 0 -0.20819164381331129 0.42412669213600601 0 -0.2021706660915297 0.40578572337793972 0 -0.19413142888046839 0.4217351031076268 0 -0.2021706660915297 0.40578572337793972 0 -0.18215999063752189 0.40647208697695608 0 -0.20819164381331129 0.42412669213600601 0 -0.22405449890785839 0.40643558214578251 0 -0.2021706660915297 0.40578572337793972 0 -0.20880164963731279 0.443380440886459 0 -0.19557533522393281 0.44055915781337712 0 -0.20819164381331129 0.42412669213600601 0 -0.2242493546558077 0.44235471361969553 0 -0.20880164963731279 0.443380440886459 0 -0.20819164381331129 0.42412669213600601 0 -0.2242493546558077 0.44235471361969553 0 -0.20819164381331129 0.42412669213600601 0 -0.22600929792909111 0.42518400498706249 0 -0.2242493546558077 0.44235471361969553 0 -0.22600929792909111 0.42518400498706249 0 -0.24092688658692171 0.43286849171069308 0 -0.20819164381331129 0.42412669213600601 0 -0.22600929792909111 0.42518400498706249 0 -0.22405449890785839 0.40643558214578251 0 -0.22600929792909111 0.42518400498706249 0 -0.22405449890785839 0.40643558214578251 0 -0.2382988550227183 0.41778448946306668 0 -0.2572482915111563 0.42152384209731297 0 -0.2382988550227183 0.41778448946306668 0 -0.2490618870264745 0.40647588616764979 0 -0.22405449890785839 0.40643558214578251 0 -0.2382988550227183 0.41778448946306668 0 -0.2490618870264745 0.40647588616764979 0 -0.2572482915111563 0.42152384209731297 0 -0.2382988550227183 0.41778448946306668 0 -0.24092688658692171 0.43286849171069308 0 -0.22600929792909111 0.42518400498706249 0 -0.2382988550227183 0.41778448946306668 0 -0.24092688658692171 0.43286849171069308 0 -0.24000210142933509 0.37809552861286783 0 -0.23801773827758249 0.39392053259368742 0 -0.22567210936962789 0.38582584627882549 0 -0.25152819264859128 0.38883491631829081 0 -0.24000210142933509 0.37809552861286783 0 -0.23801773827758249 0.39392053259368742 0 -0.25213085833087667 0.37355178257669552 0 -0.25152819264859128 0.38883491631829081 0 -0.24000210142933509 0.37809552861286783 0 -0.25152819264859128 0.38883491631829081 0 -0.2490618870264745 0.40647588616764979 0 -0.23801773827758249 0.39392053259368742 0 -0.22405449890785839 0.40643558214578251 0 -0.2490618870264745 0.40647588616764979 0 -0.23801773827758249 0.39392053259368742 0 -0.22405449890785839 0.40643558214578251 0 -0.22567210936962789 0.38582584627882549 0 -0.2099895612515065 0.38861519238670661 0 -0.22405449890785839 0.40643558214578251 0 -0.23801773827758249 0.39392053259368742 0 -0.22567210936962789 0.38582584627882549 0 -0.22567210936962789 0.38582584627882549 0 -0.21752164111765379 0.37637519474985792 0 -0.23054114355980421 0.3681661286558337 0 -0.24000210142933509 0.37809552861286783 0 -0.22567210936962789 0.38582584627882549 0 -0.23054114355980421 0.3681661286558337 0 -0.22567210936962789 0.38582584627882549 0 -0.21752164111765379 0.37637519474985792 0 -0.2099895612515065 0.38861519238670661 0 -0.21752164111765379 0.37637519474985792 0 -0.2099895612515065 0.38861519238670661 0 -0.20825127389149589 0.37038948781896619 0 -0.2099895612515065 0.38861519238670661 0 -0.1956253707180633 0.37355818799515828 0 -0.20825127389149589 0.37038948781896619 0 -0.22405449890785839 0.40643558214578251 0 -0.2099895612515065 0.38861519238670661 0 -0.2021706660915297 0.40578572337793972 0 -0.2021706660915297 0.40578572337793972 0 -0.19434121226752371 0.39112870189136351 0 -0.18215999063752189 0.40647208697695608 0 -0.2099895612515065 0.38861519238670661 0 -0.2021706660915297 0.40578572337793972 0 -0.19434121226752371 0.39112870189136351 0 -0.2099895612515065 0.38861519238670661 0 -0.19434121226752371 0.39112870189136351 0 -0.1956253707180633 0.37355818799515828 0 -0.19434121226752371 0.39112870189136351 0 -0.18176047263899719 0.38121231872005679 0 -0.1956253707180633 0.37355818799515828 0 -0.18176047263899719 0.38121231872005679 0 -0.16585623702428451 0.39107516703040651 0 -0.16689278400863089 0.37048631692620287 0 -0.16585623702428451 0.39107516703040651 0 -0.1532541744773912 0.375434017343177 0 -0.15169756500005979 0.38990146883471011 0 -0.16585623702428451 0.39107516703040651 0 -0.1532541744773912 0.375434017343177 0 -0.16689278400863089 0.37048631692620287 0 -0.16585623702428451 0.39107516703040651 0 -0.1665369108918931 0.40914444316194981 0 -0.1556916669008335 0.40278409093046019 0 -0.16585623702428451 0.39107516703040651 0 -0.18215999063752189 0.40647208697695608 0 -0.1665369108918931 0.40914444316194981 0 -0.16585623702428451 0.39107516703040651 0 -0.15169756500005979 0.38990146883471011 0 -0.1556916669008335 0.40278409093046019 0 -0.18176047263899719 0.38121231872005679 0 -0.16585623702428451 0.39107516703040651 0 -0.18215999063752189 0.40647208697695608 0 -0.18176047263899719 0.38121231872005679 0 -0.18215999063752189 0.40647208697695608 0 -0.19434121226752371 0.39112870189136351 0 -0.18176047263899719 0.38121231872005679 0 -0.18215999063752189 0.40647208697695608 0 -0.18215999063752189 0.40647208697695608 0 -0.18255950863604661 0.43173185523385532 0 -0.18215999063752189 0.40647208697695608 0 -0.16958367679162159 0.42493542776846188 0 -0.1665369108918931 0.40914444316194981 0 -0.19413142888046839 0.4217351031076268 0 -0.18215999063752189 0.40647208697695608 0 -0.18255950863604661 0.43173185523385532 0 -0.18215999063752189 0.40647208697695608 0 -0.18255950863604661 0.43173185523385532 0 -0.16958367679162159 0.42493542776846188 0 -0.16940388650370539 0.44815354093755089 0 -0.18255950863604661 0.43173185523385532 0 -0.16958367679162159 0.42493542776846188 0 -0.16940388650370539 0.44815354093755089 0 -0.16958367679162159 0.42493542776846188 0 -0.15912083936695831 0.4347249498771325 0 -0.16958367679162159 0.42493542776846188 0 -0.15912083936695831 0.4347249498771325 0 -0.15604886632200479 0.41831593774319042 0 -0.16958367679162159 0.42493542776846188 0 -0.1665369108918931 0.40914444316194981 0 -0.15604886632200479 0.41831593774319042 0 -0.1665369108918931 0.40914444316194981 0 -0.15604886632200479 0.41831593774319042 0 -0.1556916669008335 0.40278409093046019 0 -0.15604886632200479 0.41831593774319042 0 -0.14768726638806501 0.40958107086639878 0 -0.1556916669008335 0.40278409093046019 0 -0.15604886632200479 0.41831593774319042 0 -0.1455440964649429 0.41771164433310332 0 -0.14575226394851429 0.42876386523653243 0 -0.15604886632200479 0.41831593774319042 0 -0.1455440964649429 0.41771164433310332 0 -0.14768726638806501 0.40958107086639878 0 -0.1455440964649429 0.41771164433310332 0 -0.14768726638806501 0.40958107086639878 0 -0.13820848934052041 0.41088683445876423 0 -0.15912083936695831 0.4347249498771325 0 -0.15604886632200479 0.41831593774319042 0 -0.14575226394851429 0.42876386523653243 0 -0.14949031039727409 0.43903968606904947 0 -0.15912083936695831 0.4347249498771325 0 -0.14575226394851429 0.42876386523653243 0 -0.1455440964649429 0.41771164433310332 0 -0.14575226394851429 0.42876386523653243 0 -0.13557398954387551 0.42076075412316039 0 -0.13973201497409549 0.44099892737807922 0 -0.14949031039727409 0.43903968606904947 0 -0.14575226394851429 0.42876386523653243 0 -0.13491063247587859 0.43073185275000708 0 -0.1242188050129694 0.42501783294758849 0 -0.1248743097581413 0.44162978393037222 0 -0.13973201497409549 0.44099892737807922 0 -0.14575226394851429 0.42876386523653243 0 -0.13491063247587859 0.43073185275000708 0 -0.14575226394851429 0.42876386523653243 0 -0.13491063247587859 0.43073185275000708 0 -0.13557398954387551 0.42076075412316039 0 -0.13491063247587859 0.43073185275000708 0 -0.13557398954387551 0.42076075412316039 0 -0.1242188050129694 0.42501783294758849 0 -0.13820848934052041 0.41088683445876423 0 -0.13557398954387551 0.42076075412316039 0 -0.12623023605756489 0.41143854881348008 0 -0.1455440964649429 0.41771164433310332 0 -0.13820848934052041 0.41088683445876423 0 -0.13557398954387551 0.42076075412316039 0 -0.13557398954387551 0.42076075412316039 0 -0.12623023605756489 0.41143854881348008 0 -0.1242188050129694 0.42501783294758849 0 -0.13820848934052041 0.41088683445876423 0 -0.12623023605756489 0.41143854881348008 0 -0.13398515235888339 0.40371564514020769 0 -0.12997925716256209 0.39431640422262348 0 -0.14074253368576661 0.38200722200303072 0 -0.1429432129120235 0.39820684686647628 0 -0.12623023605756489 0.41143854881348008 0 -0.13398515235888339 0.40371564514020769 0 -0.12997925716256209 0.39431640422262348 0 -0.13398515235888339 0.40371564514020769 0 -0.12997925716256209 0.39431640422262348 0 -0.1429432129120235 0.39820684686647628 0 -0.13820848934052041 0.41088683445876423 0 -0.13398515235888339 0.40371564514020769 0 -0.1429432129120235 0.39820684686647628 0 -0.12997925716256209 0.39431640422262348 0 -0.14074253368576661 0.38200722200303072 0 -0.12523428666698541 0.37069662222368049 0 -0.12997925716256209 0.39431640422262348 0 -0.12523428666698541 0.37069662222368049 0 -0.12103247972044499 0.39311621374447298 0 -0.14074253368576661 0.38200722200303072 0 -0.15169756500005979 0.38990146883471011 0 -0.1429432129120235 0.39820684686647628 0 -0.14074253368576661 0.38200722200303072 0 -0.1532541744773912 0.375434017343177 0 -0.15169756500005979 0.38990146883471011 0 -0.15169756500005979 0.38990146883471011 0 -0.1556916669008335 0.40278409093046019 0 -0.1429432129120235 0.39820684686647628 0 -0.14768726638806501 0.40958107086639878 0 -0.1556916669008335 0.40278409093046019 0 -0.1429432129120235 0.39820684686647628 0 -0.14768726638806501 0.40958107086639878 0 -0.13820848934052041 0.41088683445876423 0 -0.1429432129120235 0.39820684686647628 0 -0.14407255521749979 0.34403263722221961 0 -0.15504053286571459 0.3545366000593369 0 -0.14129669608781389 0.36249735492572199 0 -0.14407255521749979 0.34403263722221961 0 -0.15504053286571459 0.3545366000593369 0 -0.1549481930100888 0.34056708499864929 0 -0.14074253368576661 0.38200722200303072 0 -0.1532541744773912 0.375434017343177 0 -0.14129669608781389 0.36249735492572199 0 -0.1532541744773912 0.375434017343177 0 -0.15504053286571459 0.3545366000593369 0 -0.14129669608781389 0.36249735492572199 0 -0.14129669608781389 0.36249735492572199 0 -0.12523428666698541 0.37069662222368049 0 -0.1294360936135257 0.3482770307028879 0 -0.12523428666698541 0.37069662222368049 0 -0.1294360936135257 0.3482770307028879 0 -0.14074253368576661 0.38200722200303072 0 -0.14129669608781389 0.36249735492572199 0 -0.12523428666698541 0.37069662222368049 0 -0.14407255521749979 0.34403263722221961 0 -0.14129669608781389 0.36249735492572199 0 -0.1294360936135257 0.3482770307028879 0 -0.1294360936135257 0.3482770307028879 0 -0.13363790056006589 0.32585743918209531 0 -0.14407255521749979 0.34403263722221961 0 -0.1294360936135257 0.3482770307028879 0 -0.13363790056006589 0.32585743918209531 0 -0.1294360936135257 0.3482770307028879 0 -0.13363790056006589 0.32585743918209531 0 -0.1154499742120704 0.34086754873962172 0 -0.12722248981549561 0.3181430308760943 0 -0.13363790056006589 0.32585743918209531 0 -0.1360408951285694 0.3130357752318072 0 -0.12722248981549561 0.3181430308760943 0 -0.1360408951285694 0.3130357752318072 0 -0.12136448477009221 0.30951812845445109 0 -0.12722248981549561 0.3181430308760943 0 -0.13363790056006589 0.32585743918209531 0 -0.12142985306419619 0.32461006626398298 0 -0.13363790056006589 0.32585743918209531 0 -0.12142985306419619 0.32461006626398298 0 -0.13363790056006589 0.32585743918209531 0 -0.1360408951285694 0.3130357752318072 0 -0.14290423209994971 0.32095809222069871 0 -0.13363790056006589 0.32585743918209531 0 -0.1360408951285694 0.3130357752318072 0 -0.14290423209994971 0.32095809222069871 0 -0.1532404752523272 0.32269894785805692 0 -0.1464174014568787 0.29836992735667278 0 -0.13363790056006589 0.32585743918209531 0 -0.14290423209994971 0.32095809222069871 0 -0.15729966860100811 0.32827511069417059 0 -0.13363790056006589 0.32585743918209531 0 -0.15729966860100811 0.32827511069417059 0 -0.14290423209994971 0.32095809222069871 0 -0.1532404752523272 0.32269894785805692 0 -0.15729966860100811 0.32827511069417059 0 -0.1532404752523272 0.32269894785805692 0 -0.15943794807189979 0.31595908059817063 0 -0.1547819877644892 0.3091453549012102 0 -0.14407255521749979 0.34403263722221961 0 -0.13363790056006589 0.32585743918209531 0 -0.14748957934716561 0.33468306802428371 0 -0.13363790056006589 0.32585743918209531 0 -0.14748957934716561 0.33468306802428371 0 -0.15729966860100811 0.32827511069417059 0 -0.14748957934716561 0.33468306802428371 0 -0.1549481930100888 0.34056708499864929 0 -0.15729966860100811 0.32827511069417059 0 -0.14407255521749979 0.34403263722221961 0 -0.14748957934716561 0.33468306802428371 0 -0.1549481930100888 0.34056708499864929 0 -0.15729966860100811 0.32827511069417059 0 -0.18096143664194889 0.33069278220625808 0 -0.1549481930100888 0.34056708499864929 0 -0.15729966860100811 0.32827511069417059 0 -0.16781010436956259 0.34240718275037813 0 -0.15729966860100811 0.32827511069417059 0 -0.16781010436956259 0.34240718275037813 0 -0.18096143664194889 0.33069278220625808 0 -0.15729966860100811 0.32827511069417059 0 -0.17028988351433311 0.32233995817617028 0 -0.18096143664194889 0.33069278220625808 0 -0.15943794807189979 0.31595908059817063 0 -0.16495134068588049 0.31685297469802859 0 -0.1638395481514221 0.30983277085387728 0 -0.1532404752523272 0.32269894785805692 0 -0.15943794807189979 0.31595908059817063 0 -0.16037638850537991 0.32126535467967993 0 -0.15943794807189979 0.31595908059817063 0 -0.16037638850537991 0.32126535467967993 0 -0.16495134068588049 0.31685297469802859 0 -0.15729966860100811 0.32827511069417059 0 -0.16037638850537991 0.32126535467967993 0 -0.17028988351433311 0.32233995817617028 0 -0.1532404752523272 0.32269894785805692 0 -0.15729966860100811 0.32827511069417059 0 -0.16037638850537991 0.32126535467967993 0 -0.16495134068588049 0.31685297469802859 0 -0.17285953122972289 0.31090601179704258 0 -0.1638395481514221 0.30983277085387728 0 -0.17028988351433311 0.32233995817617028 0 -0.16495134068588049 0.31685297469802859 0 -0.17285953122972289 0.31090601179704258 0 -0.16037638850537991 0.32126535467967993 0 -0.17028988351433311 0.32233995817617028 0 -0.16495134068588049 0.31685297469802859 0 -0.18077272512400111 0.31876138179813301 0 -0.17285953122972289 0.31090601179704258 0 -0.17028988351433311 0.32233995817617028 0 -0.18077272512400111 0.31876138179813301 0 -0.17285953122972289 0.31090601179704258 0 -0.17028988351433311 0.32233995817617028 0 -0.18077272512400111 0.31876138179813301 0 -0.18096143664194889 0.33069278220625808 0 -0.18077272512400111 0.31876138179813301 0 -0.19386790912735871 0.33176087567547108 0 -0.18077272512400111 0.31876138179813301 0 -0.18096143664194889 0.33069278220625808 0 -0.18077272512400111 0.31876138179813301 0 -0.18096143664194889 0.33069278220625808 0 -0.19386790912735871 0.33176087567547108 0 -0.18096143664194889 0.33069278220625808 0 -0.1813609546404725 0.35595255046315749 0 -0.18096143664194889 0.33069278220625808 0 -0.1813609546404725 0.35595255046315749 0 -0.19258948339875709 0.33633707034479371 0 -0.16781010436956259 0.34240718275037813 0 -0.18096143664194889 0.33069278220625808 0 -0.1813609546404725 0.35595255046315749 0 -0.18096143664194889 0.33069278220625808 0 -0.19386790912735871 0.33176087567547108 0 -0.15504053286571459 0.3545366000593369 0 -0.16781010436956259 0.34240718275037813 0 -0.1813609546404725 0.35595255046315749 0 -0.15504053286571459 0.3545366000593369 0 -0.1549481930100888 0.34056708499864929 0 -0.16781010436956259 0.34240718275037813 0 -0.1532541744773912 0.375434017343177 0 -0.15504053286571459 0.3545366000593369 0 -0.16689278400863089 0.37048631692620287 0 -0.15504053286571459 0.3545366000593369 0 -0.1813609546404725 0.35595255046315749 0 -0.16689278400863089 0.37048631692620287 0 -0.18176047263899719 0.38121231872005679 0 -0.1813609546404725 0.35595255046315749 0 -0.18176047263899719 0.38121231872005679 0 -0.1813609546404725 0.35595255046315749 0 -0.1956253707180633 0.37355818799515828 0 -0.18176047263899719 0.38121231872005679 0 -0.1813609546404725 0.35595255046315749 0 -0.16689278400863089 0.37048631692620287 0 -0.1813609546404725 0.35595255046315749 0 -0.1956253707180633 0.37355818799515828 0 -0.2000380028121157 0.35856944723279938 0 -0.1956253707180633 0.37355818799515828 0 -0.2000380028121157 0.35856944723279938 0 -0.20825127389149589 0.37038948781896619 0 -0.1813609546404725 0.35595255046315749 0 -0.1951678646333711 0.34883535218340811 0 -0.19258948339875709 0.33633707034479371 0 -0.1813609546404725 0.35595255046315749 0 -0.1951678646333711 0.34883535218340811 0 -0.2000380028121157 0.35856944723279938 0 -0.1951678646333711 0.34883535218340811 0 -0.2000380028121157 0.35856944723279938 0 -0.20668301768213909 0.34448234069288158 0 -0.20668301768213909 0.34448234069288158 0 -0.2120127789660084 0.36084248239747968 0 -0.21921666942493959 0.3569244055809645 0 -0.2000380028121157 0.35856944723279938 0 -0.20668301768213909 0.34448234069288158 0 -0.2120127789660084 0.36084248239747968 0 -0.2120127789660084 0.36084248239747968 0 -0.21921666942493959 0.3569244055809645 0 -0.20668301768213909 0.34448234069288158 0 -0.21921666942493959 0.3569244055809645 0 -0.22158808080033929 0.34557455345049992 0 -0.20668301768213909 0.34448234069288158 0 -0.21921666942493959 0.3569244055809645 0 -0.2000380028121157 0.35856944723279938 0 -0.20825127389149589 0.37038948781896619 0 -0.2120127789660084 0.36084248239747968 0 -0.2120127789660084 0.36084248239747968 0 -0.2199937556016836 0.36693485901855288 0 -0.21921666942493959 0.3569244055809645 0 -0.20825127389149589 0.37038948781896619 0 -0.2120127789660084 0.36084248239747968 0 -0.2199937556016836 0.36693485901855288 0 -0.21752164111765379 0.37637519474985792 0 -0.20825127389149589 0.37038948781896619 0 -0.2199937556016836 0.36693485901855288 0 -0.21752164111765379 0.37637519474985792 0 -0.23054114355980421 0.3681661286558337 0 -0.2199937556016836 0.36693485901855288 0 -0.23054114355980421 0.3681661286558337 0 -0.21921666942493959 0.3569244055809645 0 -0.23305195790672301 0.35812934693154008 0 -0.23054114355980421 0.3681661286558337 0 -0.2199937556016836 0.36693485901855288 0 -0.21921666942493959 0.3569244055809645 0 -0.23054114355980421 0.3681661286558337 0 -0.21921666942493959 0.3569244055809645 0 -0.21921666942493959 0.3569244055809645 0 -0.22158808080033929 0.34557455345049992 0 -0.23915963598069589 0.34607775607121571 0 -0.21921666942493959 0.3569244055809645 0 -0.23915963598069589 0.34607775607121571 0 -0.21921666942493959 0.3569244055809645 0 -0.23305195790672301 0.35812934693154008 0 -0.23915963598069589 0.34607775607121571 0 -0.23305195790672301 0.35812934693154008 0 -0.23915963598069589 0.34607775607121571 0 -0.24329038266145239 0.36134909741814653 0 -0.25407523553642281 0.3497448278934856 0 -0.23915963598069589 0.34607775607121571 0 -0.24329038266145239 0.36134909741814653 0 -0.25213085833087667 0.37355178257669552 0 -0.24000210142933509 0.37809552861286783 0 -0.24329038266145239 0.36134909741814653 0 -0.24000210142933509 0.37809552861286783 0 -0.23054114355980421 0.3681661286558337 0 -0.24329038266145239 0.36134909741814653 0 -0.23054114355980421 0.3681661286558337 0 -0.23305195790672301 0.35812934693154008 0 -0.24329038266145239 0.36134909741814653 0 -0.23582541811145999 0.32679902143390172 0 -0.24885494741763489 0.31718848033418301 0 -0.23189508169276829 0.30076725351495531 0 -0.23582541811145999 0.32679902143390172 0 -0.24885494741763489 0.31718848033418301 0 -0.24633099797708269 0.32737693631841108 0 -0.25451497659773847 0.32559442806853028 0 -0.24885494741763489 0.31718848033418301 0 -0.24633099797708269 0.32737693631841108 0 -0.24843663428782739 0.33758714710907461 0 -0.22129300011358269 0.33481371145693772 0 -0.25451497659773847 0.32559442806853028 0 -0.24633099797708269 0.32737693631841108 0 -0.24843663428782739 0.33758714710907461 0 -0.25910260253645218 0.33523110656146687 0 -0.23915963598069589 0.34607775607121571 0 -0.23582541811145999 0.32679902143390172 0 -0.24633099797708269 0.32737693631841108 0 -0.24843663428782739 0.33758714710907461 0 -0.25910260253645218 0.33523110656146687 0 -0.23915963598069589 0.34607775607121571 0 -0.24843663428782739 0.33758714710907461 0 -0.23582541811145999 0.32679902143390172 0 -0.24843663428782739 0.33758714710907461 0 -0.22129300011358269 0.33481371145693772 0 -0.23915963598069589 0.34607775607121571 0 -0.24843663428782739 0.33758714710907461 0 -0.22129300011358269 0.33481371145693772 0 -0.22158808080033929 0.34557455345049992 0 -0.23915963598069589 0.34607775607121571 0 -0.22129300011358269 0.33481371145693772 0 -0.23582541811145999 0.32679902143390172 0 -0.21954464392232159 0.31820766509236142 0 -0.23189508169276829 0.30076725351495531 0 -0.23582541811145999 0.32679902143390172 0 -0.22129300011358269 0.33481371145693772 0 -0.21954464392232159 0.31820766509236142 0 -0.21954464392232159 0.31820766509236142 0 -0.20492818889453221 0.32276220977772679 0 -0.20060783596013981 0.3076349397264902 0 -0.22129300011358269 0.33481371145693772 0 -0.21954464392232159 0.31820766509236142 0 -0.20492818889453221 0.32276220977772679 0 -0.22129300011358269 0.33481371145693772 0 -0.20492818889453221 0.32276220977772679 0 -0.19386790912735871 0.33176087567547108 0 -0.22129300011358269 0.33481371145693772 0 -0.19386790912735871 0.33176087567547108 0 -0.20668301768213909 0.34448234069288158 0 -0.22129300011358269 0.33481371145693772 0 -0.19386790912735871 0.33176087567547108 0 -0.20668301768213909 0.34448234069288158 0 -0.22158808080033929 0.34557455345049992 0 -0.22129300011358269 0.33481371145693772 0 -0.20668301768213909 0.34448234069288158 0 -0.19386790912735871 0.33176087567547108 0 -0.19258948339875709 0.33633707034479371 0 -0.20668301768213909 0.34448234069288158 0 -0.19386790912735871 0.33176087567547108 0 -0.1951678646333711 0.34883535218340811 0 -0.20668301768213909 0.34448234069288158 0 -0.19258948339875709 0.33633707034479371 0 -0.18096143664194889 0.33069278220625808 0 -0.19386790912735871 0.33176087567547108 0 -0.19258948339875709 0.33633707034479371 0 -0.19386790912735871 0.33176087567547108 0 -0.19258948339875709 0.33633707034479371 0 -0.18077272512400111 0.31876138179813301 0 -0.19386790912735871 0.33176087567547108 0 -0.20060783596013981 0.3076349397264902 0 -0.20492818889453221 0.32276220977772679 0 -0.19386790912735871 0.33176087567547108 0 -0.20060783596013981 0.3076349397264902 0 -0.19386790912735871 0.33176087567547108 0 -0.20060783596013981 0.3076349397264902 0 -0.20060783596013981 0.3076349397264902 0 -0.20734776279292019 0.28350900377750898 0 -0.23189508169276829 0.30076725351495531 0 -0.21954464392232159 0.31820766509236142 0 -0.20060783596013981 0.3076349397264902 0 -0.23189508169276829 0.30076725351495531 0 -0.20060783596013981 0.3076349397264902 0 -0.20734776279292019 0.28350900377750898 0 -0.18034630435624241 0.29180066960649809 0 -0.20734776279292019 0.28350900377750898 0 -0.19375927737912041 0.2730469699042487 0 -0.18034630435624241 0.29180066960649809 0 -0.20060783596013981 0.3076349397264902 0 -0.20734776279292019 0.28350900377750898 0 -0.20734776279292019 0.28350900377750898 0 -0.23189508169276829 0.30076725351495531 0 -0.22396762922540969 0.27514125130055722 0 -0.23189508169276829 0.30076725351495531 0 -0.2378434694439332 0.28391349183279069 0 -0.22396762922540969 0.27514125130055722 0 -0.25673188405007052 0.28646841290673969 0 -0.23189508169276829 0.30076725351495531 0 -0.2378434694439332 0.28391349183279069 0 -0.25673188405007052 0.28646841290673969 0 -0.23189508169276829 0.30076725351495531 0 -0.25505401324638421 0.30366623925853881 0 -0.25673188405007052 0.28646841290673969 0 -0.23189508169276829 0.30076725351495531 0 -0.25505401324638421 0.30366623925853881 0 -0.24885494741763489 0.31718848033418301 0 -0.23189508169276829 0.30076725351495531 0 -0.25265925142613249 0.26128234508680298 0 -0.23885305679183191 0.2684477152547543 0 -0.23951274761537589 0.2474853768326048 0 -0.23885305679183191 0.2684477152547543 0 -0.22811192938500721 0.25829645972706228 0 -0.23951274761537589 0.2474853768326048 0 -0.25621817608628389 0.2460965770837312 0 -0.25265925142613249 0.26128234508680298 0 -0.23951274761537589 0.2474853768326048 0 -0.25673188405007052 0.28646841290673969 0 -0.2378434694439332 0.28391349183279069 0 -0.23885305679183191 0.2684477152547543 0 -0.25265925142613249 0.26128234508680298 0 -0.25673188405007052 0.28646841290673969 0 -0.23885305679183191 0.2684477152547543 0 -0.23885305679183191 0.2684477152547543 0 -0.22396762922540969 0.27514125130055722 0 -0.22811192938500721 0.25829645972706228 0 -0.2378434694439332 0.28391349183279069 0 -0.23885305679183191 0.2684477152547543 0 -0.22396762922540969 0.27514125130055722 0 -0.22811192938500721 0.25829645972706228 0 -0.22371849106378741 0.2462845034026982 0 -0.23951274761537589 0.2474853768326048 0 -0.22396762922540969 0.27514125130055722 0 -0.22811192938500721 0.25829645972706228 0 -0.21408768962570049 0.25938306782852782 0 -0.22811192938500721 0.25829645972706228 0 -0.21408768962570049 0.25938306782852782 0 -0.22371849106378741 0.2462845034026982 0 -0.21408768962570049 0.25938306782852782 0 -0.19928355658839081 0.25766712263582692 0 -0.2066863838603582 0.24242880758937649 0 -0.21408768962570049 0.25938306782852782 0 -0.20163280817849061 0.26608937016207479 0 -0.19928355658839081 0.25766712263582692 0 -0.20734776279292019 0.28350900377750898 0 -0.21408768962570049 0.25938306782852782 0 -0.20734776279292019 0.28350900377750898 0 -0.22396762922540969 0.27514125130055722 0 -0.21408768962570049 0.25938306782852782 0 -0.20734776279292019 0.28350900377750898 0 -0.21408768962570049 0.25938306782852782 0 -0.20163280817849061 0.26608937016207479 0 -0.20734776279292019 0.28350900377750898 0 -0.20163280817849061 0.26608937016207479 0 -0.19375927737912041 0.2730469699042487 0 -0.20163280817849061 0.26608937016207479 0 -0.19375927737912041 0.2730469699042487 0 -0.19160269433399771 0.26436194023610149 0 -0.19375927737912041 0.2730469699042487 0 -0.19160269433399771 0.26436194023610149 0 -0.17991988358848049 0.26483995741486333 0 -0.19928355658839081 0.25766712263582692 0 -0.18259587964237009 0.2606558300825601 0 -0.2066863838603582 0.24242880758937649 0 -0.18259587964237009 0.2606558300825601 0 -0.19333963139412971 0.24385714112684301 0 -0.19928355658839081 0.25766712263582692 0 -0.19160269433399771 0.26436194023610149 0 -0.18259587964237009 0.2606558300825601 0 -0.18259587964237009 0.2606558300825601 0 -0.2066863838603582 0.24242880758937649 0 -0.20163280817849061 0.26608937016207479 0 -0.19928355658839081 0.25766712263582692 0 -0.19160269433399771 0.26436194023610149 0 -0.17991988358848049 0.26483995741486333 0 -0.17951502337729761 0.2392424245160312 0 -0.17991988358848049 0.26483995741486333 0 -0.17042143569771079 0.26099360542817968 0 -0.17951502337729761 0.2392424245160312 0 -0.18259587964237009 0.2606558300825601 0 -0.17991988358848049 0.26483995741486333 0 -0.17951502337729761 0.2392424245160312 0 -0.19160269433399771 0.26436194023610149 0 -0.18259587964237009 0.2606558300825601 0 -0.17991988358848049 0.26483995741486333 0 -0.18259587964237009 0.2606558300825601 0 -0.17991988358848049 0.26483995741486333 0 -0.17991988358848049 0.26483995741486333 0 -0.17042143569771079 0.26099360542817968 0 -0.17716480609589361 0.26914773470870201 0 -0.17042143569771079 0.26099360542817968 0 -0.1627301728603629 0.26968240911070368 0 -0.1532221513837192 0.25419418888983192 0 -0.17042143569771079 0.26099360542817968 0 -0.1532221513837192 0.25419418888983192 0 -0.17951502337729761 0.2392424245160312 0 -0.1627301728603629 0.26968240911070368 0 -0.1620479085915319 0.28265904931380531 0 -0.15271877240598841 0.27446820953958367 0 -0.17042143569771079 0.26099360542817968 0 -0.1627301728603629 0.26968240911070368 0 -0.1699765768805111 0.26885491792894611 0 -0.1627301728603629 0.26968240911070368 0 -0.1699765768805111 0.26885491792894611 0 -0.16860704672851359 0.27535934789532951 0 -0.1627301728603629 0.26968240911070368 0 -0.16860704672851359 0.27535934789532951 0 -0.1620479085915319 0.28265904931380531 0 -0.16860704672851359 0.27535934789532951 0 -0.17077339862397739 0.28423195702734899 0 -0.1620479085915319 0.28265904931380531 0 -0.17991988358848049 0.26483995741486333 0 -0.18034630435624241 0.29180066960649809 0 -0.17991988358848049 0.26483995741486333 0 -0.17716480609589361 0.26914773470870201 0 -0.18034630435624241 0.29180066960649809 0 -0.16860704672851359 0.27535934789532951 0 -0.17716480609589361 0.26914773470870201 0 -0.17077339862397739 0.28423195702734899 0 -0.19375927737912041 0.2730469699042487 0 -0.17991988358848049 0.26483995741486333 0 -0.18034630435624241 0.29180066960649809 0 -0.17042143569771079 0.26099360542817968 0 -0.1699765768805111 0.26885491792894611 0 -0.17716480609589361 0.26914773470870201 0 -0.1699765768805111 0.26885491792894611 0 -0.16860704672851359 0.27535934789532951 0 -0.17716480609589361 0.26914773470870201 0 -0.17991988358848049 0.26483995741486333 0 -0.17716480609589361 0.26914773470870201 0 -0.17716480609589361 0.26914773470870201 0 -0.18034630435624241 0.29180066960649809 0 -0.17077339862397739 0.28423195702734899 0 -0.18034630435624241 0.29180066960649809 0 -0.16501618616712291 0.29775164083812761 0 -0.17077339862397739 0.28423195702734899 0 -0.18077272512400111 0.31876138179813301 0 -0.18034630435624241 0.29180066960649809 0 -0.18077272512400111 0.31876138179813301 0 -0.18034630435624241 0.29180066960649809 0 -0.17285953122972289 0.31090601179704258 0 -0.18034630435624241 0.29180066960649809 0 -0.17285953122972289 0.31090601179704258 0 -0.16501618616712291 0.29775164083812761 0 -0.18077272512400111 0.31876138179813301 0 -0.20060783596013981 0.3076349397264902 0 -0.18034630435624241 0.29180066960649809 0 -0.16501618616712291 0.29775164083812761 0 -0.15329008091572741 0.28945008379417048 0 -0.1547819877644892 0.3091453549012102 0 -0.17285953122972289 0.31090601179704258 0 -0.16501618616712291 0.29775164083812761 0 -0.1638395481514221 0.30983277085387728 0 -0.16501618616712291 0.29775164083812761 0 -0.1638395481514221 0.30983277085387728 0 -0.1547819877644892 0.3091453549012102 0 -0.15943794807189979 0.31595908059817063 0 -0.1638395481514221 0.30983277085387728 0 -0.1547819877644892 0.3091453549012102 0 -0.16501618616712291 0.29775164083812761 0 -0.17077339862397739 0.28423195702734899 0 -0.1620479085915319 0.28265904931380531 0 -0.16501618616712291 0.29775164083812761 0 -0.1620479085915319 0.28265904931380531 0 -0.15329008091572741 0.28945008379417048 0 -0.1464174014568787 0.29836992735667278 0 -0.13959432766143021 0.2740409068552887 0 -0.1620479085915319 0.28265904931380531 0 -0.15329008091572741 0.28945008379417048 0 -0.15271877240598841 0.27446820953958367 0 -0.15329008091572741 0.28945008379417048 0 -0.1464174014568787 0.29836992735667278 0 -0.13959432766143021 0.2740409068552887 0 -0.15329008091572741 0.28945008379417048 0 -0.1464174014568787 0.29836992735667278 0 -0.1547819877644892 0.3091453549012102 0 -0.1532404752523272 0.32269894785805692 0 -0.1464174014568787 0.29836992735667278 0 -0.1360408951285694 0.3130357752318072 0 -0.14290423209994971 0.32095809222069871 0 -0.1464174014568787 0.29836992735667278 0 -0.1532404752523272 0.32269894785805692 0 -0.1464174014568787 0.29836992735667278 0 -0.1547819877644892 0.3091453549012102 0 -0.1360408951285694 0.3130357752318072 0 -0.1264253840414637 0.29528772621663357 0 -0.12136448477009221 0.30951812845445109 0 -0.1360408951285694 0.3130357752318072 0 -0.1464174014568787 0.29836992735667278 0 -0.1264253840414637 0.29528772621663357 0 -0.1464174014568787 0.29836992735667278 0 -0.1264253840414637 0.29528772621663357 0 -0.13959432766143021 0.2740409068552887 0 -0.1264253840414637 0.29528772621663357 0 -0.13959432766143021 0.2740409068552887 0 -0.1185373796182298 0.27837978510360878 0 -0.13959432766143021 0.2740409068552887 0 -0.1327712538659816 0.24971188635390451 0 -0.13959432766143021 0.2740409068552887 0 -0.116744543106582 0.25728181003509248 0 -0.1327712538659816 0.24971188635390451 0 -0.13959432766143021 0.2740409068552887 0 -0.1532221513837192 0.25419418888983192 0 -0.1327712538659816 0.24971188635390451 0 -0.1627301728603629 0.26968240911070368 0 -0.1532221513837192 0.25419418888983192 0 -0.15271877240598841 0.27446820953958367 0 -0.13959432766143021 0.2740409068552887 0 -0.1532221513837192 0.25419418888983192 0 -0.15271877240598841 0.27446820953958367 0 -0.15329008091572741 0.28945008379417048 0 -0.13959432766143021 0.2740409068552887 0 -0.15271877240598841 0.27446820953958367 0 -0.1061606963602142 0.26761343855331338 0 -0.1001789302111205 0.27974269320078388 0 -0.1185373796182298 0.27837978510360878 0 -0.1061606963602142 0.26761343855331338 0 -0.1001789302111205 0.27974269320078388 0 -0.092613028744971265 0.26767711662392979 0 -0.1061606963602142 0.26761343855331338 0 -0.10005120432924321 0.25626016583208688 0 -0.116744543106582 0.25728181003509248 0 -0.1061606963602142 0.26761343855331338 0 -0.10005120432924321 0.25626016583208688 0 -0.092613028744971265 0.26767711662392979 0 -0.10005120432924321 0.25626016583208688 0 -0.116744543106582 0.25728181003509248 0 -0.1045487088169635 0.24438495162540061 0 -0.13959432766143021 0.2740409068552887 0 -0.116744543106582 0.25728181003509248 0 -0.1185373796182298 0.27837978510360878 0 -0.1061606963602142 0.26761343855331338 0 -0.116744543106582 0.25728181003509248 0 -0.1185373796182298 0.27837978510360878 0 -0.1264253840414637 0.29528772621663357 0 -0.1127724140037699 0.30190213115774378 0 -0.1091517300735869 0.29135078386346752 0 -0.1264253840414637 0.29528772621663357 0 -0.1185373796182298 0.27837978510360878 0 -0.1091517300735869 0.29135078386346752 0 -0.1264253840414637 0.29528772621663357 0 -0.12136448477009221 0.30951812845445109 0 -0.1127724140037699 0.30190213115774378 0 -0.12136448477009221 0.30951812845445109 0 -0.1127724140037699 0.30190213115774378 0 -0.1061991548417472 0.31213959050036899 0 -0.1127724140037699 0.30190213115774378 0 -0.1061991548417472 0.31213959050036899 0 -0.1005146973405663 0.30141191014932889 0 -0.1127724140037699 0.30190213115774378 0 -0.1005146973405663 0.30141191014932889 0 -0.1091517300735869 0.29135078386346752 0 -0.1005146973405663 0.30141191014932889 0 -0.094430836728355921 0.29177030977787999 0 -0.089068024122243669 0.30112896568664949 0 -0.1061991548417472 0.31213959050036899 0 -0.1005146973405663 0.30141191014932889 0 -0.090928135519314904 0.31087631578889069 0 -0.1001789302111205 0.27974269320078388 0 -0.1185373796182298 0.27837978510360878 0 -0.1091517300735869 0.29135078386346752 0 -0.1005146973405663 0.30141191014932889 0 -0.1091517300735869 0.29135078386346752 0 -0.094430836728355921 0.29177030977787999 0 -0.1001789302111205 0.27974269320078388 0 -0.1091517300735869 0.29135078386346752 0 -0.094430836728355921 0.29177030977787999 0 -0.1001789302111205 0.27974269320078388 0 -0.094430836728355921 0.29177030977787999 0 -0.086145563619835275 0.2816538088019015 0 -0.094430836728355921 0.29177030977787999 0 -0.086145563619835275 0.2816538088019015 0 -0.081526075002782958 0.29533369696514911 0 -0.094430836728355921 0.29177030977787999 0 -0.081526075002782958 0.29533369696514911 0 -0.089068024122243669 0.30112896568664949 0 -0.086145563619835275 0.2816538088019015 0 -0.081526075002782958 0.29533369696514911 0 -0.070830210313899522 0.29195808219782299 0 -0.090928135519314904 0.31087631578889069 0 -0.079482369404140468 0.30560554845979909 0 -0.074915307566508993 0.31649039264194578 0 -0.090928135519314904 0.31087631578889069 0 -0.089068024122243669 0.30112896568664949 0 -0.079482369404140468 0.30560554845979909 0 -0.1005146973405663 0.30141191014932889 0 -0.090928135519314904 0.31087631578889069 0 -0.089068024122243669 0.30112896568664949 0 -0.081526075002782958 0.29533369696514911 0 -0.089068024122243669 0.30112896568664949 0 -0.079482369404140468 0.30560554845979909 0 -0.054647974243728172 0.30430181459310768 0 -0.074915307566508993 0.31649039264194578 0 -0.079482369404140468 0.30560554845979909 0 -0.068661557073843291 0.3005821027458685 0 -0.074915307566508993 0.31649039264194578 0 -0.068661557073843291 0.3005821027458685 0 -0.054647974243728172 0.30430181459310768 0 -0.074915307566508993 0.31649039264194578 0 -0.081526075002782958 0.29533369696514911 0 -0.079482369404140468 0.30560554845979909 0 -0.068661557073843291 0.3005821027458685 0 -0.070830210313899522 0.29195808219782299 0 -0.067453711470644842 0.27023673344429472 0 -0.052574645638654917 0.28480468584225688 0 -0.081526075002782958 0.29533369696514911 0 -0.068661557073843291 0.3005821027458685 0 -0.070830210313899522 0.29195808219782299 0 -0.068661557073843291 0.3005821027458685 0 -0.070830210313899522 0.29195808219782299 0 -0.068661557073843291 0.3005821027458685 0 -0.070830210313899522 0.29195808219782299 0 -0.059610011597539182 0.29372125904316332 0 -0.086145563619835275 0.2816538088019015 0 -0.070830210313899522 0.29195808219782299 0 -0.077256670317037021 0.26667642926106078 0 -0.070830210313899522 0.29195808219782299 0 -0.067453711470644842 0.27023673344429472 0 -0.070830210313899522 0.29195808219782299 0 -0.077256670317037021 0.26667642926106078 0 -0.070830210313899522 0.29195808219782299 0 -0.067453711470644842 0.27023673344429472 0 -0.077256670317037021 0.26667642926106078 0 -0.086145563619835275 0.2816538088019015 0 -0.077256670317037021 0.26667642926106078 0 -0.092613028744971265 0.26767711662392979 0 -0.1001789302111205 0.27974269320078388 0 -0.086145563619835275 0.2816538088019015 0 -0.092613028744971265 0.26767711662392979 0 -0.077256670317037021 0.26667642926106078 0 -0.086302411784292182 0.25447467192259482 0 -0.083666647235009842 0.24139059785004849 0 -0.077256670317037021 0.26667642926106078 0 -0.083666647235009842 0.24139059785004849 0 -0.10005120432924321 0.25626016583208688 0 -0.086302411784292182 0.25447467192259482 0 -0.094679029848152713 0.24609146959404629 0 -0.10005120432924321 0.25626016583208688 0 -0.092613028744971265 0.26767711662392979 0 -0.086302411784292182 0.25447467192259482 0 -0.077256670317037021 0.26667642926106078 0 -0.092613028744971265 0.26767711662392979 0 -0.086302411784292182 0.25447467192259482 0 -0.077256670317037021 0.26667642926106078 0 -0.064077212627390134 0.24851538469076631 0 -0.083666647235009842 0.24139059785004849 0 -0.067453711470644842 0.27023673344429472 0 -0.077256670317037021 0.26667642926106078 0 -0.064077212627390134 0.24851538469076631 0 -0.067453711470644842 0.27023673344429472 0 -0.064077212627390134 0.24851538469076631 0 -0.067453711470644842 0.27023673344429472 0 -0.04634179854296408 0.26632715615711849 0 -0.064077212627390134 0.24851538469076631 0 -0.04634179854296408 0.26632715615711849 0 -0.064077212627390134 0.24851538469076631 0 -0.046578861792199937 0.24361118962503389 0 -0.067453711470644842 0.27023673344429472 0 -0.04634179854296408 0.26632715615711849 0 -0.052574645638654917 0.28480468584225688 0 -0.04634179854296408 0.26632715615711849 0 -0.034380640920947357 0.29211323654426968 0 -0.052574645638654917 0.28480468584225688 0 -0.04634179854296408 0.26632715615711849 0 -0.022607631921228569 0.27169805167723737 0 -0.034380640920947357 0.29211323654426968 0 -0.04634179854296408 0.26632715615711849 0 -0.03068766995985707 0.25286978792993342 0 -0.022607631921228569 0.27169805167723737 0 -0.04634179854296408 0.26632715615711849 0 -0.03068766995985707 0.25286978792993342 0 -0.046578861792199937 0.24361118962503389 0 -0.03068766995985707 0.25286978792993342 0 -0.022607631921228569 0.27169805167723737 0 -0.0098044441781452579 0.25473951632571468 0 -0.022607631921228569 0.27169805167723737 0 -0.015153941911089409 0.29208252597919021 0 3.3590645499582607e-05 0.27236849017123349 0 -0.022607631921228569 0.27169805167723737 0 -0.0098044441781452579 0.25473951632571468 0 3.3590645499582607e-05 0.27236849017123349 0 -0.0098044441781452579 0.25473951632571468 0 0.0073806355134042019 0.25529449578482938 0 3.3590645499582607e-05 0.27236849017123349 0 -0.0088759444352828343 0.31092800175718183 0 -0.015153941911089409 0.29208252597919021 0 0.0083336089875100904 0.29343585490586271 0 -0.015153941911089409 0.29208252597919021 0 0.0083336089875100904 0.29343585490586271 0 3.3590645499582607e-05 0.27236849017123349 0 -0.022607631921228569 0.27169805167723737 0 -0.015153941911089409 0.29208252597919021 0 -0.034380640920947357 0.29211323654426968 0 -0.0088759444352828343 0.31092800175718183 0 -0.015153941911089409 0.29208252597919021 0 -0.03508050583840458 0.3127012881250415 0 -0.015153941911089409 0.29208252597919021 0 -0.034380640920947357 0.29211323654426968 0 -0.03508050583840458 0.3127012881250415 0 -0.034380640920947357 0.29211323654426968 0 -0.054647974243728172 0.30430181459310768 0 -0.034380640920947357 0.29211323654426968 0 -0.054647974243728172 0.30430181459310768 0 -0.03508050583840458 0.3127012881250415 0 -0.034380640920947357 0.29211323654426968 0 -0.052574645638654917 0.28480468584225688 0 -0.054647974243728172 0.30430181459310768 0 -0.052574645638654917 0.28480468584225688 0 -0.059610011597539182 0.29372125904316332 0 -0.054647974243728172 0.30430181459310768 0 -0.070830210313899522 0.29195808219782299 0 -0.052574645638654917 0.28480468584225688 0 -0.059610011597539182 0.29372125904316332 0 -0.068661557073843291 0.3005821027458685 0 -0.059610011597539182 0.29372125904316332 0 -0.054647974243728172 0.30430181459310768 0 -0.058679851530075752 0.32054224196392622 0 -0.045885169747561752 0.33132665820789581 0 -0.073191842414501496 0.33174208285196288 0 -0.054647974243728172 0.30430181459310768 0 -0.058679851530075752 0.32054224196392622 0 -0.03508050583840458 0.3127012881250415 0 -0.045885169747561752 0.33132665820789581 0 -0.067541502003893042 0.3482616942848048 0 -0.073191842414501496 0.33174208285196288 0 -0.045885169747561752 0.33132665820789581 0 -0.073191842414501496 0.33174208285196288 0 -0.045885169747561752 0.33132665820789581 0 -0.018578497080621779 0.33091123356382868 0 -0.045885169747561752 0.33132665820789581 0 -0.03508050583840458 0.3127012881250415 0 -0.018578497080621779 0.33091123356382868 0 -0.058679851530075752 0.32054224196392622 0 -0.045885169747561752 0.33132665820789581 0 -0.03508050583840458 0.3127012881250415 0 -0.0088759444352828343 0.31092800175718183 0 -0.03508050583840458 0.3127012881250415 0 -0.018578497080621779 0.33091123356382868 0 -0.018578497080621779 0.33091123356382868 0 -0.0050552824635438226 0.34569829691311771 0 -0.02749858990914332 0.35301881799134821 0 -0.045885169747561752 0.33132665820789581 0 -0.018578497080621779 0.33091123356382868 0 -0.02749858990914332 0.35301881799134821 0 -0.018578497080621779 0.33091123356382868 0 -0.0050552824635438226 0.34569829691311771 0 0.0064742168078369342 0.3347740657525386 0 -0.018578497080621779 0.33091123356382868 0 0.0087281755863181168 0.33049580891976171 0 -0.018578497080621779 0.33091123356382868 0 0.0064742168078369342 0.3347740657525386 0 0.0087281755863181168 0.33049580891976171 0 -0.018578497080621779 0.33091123356382868 0 -0.003280447873963227 0.32161399115684158 0 0.0087281755863181168 0.33049580891976171 0 -0.0088759444352828343 0.31092800175718183 0 -0.018578497080621779 0.33091123356382868 0 -0.003280447873963227 0.32161399115684158 0 -0.0088759444352828343 0.31092800175718183 0 -0.003280447873963227 0.32161399115684158 0 0.0056044744337335906 0.31412092038659428 0 -0.0052616759920083916 0.36132776784546622 0 -0.0045342830833226501 0.3863935686212247 0 -0.0052616759920083916 0.36132776784546622 0 -0.024169526760701381 0.37267007813580277 0 -0.0045342830833226501 0.3863935686212247 0 -0.0052616759920083916 0.36132776784546622 0 -0.0045342830833226501 0.3863935686212247 0 0.0079023355216259559 0.37348921158265391 0 -0.0052616759920083916 0.36132776784546622 0 -0.0050552824635438226 0.34569829691311771 0 0.0061318462344260851 0.35417601161121459 0 -0.0052616759920083916 0.36132776784546622 0 -0.0050552824635438226 0.34569829691311771 0 -0.02749858990914332 0.35301881799134821 0 -0.02749858990914332 0.35301881799134821 0 -0.024169526760701381 0.37267007813580277 0 -0.04149310004589906 0.37124785083274592 0 -0.0052616759920083916 0.36132776784546622 0 -0.02749858990914332 0.35301881799134821 0 -0.024169526760701381 0.37267007813580277 0 -0.02749858990914332 0.35301881799134821 0 -0.04149310004589906 0.37124785083274592 0 -0.051818441616049399 0.35735321764765782 0 -0.045885169747561752 0.33132665820789581 0 -0.02749858990914332 0.35301881799134821 0 -0.051818441616049399 0.35735321764765782 0 -0.045885169747561752 0.33132665820789581 0 -0.051818441616049399 0.35735321764765782 0 -0.067541502003893042 0.3482616942848048 0 -0.04149310004589906 0.37124785083274592 0 -0.051818441616049399 0.35735321764765782 0 -0.056875823715872062 0.37631267096962301 0 -0.051818441616049399 0.35735321764765782 0 -0.069616273344600341 0.3650636543096733 0 -0.056875823715872062 0.37631267096962301 0 -0.069616273344600341 0.3650636543096733 0 -0.085055645225370236 0.37193713089684588 0 -0.071788917171084016 0.3809272333041443 0 -0.069616273344600341 0.3650636543096733 0 -0.071788917171084016 0.3809272333041443 0 -0.056875823715872062 0.37631267096962301 0 -0.069616273344600341 0.3650636543096733 0 -0.085055645225370236 0.37193713089684588 0 -0.084100884505446297 0.3554636863979832 0 -0.085055645225370236 0.37193713089684588 0 -0.084100884505446297 0.3554636863979832 0 -0.1008292236537022 0.36036332390371462 0 -0.084100884505446297 0.3554636863979832 0 -0.067541502003893042 0.3482616942848048 0 -0.085709514220790303 0.34113927750747819 0 -0.084100884505446297 0.3554636863979832 0 -0.085709514220790303 0.34113927750747819 0 -0.099722393067727538 0.34687368244968458 0 -0.069616273344600341 0.3650636543096733 0 -0.084100884505446297 0.3554636863979832 0 -0.067541502003893042 0.3482616942848048 0 -0.051818441616049399 0.35735321764765782 0 -0.069616273344600341 0.3650636543096733 0 -0.067541502003893042 0.3482616942848048 0 -0.067541502003893042 0.3482616942848048 0 -0.073191842414501496 0.33174208285196288 0 -0.085709514220790303 0.34113927750747819 0 -0.058679851530075752 0.32054224196392622 0 -0.073191842414501496 0.33174208285196288 0 -0.074915307566508993 0.31649039264194578 0 -0.054647974243728172 0.30430181459310768 0 -0.058679851530075752 0.32054224196392622 0 -0.074915307566508993 0.31649039264194578 0 -0.073191842414501496 0.33174208285196288 0 -0.074915307566508993 0.31649039264194578 0 -0.095182640889289766 0.32867897069078372 0 -0.090928135519314904 0.31087631578889069 0 -0.074915307566508993 0.31649039264194578 0 -0.095182640889289766 0.32867897069078372 0 -0.074915307566508993 0.31649039264194578 0 -0.095182640889289766 0.32867897069078372 0 -0.073191842414501496 0.33174208285196288 0 -0.085709514220790303 0.34113927750747819 0 -0.095182640889289766 0.32867897069078372 0 -0.085709514220790303 0.34113927750747819 0 -0.095182640889289766 0.32867897069078372 0 -0.099722393067727538 0.34687368244968458 0 -0.095182640889289766 0.32867897069078372 0 -0.1154499742120704 0.34086754873962172 0 -0.095182640889289766 0.32867897069078372 0 -0.1098512680755149 0.32470257897991811 0 -0.1154499742120704 0.34086754873962172 0 -0.095182640889289766 0.32867897069078372 0 -0.1154499742120704 0.34086754873962172 0 -0.099722393067727538 0.34687368244968458 0 -0.1061991548417472 0.31213959050036899 0 -0.090928135519314904 0.31087631578889069 0 -0.095182640889289766 0.32867897069078372 0 -0.1061991548417472 0.31213959050036899 0 -0.095182640889289766 0.32867897069078372 0 -0.1098512680755149 0.32470257897991811 0 -0.1061991548417472 0.31213959050036899 0 -0.115330384384618 0.31728312261503783 0 -0.1098512680755149 0.32470257897991811 0 -0.12136448477009221 0.30951812845445109 0 -0.1061991548417472 0.31213959050036899 0 -0.115330384384618 0.31728312261503783 0 -0.115330384384618 0.31728312261503783 0 -0.1098512680755149 0.32470257897991811 0 -0.12142985306419619 0.32461006626398298 0 -0.12722248981549561 0.3181430308760943 0 -0.115330384384618 0.31728312261503783 0 -0.12142985306419619 0.32461006626398298 0 -0.12722248981549561 0.3181430308760943 0 -0.12136448477009221 0.30951812845445109 0 -0.115330384384618 0.31728312261503783 0 -0.1098512680755149 0.32470257897991811 0 -0.12142985306419619 0.32461006626398298 0 -0.1154499742120704 0.34086754873962172 0 -0.13363790056006589 0.32585743918209531 0 -0.12142985306419619 0.32461006626398298 0 -0.1154499742120704 0.34086754873962172 0 -0.12523428666698541 0.37069662222368049 0 -0.1294360936135257 0.3482770307028879 0 -0.1154159689866658 0.35521970897278921 0 -0.1154499742120704 0.34086754873962172 0 -0.1154159689866658 0.35521970897278921 0 -0.099722393067727538 0.34687368244968458 0 -0.1294360936135257 0.3482770307028879 0 -0.1154499742120704 0.34086754873962172 0 -0.1154159689866658 0.35521970897278921 0 -0.12523428666698541 0.37069662222368049 0 -0.1154159689866658 0.35521970897278921 0 -0.11117961403065831 0.36839673047223442 0 -0.12523428666698541 0.37069662222368049 0 -0.11117961403065831 0.36839673047223442 0 -0.1123930043347208 0.38073562172137532 0 -0.11117961403065831 0.36839673047223442 0 -0.1008292236537022 0.36036332390371462 0 -0.09970079949094271 0.37763208900548878 0 -0.1154159689866658 0.35521970897278921 0 -0.11117961403065831 0.36839673047223442 0 -0.1008292236537022 0.36036332390371462 0 -0.085055645225370236 0.37193713089684588 0 -0.1008292236537022 0.36036332390371462 0 -0.09970079949094271 0.37763208900548878 0 -0.084100884505446297 0.3554636863979832 0 -0.1008292236537022 0.36036332390371462 0 -0.099722393067727538 0.34687368244968458 0 -0.1154159689866658 0.35521970897278921 0 -0.1008292236537022 0.36036332390371462 0 -0.099722393067727538 0.34687368244968458 0 -0.1036554482544351 0.39516830989393792 0 -0.1102807352191843 0.41378788895710661 0 -0.09259379641793411 0.40948313349934218 0 -0.1036554482544351 0.39516830989393792 0 -0.09970079949094271 0.37763208900548878 0 -0.1123930043347208 0.38073562172137532 0 -0.1036554482544351 0.39516830989393792 0 -0.09970079949094271 0.37763208900548878 0 -0.084297773186445962 0.39217279846007119 0 -0.11117961403065831 0.36839673047223442 0 -0.09970079949094271 0.37763208900548878 0 -0.1123930043347208 0.38073562172137532 0 -0.12523428666698541 0.37069662222368049 0 -0.1123930043347208 0.38073562172137532 0 -0.12103247972044499 0.39311621374447298 0 -0.1036554482544351 0.39516830989393792 0 -0.1123930043347208 0.38073562172137532 0 -0.12103247972044499 0.39311621374447298 0 -0.12523428666698541 0.37069662222368049 0 -0.12103247972044499 0.39311621374447298 0 -0.1036554482544351 0.39516830989393792 0 -0.12103247972044499 0.39311621374447298 0 -0.1102807352191843 0.41378788895710661 0 -0.12997925716256209 0.39431640422262348 0 -0.1102807352191843 0.41378788895710661 0 -0.12997925716256209 0.39431640422262348 0 -0.12103247972044499 0.39311621374447298 0 -0.1102807352191843 0.41378788895710661 0 -0.12623023605756489 0.41143854881348008 0 -0.1102807352191843 0.41378788895710661 0 -0.1242188050129694 0.42501783294758849 0 -0.12623023605756489 0.41143854881348008 0 -0.12997925716256209 0.39431640422262348 0 -0.1102807352191843 0.41378788895710661 0 -0.1102807352191843 0.41378788895710661 0 -0.1104760497445479 0.43296770510105842 0 -0.1242188050129694 0.42501783294758849 0 -0.1104760497445479 0.43296770510105842 0 -0.1242188050129694 0.42501783294758849 0 -0.1248743097581413 0.44162978393037222 0 -0.1102807352191843 0.41378788895710661 0 -0.090582213275806372 0.43325937369158968 0 -0.1102807352191843 0.41378788895710661 0 -0.1104760497445479 0.43296770510105842 0 -0.090582213275806372 0.43325937369158968 0 -0.1102807352191843 0.41378788895710661 0 -0.09259379641793411 0.40948313349934218 0 -0.090582213275806372 0.43325937369158968 0 -0.09259379641793411 0.40948313349934218 0 -0.090582213275806372 0.43325937369158968 0 -0.074152812153798875 0.41302729649400538 0 -0.090582213275806372 0.43325937369158968 0 -0.066022972602334681 0.42956105407568013 0 -0.074152812153798875 0.41302729649400538 0 -0.066022972602334681 0.42956105407568013 0 -0.074152812153798875 0.41302729649400538 0 -0.049329429094603867 0.41198700835812702 0 -0.074152812153798875 0.41302729649400538 0 -0.063154715464804681 0.39516467689365731 0 -0.084297773186445962 0.39217279846007119 0 -0.09259379641793411 0.40948313349934218 0 -0.074152812153798875 0.41302729649400538 0 -0.084297773186445962 0.39217279846007119 0 -0.1036554482544351 0.39516830989393792 0 -0.09259379641793411 0.40948313349934218 0 -0.084297773186445962 0.39217279846007119 0 -0.085055645225370236 0.37193713089684588 0 -0.09970079949094271 0.37763208900548878 0 -0.084297773186445962 0.39217279846007119 0 -0.085055645225370236 0.37193713089684588 0 -0.084297773186445962 0.39217279846007119 0 -0.071788917171084016 0.3809272333041443 0 -0.063154715464804681 0.39516467689365731 0 -0.084297773186445962 0.39217279846007119 0 -0.071788917171084016 0.3809272333041443 0 -0.063154715464804681 0.39516467689365731 0 -0.071788917171084016 0.3809272333041443 0 -0.056875823715872062 0.37631267096962301 0 -0.04149310004589906 0.37124785083274592 0 -0.056875823715872062 0.37631267096962301 0 -0.04338349465279491 0.38811939282985902 0 -0.063154715464804681 0.39516467689365731 0 -0.056875823715872062 0.37631267096962301 0 -0.04338349465279491 0.38811939282985902 0 -0.063154715464804681 0.39516467689365731 0 -0.04338349465279491 0.38811939282985902 0 -0.049329429094603867 0.41198700835812702 0 -0.04338349465279491 0.38811939282985902 0 -0.024844401122877391 0.39948633252540261 0 -0.049329429094603867 0.41198700835812702 0 -0.024169526760701381 0.37267007813580277 0 -0.04149310004589906 0.37124785083274592 0 -0.04338349465279491 0.38811939282985902 0 -0.024169526760701381 0.37267007813580277 0 -0.04338349465279491 0.38811939282985902 0 -0.024844401122877391 0.39948633252540261 0 -0.024169526760701381 0.37267007813580277 0 -0.024844401122877391 0.39948633252540261 0 -0.0045342830833226501 0.3863935686212247 0 -0.024844401122877391 0.39948633252540261 0 -0.0045342830833226501 0.3863935686212247 0 -0.0038092142255275289 0.41137928311071797 0 -0.0045342830833226501 0.3863935686212247 0 -0.0038092142255275289 0.41137928311071797 0 -0.024169526760701381 0.37267007813580277 0 -0.0045342830833226501 0.3863935686212247 0 -0.0030841453677343121 0.43636499760021141 0 -0.0038092142255275289 0.41137928311071797 0 -0.026324668085478481 0.42779129271708288 0 -0.0030841453677343121 0.43636499760021141 0 -0.0038092142255275289 0.41137928311071797 0 -0.024844401122877391 0.39948633252540261 0 -0.0038092142255275289 0.41137928311071797 0 -0.026324668085478481 0.42779129271708288 0 -0.026324668085478481 0.42779129271708288 0 -0.049329429094603867 0.41198700835812702 0 -0.049413859365407042 0.43472239834070731 0 -0.024844401122877391 0.39948633252540261 0 -0.026324668085478481 0.42779129271708288 0 -0.049329429094603867 0.41198700835812702 0 -0.074152812153798875 0.41302729649400538 0 -0.063154715464804681 0.39516467689365731 0 -0.049329429094603867 0.41198700835812702 0 -0.066022972602334681 0.42956105407568013 0 -0.049329429094603867 0.41198700835812702 0 -0.049413859365407042 0.43472239834070731 0 -0.066022972602334681 0.42956105407568013 0 -0.049413859365407042 0.43472239834070731 0 -0.0708836913324285 0.45273085842607269 0 -0.0393713920190637 0.45112048084748302 0 -0.052402143273794041 0.47435943831340011 0 -0.0708836913324285 0.45273085842607269 0 -0.049413859365407042 0.43472239834070731 0 -0.0393713920190637 0.45112048084748302 0 -0.0708836913324285 0.45273085842607269 0 -0.0393713920190637 0.45112048084748302 0 -0.02876560419008364 0.47203163756026523 0 -0.052402143273794041 0.47435943831340011 0 -0.026324668085478481 0.42779129271708288 0 -0.049413859365407042 0.43472239834070731 0 -0.0393713920190637 0.45112048084748302 0 -0.0030841453677343121 0.43636499760021141 0 -0.026324668085478481 0.42779129271708288 0 -0.01888650882967766 0.45329231687868837 0 -0.026324668085478481 0.42779129271708288 0 -0.0393713920190637 0.45112048084748302 0 -0.01888650882967766 0.45329231687868837 0 -0.0393713920190637 0.45112048084748302 0 -0.01888650882967766 0.45329231687868837 0 -0.02876560419008364 0.47203163756026523 0 -0.01888650882967766 0.45329231687868837 0 -0.01341416680576474 0.47109478045738301 0 -0.02876560419008364 0.47203163756026523 0 -0.01888650882967766 0.45329231687868837 0 -0.002359076509941094 0.46135071208970457 0 -0.01341416680576474 0.47109478045738301 0 -0.0030841453677343121 0.43636499760021141 0 -0.01888650882967766 0.45329231687868837 0 -0.002359076509941094 0.46135071208970457 0 -0.0030841453677343121 0.43636499760021141 0 -0.002359076509941094 0.46135071208970457 0 -0.0090346539348886701 0.5 0 -0.0016340076521478781 0.48633642657919801 0 -0.017460482120078509 0.48648722646036041 0 -0.0016340076521478781 0.48633642657919801 0 -0.01341416680576474 0.47109478045738301 0 -0.017460482120078509 0.48648722646036041 0 -0.002359076509941094 0.46135071208970457 0 -0.0016340076521478781 0.48633642657919801 0 -0.01341416680576474 0.47109478045738301 0 -0.002359076509941094 0.46135071208970457 0 -0.0016340076521478781 0.48633642657919801 0 -0.002359076509941094 0.46135071208970457 0 -0.0016340076521478781 0.48633642657919801 0 0.0036787250480955699 0.47408322248379448 0 -0.01341416680576474 0.47109478045738301 0 -0.02876560419008364 0.47203163756026523 0 -0.017460482120078509 0.48648722646036041 0 -0.02876560419008364 0.47203163756026523 0 -0.017460482120078509 0.48648722646036041 0 -0.038135422162237087 0.5 0 -0.0090346539348886701 0.5 0 -0.017460482120078509 0.48648722646036041 0 -0.038135422162237087 0.5 0 -0.02876560419008364 0.47203163756026523 0 -0.038135422162237087 0.5 0 -0.052402143273794041 0.47435943831340011 0 -0.038135422162237087 0.5 0 -0.052402143273794041 0.47435943831340011 0 -0.067236190389585393 0.5 0 -0.052402143273794041 0.47435943831340011 0 -0.067236190389585393 0.5 0 -0.073349005429332273 0.47921852398434828 0 -0.067236190389585393 0.5 0 -0.073349005429332273 0.47921852398434828 0 -0.096336958616933588 0.5 0 -0.073349005429332273 0.47921852398434828 0 -0.096336958616933588 0.5 0 -0.093805091172543903 0.47224368257650851 0 -0.052402143273794041 0.47435943831340011 0 -0.073349005429332273 0.47921852398434828 0 -0.0708836913324285 0.45273085842607269 0 -0.0708836913324285 0.45273085842607269 0 -0.1043361340672995 0.45358667135048331 0 -0.093805091172543903 0.47224368257650851 0 -0.090582213275806372 0.43325937369158968 0 -0.0708836913324285 0.45273085842607269 0 -0.1043361340672995 0.45358667135048331 0 -0.090582213275806372 0.43325937369158968 0 -0.066022972602334681 0.42956105407568013 0 -0.0708836913324285 0.45273085842607269 0 -0.090582213275806372 0.43325937369158968 0 -0.0708836913324285 0.45273085842607269 0 -0.073349005429332273 0.47921852398434828 0 -0.0708836913324285 0.45273085842607269 0 -0.093805091172543903 0.47224368257650851 0 -0.1043361340672995 0.45358667135048331 0 -0.12052644250191399 0.4682622397032008 0 -0.093805091172543903 0.47224368257650851 0 -0.1104760497445479 0.43296770510105842 0 -0.090582213275806372 0.43325937369158968 0 -0.1043361340672995 0.45358667135048331 0 -0.12618187852634369 0.45882241462805679 0 -0.1043361340672995 0.45358667135048331 0 -0.1248743097581413 0.44162978393037222 0 -0.1104760497445479 0.43296770510105842 0 -0.1043361340672995 0.45358667135048331 0 -0.1248743097581413 0.44162978393037222 0 -0.12618187852634369 0.45882241462805679 0 -0.1043361340672995 0.45358667135048331 0 -0.12052644250191399 0.4682622397032008 0 -0.1317912103042716 0.47600940211286807 0 -0.12052644250191399 0.4682622397032008 0 -0.11642361318749669 0.48420448820259387 0 -0.12052644250191399 0.4682622397032008 0 -0.11642361318749669 0.48420448820259387 0 -0.093805091172543903 0.47224368257650851 0 -0.12543772684428189 0.5 0 -0.11642361318749669 0.48420448820259387 0 -0.096336958616933588 0.5 0 -0.12543772684428189 0.5 0 -0.13178312884530541 0.48627570230508688 0 -0.11642361318749669 0.48420448820259387 0 -0.11642361318749669 0.48420448820259387 0 -0.096336958616933588 0.5 0 -0.093805091172543903 0.47224368257650851 0 -0.1693268494853358 0.079538523923443544 0 -0.16945340910355561 0.089496265134995978 0 -0.1618062267740645 0.07958177760614682 0 -0.16945340910355561 0.089496265134995978 0 -0.1618062267740645 0.07958177760614682 0 -0.1616157516695074 0.095139316102685473 0 -0.1618062267740645 0.07958177760614682 0 -0.1616157516695074 0.095139316102685473 0 -0.14767322655010931 0.084806545451415583 0 -0.1618062267740645 0.07958177760614682 0 -0.16640070467345031 0.07104807823334372 0 -0.15517576509654349 0.068304766057398533 0 -0.16640070467345031 0.07104807823334372 0 -0.15517576509654349 0.068304766057398533 0 -0.16451238623864939 0.061110077383343737 0 -0.16640070467345031 0.07104807823334372 0 -0.17354141001077031 0.063798093567348918 0 -0.16451238623864939 0.061110077383343737 0 -0.17157411485926041 0.074087910936242465 0 -0.16640070467345031 0.07104807823334372 0 -0.17354141001077031 0.063798093567348918 0 -0.1693268494853358 0.079538523923443544 0 -0.17157411485926041 0.074087910936242465 0 -0.16640070467345031 0.07104807823334372 0 -0.1693268494853358 0.079538523923443544 0 -0.1618062267740645 0.07958177760614682 0 -0.16640070467345031 0.07104807823334372 0 -0.17354141001077031 0.063798093567348918 0 -0.17702749526748529 0.081966948020833708 0 -0.17656426821359539 0.052679136019797047 0 -0.18185637422210199 0.067243003367259677 0 -0.17702749526748529 0.081966948020833708 0 -0.17656426821359539 0.052679136019797047 0 -0.17702749526748529 0.081966948020833708 0 -0.17656426821359539 0.052679136019797047 0 -0.17157411485926041 0.074087910936242465 0 -0.17354141001077031 0.063798093567348918 0 -0.17702749526748529 0.081966948020833708 0 -0.18185637422210199 0.067243003367259677 0 -0.1853153676200878 0.058850167416455039 0 -0.18892740292417859 0.064703221589215376 0 -0.18185637422210199 0.067243003367259677 0 -0.19050021368002351 0.072419239531055349 0 -0.18892740292417859 0.064703221589215376 0 -0.18185637422210199 0.067243003367259677 0 -0.18141962227324601 0.075216957450553817 0 -0.17702749526748529 0.081966948020833708 0 -0.18185637422210199 0.067243003367259677 0 -0.18141962227324601 0.075216957450553817 0 -0.19050021368002351 0.072419239531055349 0 -0.18141962227324601 0.075216957450553817 0 -0.1867192510276118 0.077748512173410014 0 -0.19050021368002351 0.072419239531055349 0 -0.18141962227324601 0.075216957450553817 0 -0.1867192510276118 0.077748512173410014 0 -0.1819129998543452 0.079414551687582866 0 -0.18248563084903771 0.082725789105533951 0 -0.17702749526748529 0.081966948020833708 0 -0.17749072232138041 0.1112547600218704 0 -0.1867192510276118 0.077748512173410014 0 -0.18248563084903771 0.082725789105533951 0 -0.1819129998543452 0.079414551687582866 0 -0.18141962227324601 0.075216957450553817 0 -0.1819129998543452 0.079414551687582866 0 -0.17702749526748529 0.081966948020833708 0 -0.18248563084903771 0.082725789105533951 0 -0.1819129998543452 0.079414551687582866 0 -0.17702749526748529 0.081966948020833708 0 -0.1693268494853358 0.079538523923443544 0 -0.16945340910355561 0.089496265134995978 0 -0.17702749526748529 0.081966948020833708 0 -0.1693268494853358 0.079538523923443544 0 -0.17157411485926041 0.074087910936242465 0 -0.17702749526748529 0.081966948020833708 0 -0.17702749526748529 0.081966948020833708 0 -0.17749072232138041 0.1112547600218704 0 -0.16945340910355561 0.089496265134995978 0 -0.17702749526748529 0.081966948020833708 0 -0.17749072232138041 0.1112547600218704 0 -0.17749072232138041 0.1112547600218704 0 -0.1951643137470572 0.093770439387570487 0 -0.18248563084903771 0.082725789105533951 0 -0.17749072232138041 0.1112547600218704 0 -0.1951643137470572 0.093770439387570487 0 -0.17749072232138041 0.1112547600218704 0 -0.19150979458678249 0.1243728737611647 0 -0.17789558253256721 0.1368522929207025 0 -0.17749072232138041 0.1112547600218704 0 -0.17789558253256721 0.1368522929207025 0 -0.17749072232138041 0.1112547600218704 0 -0.16113979031376621 0.12743058591966341 0 -0.17749072232138041 0.1112547600218704 0 -0.15084139672814201 0.110160429760413 0 -0.16113979031376621 0.12743058591966341 0 -0.17749072232138041 0.1112547600218704 0 -0.1616157516695074 0.095139316102685473 0 -0.15084139672814201 0.110160429760413 0 -0.16945340910355561 0.089496265134995978 0 -0.17749072232138041 0.1112547600218704 0 -0.1616157516695074 0.095139316102685473 0 -0.1616157516695074 0.095139316102685473 0 -0.15084139672814201 0.110160429760413 0 -0.14767322655010931 0.084806545451415583 0 -0.15084139672814201 0.110160429760413 0 -0.1348328660863515 0.097215266237156234 0 -0.14767322655010931 0.084806545451415583 0 -0.15084139672814201 0.110160429760413 0 -0.13137241316615089 0.11357835761918721 0 -0.14300315410871919 0.1253406317882016 0 -0.15084139672814201 0.110160429760413 0 -0.16113979031376621 0.12743058591966341 0 -0.14300315410871919 0.1253406317882016 0 -0.13137241316615089 0.11357835761918721 0 -0.14300315410871919 0.1253406317882016 0 -0.12687331202938101 0.13192737382428379 0 -0.13137241316615089 0.11357835761918721 0 -0.1348328660863515 0.097215266237156234 0 -0.1198812247159142 0.095002477965890675 0 -0.15084139672814201 0.110160429760413 0 -0.13137241316615089 0.11357835761918721 0 -0.1348328660863515 0.097215266237156234 0 -0.1348328660863515 0.097215266237156234 0 -0.12533951967512769 0.078274991835817334 0 -0.1198812247159142 0.095002477965890675 0 -0.1348328660863515 0.097215266237156234 0 -0.12533951967512769 0.078274991835817334 0 -0.14767322655010931 0.084806545451415583 0 -0.1618062267740645 0.07958177760614682 0 -0.14767322655010931 0.084806545451415583 0 -0.15517576509654349 0.068304766057398533 0 -0.14767322655010931 0.084806545451415583 0 -0.15517576509654349 0.068304766057398533 0 -0.14001017723872511 0.063978020277280875 0 -0.12533951967512769 0.078274991835817334 0 -0.14767322655010931 0.084806545451415583 0 -0.14001017723872511 0.063978020277280875 0 -0.12533951967512769 0.078274991835817334 0 -0.14001017723872511 0.063978020277280875 0 -0.1248745965026067 0.059896082918310993 0 -0.14001017723872511 0.063978020277280875 0 -0.13626681081840961 0.042829268155062397 0 -0.1248745965026067 0.059896082918310993 0 -0.13626681081840961 0.042829268155062397 0 -0.1339340902388827 0.022300844741854581 0 -0.1180188049733784 0.030804183747700629 0 -0.13626681081840961 0.042829268155062397 0 -0.1339340902388827 0.022300844741854581 0 -0.15968783393996419 0.037567277286728401 0 -0.13626681081840961 0.042829268155062397 0 -0.15351002702878311 0.053877414325468623 0 -0.15968783393996419 0.037567277286728401 0 -0.13626681081840961 0.042829268155062397 0 -0.15968783393996419 0.037567277286728401 0 -0.14001017723872511 0.063978020277280875 0 -0.13626681081840961 0.042829268155062397 0 -0.15351002702878311 0.053877414325468623 0 -0.15517576509654349 0.068304766057398533 0 -0.14001017723872511 0.063978020277280875 0 -0.15351002702878311 0.053877414325468623 0 -0.12735709500343681 0.004015926865657337 0 -0.15177498865293759 0.016606981474429749 0 -0.12735709500343681 0.004015926865657337 0 -0.1339340902388827 0.022300844741854581 0 -0.15177498865293759 0.016606981474429749 0 -0.12735709500343681 0.004015926865657337 0 -0.1339340902388827 0.022300844741854581 0 -0.11835839359799651 0.016938700943610479 0 -0.1339340902388827 0.022300844741854581 0 -0.15177498865293759 0.016606981474429749 0 -0.15968783393996419 0.037567277286728401 0 -0.1339340902388827 0.022300844741854581 0 -0.15968783393996419 0.037567277286728401 0 -0.12735709500343681 0.004015926865657337 0 -0.15177498865293759 0.016606981474429749 0 -0.14801408494475049 0.0031182785745780331 0 -0.15177498865293759 0.016606981474429749 0 -0.14801408494475049 0.0031182785745780331 0 -0.1619193683370386 0.0066468078375689294 0 -0.15773416148281841 -0.0035868741371463562 0 -0.14801408494475049 0.0031182785745780331 0 -0.1619193683370386 0.0066468078375689294 0 -0.15177498865293759 0.016606981474429749 0 -0.1619193683370386 0.0066468078375689294 0 -0.16760309597538539 0.015861310899326669 0 -0.16716832075785379 -0.0032078365625175 0 -0.1619193683370386 0.0066468078375689294 0 -0.17584419881677341 0.0071523107965592754 0 -0.1619193683370386 0.0066468078375689294 0 -0.16760309597538539 0.015861310899326669 0 -0.17584419881677341 0.0071523107965592754 0 -0.15177498865293759 0.016606981474429749 0 -0.17619288230243149 0.029198036083215671 0 -0.15177498865293759 0.016606981474429749 0 -0.17619288230243149 0.029198036083215671 0 -0.15968783393996419 0.037567277286728401 0 -0.15177498865293759 0.016606981474429749 0 -0.16760309597538539 0.015861310899326669 0 -0.17619288230243149 0.029198036083215671 0 -0.17619288230243149 0.029198036083215671 0 -0.1852069371874478 0.015311100034367831 0 -0.17584419881677341 0.0071523107965592754 0 -0.17619288230243149 0.029198036083215671 0 -0.17584419881677341 0.0071523107965592754 0 -0.16760309597538539 0.015861310899326669 0 -0.17619288230243149 0.029198036083215671 0 -0.17584419881677341 0.0071523107965592754 0 -0.17619288230243149 0.029198036083215671 0 -0.19572946351785711 0.039272048382664133 0 -0.19029700863621521 0.024089069561314659 0 -0.17619288230243149 0.029198036083215671 0 -0.1852069371874478 0.015311100034367831 0 -0.19029700863621521 0.024089069561314659 0 -0.1852069371874478 0.015311100034367831 0 -0.18717715497560061 0.0062623078557712403 0 -0.17584419881677341 0.0071523107965592754 0 -0.18154179604087481 -0.0036104187285780349 0 -0.18717715497560061 0.0062623078557712403 0 -0.17584419881677341 0.0071523107965592754 0 -0.15351002702878311 0.053877414325468623 0 -0.1659033968134131 0.050269055427132232 0 -0.15968783393996419 0.037567277286728401 0 -0.1659033968134131 0.050269055427132232 0 -0.16451238623864939 0.061110077383343737 0 -0.17656426821359539 0.052679136019797047 0 -0.17354141001077031 0.063798093567348918 0 -0.16451238623864939 0.061110077383343737 0 -0.17656426821359539 0.052679136019797047 0 -0.16451238623864939 0.061110077383343737 0 -0.17656426821359539 0.052679136019797047 0 -0.15351002702878311 0.053877414325468623 0 -0.1659033968134131 0.050269055427132232 0 -0.16451238623864939 0.061110077383343737 0 -0.15517576509654349 0.068304766057398533 0 -0.15351002702878311 0.053877414325468623 0 -0.16451238623864939 0.061110077383343737 0 -0.15968783393996419 0.037567277286728401 0 -0.1762663423330757 0.033842591165095401 0 -0.1659033968134131 0.050269055427132232 0 -0.15968783393996419 0.037567277286728401 0 -0.1764827173319595 0.047523031967639129 0 -0.17619288230243149 0.029198036083215671 0 -0.15968783393996419 0.037567277286728401 0 -0.1762663423330757 0.033842591165095401 0 -0.15968783393996419 0.037567277286728401 0 -0.1764827173319595 0.047523031967639129 0 -0.15968783393996419 0.037567277286728401 0 -0.1762663423330757 0.033842591165095401 0 -0.1764827173319595 0.047523031967639129 0 -0.17619288230243149 0.029198036083215671 0 -0.19572946351785711 0.039272048382664133 0 -0.181281627628781 0.040827380692469641 0 -0.18051660755046151 0.049914261515807259 0 -0.1764827173319595 0.047523031967639129 0 -0.17619288230243149 0.029198036083215671 0 -0.1762663423330757 0.033842591165095401 0 -0.19572946351785711 0.039272048382664133 0 -0.1762663423330757 0.033842591165095401 0 -0.181281627628781 0.040827380692469641 0 -0.19572946351785711 0.039272048382664133 0 -0.1762663423330757 0.033842591165095401 0 -0.181281627628781 0.040827380692469641 0 -0.1764827173319595 0.047523031967639129 0 -0.1762663423330757 0.033842591165095401 0 -0.1764827173319595 0.047523031967639129 0 -0.17619288230243149 0.029198036083215671 0 -0.1762663423330757 0.033842591165095401 0 -0.181281627628781 0.040827380692469641 0 -0.18051660755046151 0.049914261515807259 0 -0.19572946351785711 0.039272048382664133 0 -0.18051660755046151 0.049914261515807259 0 -0.17656426821359539 0.052679136019797047 0 -0.1853153676200878 0.058850167416455039 0 -0.18051660755046151 0.049914261515807259 0 -0.1764827173319595 0.047523031967639129 0 -0.1764827173319595 0.047523031967639129 0 -0.17656426821359539 0.052679136019797047 0 -0.1659033968134131 0.050269055427132232 0 -0.1764827173319595 0.047523031967639129 0 -0.17656426821359539 0.052679136019797047 0 -0.18051660755046151 0.049914261515807259 0 -0.1764827173319595 0.047523031967639129 0 -0.17656426821359539 0.052679136019797047 0 -0.18051660755046151 0.049914261515807259 0 -0.17656426821359539 0.052679136019797047 0 -0.18185637422210199 0.067243003367259677 0 -0.17656426821359539 0.052679136019797047 0 -0.1853153676200878 0.058850167416455039 0 -0.1853153676200878 0.058850167416455039 0 -0.19803765617450109 0.060300476042091433 0 -0.18892740292417859 0.064703221589215376 0 -0.18051660755046151 0.049914261515807259 0 -0.19803765617450109 0.060300476042091433 0 -0.1977866825790292 0.05007637869738242 0 -0.18051660755046151 0.049914261515807259 0 -0.1853153676200878 0.058850167416455039 0 -0.19803765617450109 0.060300476042091433 0 -0.18051660755046151 0.049914261515807259 0 -0.19803765617450109 0.060300476042091433 0 -0.19803765617450109 0.060300476042091433 0 -0.1977866825790292 0.05007637869738242 0 -0.2066297839190599 0.054855205218219752 0 -0.18051660755046151 0.049914261515807259 0 -0.1977866825790292 0.05007637869738242 0 -0.19572946351785711 0.039272048382664133 0 -0.18051660755046151 0.049914261515807259 0 -0.19572946351785711 0.039272048382664133 0 -0.19572946351785711 0.039272048382664133 0 -0.2098237389609823 0.029412342647955388 0 -0.1977866825790292 0.05007637869738242 0 -0.19572946351785711 0.039272048382664133 0 -0.2073344650466164 0.045256152092875389 0 -0.19572946351785711 0.039272048382664133 0 -0.2073344650466164 0.045256152092875389 0 -0.2073344650466164 0.045256152092875389 0 -0.21702036639386221 0.038769314305699548 0 -0.2098237389609823 0.029412342647955388 0 -0.19572946351785711 0.039272048382664133 0 -0.2073344650466164 0.045256152092875389 0 -0.2098237389609823 0.029412342647955388 0 -0.21702036639386221 0.038769314305699548 0 -0.2098237389609823 0.029412342647955388 0 -0.2284051488343061 0.035137669629428533 0 -0.2073344650466164 0.045256152092875389 0 -0.21702036639386221 0.038769314305699548 0 -0.22251811273354419 0.045271092852538893 0 -0.2073344650466164 0.045256152092875389 0 -0.21769334509658461 0.055951218203848879 0 -0.22251811273354419 0.045271092852538893 0 -0.21769334509658461 0.055951218203848879 0 -0.20947987249717179 0.060448397508133619 0 -0.2066297839190599 0.054855205218219752 0 -0.21769334509658461 0.055951218203848879 0 -0.20947987249717179 0.060448397508133619 0 -0.2155587047985415 0.070686690568374386 0 -0.19803765617450109 0.060300476042091433 0 -0.20947987249717179 0.060448397508133619 0 -0.2066297839190599 0.054855205218219752 0 -0.1977866825790292 0.05007637869738242 0 -0.2073344650466164 0.045256152092875389 0 -0.2066297839190599 0.054855205218219752 0 -0.2073344650466164 0.045256152092875389 0 -0.21769334509658461 0.055951218203848879 0 -0.2066297839190599 0.054855205218219752 0 -0.1989264366345522 -0.0080023544535597537 0 -0.1965234412062255 0.0098537758749781944 0 -0.20713549204565579 6.5395444916274768e-05 0 -0.19066530249761049 -0.0041303576494283751 0 -0.18717715497560061 0.0062623078557712403 0 -0.1965234412062255 0.0098537758749781944 0 -0.1852069371874478 0.015311100034367831 0 -0.18717715497560061 0.0062623078557712403 0 -0.1965234412062255 0.0098537758749781944 0 -0.1965234412062255 0.0098537758749781944 0 -0.20113962024173071 0.02227838771243261 0 -0.2107847094499361 0.011405203725301251 0 -0.19572946351785711 0.039272048382664133 0 -0.20113962024173071 0.02227838771243261 0 -0.2098237389609823 0.029412342647955388 0 -0.19572946351785711 0.039272048382664133 0 -0.20113962024173071 0.02227838771243261 0 -0.19029700863621521 0.024089069561314659 0 -0.1965234412062255 0.0098537758749781944 0 -0.20113962024173071 0.02227838771243261 0 -0.19029700863621521 0.024089069561314659 0 -0.1852069371874478 0.015311100034367831 0 -0.1965234412062255 0.0098537758749781944 0 -0.19029700863621521 0.024089069561314659 0 -0.2098237389609823 0.029412342647955388 0 -0.2107847094499361 0.011405203725301251 0 -0.22391801440410891 0.019552636913248388 0 -0.20113962024173071 0.02227838771243261 0 -0.2098237389609823 0.029412342647955388 0 -0.2107847094499361 0.011405203725301251 0 -0.2098237389609823 0.029412342647955388 0 -0.22391801440410891 0.019552636913248388 0 -0.21702438745170211 -0.0043907958627755336 0 -0.2107847094499361 0.011405203725301251 0 -0.20713549204565579 6.5395444916274768e-05 0 -0.21702438745170211 -0.0043907958627755336 0 -0.2107847094499361 0.011405203725301251 0 -0.22391801440410891 0.019552636913248388 0 -0.1965234412062255 0.0098537758749781944 0 -0.2107847094499361 0.011405203725301251 0 -0.20713549204565579 6.5395444916274768e-05 0 -0.22867745033346079 0.0038692188645070222 0 -0.22391801440410891 0.019552636913248388 0 -0.2344599051246074 0.012178015861532989 0 -0.21702438745170211 -0.0043907958627755336 0 -0.22391801440410891 0.019552636913248388 0 -0.21702438745170211 -0.0043907958627755336 0 -0.22867745033346079 0.0038692188645070222 0 -0.22391801440410891 0.019552636913248388 0 -0.22391801440410891 0.019552636913248388 0 -0.2403792472176362 0.02548084658656756 0 -0.2344599051246074 0.012178015861532989 0 -0.2098237389609823 0.029412342647955388 0 -0.22391801440410891 0.019552636913248388 0 -0.2284051488343061 0.035137669629428533 0 -0.22391801440410891 0.019552636913248388 0 -0.2403792472176362 0.02548084658656756 0 -0.2284051488343061 0.035137669629428533 0 -0.22391801440410891 0.019552636913248388 0 -0.2344599051246074 0.012178015861532989 0 -0.22391801440410891 0.019552636913248388 0 -0.2284051488343061 0.035137669629428533 0 -0.2522816967992324 0.037264740289820159 0 -0.25157722050270093 0.012682655753942951 0 -0.2403792472176362 0.02548084658656756 0 -0.25157722050270093 0.012682655753942951 0 -0.2403792472176362 0.02548084658656756 0 -0.2344599051246074 0.012178015861532989 0 -0.25267499080189931 -0.0034516002120552492 0 -0.25157722050270093 0.012682655753942951 0 -0.2401015516947359 0.00075261550232862703 0 -0.25157722050270093 0.012682655753942951 0 -0.2344599051246074 0.012178015861532989 0 -0.2401015516947359 0.00075261550232862703 0 -0.22867745033346079 0.0038692188645070222 0 -0.2344599051246074 0.012178015861532989 0 -0.2401015516947359 0.00075261550232862703 0 -0.21769334509658461 0.055951218203848879 0 -0.23255980098598539 0.056775429521547523 0 -0.2155587047985415 0.070686690568374386 0 -0.23289228326450309 0.050722702345608793 0 -0.22641588552015429 0.052180110730886013 0 -0.22251811273354419 0.045271092852538893 0 -0.23289228326450309 0.050722702345608793 0 -0.23255980098598539 0.056775429521547523 0 -0.22641588552015429 0.052180110730886013 0 -0.21769334509658461 0.055951218203848879 0 -0.23255980098598539 0.056775429521547523 0 -0.22641588552015429 0.052180110730886013 0 -0.21769334509658461 0.055951218203848879 0 -0.22641588552015429 0.052180110730886013 0 -0.22251811273354419 0.045271092852538893 0 -0.21702036639386221 0.038769314305699548 0 -0.22251811273354419 0.045271092852538893 0 -0.2284051488343061 0.035137669629428533 0 -0.23289228326450309 0.050722702345608793 0 -0.22251811273354419 0.045271092852538893 0 -0.2284051488343061 0.035137669629428533 0 -0.23289228326450309 0.050722702345608793 0 -0.2284051488343061 0.035137669629428533 0 -0.2522816967992324 0.037264740289820159 0 -0.2403792472176362 0.02548084658656756 0 -0.2284051488343061 0.035137669629428533 0 -0.2522816967992324 0.037264740289820159 0 -0.23289228326450309 0.050722702345608793 0 -0.2284051488343061 0.035137669629428533 0 -0.2522816967992324 0.037264740289820159 0 -0.23289228326450309 0.050722702345608793 0 -0.23255980098598539 0.056775429521547523 0 -0.2522816967992324 0.037264740289820159 0 -0.23255980098598539 0.056775429521547523 0 -0.2522816967992324 0.037264740289820159 0 -0.23255980098598539 0.056775429521547523 0 -0.24906194248509719 0.058488871325365822 0 -0.23255980098598539 0.056775429521547523 0 -0.24906194248509719 0.058488871325365822 0 -0.23770452364983391 0.071010308971772351 0 -0.26257114212692878 0.06573449919026883 0 -0.24906194248509719 0.058488871325365822 0 -0.23770452364983391 0.071010308971772351 0 -0.25261226255175379 0.080423606239198905 0 -0.23770452364983391 0.071010308971772351 0 -0.23158356521460469 0.085326977986282804 0 -0.25261226255175379 0.080423606239198905 0 -0.23158356521460469 0.085326977986282804 0 -0.24377998071086901 0.096378574065869249 0 -0.23158356521460469 0.085326977986282804 0 -0.21283790517273879 0.076286118753275345 0 -0.22135706029896429 0.097751395037259853 0 -0.23158356521460469 0.085326977986282804 0 -0.22135706029896429 0.097751395037259853 0 -0.24377998071086901 0.096378574065869249 0 -0.23255980098598539 0.056775429521547523 0 -0.21283790517273879 0.076286118753275345 0 -0.23770452364983391 0.071010308971772351 0 -0.23158356521460469 0.085326977986282804 0 -0.21283790517273879 0.076286118753275345 0 -0.23255980098598539 0.056775429521547523 0 -0.23770452364983391 0.071010308971772351 0 -0.21283790517273879 0.076286118753275345 0 -0.23255980098598539 0.056775429521547523 0 -0.21283790517273879 0.076286118753275345 0 -0.2155587047985415 0.070686690568374386 0 -0.23770452364983391 0.071010308971772351 0 -0.21283790517273879 0.076286118753275345 0 -0.19803765617450109 0.060300476042091433 0 -0.20947987249717179 0.060448397508133619 0 -0.2155587047985415 0.070686690568374386 0 -0.19803765617450109 0.060300476042091433 0 -0.20333782300263301 0.070680183335342567 0 -0.2155587047985415 0.070686690568374386 0 -0.19803765617450109 0.060300476042091433 0 -0.2155587047985415 0.070686690568374386 0 -0.21283790517273879 0.076286118753275345 0 -0.19766176801088831 0.079505953929404904 0 -0.20333782300263301 0.070680183335342567 0 -0.21283790517273879 0.076286118753275345 0 -0.19766176801088831 0.079505953929404904 0 -0.20333782300263301 0.070680183335342567 0 -0.21283790517273879 0.076286118753275345 0 -0.2155587047985415 0.070686690568374386 0 -0.21283790517273879 0.076286118753275345 0 -0.1951643137470572 0.093770439387570487 0 -0.22135706029896429 0.097751395037259853 0 -0.21283790517273879 0.076286118753275345 0 -0.1951643137470572 0.093770439387570487 0 -0.21283790517273879 0.076286118753275345 0 -0.19766176801088831 0.079505953929404904 0 -0.1951643137470572 0.093770439387570487 0 -0.18248563084903771 0.082725789105533951 0 -0.19766176801088831 0.079505953929404904 0 -0.1951643137470572 0.093770439387570487 0 -0.1867192510276118 0.077748512173410014 0 -0.18248563084903771 0.082725789105533951 0 -0.19766176801088831 0.079505953929404904 0 -0.18248563084903771 0.082725789105533951 0 -0.19766176801088831 0.079505953929404904 0 -0.1867192510276118 0.077748512173410014 0 -0.19766176801088831 0.079505953929404904 0 -0.19050021368002351 0.072419239531055349 0 -0.19803765617450109 0.060300476042091433 0 -0.19050021368002351 0.072419239531055349 0 -0.18892740292417859 0.064703221589215376 0 -0.19803765617450109 0.060300476042091433 0 -0.20333782300263301 0.070680183335342567 0 -0.19050021368002351 0.072419239531055349 0 -0.20333782300263301 0.070680183335342567 0 -0.19766176801088831 0.079505953929404904 0 -0.19050021368002351 0.072419239531055349 0 -0.17749072232138041 0.1112547600218704 0 -0.19150979458678249 0.1243728737611647 0 -0.1951643137470572 0.093770439387570487 0 -0.19150979458678249 0.1243728737611647 0 -0.1951643137470572 0.093770439387570487 0 -0.20994497012605751 0.11823125198409511 0 -0.1951643137470572 0.093770439387570487 0 -0.20994497012605751 0.11823125198409511 0 -0.22135706029896429 0.097751395037259853 0 -0.20994497012605751 0.11823125198409511 0 -0.2348316268224595 0.11651500804646669 0 -0.2235388627286797 0.12965651036182041 0 -0.20994497012605751 0.11823125198409511 0 -0.22135706029896429 0.097751395037259853 0 -0.2348316268224595 0.11651500804646669 0 -0.22135706029896429 0.097751395037259853 0 -0.24377998071086901 0.096378574065869249 0 -0.2348316268224595 0.11651500804646669 0 -0.25136603029008331 0.1103208693098497 0 -0.24377998071086901 0.096378574065869249 0 -0.2348316268224595 0.11651500804646669 0 -0.25922316449870308 0.12628093809151891 0 -0.25136603029008331 0.1103208693098497 0 -0.2348316268224595 0.11651500804646669 0 -0.25922316449870308 0.12628093809151891 0 -0.2348316268224595 0.11651500804646669 0 -0.2369615480924761 0.1404602413506009 0 -0.2369615480924761 0.1404602413506009 0 -0.2235388627286797 0.12965651036182041 0 -0.2124173058737257 0.14341954006611901 0 -0.2348316268224595 0.11651500804646669 0 -0.2369615480924761 0.1404602413506009 0 -0.2235388627286797 0.12965651036182041 0 -0.2369615480924761 0.1404602413506009 0 -0.22679867445049531 0.16064067306310431 0 -0.2124173058737257 0.14341954006611901 0 -0.2369615480924761 0.1404602413506009 0 -0.247018622616726 0.15992587597476091 0 -0.22679867445049531 0.16064067306310431 0 -0.25846103874104392 0.14702121199507179 0 -0.2369615480924761 0.1404602413506009 0 -0.247018622616726 0.15992587597476091 0 -0.247018622616726 0.15992587597476091 0 -0.23359887481107691 0.1809086922627815 0 -0.247018622616726 0.15992587597476091 0 -0.23359887481107691 0.1809086922627815 0 -0.22679867445049531 0.16064067306310431 0 -0.26439180367967152 0.18225540552070321 0 -0.247018622616726 0.15992587597476091 0 -0.23359887481107691 0.1809086922627815 0 -0.23359887481107691 0.1809086922627815 0 -0.20517995294037331 0.17379218369948349 0 -0.2201791270054278 0.2018915085508021 0 -0.23359887481107691 0.1809086922627815 0 -0.22679867445049531 0.16064067306310431 0 -0.20517995294037331 0.17379218369948349 0 -0.22679867445049531 0.16064067306310431 0 -0.20517995294037331 0.17379218369948349 0 -0.2124173058737257 0.14341954006611901 0 -0.20517995294037331 0.17379218369948349 0 -0.19274338499996449 0.14807478539393409 0 -0.17830044274374979 0.16244982581953471 0 -0.19150979458678249 0.1243728737611647 0 -0.19274338499996449 0.14807478539393409 0 -0.2124173058737257 0.14341954006611901 0 -0.20994497012605751 0.11823125198409511 0 -0.2235388627286797 0.12965651036182041 0 -0.2124173058737257 0.14341954006611901 0 -0.19150979458678249 0.1243728737611647 0 -0.20994497012605751 0.11823125198409511 0 -0.2124173058737257 0.14341954006611901 0 -0.20517995294037331 0.17379218369948349 0 -0.19274338499996449 0.14807478539393409 0 -0.2124173058737257 0.14341954006611901 0 -0.22371849106378741 0.2462845034026982 0 -0.23019370483249479 0.22382880503591951 0 -0.2066863838603582 0.24242880758937649 0 -0.22371849106378741 0.2462845034026982 0 -0.23951274761537589 0.2474853768326048 0 -0.23019370483249479 0.22382880503591951 0 -0.25272375818517617 0.22994970808158929 0 -0.25621817608628389 0.2460965770837312 0 -0.23951274761537589 0.2474853768326048 0 -0.25370102580463139 0.2052288024824625 0 -0.25272375818517617 0.22994970808158929 0 -0.23019370483249479 0.22382880503591951 0 -0.25272375818517617 0.22994970808158929 0 -0.23951274761537589 0.2474853768326048 0 -0.23019370483249479 0.22382880503591951 0 -0.25370102580463139 0.2052288024824625 0 -0.23359887481107691 0.1809086922627815 0 -0.2201791270054278 0.2018915085508021 0 -0.25370102580463139 0.2052288024824625 0 -0.23019370483249479 0.22382880503591951 0 -0.2201791270054278 0.2018915085508021 0 -0.23019370483249479 0.22382880503591951 0 -0.2201791270054278 0.2018915085508021 0 -0.20675937919977869 0.22287432483882261 0 -0.25370102580463139 0.2052288024824625 0 -0.23019370483249479 0.22382880503591951 0 -0.23359887481107691 0.1809086922627815 0 -0.2201791270054278 0.2018915085508021 0 -0.20517995294037331 0.17379218369948349 0 -0.2201791270054278 0.2018915085508021 0 -0.19686056424972551 0.20437535499954981 0 -0.20517995294037331 0.17379218369948349 0 -0.19686056424972551 0.20437535499954981 0 -0.17870530295493239 0.18804735871836689 0 -0.19686056424972551 0.20437535499954981 0 -0.20675937919977869 0.22287432483882261 0 -0.19122946023172571 0.22600186257262461 0 -0.19686056424972551 0.20437535499954981 0 -0.19122946023172571 0.22600186257262461 0 -0.179110163166115 0.21364489161719899 0 -0.2201791270054278 0.2018915085508021 0 -0.19686056424972551 0.20437535499954981 0 -0.20675937919977869 0.22287432483882261 0 -0.2201791270054278 0.2018915085508021 0 -0.20675937919977869 0.22287432483882261 0 -0.23019370483249479 0.22382880503591951 0 -0.2066863838603582 0.24242880758937649 0 -0.23019370483249479 0.22382880503591951 0 -0.20675937919977869 0.22287432483882261 0 -0.2066863838603582 0.24242880758937649 0 -0.20675937919977869 0.22287432483882261 0 -0.19333963139412971 0.24385714112684301 0 -0.20675937919977869 0.22287432483882261 0 -0.19122946023172571 0.22600186257262461 0 -0.19333963139412971 0.24385714112684301 0 -0.19122946023172571 0.22600186257262461 0 -0.19333963139412971 0.24385714112684301 0 -0.17951502337729761 0.2392424245160312 0 -0.20675937919977869 0.22287432483882261 0 -0.19333963139412971 0.24385714112684301 0 -0.2066863838603582 0.24242880758937649 0 -0.18259587964237009 0.2606558300825601 0 -0.19333963139412971 0.24385714112684301 0 -0.2066863838603582 0.24242880758937649 0 -0.21408768962570049 0.25938306782852782 0 -0.22371849106378741 0.2462845034026982 0 -0.2066863838603582 0.24242880758937649 0 -0.1532221513837192 0.25419418888983192 0 -0.17951502337729761 0.2392424245160312 0 -0.15110003921584569 0.22881829817408891 0 -0.18259587964237009 0.2606558300825601 0 -0.19333963139412971 0.24385714112684301 0 -0.17951502337729761 0.2392424245160312 0 -0.17951502337729761 0.2392424245160312 0 -0.1619547442009632 0.2162214427956837 0 -0.179110163166115 0.21364489161719899 0 -0.19122946023172571 0.22600186257262461 0 -0.17951502337729761 0.2392424245160312 0 -0.179110163166115 0.21364489161719899 0 -0.17951502337729761 0.2392424245160312 0 -0.179110163166115 0.21364489161719899 0 -0.17951502337729761 0.2392424245160312 0 -0.1619547442009632 0.2162214427956837 0 -0.15110003921584569 0.22881829817408891 0 -0.1619547442009632 0.2162214427956837 0 -0.179110163166115 0.21364489161719899 0 -0.17870530295493239 0.18804735871836689 0 -0.19686056424972551 0.20437535499954981 0 -0.179110163166115 0.21364489161719899 0 -0.17870530295493239 0.18804735871836689 0 -0.179110163166115 0.21364489161719899 0 -0.17870530295493239 0.18804735871836689 0 -0.1619547442009632 0.2162214427956837 0 -0.17870530295493239 0.18804735871836689 0 -0.15775407484820861 0.18727827749961631 0 -0.14804225966403101 0.20585853828705919 0 -0.15775407484820861 0.18727827749961631 0 -0.13876353146598761 0.18223131465273959 0 -0.1619547442009632 0.2162214427956837 0 -0.14804225966403101 0.20585853828705919 0 -0.15775407484820861 0.18727827749961631 0 -0.13876353146598761 0.18223131465273959 0 -0.1245765098090509 0.17966052017845999 0 -0.1190175871807343 0.20067046473278771 0 -0.14804225966403101 0.20585853828705919 0 -0.13876353146598761 0.18223131465273959 0 -0.1190175871807343 0.20067046473278771 0 -0.14804225966403101 0.20585853828705919 0 -0.13479108425045189 0.2189379304695287 0 -0.1190175871807343 0.20067046473278771 0 -0.13479108425045189 0.2189379304695287 0 -0.12594818007053379 0.2253828658525201 0 -0.1190175871807343 0.20067046473278771 0 -0.1619547442009632 0.2162214427956837 0 -0.14804225966403101 0.20585853828705919 0 -0.15110003921584569 0.22881829817408891 0 -0.14804225966403101 0.20585853828705919 0 -0.15110003921584569 0.22881829817408891 0 -0.13479108425045189 0.2189379304695287 0 -0.15110003921584569 0.22881829817408891 0 -0.13479108425045189 0.2189379304695287 0 -0.1378537507735782 0.22769286600650679 0 -0.15110003921584569 0.22881829817408891 0 -0.1378537507735782 0.22769286600650679 0 -0.13827307027013019 0.2362506378269415 0 -0.13479108425045189 0.2189379304695287 0 -0.12594818007053379 0.2253828658525201 0 -0.1378537507735782 0.22769286600650679 0 -0.12594818007053379 0.2253828658525201 0 -0.1378537507735782 0.22769286600650679 0 -0.13827307027013019 0.2362506378269415 0 -0.12594818007053379 0.2253828658525201 0 -0.13827307027013019 0.2362506378269415 0 -0.1327712538659816 0.24971188635390451 0 -0.12594818007053379 0.2253828658525201 0 -0.1327712538659816 0.24971188635390451 0 -0.1532221513837192 0.25419418888983192 0 -0.15110003921584569 0.22881829817408891 0 -0.13827307027013019 0.2362506378269415 0 -0.1532221513837192 0.25419418888983192 0 -0.13827307027013019 0.2362506378269415 0 -0.1327712538659816 0.24971188635390451 0 -0.16317411874061041 0.14897554401654969 0 -0.16113979031376621 0.12743058591966341 0 -0.1447888583061562 0.1436064118174607 0 -0.16317411874061041 0.14897554401654969 0 -0.16113979031376621 0.12743058591966341 0 -0.17789558253256721 0.1368522929207025 0 -0.17749072232138041 0.1112547600218704 0 -0.16113979031376621 0.12743058591966341 0 -0.17789558253256721 0.1368522929207025 0 -0.19150979458678249 0.1243728737611647 0 -0.19274338499996449 0.14807478539393409 0 -0.17789558253256721 0.1368522929207025 0 -0.16317411874061041 0.14897554401654969 0 -0.17789558253256721 0.1368522929207025 0 -0.17830044274374979 0.16244982581953471 0 -0.17789558253256721 0.1368522929207025 0 -0.17830044274374979 0.16244982581953471 0 -0.19274338499996449 0.14807478539393409 0 -0.17789558253256721 0.1368522929207025 0 -0.17830044274374979 0.16244982581953471 0 -0.20517995294037331 0.17379218369948349 0 -0.17870530295493239 0.18804735871836689 0 -0.17830044274374979 0.16244982581953471 0 -0.17870530295493239 0.18804735871836689 0 -0.17830044274374979 0.16244982581953471 0 -0.17870530295493239 0.18804735871836689 0 -0.17830044274374979 0.16244982581953471 0 -0.15775407484820861 0.18727827749961631 0 -0.17830044274374979 0.16244982581953471 0 -0.15775407484820861 0.18727827749961631 0 -0.15245232938168229 0.1648839185887534 0 -0.16317411874061041 0.14897554401654969 0 -0.17830044274374979 0.16244982581953471 0 -0.15245232938168229 0.1648839185887534 0 -0.15775407484820861 0.18727827749961631 0 -0.15245232938168229 0.1648839185887534 0 -0.13876353146598761 0.18223131465273959 0 -0.13876353146598761 0.18223131465273959 0 -0.12843792629854631 0.15978223771525801 0 -0.1245765098090509 0.17966052017845999 0 -0.15245232938168229 0.1648839185887534 0 -0.13876353146598761 0.18223131465273959 0 -0.12843792629854631 0.15978223771525801 0 -0.12843792629854631 0.15978223771525801 0 -0.1447888583061562 0.1436064118174607 0 -0.12843792629854631 0.15978223771525801 0 -0.1447888583061562 0.1436064118174607 0 -0.1204435081575875 0.14623213693654391 0 -0.16317411874061041 0.14897554401654969 0 -0.15245232938168229 0.1648839185887534 0 -0.1447888583061562 0.1436064118174607 0 -0.15245232938168229 0.1648839185887534 0 -0.12843792629854631 0.15978223771525801 0 -0.1447888583061562 0.1436064118174607 0 -0.16113979031376621 0.12743058591966341 0 -0.1447888583061562 0.1436064118174607 0 -0.14300315410871919 0.1253406317882016 0 -0.16113979031376621 0.12743058591966341 0 -0.1447888583061562 0.1436064118174607 0 -0.1447888583061562 0.1436064118174607 0 -0.12687331202938101 0.13192737382428379 0 -0.1204435081575875 0.14623213693654391 0 -0.1447888583061562 0.1436064118174607 0 -0.14300315410871919 0.1253406317882016 0 -0.12687331202938101 0.13192737382428379 0 -0.12687331202938101 0.13192737382428379 0 -0.1130049083687871 0.13722853083192951 0 -0.10667563132183119 0.1260080396076822 0 -0.12687331202938101 0.13192737382428379 0 -0.1130049083687871 0.13722853083192951 0 -0.1204435081575875 0.14623213693654391 0 -0.10667563132183119 0.1260080396076822 0 -0.081978849477511453 0.1384377215961772 0 -0.096577670607123245 0.1239972751083621 0 -0.10667563132183119 0.1260080396076822 0 -0.1008242758955458 0.1385116675773613 0 -0.081978849477511453 0.1384377215961772 0 -0.10667563132183119 0.1260080396076822 0 -0.081978849477511453 0.1384377215961772 0 -0.1130049083687871 0.13722853083192951 0 -0.10667563132183119 0.1260080396076822 0 -0.1008242758955458 0.1385116675773613 0 -0.1130049083687871 0.13722853083192951 0 -0.1008242758955458 0.1385116675773613 0 -0.1078791741402548 0.14587794917826699 0 -0.094422293866394627 0.1556947047027778 0 -0.094582816169344081 0.14500609667275041 0 -0.1078791741402548 0.14587794917826699 0 -0.1008242758955458 0.1385116675773613 0 -0.094582816169344081 0.14500609667275041 0 -0.1078791741402548 0.14587794917826699 0 -0.12843792629854631 0.15978223771525801 0 -0.1204435081575875 0.14623213693654391 0 -0.1073217141416921 0.15896651377475199 0 -0.1078791741402548 0.14587794917826699 0 -0.1204435081575875 0.14623213693654391 0 -0.1073217141416921 0.15896651377475199 0 -0.1130049083687871 0.13722853083192951 0 -0.1078791741402548 0.14587794917826699 0 -0.1204435081575875 0.14623213693654391 0 -0.12843792629854631 0.15978223771525801 0 -0.1245765098090509 0.17966052017845999 0 -0.1120869942909358 0.17595806361305491 0 -0.1120869942909358 0.17595806361305491 0 -0.1073217141416921 0.15896651377475199 0 -0.12843792629854631 0.15978223771525801 0 -0.1120869942909358 0.17595806361305491 0 -0.12843792629854631 0.15978223771525801 0 -0.1120869942909358 0.17595806361305491 0 -0.1073217141416921 0.15896651377475199 0 -0.1245765098090509 0.17966052017845999 0 -0.1120869942909358 0.17595806361305491 0 -0.1190175871807343 0.20067046473278771 0 -0.1120869942909358 0.17595806361305491 0 -0.1020860412129876 0.1687304780430319 0 -0.095149617161195271 0.19271405424946009 0 -0.1020860412129876 0.1687304780430319 0 -0.095149617161195271 0.19271405424946009 0 -0.1120869942909358 0.17595806361305491 0 -0.095149617161195271 0.19271405424946009 0 -0.1020860412129876 0.1687304780430319 0 -0.093279947424905002 0.17994671451597891 0 -0.095149617161195271 0.19271405424946009 0 -0.1020860412129876 0.1687304780430319 0 -0.089956478385260899 0.16811851343374709 0 -0.093279947424905002 0.17994671451597891 0 -0.094422293866394627 0.1556947047027778 0 -0.1078791741402548 0.14587794917826699 0 -0.1020860412129876 0.1687304780430319 0 -0.1078791741402548 0.14587794917826699 0 -0.1073217141416921 0.15896651377475199 0 -0.1020860412129876 0.1687304780430319 0 -0.1120869942909358 0.17595806361305491 0 -0.1073217141416921 0.15896651377475199 0 -0.1020860412129876 0.1687304780430319 0 -0.1078791741402548 0.14587794917826699 0 -0.1020860412129876 0.1687304780430319 0 -0.094422293866394627 0.1556947047027778 0 -0.1020860412129876 0.1687304780430319 0 -0.089956478385260899 0.16811851343374709 0 -0.094422293866394627 0.1556947047027778 0 -0.089956478385260899 0.16811851343374709 0 -0.084742563178951485 0.15922574422532609 0 -0.089956478385260899 0.16811851343374709 0 -0.080023232193096983 0.1657260639694961 0 -0.084742563178951485 0.15922574422532609 0 -0.089956478385260899 0.16811851343374709 0 -0.080023232193096983 0.1657260639694961 0 -0.081293191825158789 0.17801619480298669 0 -0.080023232193096983 0.1657260639694961 0 -0.084742563178951485 0.15922574422532609 0 -0.074930767296401246 0.15918989644816289 0 -0.081293191825158789 0.17801619480298669 0 -0.095149617161195271 0.19271405424946009 0 -0.073474196407973841 0.19079473501472519 0 -0.081293191825158789 0.17801619480298669 0 -0.095149617161195271 0.19271405424946009 0 -0.093279947424905002 0.17994671451597891 0 -0.081293191825158789 0.17801619480298669 0 -0.095149617161195271 0.19271405424946009 0 -0.089956478385260899 0.16811851343374709 0 -0.093279947424905002 0.17994671451597891 0 -0.081293191825158789 0.17801619480298669 0 -0.064604308801312821 0.18244611143699499 0 -0.069549912031587807 0.17131438064227461 0 -0.073474196407973841 0.19079473501472519 0 -0.081293191825158789 0.17801619480298669 0 -0.069549912031587807 0.17131438064227461 0 -0.073474196407973841 0.19079473501472519 0 -0.069549912031587807 0.17131438064227461 0 -0.073474196407973841 0.19079473501472519 0 -0.064604308801312821 0.18244611143699499 0 -0.069549912031587807 0.17131438064227461 0 -0.062041409668937363 0.1723934095439342 0 -0.084742563178951485 0.15922574422532609 0 -0.074930767296401246 0.15918989644816289 0 -0.074588176879671189 0.15080810715310269 0 -0.080023232193096983 0.1657260639694961 0 -0.074930767296401246 0.15918989644816289 0 -0.06743676648912228 0.16331833535651319 0 -0.081293191825158789 0.17801619480298669 0 -0.069549912031587807 0.17131438064227461 0 -0.06743676648912228 0.16331833535651319 0 -0.080023232193096983 0.1657260639694961 0 -0.081293191825158789 0.17801619480298669 0 -0.06743676648912228 0.16331833535651319 0 -0.081293191825158789 0.17801619480298669 0 -0.06743676648912228 0.16331833535651319 0 -0.069549912031587807 0.17131438064227461 0 -0.062031688412593149 0.16441565219234799 0 -0.062041409668937363 0.1723934095439342 0 -0.069549912031587807 0.17131438064227461 0 -0.06743676648912228 0.16331833535651319 0 -0.062031688412593149 0.16441565219234799 0 -0.06743676648912228 0.16331833535651319 0 -0.06725389334219653 0.15771987894696021 0 -0.062031688412593149 0.16441565219234799 0 -0.074930767296401246 0.15918989644816289 0 -0.06743676648912228 0.16331833535651319 0 -0.06725389334219653 0.15771987894696021 0 -0.081978849477511453 0.1384377215961772 0 -0.05728206763319247 0.1508674035846734 0 -0.06725389334219653 0.15771987894696021 0 -0.074588176879671189 0.15080810715310269 0 -0.05728206763319247 0.1508674035846734 0 -0.074588176879671189 0.15080810715310269 0 -0.081978849477511453 0.1384377215961772 0 -0.05728206763319247 0.1508674035846734 0 -0.081978849477511453 0.1384377215961772 0 -0.06070043620975589 0.134524720015781 0 -0.05728206763319247 0.1508674035846734 0 -0.074930767296401246 0.15918989644816289 0 -0.06725389334219653 0.15771987894696021 0 -0.074588176879671189 0.15080810715310269 0 -0.071786582042575819 0.1280585334591178 0 -0.081978849477511453 0.1384377215961772 0 -0.08034823769671974 0.121089655777625 0 -0.071786582042575819 0.1280585334591178 0 -0.081978849477511453 0.1384377215961772 0 -0.06070043620975589 0.134524720015781 0 -0.071786582042575819 0.1280585334591178 0 -0.06070043620975589 0.134524720015781 0 -0.06411880478631618 0.11818203644688791 0 -0.081978849477511453 0.1384377215961772 0 -0.08034823769671974 0.121089655777625 0 -0.096577670607123245 0.1239972751083621 0 -0.1008242758955458 0.1385116675773613 0 -0.094582816169344081 0.14500609667275041 0 -0.081978849477511453 0.1384377215961772 0 -0.094582816169344081 0.14500609667275041 0 -0.081978849477511453 0.1384377215961772 0 -0.0854808471676783 0.14892295327365951 0 -0.094422293866394627 0.1556947047027778 0 -0.084742563178951485 0.15922574422532609 0 -0.0854808471676783 0.14892295327365951 0 -0.094422293866394627 0.1556947047027778 0 -0.094582816169344081 0.14500609667275041 0 -0.0854808471676783 0.14892295327365951 0 -0.084742563178951485 0.15922574422532609 0 -0.074588176879671189 0.15080810715310269 0 -0.0854808471676783 0.14892295327365951 0 -0.074588176879671189 0.15080810715310269 0 -0.081978849477511453 0.1384377215961772 0 -0.0854808471676783 0.14892295327365951 0 -0.1045487088169635 0.24438495162540061 0 -0.11455994162881621 0.23631135170566109 0 -0.098826177075254387 0.23394696074010041 0 -0.10005120432924321 0.25626016583208688 0 -0.094679029848152713 0.24609146959404629 0 -0.1045487088169635 0.24438495162540061 0 -0.094679029848152713 0.24609146959404629 0 -0.1045487088169635 0.24438495162540061 0 -0.098826177075254387 0.23394696074010041 0 -0.116744543106582 0.25728181003509248 0 -0.1045487088169635 0.24438495162540061 0 -0.11455994162881621 0.23631135170566109 0 -0.116744543106582 0.25728181003509248 0 -0.1327712538659816 0.24971188635390451 0 -0.11455994162881621 0.23631135170566109 0 -0.12594818007053379 0.2253828658525201 0 -0.1327712538659816 0.24971188635390451 0 -0.11455994162881621 0.23631135170566109 0 -0.11455994162881621 0.23631135170566109 0 -0.1144435087069731 0.2232582902708152 0 -0.1063794885369051 0.22193246116811141 0 -0.12594818007053379 0.2253828658525201 0 -0.1144435087069731 0.2232582902708152 0 -0.1108864245916369 0.20940648235696879 0 -0.12594818007053379 0.2253828658525201 0 -0.11455994162881621 0.23631135170566109 0 -0.1144435087069731 0.2232582902708152 0 -0.11455994162881621 0.23631135170566109 0 -0.1063794885369051 0.22193246116811141 0 -0.098826177075254387 0.23394696074010041 0 -0.1063794885369051 0.22193246116811141 0 -0.098826177075254387 0.23394696074010041 0 -0.089950704149474564 0.21660149084549701 0 -0.1063794885369051 0.22193246116811141 0 -0.089950704149474564 0.21660149084549701 0 -0.10053720550511509 0.21148400771379949 0 -0.095149617161195271 0.19271405424946009 0 -0.089950704149474564 0.21660149084549701 0 -0.1063794885369051 0.22193246116811141 0 -0.10053720550511509 0.21148400771379949 0 -0.089950704149474564 0.21660149084549701 0 -0.10053720550511509 0.21148400771379949 0 -0.1108864245916369 0.20940648235696879 0 -0.095149617161195271 0.19271405424946009 0 -0.1063794885369051 0.22193246116811141 0 -0.10053720550511509 0.21148400771379949 0 -0.1108864245916369 0.20940648235696879 0 -0.12594818007053379 0.2253828658525201 0 -0.1190175871807343 0.20067046473278771 0 -0.12594818007053379 0.2253828658525201 0 -0.1108864245916369 0.20940648235696879 0 -0.1190175871807343 0.20067046473278771 0 -0.12594818007053379 0.2253828658525201 0 -0.1108864245916369 0.20940648235696879 0 -0.1144435087069731 0.2232582902708152 0 -0.1063794885369051 0.22193246116811141 0 -0.1108864245916369 0.20940648235696879 0 -0.1120869942909358 0.17595806361305491 0 -0.1190175871807343 0.20067046473278771 0 -0.1108864245916369 0.20940648235696879 0 -0.1190175871807343 0.20067046473278771 0 -0.10682171669235439 0.1942096232944058 0 -0.1120869942909358 0.17595806361305491 0 -0.1190175871807343 0.20067046473278771 0 -0.10682171669235439 0.1942096232944058 0 -0.1108864245916369 0.20940648235696879 0 -0.095149617161195271 0.19271405424946009 0 -0.1108864245916369 0.20940648235696879 0 -0.10682171669235439 0.1942096232944058 0 -0.095149617161195271 0.19271405424946009 0 -0.1120869942909358 0.17595806361305491 0 -0.10682171669235439 0.1942096232944058 0 -0.095149617161195271 0.19271405424946009 0 -0.095149617161195271 0.19271405424946009 0 -0.077398480784349299 0.2102750893871779 0 -0.095149617161195271 0.19271405424946009 0 -0.073474196407973841 0.19079473501472519 0 -0.077398480784349299 0.2102750893871779 0 -0.095149617161195271 0.19271405424946009 0 -0.077398480784349299 0.2102750893871779 0 -0.087241526055590657 0.20514135106535239 0 -0.073474196407973841 0.19079473501472519 0 -0.077398480784349299 0.2102750893871779 0 -0.073474196407973841 0.19079473501472519 0 -0.077398480784349299 0.2102750893871779 0 -0.068984895145132993 0.20348567813270921 0 -0.064604308801312821 0.18244611143699499 0 -0.073474196407973841 0.19079473501472519 0 -0.062951628171730722 0.19451437844324071 0 -0.073474196407973841 0.19079473501472519 0 -0.062951628171730722 0.19451437844324071 0 -0.068984895145132993 0.20348567813270921 0 -0.062951628171730722 0.19451437844324071 0 -0.068984895145132993 0.20348567813270921 0 -0.057478398324341332 0.20606456403591589 0 -0.068984895145132993 0.20348567813270921 0 -0.075683327299925024 0.21197187487555791 0 -0.057478398324341332 0.20606456403591589 0 -0.075683327299925024 0.21197187487555791 0 -0.060700713784132942 0.2267940359372384 0 -0.057478398324341332 0.20606456403591589 0 -0.075683327299925024 0.21197187487555791 0 -0.057478398324341332 0.20606456403591589 0 -0.077398480784349299 0.2102750893871779 0 -0.068984895145132993 0.20348567813270921 0 -0.075683327299925024 0.21197187487555791 0 -0.075683327299925024 0.21197187487555791 0 -0.077884159070199604 0.2126860219832131 0 -0.060700713784132942 0.2267940359372384 0 -0.075683327299925024 0.21197187487555791 0 -0.077884159070199604 0.2126860219832131 0 -0.077398480784349299 0.2102750893871779 0 -0.075683327299925024 0.21197187487555791 0 -0.077884159070199604 0.2126860219832131 0 -0.077398480784349299 0.2102750893871779 0 -0.077884159070199604 0.2126860219832131 0 -0.077398480784349299 0.2102750893871779 0 -0.075683327299925024 0.21197187487555791 0 -0.077884159070199604 0.2126860219832131 0 -0.089950704149474564 0.21660149084549701 0 -0.077884159070199604 0.2126860219832131 0 -0.087241526055590657 0.20514135106535239 0 -0.089950704149474564 0.21660149084549701 0 -0.095149617161195271 0.19271405424946009 0 -0.087241526055590657 0.20514135106535239 0 -0.089950704149474564 0.21660149084549701 0 -0.095149617161195271 0.19271405424946009 0 -0.089950704149474564 0.21660149084549701 0 -0.077398480784349299 0.2102750893871779 0 -0.077884159070199604 0.2126860219832131 0 -0.087241526055590657 0.20514135106535239 0 -0.077884159070199604 0.2126860219832131 0 -0.083666647235009842 0.24139059785004849 0 -0.089950704149474564 0.21660149084549701 0 -0.083666647235009842 0.24139059785004849 0 -0.077884159070199604 0.2126860219832131 0 -0.089950704149474564 0.21660149084549701 0 -0.083666647235009842 0.24139059785004849 0 -0.098826177075254387 0.23394696074010041 0 -0.089950704149474564 0.21660149084549701 0 -0.083666647235009842 0.24139059785004849 0 -0.077884159070199604 0.2126860219832131 0 -0.083666647235009842 0.24139059785004849 0 -0.060700713784132942 0.2267940359372384 0 -0.075683327299925024 0.21197187487555791 0 -0.060700713784132942 0.2267940359372384 0 -0.064077212627390134 0.24851538469076631 0 -0.083666647235009842 0.24139059785004849 0 -0.060700713784132942 0.2267940359372384 0 -0.086302411784292182 0.25447467192259482 0 -0.083666647235009842 0.24139059785004849 0 -0.094679029848152713 0.24609146959404629 0 -0.098826177075254387 0.23394696074010041 0 -0.083666647235009842 0.24139059785004849 0 -0.086302411784292182 0.25447467192259482 0 -0.094679029848152713 0.24609146959404629 0 -0.083666647235009842 0.24139059785004849 0 -0.03068766995985707 0.25286978792993342 0 -0.034335222642673788 0.23481172099035691 0 -0.046578861792199937 0.24361118962503389 0 -0.034335222642673788 0.23481172099035691 0 -0.046578861792199937 0.24361118962503389 0 -0.045510089746351297 0.2289623102588538 0 -0.064077212627390134 0.24851538469076631 0 -0.046578861792199937 0.24361118962503389 0 -0.055802081643016588 0.23164020743468811 0 -0.064077212627390134 0.24851538469076631 0 -0.055802081643016588 0.23164020743468811 0 -0.060700713784132942 0.2267940359372384 0 -0.064077212627390134 0.24851538469076631 0 -0.060700713784132942 0.2267940359372384 0 -0.046578861792199937 0.24361118962503389 0 -0.055802081643016588 0.23164020743468811 0 -0.045510089746351297 0.2289623102588538 0 -0.055802081643016588 0.23164020743468811 0 -0.053252725762674542 0.2222055350902031 0 -0.045510089746351297 0.2289623102588538 0 -0.055802081643016588 0.23164020743468811 0 -0.060700713784132942 0.2267940359372384 0 -0.053252725762674542 0.2222055350902031 0 -0.055802081643016588 0.23164020743468811 0 -0.060700713784132942 0.2267940359372384 0 -0.053252725762674542 0.2222055350902031 0 -0.045510089746351297 0.2289623102588538 0 -0.046772345315528908 0.21756655778431969 0 -0.045510089746351297 0.2289623102588538 0 -0.036443083940353373 0.22210497005765251 0 -0.046772345315528908 0.21756655778431969 0 -0.034335222642673788 0.23481172099035691 0 -0.045510089746351297 0.2289623102588538 0 -0.036443083940353373 0.22210497005765251 0 -0.034335222642673788 0.23481172099035691 0 -0.036443083940353373 0.22210497005765251 0 -0.024866254401544021 0.22078734426404351 0 -0.036443083940353373 0.22210497005765251 0 -0.046772345315528908 0.21756655778431969 0 -0.031637039445344017 0.19767931081015269 0 -0.046772345315528908 0.21756655778431969 0 -0.057478398324341332 0.20606456403591589 0 -0.031637039445344017 0.19767931081015269 0 -0.060700713784132942 0.2267940359372384 0 -0.053252725762674542 0.2222055350902031 0 -0.057478398324341332 0.20606456403591589 0 -0.060700713784132942 0.2267940359372384 0 -0.057478398324341332 0.20606456403591589 0 -0.053252725762674542 0.2222055350902031 0 -0.046772345315528908 0.21756655778431969 0 -0.057478398324341332 0.20606456403591589 0 -0.062951628171730722 0.19451437844324071 0 -0.057478398324341332 0.20606456403591589 0 -0.054948738746262903 0.1897910154656581 0 -0.057478398324341332 0.20606456403591589 0 -0.054948738746262903 0.1897910154656581 0 -0.031637039445344017 0.19767931081015269 0 -0.057478398324341332 0.20606456403591589 0 -0.054948738746262903 0.1897910154656581 0 -0.054948738746262903 0.1897910154656581 0 -0.031637039445344017 0.19767931081015269 0 -0.039999697082172873 0.18418677263352329 0 -0.057478398324341332 0.20606456403591589 0 -0.031637039445344017 0.19767931081015269 0 -0.031637039445344017 0.19767931081015269 0 -0.0057956805663459468 0.1892940575843915 0 -0.031637039445344017 0.19767931081015269 0 -0.0057956805663459468 0.1892940575843915 0 -0.024775833668462071 0.17590936267321361 0 -0.031637039445344017 0.19767931081015269 0 -0.0057956805663459468 0.1892940575843915 0 -0.01019634689217482 0.20814994011246479 0 -0.0057956805663459468 0.1892940575843915 0 -0.01019634689217482 0.20814994011246479 0 0.0090806704795409685 0.20996839310177981 0 -0.01019634689217482 0.20814994011246479 0 0.00014186162909880781 0.2338185852574263 0 0.0090806704795409685 0.20996839310177981 0 -0.036443083940353373 0.22210497005765251 0 -0.031637039445344017 0.19767931081015269 0 -0.024866254401544021 0.22078734426404351 0 -0.031637039445344017 0.19767931081015269 0 -0.01019634689217482 0.20814994011246479 0 -0.024866254401544021 0.22078734426404351 0 -0.034335222642673788 0.23481172099035691 0 -0.024866254401544021 0.22078734426404351 0 -0.01991034591062427 0.239405390953495 0 -0.024866254401544021 0.22078734426404351 0 0.00014186162909880781 0.2338185852574263 0 -0.024866254401544021 0.22078734426404351 0 -0.01991034591062427 0.239405390953495 0 0.00014186162909880781 0.2338185852574263 0 -0.01019634689217482 0.20814994011246479 0 -0.024866254401544021 0.22078734426404351 0 0.00014186162909880781 0.2338185852574263 0 -0.0098044441781452579 0.25473951632571468 0 0.00014186162909880781 0.2338185852574263 0 0.0073806355134042019 0.25529449578482938 0 -0.0098044441781452579 0.25473951632571468 0 -0.01991034591062427 0.239405390953495 0 0.00014186162909880781 0.2338185852574263 0 -0.03068766995985707 0.25286978792993342 0 -0.034335222642673788 0.23481172099035691 0 -0.01991034591062427 0.239405390953495 0 -0.03068766995985707 0.25286978792993342 0 -0.0098044441781452579 0.25473951632571468 0 -0.01991034591062427 0.239405390953495 0 -0.045513089216113363 0.1481501368583191 0 -0.039963318838929777 0.1583549670989208 0 -0.028048700007850699 0.14601834090005769 0 -0.045513089216113363 0.1481501368583191 0 -0.037584816749385713 0.12707105787504261 0 -0.028048700007850699 0.14601834090005769 0 -0.037584816749385713 0.12707105787504261 0 -0.028048700007850699 0.14601834090005769 0 -0.045513089216113363 0.1481501368583191 0 -0.037584816749385713 0.12707105787504261 0 -0.045513089216113363 0.1481501368583191 0 -0.037584816749385713 0.12707105787504261 0 -0.049753839012929922 0.13582205838018921 0 -0.037584816749385713 0.12707105787504261 0 -0.049753839012929922 0.13582205838018921 0 -0.051208231868337763 0.1260313133231428 0 -0.049753839012929922 0.13582205838018921 0 -0.06070043620975589 0.134524720015781 0 -0.052276118599972977 0.1457036522838337 0 -0.051208231868337763 0.1260313133231428 0 -0.06070043620975589 0.134524720015781 0 -0.06411880478631618 0.11818203644688791 0 -0.06070043620975589 0.134524720015781 0 -0.06411880478631618 0.11818203644688791 0 -0.049753839012929922 0.13582205838018921 0 -0.051208231868337763 0.1260313133231428 0 -0.06070043620975589 0.134524720015781 0 -0.06070043620975589 0.134524720015781 0 -0.052276118599972977 0.1457036522838337 0 -0.05728206763319247 0.1508674035846734 0 -0.06070043620975589 0.134524720015781 0 -0.05728206763319247 0.1508674035846734 0 -0.045513089216113363 0.1481501368583191 0 -0.049753839012929922 0.13582205838018921 0 -0.052276118599972977 0.1457036522838337 0 -0.045513089216113363 0.1481501368583191 0 -0.052276118599972977 0.1457036522838337 0 -0.053440893212920608 0.15280063427064891 0 -0.052276118599972977 0.1457036522838337 0 -0.053440893212920608 0.15280063427064891 0 -0.05728206763319247 0.1508674035846734 0 -0.053440893212920608 0.15280063427064891 0 -0.05728206763319247 0.1508674035846734 0 -0.05728206763319247 0.1508674035846734 0 -0.062031688412593149 0.16441565219234799 0 -0.053441361682841117 0.16922921584159559 0 -0.053440893212920608 0.15280063427064891 0 -0.05728206763319247 0.1508674035846734 0 -0.053441361682841117 0.16922921584159559 0 -0.045513089216113363 0.1481501368583191 0 -0.053440893212920608 0.15280063427064891 0 -0.053441361682841117 0.16922921584159559 0 -0.045513089216113363 0.1481501368583191 0 -0.053441361682841117 0.16922921584159559 0 -0.05728206763319247 0.1508674035846734 0 -0.053441361682841117 0.16922921584159559 0 -0.06725389334219653 0.15771987894696021 0 -0.05728206763319247 0.1508674035846734 0 -0.062031688412593149 0.16441565219234799 0 -0.062031688412593149 0.16441565219234799 0 -0.053441361682841117 0.16922921584159559 0 -0.062041409668937363 0.1723934095439342 0 -0.053441361682841117 0.16922921584159559 0 -0.047633738945979477 0.17108968717192211 0 -0.039963318838929777 0.1583549670989208 0 -0.052991971448818453 0.17137768000779441 0 -0.053441361682841117 0.16922921584159559 0 -0.047633738945979477 0.17108968717192211 0 -0.052991971448818453 0.17137768000779441 0 -0.053441361682841117 0.16922921584159559 0 -0.054948738746262903 0.1897910154656581 0 -0.052419079168185397 0.17351746689540021 0 -0.046888846475854867 0.17837904804597579 0 -0.062951628171730722 0.19451437844324071 0 -0.054948738746262903 0.1897910154656581 0 -0.052419079168185397 0.17351746689540021 0 -0.062951628171730722 0.19451437844324071 0 -0.052991971448818453 0.17137768000779441 0 -0.052419079168185397 0.17351746689540021 0 -0.064604308801312821 0.18244611143699499 0 -0.062951628171730722 0.19451437844324071 0 -0.053441361682841117 0.16922921584159559 0 -0.062951628171730722 0.19451437844324071 0 -0.052991971448818453 0.17137768000779441 0 -0.053441361682841117 0.16922921584159559 0 -0.054948738746262903 0.1897910154656581 0 -0.052419079168185397 0.17351746689540021 0 -0.062951628171730722 0.19451437844324071 0 -0.053441361682841117 0.16922921584159559 0 -0.064604308801312821 0.18244611143699499 0 -0.053441361682841117 0.16922921584159559 0 -0.062041409668937363 0.1723934095439342 0 -0.052991971448818453 0.17137768000779441 0 -0.047633738945979477 0.17108968717192211 0 -0.052419079168185397 0.17351746689540021 0 -0.047633738945979477 0.17108968717192211 0 -0.052419079168185397 0.17351746689540021 0 -0.046888846475854867 0.17837904804597579 0 -0.054948738746262903 0.1897910154656581 0 -0.046888846475854867 0.17837904804597579 0 -0.039999697082172873 0.18418677263352329 0 -0.031637039445344017 0.19767931081015269 0 -0.039999697082172873 0.18418677263352329 0 -0.024775833668462071 0.17590936267321361 0 -0.046888846475854867 0.17837904804597579 0 -0.039999697082172873 0.18418677263352329 0 -0.039442978436673673 0.17331029806337539 0 -0.047633738945979477 0.17108968717192211 0 -0.046888846475854867 0.17837904804597579 0 -0.039442978436673673 0.17331029806337539 0 -0.039442978436673673 0.17331029806337539 0 -0.032139483942643897 0.16694135859911591 0 -0.024775833668462071 0.17590936267321361 0 -0.039999697082172873 0.18418677263352329 0 -0.039442978436673673 0.17331029806337539 0 -0.024775833668462071 0.17590936267321361 0 -0.045513089216113363 0.1481501368583191 0 -0.053441361682841117 0.16922921584159559 0 -0.039963318838929777 0.1583549670989208 0 -0.039963318838929777 0.1583549670989208 0 -0.032139483942643897 0.16694135859911591 0 -0.02343924065842673 0.15869802647678349 0 -0.047633738945979477 0.17108968717192211 0 -0.039442978436673673 0.17331029806337539 0 -0.039963318838929777 0.1583549670989208 0 -0.039442978436673673 0.17331029806337539 0 -0.039963318838929777 0.1583549670989208 0 -0.032139483942643897 0.16694135859911591 0 -0.032139483942643897 0.16694135859911591 0 -0.02343924065842673 0.15869802647678349 0 -0.024775833668462071 0.17590936267321361 0 -0.02343924065842673 0.15869802647678349 0 -0.024775833668462071 0.17590936267321361 0 -0.0048034666842798916 0.1614245706846468 0 -0.0057956805663459468 0.1892940575843915 0 -0.024775833668462071 0.17590936267321361 0 -0.0048034666842798916 0.1614245706846468 0 -0.0048034666842798916 0.1614245706846468 0 -0.01090464080839405 0.14353955890474629 0 0.011098566836083609 0.13484946890849181 0 -0.02343924065842673 0.15869802647678349 0 -0.0048034666842798916 0.1614245706846468 0 -0.01090464080839405 0.14353955890474629 0 -0.039963318838929777 0.1583549670989208 0 -0.02343924065842673 0.15869802647678349 0 -0.028048700007850699 0.14601834090005769 0 -0.02343924065842673 0.15869802647678349 0 -0.01090464080839405 0.14353955890474629 0 -0.028048700007850699 0.14601834090005769 0 -0.037584816749385713 0.12707105787504261 0 -0.0187932077553963 0.1304023687453105 0 -0.02482114599867602 0.1199028763409456 0 -0.01090464080839405 0.14353955890474629 0 -0.028048700007850699 0.14601834090005769 0 -0.0187932077553963 0.1304023687453105 0 -0.037584816749385713 0.12707105787504261 0 -0.028048700007850699 0.14601834090005769 0 -0.0187932077553963 0.1304023687453105 0 -0.0064436606074630637 0.13109611639504981 0 -0.007175360702145514 0.1155930690216506 0 0.011098566836083609 0.13484946890849181 0 -0.01090464080839405 0.14353955890474629 0 -0.0064436606074630637 0.13109611639504981 0 0.011098566836083609 0.13484946890849181 0 -0.0187932077553963 0.1304023687453105 0 -0.0064436606074630637 0.13109611639504981 0 -0.007175360702145514 0.1155930690216506 0 -0.01090464080839405 0.14353955890474629 0 -0.0187932077553963 0.1304023687453105 0 -0.0064436606074630637 0.13109611639504981 0 -0.007175360702145514 0.1155930690216506 0 -0.0040088977147468936 0.097024336429998151 0 -0.013655752966245171 0.094180689311720855 0 -0.007175360702145514 0.1155930690216506 0 -0.0040088977147468936 0.097024336429998151 0 0.0025937760044158291 0.1064596481343341 0 -0.007175360702145514 0.1155930690216506 0 -0.013655752966245171 0.094180689311720855 0 -0.02544928824037461 0.096336669134809427 0 -0.029459919491476121 0.1011230655410132 0 -0.021580178673492881 0.1105609364200745 0 -0.037915498494119543 0.10215930426450601 0 -0.007175360702145514 0.1155930690216506 0 -0.02544928824037461 0.096336669134809427 0 -0.007175360702145514 0.1155930690216506 0 -0.02544928824037461 0.096336669134809427 0 -0.0241566231860777 0.1021061234229471 0 -0.02544928824037461 0.096336669134809427 0 -0.029459919491476121 0.1011230655410132 0 -0.035034026511796899 0.0954599165668297 0 -0.02544928824037461 0.096336669134809427 0 -0.029459919491476121 0.1011230655410132 0 -0.0241566231860777 0.1021061234229471 0 -0.02544928824037461 0.096336669134809427 0 -0.0241566231860777 0.1021061234229471 0 -0.029459919491476121 0.1011230655410132 0 -0.0241566231860777 0.1021061234229471 0 -0.021580178673492881 0.1105609364200745 0 -0.02482114599867602 0.1199028763409456 0 -0.021580178673492881 0.1105609364200745 0 -0.032585978911933711 0.11378053360982859 0 -0.007175360702145514 0.1155930690216506 0 -0.0241566231860777 0.1021061234229471 0 -0.021580178673492881 0.1105609364200745 0 -0.0187932077553963 0.1304023687453105 0 -0.007175360702145514 0.1155930690216506 0 -0.02482114599867602 0.1199028763409456 0 -0.007175360702145514 0.1155930690216506 0 -0.02482114599867602 0.1199028763409456 0 -0.021580178673492881 0.1105609364200745 0 -0.01109578586274463 0.07592966442077155 0 -0.01963881101933795 0.057650575484614511 0 -0.0089029190745683329 0.062319161291970238 0 -0.0031702267477386531 0.067180855403790804 0 -0.01109578586274463 0.07592966442077155 0 0.0065236609159091173 0.071671444604676282 0 -0.0031702267477386531 0.067180855403790804 0 -0.0089029190745683329 0.062319161291970238 0 0.00079413703044923156 0.058803151297745167 0 -0.0031702267477386531 0.067180855403790804 0 -0.01109578586274463 0.07592966442077155 0 -0.0089029190745683329 0.062319161291970238 0 -0.0040088977147468936 0.097024336429998151 0 -0.01109578586274463 0.07592966442077155 0 0.011643404763696401 0.092949868607662828 0 -0.0040088977147468936 0.097024336429998151 0 -0.013655752966245171 0.094180689311720855 0 -0.01109578586274463 0.07592966442077155 0 -0.013655752966245171 0.094180689311720855 0 -0.01109578586274463 0.07592966442077155 0 -0.02054943231121421 0.086019707551374502 0 -0.02544928824037461 0.096336669134809427 0 -0.02054943231121421 0.086019707551374502 0 -0.029642132364781061 0.077623064684345475 0 -0.02544928824037461 0.096336669134809427 0 -0.029642132364781061 0.077623064684345475 0 -0.036673455980692451 0.084509049595857907 0 -0.01109578586274463 0.07592966442077155 0 -0.02054943231121421 0.086019707551374502 0 -0.029642132364781061 0.077623064684345475 0 -0.02544928824037461 0.096336669134809427 0 -0.029642132364781061 0.077623064684345475 0 -0.013655752966245171 0.094180689311720855 0 -0.02544928824037461 0.096336669134809427 0 -0.02054943231121421 0.086019707551374502 0 -0.02544928824037461 0.096336669134809427 0 -0.036673455980692451 0.084509049595857907 0 -0.01109578586274463 0.07592966442077155 0 -0.033834976489186493 0.058909460233881362 0 -0.01109578586274463 0.07592966442077155 0 -0.029642132364781061 0.077623064684345475 0 -0.033834976489186493 0.058909460233881362 0 -0.01109578586274463 0.07592966442077155 0 -0.033834976489186493 0.058909460233881362 0 -0.01963881101933795 0.057650575484614511 0 -0.029642132364781061 0.077623064684345475 0 -0.033834976489186493 0.058909460233881362 0 -0.029642132364781061 0.077623064684345475 0 -0.036732086871232597 0.066761861307427367 0 -0.033834976489186493 0.058909460233881362 0 -0.042969512877196837 0.063698159366550891 0 -0.036732086871232597 0.066761861307427367 0 -0.038306240480512441 0.072768089837317376 0 -0.042969512877196837 0.063698159366550891 0 -0.038306240480512441 0.072768089837317376 0 -0.046136221960229658 0.070392563092827029 0 -0.042969512877196837 0.063698159366550891 0 -0.036732086871232597 0.066761861307427367 0 -0.038907572144486188 0.060810532415041758 0 -0.029642132364781061 0.077623064684345475 0 -0.036732086871232597 0.066761861307427367 0 -0.038306240480512441 0.072768089837317376 0 -0.038306240480512441 0.072768089837317376 0 -0.046136221960229658 0.070392563092827029 0 -0.043586306971417507 0.077534071189344175 0 -0.038306240480512441 0.072768089837317376 0 -0.043586306971417507 0.077534071189344175 0 -0.036673455980692451 0.084509049595857907 0 -0.043586306971417507 0.077534071189344175 0 -0.036673455980692451 0.084509049595857907 0 -0.046978765451358998 0.084182386091036676 0 -0.029642132364781061 0.077623064684345475 0 -0.038306240480512441 0.072768089837317376 0 -0.036673455980692451 0.084509049595857907 0 -0.02544928824037461 0.096336669134809427 0 -0.036673455980692451 0.084509049595857907 0 -0.035034026511796899 0.0954599165668297 0 -0.036673455980692451 0.084509049595857907 0 -0.044089979176562301 0.093675305350012283 0 -0.035034026511796899 0.0954599165668297 0 -0.036673455980692451 0.084509049595857907 0 -0.044089979176562301 0.093675305350012283 0 -0.046978765451358998 0.084182386091036676 0 -0.044089979176562301 0.093675305350012283 0 -0.057144835734191893 0.088207312209507505 0 -0.046978765451358998 0.084182386091036676 0 -0.057144835734191893 0.088207312209507505 0 -0.046978765451358998 0.084182386091036676 0 -0.053399249393930842 0.076986192110461482 0 -0.043586306971417507 0.077534071189344175 0 -0.046978765451358998 0.084182386091036676 0 -0.053399249393930842 0.076986192110461482 0 -0.053399249393930842 0.076986192110461482 0 -0.070406408885084593 0.061857930521202607 0 -0.059815066152941319 0.061788281472960463 0 -0.057144835734191893 0.088207312209507505 0 -0.053399249393930842 0.076986192110461482 0 -0.070406408885084593 0.061857930521202607 0 -0.046136221960229658 0.070392563092827029 0 -0.043586306971417507 0.077534071189344175 0 -0.053399249393930842 0.076986192110461482 0 -0.046136221960229658 0.070392563092827029 0 -0.053399249393930842 0.076986192110461482 0 -0.05257832837313995 0.068950164376806455 0 -0.053399249393930842 0.076986192110461482 0 -0.05257832837313995 0.068950164376806455 0 -0.059815066152941319 0.061788281472960463 0 -0.05257832837313995 0.068950164376806455 0 -0.052166049838275927 0.062310195238599278 0 -0.059815066152941319 0.061788281472960463 0 -0.046136221960229658 0.070392563092827029 0 -0.05257832837313995 0.068950164376806455 0 -0.052166049838275927 0.062310195238599278 0 -0.042969512877196837 0.063698159366550891 0 -0.046136221960229658 0.070392563092827029 0 -0.052166049838275927 0.062310195238599278 0 -0.021580178673492881 0.1105609364200745 0 -0.043883262583300407 0.11455669389781301 0 -0.021580178673492881 0.1105609364200745 0 -0.043883262583300407 0.11455669389781301 0 -0.032585978911933711 0.11378053360982859 0 -0.037584816749385713 0.12707105787504261 0 -0.051208231868337763 0.1260313133231428 0 -0.043883262583300407 0.11455669389781301 0 -0.037584816749385713 0.12707105787504261 0 -0.043883262583300407 0.11455669389781301 0 -0.037584816749385713 0.12707105787504261 0 -0.032585978911933711 0.11378053360982859 0 -0.037584816749385713 0.12707105787504261 0 -0.043883262583300407 0.11455669389781301 0 -0.032585978911933711 0.11378053360982859 0 -0.037584816749385713 0.12707105787504261 0 -0.02482114599867602 0.1199028763409456 0 -0.032585978911933711 0.11378053360982859 0 -0.021580178673492881 0.1105609364200745 0 -0.043883262583300407 0.11455669389781301 0 -0.037915498494119543 0.10215930426450601 0 -0.044089979176562301 0.093675305350012283 0 -0.043883262583300407 0.11455669389781301 0 -0.037915498494119543 0.10215930426450601 0 -0.044089979176562301 0.093675305350012283 0 -0.037915498494119543 0.10215930426450601 0 -0.035034026511796899 0.0954599165668297 0 -0.029459919491476121 0.1011230655410132 0 -0.037915498494119543 0.10215930426450601 0 -0.035034026511796899 0.0954599165668297 0 -0.044089979176562301 0.093675305350012283 0 -0.057144835734191893 0.088207312209507505 0 -0.043883262583300407 0.11455669389781301 0 -0.057144835734191893 0.088207312209507505 0 -0.043883262583300407 0.11455669389781301 0 -0.057144835734191893 0.088207312209507505 0 -0.043883262583300407 0.11455669389781301 0 -0.056175626513735713 0.104231459755559 0 -0.056175626513735713 0.104231459755559 0 -0.061770267295803899 0.1005995653590098 0 -0.06411880478631618 0.11818203644688791 0 -0.057144835734191893 0.088207312209507505 0 -0.056175626513735713 0.104231459755559 0 -0.061770267295803899 0.1005995653590098 0 -0.043883262583300407 0.11455669389781301 0 -0.06411880478631618 0.11818203644688791 0 -0.051208231868337763 0.1260313133231428 0 -0.043883262583300407 0.11455669389781301 0 -0.06411880478631618 0.11818203644688791 0 -0.043883262583300407 0.11455669389781301 0 -0.056175626513735713 0.104231459755559 0 -0.06411880478631618 0.11818203644688791 0 -0.071786582042575819 0.1280585334591178 0 -0.06411880478631618 0.11818203644688791 0 -0.08034823769671974 0.121089655777625 0 -0.06411880478631618 0.11818203644688791 0 -0.08034823769671974 0.121089655777625 0 -0.075381325115152609 0.106019298300689 0 -0.06411880478631618 0.11818203644688791 0 -0.08034823769671974 0.121089655777625 0 -0.08034823769671974 0.121089655777625 0 -0.096577670607123245 0.1239972751083621 0 -0.08034823769671974 0.121089655777625 0 -0.092569001324263961 0.1124699312803344 0 -0.096577670607123245 0.1239972751083621 0 -0.08034823769671974 0.121089655777625 0 -0.083967771981719092 0.1102844810624737 0 -0.092569001324263961 0.1124699312803344 0 -0.08034823769671974 0.121089655777625 0 -0.083967771981719092 0.1102844810624737 0 -0.075381325115152609 0.106019298300689 0 -0.087572523790740042 0.10155903889124659 0 -0.082071947835387321 0.094412947715560025 0 -0.09233625647768956 0.091651488650119919 0 -0.083967771981719092 0.1102844810624737 0 -0.092569001324263961 0.1124699312803344 0 -0.087572523790740042 0.10155903889124659 0 -0.083967771981719092 0.1102844810624737 0 -0.087572523790740042 0.10155903889124659 0 -0.075381325115152609 0.106019298300689 0 -0.087572523790740042 0.10155903889124659 0 -0.082071947835387321 0.094412947715560025 0 -0.075381325115152609 0.106019298300689 0 -0.06411880478631618 0.11818203644688791 0 -0.06964180214897181 0.091777453024084701 0 -0.082071947835387321 0.094412947715560025 0 -0.075381325115152609 0.106019298300689 0 -0.06964180214897181 0.091777453024084701 0 -0.06411880478631618 0.11818203644688791 0 -0.075381325115152609 0.106019298300689 0 -0.06964180214897181 0.091777453024084701 0 -0.061770267295803899 0.1005995653590098 0 -0.06411880478631618 0.11818203644688791 0 -0.06964180214897181 0.091777453024084701 0 -0.057144835734191893 0.088207312209507505 0 -0.061770267295803899 0.1005995653590098 0 -0.06964180214897181 0.091777453024084701 0 -0.06964180214897181 0.091777453024084701 0 -0.075164799511626648 0.065372869601281192 0 -0.057144835734191893 0.088207312209507505 0 -0.06964180214897181 0.091777453024084701 0 -0.068089461569968729 0.076803891339018993 0 -0.06964180214897181 0.091777453024084701 0 -0.068089461569968729 0.076803891339018993 0 -0.075164799511626648 0.065372869601281192 0 -0.057144835734191893 0.088207312209507505 0 -0.068089461569968729 0.076803891339018993 0 -0.070406408885084593 0.061857930521202607 0 -0.06964180214897181 0.091777453024084701 0 -0.075164799511626648 0.065372869601281192 0 -0.08073347634316104 0.073575546631144614 0 -0.057144835734191893 0.088207312209507505 0 -0.070406408885084593 0.061857930521202607 0 -0.068089461569968729 0.076803891339018993 0 -0.075164799511626648 0.065372869601281192 0 -0.070406408885084593 0.061857930521202607 0 -0.089923560922876636 0.068178037636278263 0 -0.08578586832533959 0.082170087930996366 0 -0.103675070998617 0.083967309240415983 0 -0.08073347634316104 0.073575546631144614 0 -0.089923560922876636 0.068178037636278263 0 -0.083186879645449088 0.059889597987781727 0 -0.075164799511626648 0.065372869601281192 0 -0.08073347634316104 0.073575546631144614 0 -0.083186879645449088 0.059889597987781727 0 -0.08073347634316104 0.073575546631144614 0 -0.089923560922876636 0.068178037636278263 0 -0.08578586832533959 0.082170087930996366 0 -0.06964180214897181 0.091777453024084701 0 -0.08073347634316104 0.073575546631144614 0 -0.08578586832533959 0.082170087930996366 0 -0.082071947835387321 0.094412947715560025 0 -0.06964180214897181 0.091777453024084701 0 -0.08578586832533959 0.082170087930996366 0 -0.082071947835387321 0.094412947715560025 0 -0.08578586832533959 0.082170087930996366 0 -0.09233625647768956 0.091651488650119919 0 -0.09233625647768956 0.091651488650119919 0 -0.103675070998617 0.083967309240415983 0 -0.10429444750695741 0.1014886749251958 0 -0.08578586832533959 0.082170087930996366 0 -0.09233625647768956 0.091651488650119919 0 -0.103675070998617 0.083967309240415983 0 -0.103675070998617 0.083967309240415983 0 -0.1198812247159142 0.095002477965890675 0 -0.10429444750695741 0.1014886749251958 0 -0.089923560922876636 0.068178037636278263 0 -0.103675070998617 0.083967309240415983 0 -0.10785209906359081 0.065371441260914459 0 -0.12533951967512769 0.078274991835817334 0 -0.103675070998617 0.083967309240415983 0 -0.10785209906359081 0.065371441260914459 0 -0.12533951967512769 0.078274991835817334 0 -0.10785209906359081 0.065371441260914459 0 -0.1248745965026067 0.059896082918310993 0 -0.12533951967512769 0.078274991835817334 0 -0.103675070998617 0.083967309240415983 0 -0.1198812247159142 0.095002477965890675 0 -0.13137241316615089 0.11357835761918721 0 -0.1198812247159142 0.095002477965890675 0 -0.10429444750695741 0.1014886749251958 0 -0.13137241316615089 0.11357835761918721 0 -0.12687331202938101 0.13192737382428379 0 -0.10667563132183119 0.1260080396076822 0 -0.13137241316615089 0.11357835761918721 0 -0.10667563132183119 0.1260080396076822 0 -0.1062978327852654 0.11550845570815239 0 -0.13137241316615089 0.11357835761918721 0 -0.1062978327852654 0.11550845570815239 0 -0.10429444750695741 0.1014886749251958 0 -0.13137241316615089 0.11357835761918721 0 -0.10667563132183119 0.1260080396076822 0 -0.10667563132183119 0.1260080396076822 0 -0.1062978327852654 0.11550845570815239 0 -0.096577670607123245 0.1239972751083621 0 -0.092569001324263961 0.1124699312803344 0 -0.1062978327852654 0.11550845570815239 0 -0.096577670607123245 0.1239972751083621 0 -0.092569001324263961 0.1124699312803344 0 -0.1062978327852654 0.11550845570815239 0 -0.10429444750695741 0.1014886749251958 0 -0.092569001324263961 0.1124699312803344 0 -0.087572523790740042 0.10155903889124659 0 -0.10429444750695741 0.1014886749251958 0 -0.087572523790740042 0.10155903889124659 0 -0.09233625647768956 0.091651488650119919 0 -0.10429444750695741 0.1014886749251958 0 -0.10370969952600501 0.019997694726909911 0 -0.098524362227562057 0.035744340183224317 0 -0.08645931971955316 0.02325136753113614 0 -0.10370969952600501 0.019997694726909911 0 -0.08645931971955316 0.02325136753113614 0 -0.091682611010439896 0.0063963380850077774 0 -0.10370969952600501 0.019997694726909911 0 -0.1180188049733784 0.030804183747700629 0 -0.098524362227562057 0.035744340183224317 0 -0.10370969952600501 0.019997694726909911 0 -0.10877227824827949 0.0075748546359299482 0 -0.091682611010439896 0.0063963380850077774 0 -0.1029392013539359 -0.0085751277431150782 0 -0.10877227824827949 0.0075748546359299482 0 -0.091682611010439896 0.0063963380850077774 0 -0.10370969952600501 0.019997694726909911 0 -0.10877227824827949 0.0075748546359299482 0 -0.11835839359799651 0.016938700943610479 0 -0.1029392013539359 -0.0085751277431150782 0 -0.12735709500343681 0.004015926865657337 0 -0.10877227824827949 0.0075748546359299482 0 -0.12735709500343681 0.004015926865657337 0 -0.10877227824827949 0.0075748546359299482 0 -0.11835839359799651 0.016938700943610479 0 -0.1339340902388827 0.022300844741854581 0 -0.11835839359799651 0.016938700943610479 0 -0.1180188049733784 0.030804183747700629 0 -0.10370969952600501 0.019997694726909911 0 -0.11835839359799651 0.016938700943610479 0 -0.1180188049733784 0.030804183747700629 0 -0.1180188049733784 0.030804183747700629 0 -0.1128457876968547 0.048091259023394652 0 -0.098524362227562057 0.035744340183224317 0 -0.13626681081840961 0.042829268155062397 0 -0.1128457876968547 0.048091259023394652 0 -0.13626681081840961 0.042829268155062397 0 -0.1180188049733784 0.030804183747700629 0 -0.1128457876968547 0.048091259023394652 0 -0.13626681081840961 0.042829268155062397 0 -0.1128457876968547 0.048091259023394652 0 -0.1248745965026067 0.059896082918310993 0 -0.10785209906359081 0.065371441260914459 0 -0.1128457876968547 0.048091259023394652 0 -0.1248745965026067 0.059896082918310993 0 -0.1128457876968547 0.048091259023394652 0 -0.089424764575299687 0.053353249891726941 0 -0.089923560922876636 0.068178037636278263 0 -0.10785209906359081 0.065371441260914459 0 -0.089424764575299687 0.053353249891726941 0 -0.10785209906359081 0.065371441260914459 0 -0.1128457876968547 0.048091259023394652 0 -0.089424764575299687 0.053353249891726941 0 -0.1128457876968547 0.048091259023394652 0 -0.098524362227562057 0.035744340183224317 0 -0.089424764575299687 0.053353249891726941 0 -0.098524362227562057 0.035744340183224317 0 -0.080687796874281473 0.038968286178477703 0 -0.08645931971955316 0.02325136753113614 0 -0.098524362227562057 0.035744340183224317 0 -0.080687796874281473 0.038968286178477703 0 -0.089424764575299687 0.053353249891726941 0 -0.080687796874281473 0.038968286178477703 0 -0.089424764575299687 0.053353249891726941 0 -0.083186879645449088 0.059889597987781727 0 -0.075164799511626648 0.065372869601281192 0 -0.080687796874281473 0.038968286178477703 0 -0.083186879645449088 0.059889597987781727 0 -0.089923560922876636 0.068178037636278263 0 -0.089424764575299687 0.053353249891726941 0 -0.083186879645449088 0.059889597987781727 0 -0.075164799511626648 0.065372869601281192 0 -0.080687796874281473 0.038968286178477703 0 -0.071303082845968715 0.053347503409362687 0 -0.075164799511626648 0.065372869601281192 0 -0.080687796874281473 0.038968286178477703 0 -0.075164799511626648 0.065372869601281192 0 -0.070406408885084593 0.061857930521202607 0 -0.071303082845968715 0.053347503409362687 0 -0.071303082845968715 0.053347503409362687 0 -0.064856269609628314 0.055117702274744398 0 -0.065400139349222536 0.045420728471107522 0 -0.070406408885084593 0.061857930521202607 0 -0.071303082845968715 0.053347503409362687 0 -0.064856269609628314 0.055117702274744398 0 -0.070406408885084593 0.061857930521202607 0 -0.064856269609628314 0.055117702274744398 0 -0.059815066152941319 0.061788281472960463 0 -0.080687796874281473 0.038968286178477703 0 -0.065400139349222536 0.045420728471107522 0 -0.063264057366842208 0.031259222641012697 0 -0.080687796874281473 0.038968286178477703 0 -0.063264057366842208 0.031259222641012697 0 -0.073460039823911166 0.024685388153665749 0 -0.080687796874281473 0.038968286178477703 0 -0.071303082845968715 0.053347503409362687 0 -0.065400139349222536 0.045420728471107522 0 -0.063264057366842208 0.031259222641012697 0 -0.073460039823911166 0.024685388153665749 0 -0.061440697951084179 0.017621877449499421 0 -0.073460039823911166 0.024685388153665749 0 -0.076769634387976737 0.01135693610240161 0 -0.061440697951084179 0.017621877449499421 0 -0.080687796874281473 0.038968286178477703 0 -0.073460039823911166 0.024685388153665749 0 -0.08645931971955316 0.02325136753113614 0 -0.073460039823911166 0.024685388153665749 0 -0.08645931971955316 0.02325136753113614 0 -0.076769634387976737 0.01135693610240161 0 -0.08645931971955316 0.02325136753113614 0 -0.091682611010439896 0.0063963380850077774 0 -0.076769634387976737 0.01135693610240161 0 -0.091682611010439896 0.0063963380850077774 0 -0.078933949510919491 0.00072378658541613432 0 -0.076769634387976737 0.01135693610240161 0 -0.086097875964997059 -0.0058870606910941042 0 -0.091682611010439896 0.0063963380850077774 0 -0.078933949510919491 0.00072378658541613432 0 -0.078933949510919491 0.00072378658541613432 0 -0.076769634387976737 0.01135693610240161 0 -0.068462160169621672 0.0025537029525893409 0 -0.068462160169621672 0.0025537029525893409 0 -0.057836245250817257 0.0062936453779614283 0 -0.061440697951084179 0.017621877449499421 0 -0.076769634387976737 0.01135693610240161 0 -0.068462160169621672 0.0025537029525893409 0 -0.061440697951084179 0.017621877449499421 0 -0.057836245250817257 0.0062936453779614283 0 -0.061440697951084179 0.017621877449499421 0 -0.042678209040760022 0.019440128409622049 0 -0.057836245250817257 0.0062936453779614283 0 -0.042678209040760022 0.019440128409622049 0 -0.044352522143416888 0.0050416822031405977 0 -0.063264057366842208 0.031259222641012697 0 -0.042678209040760022 0.019440128409622049 0 -0.05195897498334151 0.039592758420259042 0 -0.063264057366842208 0.031259222641012697 0 -0.061440697951084179 0.017621877449499421 0 -0.042678209040760022 0.019440128409622049 0 -0.042678209040760022 0.019440128409622049 0 -0.038256592764973757 0.039174794321751791 0 -0.042678209040760022 0.019440128409622049 0 -0.038256592764973757 0.039174794321751791 0 -0.027511467414372541 0.03001296694831072 0 -0.042678209040760022 0.019440128409622049 0 -0.028180513839983729 0.018098474401369 0 -0.027511467414372541 0.03001296694831072 0 -0.042678209040760022 0.019440128409622049 0 -0.032770024037711037 0.0084985419153508525 0 -0.028180513839983729 0.018098474401369 0 -0.032770024037711037 0.0084985419153508525 0 -0.03614709390981162 0.0015378833132510439 0 -0.044352522143416888 0.0050416822031405977 0 -0.029539197120254941 -0.00051038393964639519 0 -0.032770024037711037 0.0084985419153508525 0 -0.03614709390981162 0.0015378833132510439 0 -0.042678209040760022 0.019440128409622049 0 -0.032770024037711037 0.0084985419153508525 0 -0.044352522143416888 0.0050416822031405977 0 -0.042969512877196837 0.063698159366550891 0 -0.047980875447113908 0.056604040506729722 0 -0.052166049838275927 0.062310195238599278 0 -0.047980875447113908 0.056604040506729722 0 -0.052166049838275927 0.062310195238599278 0 -0.055804220694704088 0.051985500715961808 0 -0.064856269609628314 0.055117702274744398 0 -0.059815066152941319 0.061788281472960463 0 -0.055804220694704088 0.051985500715961808 0 -0.052166049838275927 0.062310195238599278 0 -0.059815066152941319 0.061788281472960463 0 -0.055804220694704088 0.051985500715961808 0 -0.064856269609628314 0.055117702274744398 0 -0.065400139349222536 0.045420728471107522 0 -0.055804220694704088 0.051985500715961808 0 -0.047980875447113908 0.056604040506729722 0 -0.055804220694704088 0.051985500715961808 0 -0.046350630683546529 0.050276175962098407 0 -0.055804220694704088 0.051985500715961808 0 -0.05195897498334151 0.039592758420259042 0 -0.046350630683546529 0.050276175962098407 0 -0.065400139349222536 0.045420728471107522 0 -0.055804220694704088 0.051985500715961808 0 -0.05195897498334151 0.039592758420259042 0 -0.065400139349222536 0.045420728471107522 0 -0.063264057366842208 0.031259222641012697 0 -0.05195897498334151 0.039592758420259042 0 -0.042678209040760022 0.019440128409622049 0 -0.05195897498334151 0.039592758420259042 0 -0.038256592764973757 0.039174794321751791 0 -0.05195897498334151 0.039592758420259042 0 -0.038256592764973757 0.039174794321751791 0 -0.046350630683546529 0.050276175962098407 0 -0.038256592764973757 0.039174794321751791 0 -0.033834976489186493 0.058909460233881362 0 -0.038256592764973757 0.039174794321751791 0 -0.038513274033404883 0.055407770980391423 0 -0.033834976489186493 0.058909460233881362 0 -0.038256592764973757 0.039174794321751791 0 -0.046350630683546529 0.050276175962098407 0 -0.038513274033404883 0.055407770980391423 0 -0.038256592764973757 0.039174794321751791 0 -0.033834976489186493 0.058909460233881362 0 -0.02879531395286377 0.050132256585483953 0 -0.046350630683546529 0.050276175962098407 0 -0.038513274033404883 0.055407770980391423 0 -0.042914570065583427 0.057802329486214707 0 -0.036732086871232597 0.066761861307427367 0 -0.033834976489186493 0.058909460233881362 0 -0.038907572144486188 0.060810532415041758 0 -0.038513274033404883 0.055407770980391423 0 -0.033834976489186493 0.058909460233881362 0 -0.038513274033404883 0.055407770980391423 0 -0.033834976489186493 0.058909460233881362 0 -0.038907572144486188 0.060810532415041758 0 -0.042969512877196837 0.063698159366550891 0 -0.038907572144486188 0.060810532415041758 0 -0.042914570065583427 0.057802329486214707 0 -0.038513274033404883 0.055407770980391423 0 -0.038907572144486188 0.060810532415041758 0 -0.042914570065583427 0.057802329486214707 0 -0.047980875447113908 0.056604040506729722 0 -0.046350630683546529 0.050276175962098407 0 -0.042914570065583427 0.057802329486214707 0 -0.042969512877196837 0.063698159366550891 0 -0.047980875447113908 0.056604040506729722 0 -0.042914570065583427 0.057802329486214707 0 -0.033834976489186493 0.058909460233881362 0 -0.01963881101933795 0.057650575484614511 0 -0.02879531395286377 0.050132256585483953 0 -0.01963881101933795 0.057650575484614511 0 -0.02879531395286377 0.050132256585483953 0 -0.02345087553795689 0.044794196301688183 0 -0.01963881101933795 0.057650575484614511 0 -0.02345087553795689 0.044794196301688183 0 -0.012175026131353321 0.050402421608982242 0 -0.02345087553795689 0.044794196301688183 0 -0.014695186475719159 0.0359408453649432 0 -0.012175026131353321 0.050402421608982242 0 -0.038256592764973757 0.039174794321751791 0 -0.02879531395286377 0.050132256585483953 0 -0.02345087553795689 0.044794196301688183 0 -0.038256592764973757 0.039174794321751791 0 -0.02345087553795689 0.044794196301688183 0 -0.027511467414372541 0.03001296694831072 0 -0.02345087553795689 0.044794196301688183 0 -0.014695186475719159 0.0359408453649432 0 -0.027511467414372541 0.03001296694831072 0 -0.014695186475719159 0.0359408453649432 0 -0.0023331541944977092 0.045311556235899067 0 0.00074240361007229996 0.028778475488121531 0 -0.014695186475719159 0.0359408453649432 0 -0.0023331541944977092 0.045311556235899067 0 -0.012175026131353321 0.050402421608982242 0 -0.0023331541944977092 0.045311556235899067 0 -0.012175026131353321 0.050402421608982242 0 0.00079413703044923156 0.058803151297745167 0 -0.012175026131353321 0.050402421608982242 0 -0.0089029190745683329 0.062319161291970238 0 0.00079413703044923156 0.058803151297745167 0 -0.01963881101933795 0.057650575484614511 0 -0.012175026131353321 0.050402421608982242 0 -0.0089029190745683329 0.062319161291970238 0 -0.021996997598287969 0.010981086364913869 0 -0.02112675760807068 0.0030512678310729521 0 -0.0083058662928979787 0.012079608812324741 0 -0.021996997598287969 0.010981086364913869 0 -0.01661374249992489 0.02103319015209278 0 -0.0083058662928979787 0.012079608812324741 0 -0.021996997598287969 0.010981086364913869 0 -0.02112675760807068 0.0030512678310729521 0 -0.02631380729169577 0.0053104208567875946 0 -0.029539197120254941 -0.00051038393964639519 0 -0.02112675760807068 0.0030512678310729521 0 -0.02631380729169577 0.0053104208567875946 0 -0.029539197120254941 -0.00051038393964639519 0 -0.032770024037711037 0.0084985419153508525 0 -0.02631380729169577 0.0053104208567875946 0 -0.032770024037711037 0.0084985419153508525 0 -0.021996997598287969 0.010981086364913869 0 -0.02631380729169577 0.0053104208567875946 0 -0.032770024037711037 0.0084985419153508525 0 -0.021996997598287969 0.010981086364913869 0 -0.028180513839983729 0.018098474401369 0 -0.028180513839983729 0.018098474401369 0 -0.027511467414372541 0.03001296694831072 0 -0.01661374249992489 0.02103319015209278 0 -0.014695186475719159 0.0359408453649432 0 -0.027511467414372541 0.03001296694831072 0 -0.01661374249992489 0.02103319015209278 0 -0.021996997598287969 0.010981086364913869 0 -0.028180513839983729 0.018098474401369 0 -0.01661374249992489 0.02103319015209278 0 -0.01661374249992489 0.02103319015209278 0 0.00074240361007229996 0.028778475488121531 0 -0.0083058662928979787 0.012079608812324741 0 0.0060294939382754481 0.01286563290641534 0 0.00074240361007229996 0.028778475488121531 0 -0.014695186475719159 0.0359408453649432 0 -0.01661374249992489 0.02103319015209278 0 0.00074240361007229996 0.028778475488121531 0 -0.0083058662928979787 0.012079608812324741 0 0.00074240361007229996 0.028778475488121531 0 -0.01661374249992489 0.02103319015209278 0 -0.0083058662928979787 0.012079608812324741 0 0.00074240361007229996 0.028778475488121531 0 -0.0072764121498596901 -0.0036325873431357339 0 -0.0083058662928979787 0.012079608812324741 0 0.0012074066645448821 -0.00065723147797176382 0 -0.0072764121498596901 -0.0036325873431357339 0 -0.013607688627124061 -0.00178224205395049 0 -0.0083058662928979787 0.012079608812324741 0 -0.017354136195868258 -0.0046192578634720229 0 -0.0083058662928979787 0.012079608812324741 0 -0.017354136195868258 -0.0046192578634720229 0 -0.013607688627124061 -0.00178224205395049 0 -0.0083058662928979787 0.012079608812324741 0 -0.0083058662928979787 0.012079608812324741 0 0.0060294939382754481 0.01286563290641534 0 0.0012074066645448821 -0.00065723147797176382 0 -0.017354136195868258 -0.0046192578634720229 0 -0.02112675760807068 0.0030512678310729521 0 -0.0083058662928979787 0.012079608812324741 0 0.0060294939382754481 0.01286563290641534 0 0.0012074066645448821 -0.00065723147797176382 0 0.01265631079038235 -0.01012693536007268 0 0.0060294939382754481 0.01286563290641534 0 0.020311547060899309 0.014329649790385431 0 0.01265631079038235 -0.01012693536007268 0 0.00074240361007229996 0.028778475488121531 0 0.015746539320639769 0.024046632949657649 0 0.022626785018342459 0.038544513255683338 0 0.0060294939382754481 0.01286563290641534 0 0.00074240361007229996 0.028778475488121531 0 0.015746539320639769 0.024046632949657649 0 0.0060294939382754481 0.01286563290641534 0 0.015746539320639769 0.024046632949657649 0 0.020311547060899309 0.014329649790385431 0 0.015746539320639769 0.024046632949657649 0 0.029022466975609298 0.02571489330768258 0 0.020311547060899309 0.014329649790385431 0 0.015746539320639769 0.024046632949657649 0 0.029022466975609298 0.02571489330768258 0 0.022626785018342459 0.038544513255683338 0 0.020311547060899309 0.014329649790385431 0 0.034885408484197772 0.0062912350017927032 0 0.01265631079038235 -0.01012693536007268 0 0.029022466975609298 0.02571489330768258 0 0.020311547060899309 0.014329649790385431 0 0.034885408484197772 0.0062912350017927032 0 0.00079413703044923156 0.058803151297745167 0 0.01366790099406239 0.052632887419703241 0 0.0065236609159091173 0.071671444604676282 0 -0.0023331541944977092 0.045311556235899067 0 0.00079413703044923156 0.058803151297745167 0 0.01366790099406239 0.052632887419703241 0 0.00074240361007229996 0.028778475488121531 0 0.01366790099406239 0.052632887419703241 0 0.022626785018342459 0.038544513255683338 0 0.00074240361007229996 0.028778475488121531 0 0.022626785018342459 0.038544513255683338 0 -0.0023331541944977092 0.045311556235899067 0 0.00074240361007229996 0.028778475488121531 0 0.01366790099406239 0.052632887419703241 0 0.00074240361007229996 0.028778475488121531 0 0.01366790099406239 0.052632887419703241 0 0.029022466975609298 0.02571489330768258 0 0.022626785018342459 0.038544513255683338 0 0.037630953216902623 0.033668105561091018 0 0.01366790099406239 0.052632887419703241 0 0.022626785018342459 0.038544513255683338 0 0.025434983742737761 0.055249644843112657 0 0.022626785018342459 0.038544513255683338 0 0.025434983742737761 0.055249644843112657 0 0.034616451435572633 0.051242168749322393 0 0.025434983742737761 0.055249644843112657 0 0.034062632092931817 0.061255223706808547 0 0.02703491536905472 0.067401080742933134 0 0.01366790099406239 0.052632887419703241 0 0.025434983742737761 0.055249644843112657 0 0.02703491536905472 0.067401080742933134 0 0.034616451435572633 0.051242168749322393 0 0.044511166426612833 0.04831055102324476 0 0.060132464308973767 0.062986029428160187 0 0.034616451435572633 0.051242168749322393 0 0.060132464308973767 0.062986029428160187 0 0.044258496001147778 0.063884183083345675 0 0.034062632092931817 0.061255223706808547 0 0.034616451435572633 0.051242168749322393 0 0.044258496001147778 0.063884183083345675 0 0.025434983742737761 0.055249644843112657 0 0.034062632092931817 0.061255223706808547 0 0.034616451435572633 0.051242168749322393 0 0.022626785018342459 0.038544513255683338 0 0.044511166426612833 0.04831055102324476 0 0.022626785018342459 0.038544513255683338 0 0.034616451435572633 0.051242168749322393 0 0.044511166426612833 0.04831055102324476 0 0.022626785018342459 0.038544513255683338 0 0.044511166426612833 0.04831055102324476 0 0.037630953216902623 0.033668105561091018 0 0.044511166426612833 0.04831055102324476 0 0.037630953216902623 0.033668105561091018 0 0.0484135161167236 0.034205204957136963 0 0.0484135161167236 0.034205204957136963 0 0.060669767880595721 0.038134724015348051 0 0.0518117103670514 0.042737821036878322 0 0.0484135161167236 0.034205204957136963 0 0.060669767880595721 0.038134724015348051 0 0.057623658326613529 0.02352368721002385 0 0.060669767880595721 0.038134724015348051 0 0.0518117103670514 0.042737821036878322 0 0.059559274975242667 0.047504887075434543 0 0.044511166426612833 0.04831055102324476 0 0.0518117103670514 0.042737821036878322 0 0.059559274975242667 0.047504887075434543 0 0.044511166426612833 0.04831055102324476 0 0.0484135161167236 0.034205204957136963 0 0.0518117103670514 0.042737821036878322 0 0.044511166426612833 0.04831055102324476 0 0.066395547834883203 0.05807658879080619 0 0.060132464308973767 0.062986029428160187 0 0.034616451435572633 0.051242168749322393 0 0.060132464308973767 0.062986029428160187 0 0.044511166426612833 0.04831055102324476 0 0.066395547834883203 0.05807658879080619 0 0.044511166426612833 0.04831055102324476 0 0.059559274975242667 0.047504887075434543 0 0.066395547834883203 0.05807658879080619 0 0.034885408484197772 0.0062912350017927032 0 0.052968053050369737 0.0090809173488315582 0 0.042517259973231587 -0.011683923625132649 0 0.034885408484197772 0.0062912350017927032 0 0.043580831547224863 0.021565365261707499 0 0.052968053050369737 0.0090809173488315582 0 0.029022466975609298 0.02571489330768258 0 0.034885408484197772 0.0062912350017927032 0 0.043580831547224863 0.021565365261707499 0 0.029022466975609298 0.02571489330768258 0 0.037630953216902623 0.033668105561091018 0 0.043580831547224863 0.021565365261707499 0 0.037630953216902623 0.033668105561091018 0 0.0484135161167236 0.034205204957136963 0 0.043580831547224863 0.021565365261707499 0 0.057623658326613529 0.02352368721002385 0 0.052968053050369737 0.0090809173488315582 0 0.071708216805815503 0.016768608491387289 0 0.043580831547224863 0.021565365261707499 0 0.057623658326613529 0.02352368721002385 0 0.052968053050369737 0.0090809173488315582 0 0.0484135161167236 0.034205204957136963 0 0.043580831547224863 0.021565365261707499 0 0.057623658326613529 0.02352368721002385 0 0.052968053050369737 0.0090809173488315582 0 0.071708216805815503 0.016768608491387289 0 0.067492943165135169 -0.0019794682467893379 0 0.083930998993742512 0.0059737405228527038 0 0.071708216805815503 0.016768608491387289 0 0.067492943165135169 -0.0019794682467893379 0 0.083930998993742512 0.0059737405228527038 0 0.098495163759696414 0.0029673617968291321 0 0.094917995650245529 0.021722354499223519 0 0.083930998993742512 0.0059737405228527038 0 0.071708216805815503 0.016768608491387289 0 0.094917995650245529 0.021722354499223519 0 0.071708216805815503 0.016768608491387289 0 0.07449934060461412 0.03258063005354956 0 0.094917995650245529 0.021722354499223519 0 0.07449934060461412 0.03258063005354956 0 0.087237150257314613 0.037926204838731957 0 0.094917995650245529 0.021722354499223519 0 0.057623658326613529 0.02352368721002385 0 0.071708216805815503 0.016768608491387289 0 0.07449934060461412 0.03258063005354956 0 0.060669767880595721 0.038134724015348051 0 0.057623658326613529 0.02352368721002385 0 0.07449934060461412 0.03258063005354956 0 0.060669767880595721 0.038134724015348051 0 0.069155187538762042 0.045022305850501279 0 0.07449934060461412 0.03258063005354956 0 0.060669767880595721 0.038134724015348051 0 0.059559274975242667 0.047504887075434543 0 0.069155187538762042 0.045022305850501279 0 0.069155187538762042 0.045022305850501279 0 0.07449934060461412 0.03258063005354956 0 0.079692196512252927 0.044953406994506007 0 0.059559274975242667 0.047504887075434543 0 0.069155187538762042 0.045022305850501279 0 0.067326156772233525 0.050603546620565112 0 0.059559274975242667 0.047504887075434543 0 0.066395547834883203 0.05807658879080619 0 0.067326156772233525 0.050603546620565112 0 0.066395547834883203 0.05807658879080619 0 0.067326156772233525 0.050603546620565112 0 0.074194616740046182 0.051810404765518438 0 0.069155187538762042 0.045022305850501279 0 0.067326156772233525 0.050603546620565112 0 0.074194616740046182 0.051810404765518438 0 0.069155187538762042 0.045022305850501279 0 0.074194616740046182 0.051810404765518438 0 0.079692196512252927 0.044953406994506007 0 0.066395547834883203 0.05807658879080619 0 0.074194616740046182 0.051810404765518438 0 0.080343143758095259 0.058335218209008277 0 0.066395547834883203 0.05807658879080619 0 0.080343143758095259 0.058335218209008277 0 0.08827992924315356 0.067842626558367619 0 0.080343143758095259 0.058335218209008277 0 0.083306510346727383 0.05351440315152866 0 0.090416084875221875 0.058235299142909973 0 0.074194616740046182 0.051810404765518438 0 0.083306510346727383 0.05351440315152866 0 0.079692196512252927 0.044953406994506007 0 0.083306510346727383 0.05351440315152866 0 0.089760373586053266 0.048866493307206167 0 0.079692196512252927 0.044953406994506007 0 0.074194616740046182 0.051810404765518438 0 0.080343143758095259 0.058335218209008277 0 0.083306510346727383 0.05351440315152866 0 0.083306510346727383 0.05351440315152866 0 0.089760373586053266 0.048866493307206167 0 0.090416084875221875 0.058235299142909973 0 0.089760373586053266 0.048866493307206167 0 0.090416084875221875 0.058235299142909973 0 0.099395501669828634 0.055681054702382278 0 0.080343143758095259 0.058335218209008277 0 0.090416084875221875 0.058235299142909973 0 0.08827992924315356 0.067842626558367619 0 0.087237150257314613 0.037926204838731957 0 0.098930039005792711 0.04227996871225087 0 0.094917995650245529 0.021722354499223519 0 0.07449934060461412 0.03258063005354956 0 0.079692196512252927 0.044953406994506007 0 0.087237150257314613 0.037926204838731957 0 0.089760373586053266 0.048866493307206167 0 0.079692196512252927 0.044953406994506007 0 0.087237150257314613 0.037926204838731957 0 0.089760373586053266 0.048866493307206167 0 0.087237150257314613 0.037926204838731957 0 0.098930039005792711 0.04227996871225087 0 0.10894092886672049 0.033503019923715648 0 0.098930039005792711 0.04227996871225087 0 0.11550376979223601 0.054551475820320147 0 0.10894092886672049 0.033503019923715648 0 0.098930039005792711 0.04227996871225087 0 0.094917995650245529 0.021722354499223519 0 0.098930039005792711 0.04227996871225087 0 0.099395501669828634 0.055681054702382278 0 0.11550376979223601 0.054551475820320147 0 0.099395501669828634 0.055681054702382278 0 0.11550376979223601 0.054551475820320147 0 0.10561354398445311 0.069921878226714862 0 0.090416084875221875 0.058235299142909973 0 0.099395501669828634 0.055681054702382278 0 0.095618088847860577 0.065038419849084594 0 0.089760373586053266 0.048866493307206167 0 0.098930039005792711 0.04227996871225087 0 0.099395501669828634 0.055681054702382278 0 0.10894092886672049 0.033503019923715648 0 0.11961069471150609 0.02296590295220987 0 0.12977361784467401 0.039215218793308727 0 0.10894092886672049 0.033503019923715648 0 0.11550376979223601 0.054551475820320147 0 0.12977361784467401 0.039215218793308727 0 0.11961069471150609 0.02296590295220987 0 0.1158546052028349 0.0064685721448778594 0 0.094917995650245529 0.021722354499223519 0 0.11961069471150609 0.02296590295220987 0 0.1158546052028349 0.0064685721448778594 0 0.13894824890776639 0.02136224913872127 0 0.1158546052028349 0.0064685721448778594 0 0.098495163759696414 0.0029673617968291321 0 0.094917995650245529 0.021722354499223519 0 0.10894092886672049 0.033503019923715648 0 0.11961069471150609 0.02296590295220987 0 0.094917995650245529 0.021722354499223519 0 0.097728221435088053 0.099184528615223033 0 0.110275064223293 0.10236359857942121 0 0.11116449005577619 0.086473750785835857 0 0.099894961061174667 0.1104201015940532 0 0.11150799601301251 0.1117412241471519 0 0.110275064223293 0.10236359857942121 0 0.097728221435088053 0.099184528615223033 0 0.099894961061174667 0.1104201015940532 0 0.110275064223293 0.10236359857942121 0 0.097728221435088053 0.099184528615223033 0 0.099894961061174667 0.1104201015940532 0 0.084925795867796111 0.1103515185161017 0 0.099894961061174667 0.1104201015940532 0 0.096984900528893664 0.1212489081817222 0 0.084925795867796111 0.1103515185161017 0 0.099894961061174667 0.1104201015940532 0 0.096984900528893664 0.1212489081817222 0 0.10712684862241641 0.1210429748963526 0 0.096984900528893664 0.1212489081817222 0 0.10712684862241641 0.1210429748963526 0 0.10589272808503949 0.13156516273042271 0 0.099894961061174667 0.1104201015940532 0 0.10712684862241641 0.1210429748963526 0 0.11150799601301251 0.1117412241471519 0 0.10712684862241641 0.1210429748963526 0 0.11150799601301251 0.1117412241471519 0 0.1187293914863337 0.1182846474287873 0 0.11150799601301251 0.1117412241471519 0 0.1187293914863337 0.1182846474287873 0 0.1197878353292403 0.1092484053650479 0 0.10712684862241641 0.1210429748963526 0 0.1187293914863337 0.1182846474287873 0 0.114987521205969 0.1268010028982309 0 0.1187293914863337 0.1182846474287873 0 0.12813823657366311 0.12049833089676459 0 0.12624189261331301 0.1140678077034443 0 0.1187293914863337 0.1182846474287873 0 0.12212988809696081 0.1249307776834532 0 0.12813823657366311 0.12049833089676459 0 0.1187293914863337 0.1182846474287873 0 0.12212988809696081 0.1249307776834532 0 0.114987521205969 0.1268010028982309 0 0.1187293914863337 0.1182846474287873 0 0.1197878353292403 0.1092484053650479 0 0.12624189261331301 0.1140678077034443 0 0.1216961693062274 0.1020981758197984 0 0.110275064223293 0.10236359857942121 0 0.11116449005577619 0.086473750785835857 0 0.1197878353292403 0.1092484053650479 0 0.1216961693062274 0.1020981758197984 0 0.1302764983332621 0.10693497851168419 0 0.1216961693062274 0.1020981758197984 0 0.11116449005577619 0.086473750785835857 0 0.13668050292917741 0.098217611464673699 0 0.1197878353292403 0.1092484053650479 0 0.1216961693062274 0.1020981758197984 0 0.110275064223293 0.10236359857942121 0 0.11150799601301251 0.1117412241471519 0 0.1197878353292403 0.1092484053650479 0 0.110275064223293 0.10236359857942121 0 0.11116449005577619 0.086473750785835857 0 0.1207366242219714 0.074251990558816788 0 0.1300820653953097 0.084166932106396392 0 0.11116449005577619 0.086473750785835857 0 0.13668050292917741 0.098217611464673699 0 0.11116449005577619 0.086473750785835857 0 0.1207366242219714 0.074251990558816788 0 0.10561354398445311 0.069921878226714862 0 0.11550376979223601 0.054551475820320147 0 0.1207366242219714 0.074251990558816788 0 0.13255022158949201 0.068763676371196639 0 0.11550376979223601 0.054551475820320147 0 0.1207366242219714 0.074251990558816788 0 0.10561354398445311 0.069921878226714862 0 0.11116449005577619 0.086473750785835857 0 0.10561354398445311 0.069921878226714862 0 0.085648477182374977 0.074729890106998029 0 0.10561354398445311 0.069921878226714862 0 0.095618088847860577 0.065038419849084594 0 0.085648477182374977 0.074729890106998029 0 0.099395501669828634 0.055681054702382278 0 0.10561354398445311 0.069921878226714862 0 0.095618088847860577 0.065038419849084594 0 0.11116449005577619 0.086473750785835857 0 0.085648477182374977 0.074729890106998029 0 0.11116449005577619 0.086473750785835857 0 0.090808031879269946 0.087622927320568048 0 0.085648477182374977 0.074729890106998029 0 0.097728221435088053 0.099184528615223033 0 0.11116449005577619 0.086473750785835857 0 0.090808031879269946 0.087622927320568048 0 0.097728221435088053 0.099184528615223033 0 0.090808031879269946 0.087622927320568048 0 0.080235742217082393 0.093435287859391092 0 0.090808031879269946 0.087622927320568048 0 0.078675001300488379 0.083882301042573534 0 0.085648477182374977 0.074729890106998029 0 0.090808031879269946 0.087622927320568048 0 0.078675001300488379 0.083882301042573534 0 0.080235742217082393 0.093435287859391092 0 0.066395547834883203 0.05807658879080619 0 0.08827992924315356 0.067842626558367619 0 0.085648477182374977 0.074729890106998029 0 0.095618088847860577 0.065038419849084594 0 0.08827992924315356 0.067842626558367619 0 0.085648477182374977 0.074729890106998029 0 0.090416084875221875 0.058235299142909973 0 0.095618088847860577 0.065038419849084594 0 0.08827992924315356 0.067842626558367619 0 0.066395547834883203 0.05807658879080619 0 0.085648477182374977 0.074729890106998029 0 0.060132464308973767 0.062986029428160187 0 0.066395547834883203 0.05807658879080619 0 0.08827992924315356 0.067842626558367619 0 0.085648477182374977 0.074729890106998029 0 0.068637102026180674 0.07792917868559901 0 0.060132464308973767 0.062986029428160187 0 0.085648477182374977 0.074729890106998029 0 0.060132464308973767 0.062986029428160187 0 0.078675001300488379 0.083882301042573534 0 0.085648477182374977 0.074729890106998029 0 0.068637102026180674 0.07792917868559901 0 0.080235742217082393 0.093435287859391092 0 0.069503799956795384 0.087722797055870286 0 0.068523875558259784 0.095111972458496966 0 0.078675001300488379 0.083882301042573534 0 0.080235742217082393 0.093435287859391092 0 0.069503799956795384 0.087722797055870286 0 0.078675001300488379 0.083882301042573534 0 0.068637102026180674 0.07792917868559901 0 0.069503799956795384 0.087722797055870286 0 0.068637102026180674 0.07792917868559901 0 0.069503799956795384 0.087722797055870286 0 0.060111091978902922 0.083782113849914977 0 0.069503799956795384 0.087722797055870286 0 0.06135777996986308 0.093915161513068182 0 0.060111091978902922 0.083782113849914977 0 0.069503799956795384 0.087722797055870286 0 0.068523875558259784 0.095111972458496966 0 0.06135777996986308 0.093915161513068182 0 0.068523875558259784 0.095111972458496966 0 0.071520258741129425 0.10189571548122769 0 0.062413973273008162 0.1018934272394761 0 0.068523875558259784 0.095111972458496966 0 0.062413973273008162 0.1018934272394761 0 0.06135777996986308 0.093915161513068182 0 0.071520258741129425 0.10189571548122769 0 0.072821304814728441 0.1108529925529516 0 0.063718101814298073 0.11016590081819259 0 0.071520258741129425 0.10189571548122769 0 0.063718101814298073 0.11016590081819259 0 0.062413973273008162 0.1018934272394761 0 0.071520258741129425 0.10189571548122769 0 0.084925795867796111 0.1103515185161017 0 0.072821304814728441 0.1108529925529516 0 0.080235742217082393 0.093435287859391092 0 0.068523875558259784 0.095111972458496966 0 0.071520258741129425 0.10189571548122769 0 0.097728221435088053 0.099184528615223033 0 0.080235742217082393 0.093435287859391092 0 0.084925795867796111 0.1103515185161017 0 0.080235742217082393 0.093435287859391092 0 0.071520258741129425 0.10189571548122769 0 0.084925795867796111 0.1103515185161017 0 0.084925795867796111 0.1103515185161017 0 0.074154959480044275 0.1204842858357125 0 0.087075880893963842 0.12621803440601359 0 0.096984900528893664 0.1212489081817222 0 0.084925795867796111 0.1103515185161017 0 0.087075880893963842 0.12621803440601359 0 0.084925795867796111 0.1103515185161017 0 0.074154959480044275 0.1204842858357125 0 0.072821304814728441 0.1108529925529516 0 0.074154959480044275 0.1204842858357125 0 0.072821304814728441 0.1108529925529516 0 0.063718101814298073 0.11016590081819259 0 0.074154959480044275 0.1204842858357125 0 0.063718101814298073 0.11016590081819259 0 0.060124536552058239 0.11864948812996751 0 0.074154959480044275 0.1204842858357125 0 0.060124536552058239 0.11864948812996751 0 0.061109117960118017 0.12720913792676911 0 0.060124536552058239 0.11864948812996751 0 0.052595679859244633 0.1236025024456274 0 0.054913207086597561 0.11271600588853189 0 0.060124536552058239 0.11864948812996751 0 0.052595679859244633 0.1236025024456274 0 0.061109117960118017 0.12720913792676911 0 0.052595679859244633 0.1236025024456274 0 0.054913207086597561 0.11271600588853189 0 0.046771683079868627 0.1089772416004138 0 0.063718101814298073 0.11016590081819259 0 0.060124536552058239 0.11864948812996751 0 0.054913207086597561 0.11271600588853189 0 0.063718101814298073 0.11016590081819259 0 0.062413973273008162 0.1018934272394761 0 0.053620768430252298 0.1031656988462608 0 0.063718101814298073 0.11016590081819259 0 0.054913207086597561 0.11271600588853189 0 0.053620768430252298 0.1031656988462608 0 0.06135777996986308 0.093915161513068182 0 0.053620768430252298 0.1031656988462608 0 0.051535176025136201 0.090416251810209708 0 0.062413973273008162 0.1018934272394761 0 0.06135777996986308 0.093915161513068182 0 0.053620768430252298 0.1031656988462608 0 0.053620768430252298 0.1031656988462608 0 0.042875633238578528 0.09739353282270094 0 0.051535176025136201 0.090416251810209708 0 0.053620768430252298 0.1031656988462608 0 0.046771683079868627 0.1089772416004138 0 0.042875633238578528 0.09739353282270094 0 0.054913207086597561 0.11271600588853189 0 0.053620768430252298 0.1031656988462608 0 0.046771683079868627 0.1089772416004138 0 0.046771683079868627 0.1089772416004138 0 0.042875633238578528 0.09739353282270094 0 0.034382595390138257 0.1099700727945534 0 0.042875633238578528 0.09739353282270094 0 0.034382595390138257 0.1099700727945534 0 0.030708755379597181 0.088685576768743155 0 0.034382595390138257 0.1099700727945534 0 0.030708755379597181 0.088685576768743155 0 0.052595679859244633 0.1236025024456274 0 0.046771683079868627 0.1089772416004138 0 0.034382595390138257 0.1099700727945534 0 0.034382595390138257 0.1099700727945534 0 0.02520709702204247 0.1232263280856261 0 0.037354296692750887 0.12718670835402709 0 0.052595679859244633 0.1236025024456274 0 0.034382595390138257 0.1099700727945534 0 0.037354296692750887 0.12718670835402709 0 0.034382595390138257 0.1099700727945534 0 0.037354296692750887 0.12718670835402709 0 0.052595679859244633 0.1236025024456274 0 0.034382595390138257 0.1099700727945534 0 0.060132464308973767 0.062986029428160187 0 0.051537231586459821 0.0703604747810012 0 0.044258496001147778 0.063884183083345675 0 0.051537231586459821 0.0703604747810012 0 0.045053238281461433 0.071665999821029613 0 0.044258496001147778 0.063884183083345675 0 0.060132464308973767 0.062986029428160187 0 0.058160070023191839 0.074213970699792686 0 0.051537231586459821 0.0703604747810012 0 0.068637102026180674 0.07792917868559901 0 0.060132464308973767 0.062986029428160187 0 0.058160070023191839 0.074213970699792686 0 0.051537231586459821 0.0703604747810012 0 0.049495561811348857 0.078896267932753172 0 0.045053238281461433 0.071665999821029613 0 0.058160070023191839 0.074213970699792686 0 0.051537231586459821 0.0703604747810012 0 0.049495561811348857 0.078896267932753172 0 0.049495561811348857 0.078896267932753172 0 0.051535176025136201 0.090416251810209708 0 0.041750220721871581 0.085344735896560275 0 0.049495561811348857 0.078896267932753172 0 0.060111091978902922 0.083782113849914977 0 0.051535176025136201 0.090416251810209708 0 0.068637102026180674 0.07792917868559901 0 0.058160070023191839 0.074213970699792686 0 0.060111091978902922 0.083782113849914977 0 0.058160070023191839 0.074213970699792686 0 0.049495561811348857 0.078896267932753172 0 0.060111091978902922 0.083782113849914977 0 0.06135777996986308 0.093915161513068182 0 0.060111091978902922 0.083782113849914977 0 0.051535176025136201 0.090416251810209708 0 0.042875633238578528 0.09739353282270094 0 0.051535176025136201 0.090416251810209708 0 0.041750220721871581 0.085344735896560275 0 0.042875633238578528 0.09739353282270094 0 0.041750220721871581 0.085344735896560275 0 0.030708755379597181 0.088685576768743155 0 0.041750220721871581 0.085344735896560275 0 0.037489048909448763 0.07466528487264068 0 0.030708755379597181 0.088685576768743155 0 0.049495561811348857 0.078896267932753172 0 0.041750220721871581 0.085344735896560275 0 0.037489048909448763 0.07466528487264068 0 0.037489048909448763 0.07466528487264068 0 0.02703491536905472 0.067401080742933134 0 0.030708755379597181 0.088685576768743155 0 0.049495561811348857 0.078896267932753172 0 0.045053238281461433 0.071665999821029613 0 0.037489048909448763 0.07466528487264068 0 0.045053238281461433 0.071665999821029613 0 0.037489048909448763 0.07466528487264068 0 0.037579666130808903 0.067774354445351542 0 0.034062632092931817 0.061255223706808547 0 0.037579666130808903 0.067774354445351542 0 0.02703491536905472 0.067401080742933134 0 0.037489048909448763 0.07466528487264068 0 0.037579666130808903 0.067774354445351542 0 0.02703491536905472 0.067401080742933134 0 0.034062632092931817 0.061255223706808547 0 0.037579666130808903 0.067774354445351542 0 0.044258496001147778 0.063884183083345675 0 0.045053238281461433 0.071665999821029613 0 0.037579666130808903 0.067774354445351542 0 0.044258496001147778 0.063884183083345675 0 0.02703491536905472 0.067401080742933134 0 0.030708755379597181 0.088685576768743155 0 0.01366790099406239 0.052632887419703241 0 0.026593398378051959 0.076487299351285121 0 0.01366790099406239 0.052632887419703241 0 0.02703491536905472 0.067401080742933134 0 0.026593398378051959 0.076487299351285121 0 0.02703491536905472 0.067401080742933134 0 0.026593398378051959 0.076487299351285121 0 0.030708755379597181 0.088685576768743155 0 0.01366790099406239 0.052632887419703241 0 0.026593398378051959 0.076487299351285121 0 0.01611389888654503 0.070322973248010373 0 0.026593398378051959 0.076487299351285121 0 0.01611389888654503 0.070322973248010373 0 0.01767063525815666 0.080500261616376856 0 0.01767063525815666 0.080500261616376856 0 0.030708755379597181 0.088685576768743155 0 0.011643404763696401 0.092949868607662828 0 0.026593398378051959 0.076487299351285121 0 0.01767063525815666 0.080500261616376856 0 0.030708755379597181 0.088685576768743155 0 0.01767063525815666 0.080500261616376856 0 0.011643404763696401 0.092949868607662828 0 0.0065236609159091173 0.071671444604676282 0 -0.01109578586274463 0.07592966442077155 0 0.011643404763696401 0.092949868607662828 0 0.0065236609159091173 0.071671444604676282 0 -0.01109578586274463 0.07592966442077155 0 0.011643404763696401 0.092949868607662828 0 0.01366790099406239 0.052632887419703241 0 0.01611389888654503 0.070322973248010373 0 0.0065236609159091173 0.071671444604676282 0 0.01611389888654503 0.070322973248010373 0 0.01767063525815666 0.080500261616376856 0 0.0065236609159091173 0.071671444604676282 0 -0.0031702267477386531 0.067180855403790804 0 0.00079413703044923156 0.058803151297745167 0 0.0065236609159091173 0.071671444604676282 0 0.034382595390138257 0.1099700727945534 0 0.02520709702204247 0.1232263280856261 0 0.01356063639681436 0.11371506303709419 0 0.02520709702204247 0.1232263280856261 0 0.01356063639681436 0.11371506303709419 0 0.011098566836083609 0.13484946890849181 0 0.034382595390138257 0.1099700727945534 0 0.011643404763696401 0.092949868607662828 0 0.01356063639681436 0.11371506303709419 0 0.034382595390138257 0.1099700727945534 0 0.011643404763696401 0.092949868607662828 0 0.034382595390138257 0.1099700727945534 0 0.030708755379597181 0.088685576768743155 0 0.011643404763696401 0.092949868607662828 0 -0.0040088977147468936 0.097024336429998151 0 0.011643404763696401 0.092949868607662828 0 0.0025937760044158291 0.1064596481343341 0 0.011643404763696401 0.092949868607662828 0 0.0025937760044158291 0.1064596481343341 0 0.01356063639681436 0.11371506303709419 0 -0.007175360702145514 0.1155930690216506 0 0.0025937760044158291 0.1064596481343341 0 0.01356063639681436 0.11371506303709419 0 -0.007175360702145514 0.1155930690216506 0 0.01356063639681436 0.11371506303709419 0 0.011098566836083609 0.13484946890849181 0 -0.007175360702145514 0.1155930690216506 0 0.011098566836083609 0.13484946890849181 0 0.02520709702204247 0.1232263280856261 0 0.011098566836083609 0.13484946890849181 0 0.028759663239593541 0.13617761485890201 0 0.02520709702204247 0.1232263280856261 0 0.028759663239593541 0.13617761485890201 0 0.037354296692750887 0.12718670835402709 0 0.011098566836083609 0.13484946890849181 0 0.029372494374312729 0.15410586879533311 0 0.013538337341477229 0.1636201682865295 0 0.011098566836083609 0.13484946890849181 0 0.028759663239593541 0.13617761485890201 0 0.029372494374312729 0.15410586879533311 0 0.011098566836083609 0.13484946890849181 0 0.029372494374312729 0.15410586879533311 0 -0.0048034666842798916 0.1614245706846468 0 0.011098566836083609 0.13484946890849181 0 0.013538337341477229 0.1636201682865295 0 -0.0057956805663459468 0.1892940575843915 0 -0.0048034666842798916 0.1614245706846468 0 0.013538337341477229 0.1636201682865295 0 -0.0057956805663459468 0.1892940575843915 0 0.013538337341477229 0.1636201682865295 0 0.020045678312652242 0.18090880435863019 0 -0.0057956805663459468 0.1892940575843915 0 0.020045678312652242 0.18090880435863019 0 0.029372494374312729 0.15410586879533311 0 0.013538337341477229 0.1636201682865295 0 0.020045678312652242 0.18090880435863019 0 0.029372494374312729 0.15410586879533311 0 0.045887037191650451 0.17252355113286891 0 0.04813315871709322 0.1541455757588851 0 0.029372494374312729 0.15410586879533311 0 0.020045678312652242 0.18090880435863019 0 0.045887037191650451 0.17252355113286891 0 0.020045678312652242 0.18090880435863019 0 0.045887037191650451 0.17252355113286891 0 0.020045678312652242 0.18090880435863019 0 0.045887037191650451 0.17252355113286891 0 0.041991232206495782 0.1919910870650737 0 0.045887037191650451 0.17252355113286891 0 0.060802696405823108 0.1787365445376432 0 0.041991232206495782 0.1919910870650737 0 0.045887037191650451 0.17252355113286891 0 0.071728396070648653 0.1641382979071076 0 0.045887037191650451 0.17252355113286891 0 0.060802696405823108 0.1787365445376432 0 0.071728396070648653 0.1641382979071076 0 0.045887037191650451 0.17252355113286891 0 0.059657673584757237 0.15824269734654939 0 0.04813315871709322 0.1541455757588851 0 0.045887037191650451 0.17252355113286891 0 0.059657673584757237 0.15824269734654939 0 0.071728396070648653 0.1641382979071076 0 0.059657673584757237 0.15824269734654939 0 0.04813315871709322 0.1541455757588851 0 0.060329678829100349 0.1474246815113264 0 0.04813315871709322 0.1541455757588851 0 0.050215372913412007 0.1458935282758238 0 0.060329678829100349 0.1474246815113264 0 0.050215372913412007 0.1458935282758238 0 0.060329678829100349 0.1474246815113264 0 0.052072656112092337 0.13760051191958289 0 0.050215372913412007 0.1458935282758238 0 0.052072656112092337 0.13760051191958289 0 0.040325997995362128 0.14440334391350099 0 0.060329678829100349 0.1474246815113264 0 0.062159468211553673 0.13737243366585769 0 0.052072656112092337 0.13760051191958289 0 0.062159468211553673 0.13737243366585769 0 0.054733357378362921 0.13083888414419281 0 0.052072656112092337 0.13760051191958289 0 0.052595679859244633 0.1236025024456274 0 0.054733357378362921 0.13083888414419281 0 0.061109117960118017 0.12720913792676911 0 0.062159468211553673 0.13737243366585769 0 0.054733357378362921 0.13083888414419281 0 0.061109117960118017 0.12720913792676911 0 0.052595679859244633 0.1236025024456274 0 0.054733357378362921 0.13083888414419281 0 0.046346625143134958 0.1312929959830558 0 0.054733357378362921 0.13083888414419281 0 0.052072656112092337 0.13760051191958289 0 0.046346625143134958 0.1312929959830558 0 0.037354296692750887 0.12718670835402709 0 0.040325997995362128 0.14440334391350099 0 0.046346625143134958 0.1312929959830558 0 0.037354296692750887 0.12718670835402709 0 0.040325997995362128 0.14440334391350099 0 0.028759663239593541 0.13617761485890201 0 0.037354296692750887 0.12718670835402709 0 0.040325997995362128 0.14440334391350099 0 0.052072656112092337 0.13760051191958289 0 0.046346625143134958 0.1312929959830558 0 0.040325997995362128 0.14440334391350099 0 0.052595679859244633 0.1236025024456274 0 0.046346625143134958 0.1312929959830558 0 0.037354296692750887 0.12718670835402709 0 0.028759663239593541 0.13617761485890201 0 0.029372494374312729 0.15410586879533311 0 0.040325997995362128 0.14440334391350099 0 0.029372494374312729 0.15410586879533311 0 0.04813315871709322 0.1541455757588851 0 0.040325997995362128 0.14440334391350099 0 0.04813315871709322 0.1541455757588851 0 0.050215372913412007 0.1458935282758238 0 0.040325997995362128 0.14440334391350099 0 0.025149977659741599 0.24684982625080901 0 0.00014186162909880781 0.2338185852574263 0 0.02177620002751179 0.22559840920251981 0 0.025149977659741599 0.24684982625080901 0 0.00014186162909880781 0.2338185852574263 0 0.025149977659741599 0.24684982625080901 0 0.00014186162909880781 0.2338185852574263 0 0.0073806355134042019 0.25529449578482938 0 0.00014186162909880781 0.2338185852574263 0 0.02177620002751179 0.22559840920251981 0 0.0090806704795409685 0.20996839310177981 0 0.025149977659741599 0.24684982625080901 0 0.02177620002751179 0.22559840920251981 0 0.039960986899899173 0.22780444499479169 0 0.02177620002751179 0.22559840920251981 0 0.0090806704795409685 0.20996839310177981 0 0.034547503469278373 0.20955079640779209 0 0.0090806704795409685 0.20996839310177981 0 0.02162293693503077 0.1981024475624624 0 0.034547503469278373 0.20955079640779209 0 -0.0057956805663459468 0.1892940575843915 0 0.0090806704795409685 0.20996839310177981 0 0.02162293693503077 0.1981024475624624 0 -0.0057956805663459468 0.1892940575843915 0 0.020045678312652242 0.18090880435863019 0 0.02162293693503077 0.1981024475624624 0 0.020045678312652242 0.18090880435863019 0 0.02162293693503077 0.1981024475624624 0 0.041991232206495782 0.1919910870650737 0 0.02162293693503077 0.1981024475624624 0 0.041991232206495782 0.1919910870650737 0 0.034547503469278373 0.20955079640779209 0 0.041991232206495782 0.1919910870650737 0 0.05849467095877426 0.1965416733816682 0 0.050764695011206777 0.20916964222725651 0 0.060802696405823108 0.1787365445376432 0 0.041991232206495782 0.1919910870650737 0 0.05849467095877426 0.1965416733816682 0 0.050764695011206777 0.20916964222725651 0 0.066981886553135278 0.20878848804672309 0 0.05849467095877426 0.1965416733816682 0 0.050764695011206777 0.20916964222725651 0 0.066981886553135278 0.20878848804672309 0 0.050764695011206777 0.20916964222725651 0 0.061514006406540499 0.23071042489022231 0 0.066981886553135278 0.20878848804672309 0 0.050764695011206777 0.20916964222725651 0 0.034547503469278373 0.20955079640779209 0 0.039960986899899173 0.22780444499479169 0 0.050764695011206777 0.20916964222725651 0 0.034547503469278373 0.20955079640779209 0 0.041991232206495782 0.1919910870650737 0 0.050764695011206777 0.20916964222725651 0 0.034547503469278373 0.20955079640779209 0 0.02177620002751179 0.22559840920251981 0 0.034547503469278373 0.20955079640779209 0 0.039960986899899173 0.22780444499479169 0 0.039960986899899173 0.22780444499479169 0 0.061514006406540499 0.23071042489022231 0 0.045472231705318063 0.24424317023843681 0 0.050764695011206777 0.20916964222725651 0 0.039960986899899173 0.22780444499479169 0 0.061514006406540499 0.23071042489022231 0 0.061514006406540499 0.23071042489022231 0 0.056046126259945157 0.25263236173372139 0 0.061514006406540499 0.23071042489022231 0 0.056046126259945157 0.25263236173372139 0 0.067905867336300579 0.25358800162702 0 0.061514006406540499 0.23071042489022231 0 0.045472231705318063 0.24424317023843681 0 0.056046126259945157 0.25263236173372139 0 0.025149977659741599 0.24684982625080901 0 0.039960986899899173 0.22780444499479169 0 0.045472231705318063 0.24424317023843681 0 0.092857250133516089 0.24175825718487831 0 0.078525547080241467 0.2465942846531784 0 0.093798877441032588 0.2579700649065903 0 0.092857250133516089 0.24175825718487831 0 0.078525547080241467 0.2465942846531784 0 0.081986142109724491 0.22560265144644431 0 0.061514006406540499 0.23071042489022231 0 0.078525547080241467 0.2465942846531784 0 0.067905867336300579 0.25358800162702 0 0.061514006406540499 0.23071042489022231 0 0.078525547080241467 0.2465942846531784 0 0.081986142109724491 0.22560265144644431 0 0.061514006406540499 0.23071042489022231 0 0.081986142109724491 0.22560265144644431 0 0.066981886553135278 0.20878848804672309 0 0.061514006406540499 0.23071042489022231 0 0.066981886553135278 0.20878848804672309 0 0.081986142109724491 0.22560265144644431 0 0.09236794217301933 0.20819183719001669 0 0.066981886553135278 0.20878848804672309 0 0.09236794217301933 0.20819183719001669 0 0.066981886553135278 0.20878848804672309 0 0.09236794217301933 0.20819183719001669 0 0.066981886553135278 0.20878848804672309 0 0.071445073857882777 0.19089458628000441 0 0.060802696405823108 0.1787365445376432 0 0.05849467095877426 0.1965416733816682 0 0.071445073857882777 0.19089458628000441 0 0.066981886553135278 0.20878848804672309 0 0.071445073857882777 0.19089458628000441 0 0.05849467095877426 0.1965416733816682 0 0.066981886553135278 0.20878848804672309 0 0.071445073857882777 0.19089458628000441 0 0.09236794217301933 0.20819183719001669 0 0.071445073857882777 0.19089458628000441 0 0.086464584236575506 0.1862285865309723 0 0.09236794217301933 0.20819183719001669 0 0.086464584236575506 0.1862285865309723 0 0.1023855527362314 0.18749689463882899 0 0.09236794217301933 0.20819183719001669 0 0.11775399779290339 0.20759518633331239 0 0.1023855527362314 0.18749689463882899 0 0.11775399779290339 0.20759518633331239 0 0.1023855527362314 0.18749689463882899 0 0.12550986450034471 0.186594373040398 0 0.09236794217301933 0.20819183719001669 0 0.11775399779290339 0.20759518633331239 0 0.09236794217301933 0.20819183719001669 0 0.11775399779290339 0.20759518633331239 0 0.10906069526472741 0.22998953009969161 0 0.092857250133516089 0.24175825718487831 0 0.081986142109724491 0.22560265144644431 0 0.10906069526472741 0.22998953009969161 0 0.081986142109724491 0.22560265144644431 0 0.09236794217301933 0.20819183719001669 0 0.10906069526472741 0.22998953009969161 0 0.11775399779290339 0.20759518633331239 0 0.10906069526472741 0.22998953009969161 0 0.1382648444377183 0.22719855966067881 0 0.10906069526472741 0.22998953009969161 0 0.12787711237058769 0.24521089126939841 0 0.1100607559553454 0.25396994184181759 0 0.092857250133516089 0.24175825718487831 0 0.10906069526472741 0.22998953009969161 0 0.1100607559553454 0.25396994184181759 0 0.081151633673542972 0.15313158297098389 0 0.083920606388658545 0.14050817004821939 0 0.0975697549496468 0.15575304468134629 0 0.081151633673542972 0.15313158297098389 0 0.083920606388658545 0.14050817004821939 0 0.071387777285217918 0.15212681924726251 0 0.074154959480044275 0.1204842858357125 0 0.087075880893963842 0.12621803440601359 0 0.083920606388658545 0.14050817004821939 0 0.087075880893963842 0.12621803440601359 0 0.083920606388658545 0.14050817004821939 0 0.097906888154765004 0.1362305538396491 0 0.062159468211553673 0.13737243366585769 0 0.061109117960118017 0.12720913792676911 0 0.083920606388658545 0.14050817004821939 0 0.074154959480044275 0.1204842858357125 0 0.061109117960118017 0.12720913792676911 0 0.083920606388658545 0.14050817004821939 0 0.061109117960118017 0.12720913792676911 0 0.083920606388658545 0.14050817004821939 0 0.062159468211553673 0.13737243366585769 0 0.083920606388658545 0.14050817004821939 0 0.069449382678632612 0.1443580261181665 0 0.060329678829100349 0.1474246815113264 0 0.062159468211553673 0.13737243366585769 0 0.069449382678632612 0.1443580261181665 0 0.060329678829100349 0.1474246815113264 0 0.069449382678632612 0.1443580261181665 0 0.071387777285217918 0.15212681924726251 0 0.083920606388658545 0.14050817004821939 0 0.069449382678632612 0.1443580261181665 0 0.071387777285217918 0.15212681924726251 0 0.059657673584757237 0.15824269734654939 0 0.060329678829100349 0.1474246815113264 0 0.071387777285217918 0.15212681924726251 0 0.059657673584757237 0.15824269734654939 0 0.071387777285217918 0.15212681924726251 0 0.071728396070648653 0.1641382979071076 0 0.081151633673542972 0.15313158297098389 0 0.071387777285217918 0.15212681924726251 0 0.071728396070648653 0.1641382979071076 0 0.071445073857882777 0.19089458628000441 0 0.075908261162629706 0.17300068451328551 0 0.086464584236575506 0.1862285865309723 0 0.060802696405823108 0.1787365445376432 0 0.071445073857882777 0.19089458628000441 0 0.075908261162629706 0.17300068451328551 0 0.071445073857882777 0.19089458628000441 0 0.075908261162629706 0.17300068451328551 0 0.060802696405823108 0.1787365445376432 0 0.071728396070648653 0.1641382979071076 0 0.075908261162629706 0.17300068451328551 0 0.086464584236575506 0.1862285865309723 0 0.090216091253114361 0.17155893003272579 0 0.1023855527362314 0.18749689463882899 0 0.075908261162629706 0.17300068451328551 0 0.086464584236575506 0.1862285865309723 0 0.090216091253114361 0.17155893003272579 0 0.081151633673542972 0.15313158297098389 0 0.071728396070648653 0.1641382979071076 0 0.0975697549496468 0.15575304468134629 0 0.071728396070648653 0.1641382979071076 0 0.090216091253114361 0.17155893003272579 0 0.0975697549496468 0.15575304468134629 0 0.071728396070648653 0.1641382979071076 0 0.075908261162629706 0.17300068451328551 0 0.090216091253114361 0.17155893003272579 0 0.071728396070648653 0.1641382979071076 0 0.0975697549496468 0.15575304468134629 0 0.090216091253114361 0.17155893003272579 0 0.1064810698159025 0.16893633516972181 0 0.0975697549496468 0.15575304468134629 0 0.1064810698159025 0.16893633516972181 0 0.1067320948171991 0.1538072021696697 0 0.0975697549496468 0.15575304468134629 0 0.090216091253114361 0.17155893003272579 0 0.1064810698159025 0.16893633516972181 0 0.1023855527362314 0.18749689463882899 0 0.1064810698159025 0.16893633516972181 0 0.12954358324573961 0.16710623429112001 0 0.12550986450034471 0.186594373040398 0 0.1064810698159025 0.16893633516972181 0 0.1023855527362314 0.18749689463882899 0 0.12550986450034471 0.186594373040398 0 0.1064810698159025 0.16893633516972181 0 0.1067320948171991 0.1538072021696697 0 0.12954358324573961 0.16710623429112001 0 0.1067320948171991 0.1538072021696697 0 0.1262856736452258 0.1537478882528979 0 0.12954358324573961 0.16710623429112001 0 0.1067320948171991 0.1538072021696697 0 0.12954358324573961 0.16710623429112001 0 0.1148569119608701 0.14824987142416859 0 0.1067320948171991 0.1538072021696697 0 0.1262856736452258 0.1537478882528979 0 0.118317888191051 0.14254191757659121 0 0.1148569119608701 0.14824987142416859 0 0.1262856736452258 0.1537478882528979 0 0.118317888191051 0.14254191757659121 0 0.12756241452120801 0.13893694775055651 0 0.1262856736452258 0.1537478882528979 0 0.1148569119608701 0.14824987142416859 0 0.1067320948171991 0.1538072021696697 0 0.1080919911900045 0.14290247769751591 0 0.118317888191051 0.14254191757659121 0 0.1148569119608701 0.14824987142416859 0 0.1080919911900045 0.14290247769751591 0 0.083920606388658545 0.14050817004821939 0 0.1067320948171991 0.1538072021696697 0 0.1067320948171991 0.1538072021696697 0 0.1080919911900045 0.14290247769751591 0 0.097906888154765004 0.1362305538396491 0 0.083920606388658545 0.14050817004821939 0 0.1067320948171991 0.1538072021696697 0 0.097906888154765004 0.1362305538396491 0 0.083920606388658545 0.14050817004821939 0 0.1067320948171991 0.1538072021696697 0 0.0975697549496468 0.15575304468134629 0 0.096984900528893664 0.1212489081817222 0 0.097906888154765004 0.1362305538396491 0 0.10589272808503949 0.13156516273042271 0 0.096984900528893664 0.1212489081817222 0 0.087075880893963842 0.12621803440601359 0 0.097906888154765004 0.1362305538396491 0 0.1080919911900045 0.14290247769751591 0 0.097906888154765004 0.1362305538396491 0 0.10589272808503949 0.13156516273042271 0 0.1080919911900045 0.14290247769751591 0 0.10589272808503949 0.13156516273042271 0 0.11327312463209829 0.13597294690712769 0 0.10712684862241641 0.1210429748963526 0 0.10589272808503949 0.13156516273042271 0 0.114987521205969 0.1268010028982309 0 0.10589272808503949 0.13156516273042271 0 0.114987521205969 0.1268010028982309 0 0.11327312463209829 0.13597294690712769 0 0.114987521205969 0.1268010028982309 0 0.11327312463209829 0.13597294690712769 0 0.1203000125167645 0.13336293759413789 0 0.118317888191051 0.14254191757659121 0 0.1080919911900045 0.14290247769751591 0 0.11327312463209829 0.13597294690712769 0 0.118317888191051 0.14254191757659121 0 0.1203000125167645 0.13336293759413789 0 0.12756241452120801 0.13893694775055651 0 0.118317888191051 0.14254191757659121 0 0.11327312463209829 0.13597294690712769 0 0.1203000125167645 0.13336293759413789 0 0.12212988809696081 0.1249307776834532 0 0.114987521205969 0.1268010028982309 0 0.1203000125167645 0.13336293759413789 0 0.12212988809696081 0.1249307776834532 0 0.1203000125167645 0.13336293759413789 0 0.12788127083107459 0.1291064789800366 0 0.12788127083107459 0.1291064789800366 0 0.13409394305489639 0.1257339851238449 0 0.12813823657366311 0.12049833089676459 0 0.12788127083107459 0.1291064789800366 0 0.13410827310584911 0.13282331674432049 0 0.13409394305489639 0.1257339851238449 0 0.12788127083107459 0.1291064789800366 0 0.12756241452120801 0.13893694775055651 0 0.13410827310584911 0.13282331674432049 0 0.1203000125167645 0.13336293759413789 0 0.12788127083107459 0.1291064789800366 0 0.12756241452120801 0.13893694775055651 0 0.13410827310584911 0.13282331674432049 0 0.14295710802469111 0.12768772724150559 0 0.13848136883728299 0.14203914735535511 0 0.12756241452120801 0.13893694775055651 0 0.13410827310584911 0.13282331674432049 0 0.13848136883728299 0.14203914735535511 0 0.13410827310584911 0.13282331674432049 0 0.13409394305489639 0.1257339851238449 0 0.14295710802469111 0.12768772724150559 0 0.14295710802469111 0.12768772724150559 0 0.15698787762036359 0.14007723406829989 0 0.15364605026385231 0.1227496740475859 0 0.14295710802469111 0.12768772724150559 0 0.13848136883728299 0.14203914735535511 0 0.15698787762036359 0.14007723406829989 0 0.13848136883728299 0.14203914735535511 0 0.1441447949138806 0.1573716891147208 0 0.15698787762036359 0.14007723406829989 0 0.1441447949138806 0.1573716891147208 0 0.1598153361361678 0.15982657838785511 0 0.15698787762036359 0.14007723406829989 0 0.13848136883728299 0.14203914735535511 0 0.1262856736452258 0.1537478882528979 0 0.1441447949138806 0.1573716891147208 0 0.12756241452120801 0.13893694775055651 0 0.13848136883728299 0.14203914735535511 0 0.1262856736452258 0.1537478882528979 0 0.1262856736452258 0.1537478882528979 0 0.12954358324573961 0.16710623429112001 0 0.1441447949138806 0.1573716891147208 0 0.12954358324573961 0.16710623429112001 0 0.12550986450034471 0.186594373040398 0 0.15375492999850379 0.1814330523327968 0 0.12954358324573961 0.16710623429112001 0 0.15375492999850379 0.1814330523327968 0 0.1441447949138806 0.1573716891147208 0 0.15375492999850379 0.1814330523327968 0 0.1441447949138806 0.1573716891147208 0 0.1598153361361678 0.15982657838785511 0 0.1598153361361678 0.15982657838785511 0 0.17205847002769489 0.1711246398383999 0 0.17247097746626519 0.1464629757798975 0 0.15375492999850379 0.1814330523327968 0 0.1598153361361678 0.15982657838785511 0 0.17205847002769489 0.1711246398383999 0 0.15375492999850379 0.1814330523327968 0 0.17205847002769489 0.1711246398383999 0 0.18411838942066619 0.18828130780555291 0 0.17205847002769489 0.1711246398383999 0 0.18411838942066619 0.18828130780555291 0 0.19050902449260759 0.164433536692701 0 0.17205847002769489 0.1711246398383999 0 0.17247097746626519 0.1464629757798975 0 0.19050902449260759 0.164433536692701 0 0.17247097746626519 0.1464629757798975 0 0.1903693880120208 0.14015559280000461 0 0.19050902449260759 0.164433536692701 0 0.17247097746626519 0.1464629757798975 0 0.18002451345814399 0.12716596121819479 0 0.1903693880120208 0.14015559280000461 0 0.17247097746626519 0.1464629757798975 0 0.18002451345814399 0.12716596121819479 0 0.16417220099380411 0.12505127510387981 0 0.15698787762036359 0.14007723406829989 0 0.16417220099380411 0.12505127510387981 0 0.15364605026385231 0.1227496740475859 0 0.17247097746626519 0.1464629757798975 0 0.15698787762036359 0.14007723406829989 0 0.16417220099380411 0.12505127510387981 0 0.1598153361361678 0.15982657838785511 0 0.17247097746626519 0.1464629757798975 0 0.15698787762036359 0.14007723406829989 0 0.14702044576598061 0.2478904659134552 0 0.1382648444377183 0.22719855966067881 0 0.15828943790025421 0.22969507774947781 0 0.14702044576598061 0.2478904659134552 0 0.12787711237058769 0.24521089126939841 0 0.1382648444377183 0.22719855966067881 0 0.10906069526472741 0.22998953009969161 0 0.12787711237058769 0.24521089126939841 0 0.1382648444377183 0.22719855966067881 0 0.1382648444377183 0.22719855966067881 0 0.14314005341278749 0.20699853547660821 0 0.15828943790025421 0.22969507774947781 0 0.14314005341278749 0.20699853547660821 0 0.16852610903267151 0.206401884619904 0 0.11775399779290339 0.20759518633331239 0 0.1382648444377183 0.22719855966067881 0 0.14314005341278749 0.20699853547660821 0 0.11775399779290339 0.20759518633331239 0 0.14314005341278749 0.20699853547660821 0 0.11775399779290339 0.20759518633331239 0 0.12550986450034471 0.186594373040398 0 0.14314005341278749 0.20699853547660821 0 0.15375492999850379 0.1814330523327968 0 0.14314005341278749 0.20699853547660821 0 0.16852610903267151 0.206401884619904 0 0.12550986450034471 0.186594373040398 0 0.15375492999850379 0.1814330523327968 0 0.14314005341278749 0.20699853547660821 0 0.15375492999850379 0.1814330523327968 0 0.18411838942066619 0.18828130780555291 0 0.16852610903267151 0.206401884619904 0 0.18411838942066619 0.18828130780555291 0 0.16852610903267151 0.206401884619904 0 0.1878214256448299 0.20672411698152671 0 0.16852610903267151 0.206401884619904 0 0.17766068788986381 0.23020170431202469 0 0.1878214256448299 0.20672411698152671 0 0.14314005341278749 0.20699853547660821 0 0.16852610903267151 0.206401884619904 0 0.15828943790025421 0.22969507774947781 0 0.16852610903267151 0.206401884619904 0 0.15828943790025421 0.22969507774947781 0 0.17766068788986381 0.23020170431202469 0 0.17766068788986381 0.23020170431202469 0 0.19353513124668931 0.22246748781277501 0 0.1878214256448299 0.20672411698152671 0 0.17766068788986381 0.23020170431202469 0 0.18692125413578081 0.24552837502103991 0 0.19379669244916639 0.23440003217329089 0 0.17766068788986381 0.23020170431202469 0 0.18692125413578081 0.24552837502103991 0 0.16774616909827719 0.2460930353984315 0 0.15828943790025421 0.22969507774947781 0 0.17766068788986381 0.23020170431202469 0 0.16774616909827719 0.2460930353984315 0 0.14702044576598061 0.2478904659134552 0 0.15828943790025421 0.22969507774947781 0 0.16774616909827719 0.2460930353984315 0 0.21557305570370441 0.24515722135805329 0 0.2029257889591993 0.24295866219667439 0 0.23007231546290949 0.2334513308517342 0 0.2029257889591993 0.24295866219667439 0 0.23007231546290949 0.2334513308517342 0 0.21557305570370441 0.24515722135805329 0 0.2029257889591993 0.24295866219667439 0 0.20107379594449931 0.25686311186437227 0 0.18692125413578081 0.24552837502103991 0 0.2029257889591993 0.24295866219667439 0 0.20107379594449931 0.25686311186437227 0 0.18692125413578081 0.24552837502103991 0 0.19379669244916639 0.23440003217329089 0 0.2029257889591993 0.24295866219667439 0 0.17766068788986381 0.23020170431202469 0 0.19379669244916639 0.23440003217329089 0 0.19353513124668931 0.22246748781277501 0 0.19379669244916639 0.23440003217329089 0 0.2029257889591993 0.24295866219667439 0 0.20920449219815451 0.22515354045629349 0 0.19379669244916639 0.23440003217329089 0 0.19353513124668931 0.22246748781277501 0 0.20920449219815451 0.22515354045629349 0 0.2029257889591993 0.24295866219667439 0 0.20920449219815451 0.22515354045629349 0 0.23007231546290949 0.2334513308517342 0 0.19353513124668931 0.22246748781277501 0 0.20920449219815451 0.22515354045629349 0 0.20732414099141369 0.20672295990195361 0 0.20920449219815451 0.22515354045629349 0 0.20732414099141369 0.20672295990195361 0 0.22783619495118521 0.20973527166224001 0 0.19353513124668931 0.22246748781277501 0 0.20732414099141369 0.20672295990195361 0 0.1878214256448299 0.20672411698152671 0 0.18411838942066619 0.18828130780555291 0 0.1878214256448299 0.20672411698152671 0 0.20343121377691101 0.18825927067945539 0 0.20732414099141369 0.20672295990195361 0 0.1878214256448299 0.20672411698152671 0 0.20343121377691101 0.18825927067945539 0 0.20732414099141369 0.20672295990195361 0 0.20343121377691101 0.18825927067945539 0 0.2219787971027708 0.18678942035429349 0 0.20732414099141369 0.20672295990195361 0 0.22783619495118521 0.20973527166224001 0 0.2219787971027708 0.18678942035429349 0 0.24528107816237801 0.1907036486386274 0 0.22783619495118521 0.20973527166224001 0 0.2219787971027708 0.18678942035429349 0 0.24528107816237801 0.1907036486386274 0 0.25242827713160498 0.21540237912569379 0 0.24528107816237801 0.1907036486386274 0 0.22783619495118521 0.20973527166224001 0 0.25242827713160498 0.21540237912569379 0 0.20920449219815451 0.22515354045629349 0 0.22783619495118521 0.20973527166224001 0 0.23007231546290949 0.2334513308517342 0 0.23007231546290949 0.2334513308517342 0 0.25242827713160498 0.21540237912569379 0 0.23007231546290949 0.2334513308517342 0 0.25511338863332461 0.22468137717712711 0 0.25242827713160498 0.21540237912569379 0 0.23007231546290949 0.2334513308517342 0 0.25511338863332461 0.22468137717712711 0 0.23007231546290949 0.2334513308517342 0 0.2457442494512444 0.24022391879071339 0 0.25511338863332461 0.22468137717712711 0 0.22783619495118521 0.20973527166224001 0 0.23007231546290949 0.2334513308517342 0 0.25242827713160498 0.21540237912569379 0 0.2457442494512444 0.24022391879071339 0 0.23628031136540401 0.25597328662156199 0 0.26221447651104962 0.2479993693513689 0 0.23007231546290949 0.2334513308517342 0 0.2457442494512444 0.24022391879071339 0 0.23628031136540401 0.25597328662156199 0 0.21557305570370441 0.24515722135805329 0 0.23007231546290949 0.2334513308517342 0 0.23628031136540401 0.25597328662156199 0 0.21557305570370441 0.24515722135805329 0 0.23007231546290949 0.2334513308517342 0 0.21023583046185859 0.14706018503428281 0 0.22521494488481819 0.12557893006429149 0 0.2001236667938262 0.1180422718546187 0 0.18002451345814399 0.12716596121819479 0 0.1903693880120208 0.14015559280000461 0 0.2001236667938262 0.1180422718546187 0 0.21023583046185859 0.14706018503428281 0 0.1903693880120208 0.14015559280000461 0 0.2001236667938262 0.1180422718546187 0 0.21023583046185859 0.14706018503428281 0 0.1903693880120208 0.14015559280000461 0 0.19050902449260759 0.164433536692701 0 0.18411838942066619 0.18828130780555291 0 0.20343121377691101 0.18825927067945539 0 0.19050902449260759 0.164433536692701 0 0.20343121377691101 0.18825927067945539 0 0.19050902449260759 0.164433536692701 0 0.20962662881846919 0.1707346457134423 0 0.20343121377691101 0.18825927067945539 0 0.20962662881846919 0.1707346457134423 0 0.2219787971027708 0.18678942035429349 0 0.21023583046185859 0.14706018503428281 0 0.20962662881846919 0.1707346457134423 0 0.2254160648188453 0.164078398330023 0 0.21023583046185859 0.14706018503428281 0 0.19050902449260759 0.164433536692701 0 0.20962662881846919 0.1707346457134423 0 0.20962662881846919 0.1707346457134423 0 0.2254160648188453 0.164078398330023 0 0.2219787971027708 0.18678942035429349 0 0.2254160648188453 0.164078398330023 0 0.2219787971027708 0.18678942035429349 0 0.23714843650665229 0.1758398884969993 0 0.24528107816237801 0.1907036486386274 0 0.2219787971027708 0.18678942035429349 0 0.23714843650665229 0.1758398884969993 0 0.24528107816237801 0.1907036486386274 0 0.23714843650665229 0.1758398884969993 0 0.25292738168467233 0.17649485219682931 0 0.2254160648188453 0.164078398330023 0 0.24653130607993951 0.16237692388552691 0 0.23688534306575301 0.1458043597726891 0 0.23714843650665229 0.1758398884969993 0 0.24653130607993951 0.16237692388552691 0 0.25292738168467233 0.17649485219682931 0 0.2254160648188453 0.164078398330023 0 0.23714843650665229 0.1758398884969993 0 0.24653130607993951 0.16237692388552691 0 0.24653130607993951 0.16237692388552691 0 0.2496536413094039 0.15044712256699261 0 0.23688534306575301 0.1458043597726891 0 0.2496536413094039 0.15044712256699261 0 0.23688534306575301 0.1458043597726891 0 0.25004344172447263 0.14019424959050239 0 0.21023583046185859 0.14706018503428281 0 0.2254160648188453 0.164078398330023 0 0.23688534306575301 0.1458043597726891 0 0.21023583046185859 0.14706018503428281 0 0.23688534306575301 0.1458043597726891 0 0.22521494488481819 0.12557893006429149 0 0.22521494488481819 0.12557893006429149 0 0.25030622297580962 0.13311558827396619 0 0.23688534306575301 0.1458043597726891 0 0.22521494488481819 0.12557893006429149 0 0.25030622297580962 0.13311558827396619 0 0.23688534306575301 0.1458043597726891 0 0.25004344172447263 0.14019424959050239 0 0.25030622297580962 0.13311558827396619 0 0.22521494488481819 0.12557893006429149 0 0.2369469616243938 0.1144798656387125 0 0.25030622297580962 0.13311558827396619 0 0.2369469616243938 0.1144798656387125 0 0.25094552198087999 0.11589449234768209 0 0.25030622297580962 0.13311558827396619 0 0.2369469616243938 0.1144798656387125 0 0.25158482098595109 0.098673396421397969 0 0.25094552198087999 0.11589449234768209 0 0.2369469616243938 0.1144798656387125 0 0.2308580048349978 0.09939168424622695 0 0.25158482098595109 0.098673396421397969 0 0.2308580048349978 0.09939168424622695 0 0.2177667053289645 0.10879872465146249 0 0.21723881235993189 0.092441087960636145 0 0.2369469616243938 0.1144798656387125 0 0.2308580048349978 0.09939168424622695 0 0.2177667053289645 0.10879872465146249 0 0.22521494488481819 0.12557893006429149 0 0.2369469616243938 0.1144798656387125 0 0.2177667053289645 0.10879872465146249 0 0.2177667053289645 0.10879872465146249 0 0.1970849337058638 0.1019164286603922 0 0.2001236667938262 0.1180422718546187 0 0.22521494488481819 0.12557893006429149 0 0.2177667053289645 0.10879872465146249 0 0.2001236667938262 0.1180422718546187 0 0.22521494488481819 0.12557893006429149 0 0.2001236667938262 0.1180422718546187 0 0.1970849337058638 0.1019164286603922 0 0.20420713705815571 0.090978010823124941 0 0.21723881235993189 0.092441087960636145 0 0.1970849337058638 0.1019164286603922 0 0.21723881235993189 0.092441087960636145 0 0.2177667053289645 0.10879872465146249 0 0.1970849337058638 0.1019164286603922 0 0.21723881235993189 0.092441087960636145 0 0.1970849337058638 0.1019164286603922 0 0.1916307843626972 0.08827444688259839 0 0.17503238870283441 0.11050561364494491 0 0.2001236667938262 0.1180422718546187 0 0.17503238870283441 0.11050561364494491 0 0.1970849337058638 0.1019164286603922 0 0.2001236667938262 0.1180422718546187 0 0.17503238870283441 0.11050561364494491 0 0.1916307843626972 0.08827444688259839 0 0.2082291800225603 0.066043280120252124 0 0.19067723801237901 0.065525043857756982 0 0.1916307843626972 0.08827444688259839 0 0.2082291800225603 0.066043280120252124 0 0.1916307843626972 0.08827444688259839 0 0.21087401780412959 0.081280079788873041 0 0.20420713705815571 0.090978010823124941 0 0.1970849337058638 0.1019164286603922 0 0.1916307843626972 0.08827444688259839 0 0.20420713705815571 0.090978010823124941 0 0.1916307843626972 0.08827444688259839 0 0.21087401780412959 0.081280079788873041 0 0.2082291800225603 0.066043280120252124 0 0.21087401780412959 0.081280079788873041 0 0.20420713705815571 0.090978010823124941 0 0.21723881235993189 0.092441087960636145 0 0.21087401780412959 0.081280079788873041 0 0.21723881235993189 0.092441087960636145 0 0.22613356481757629 0.0775902723280468 0 0.21087401780412959 0.081280079788873041 0 0.2082291800225603 0.066043280120252124 0 0.22613356481757629 0.0775902723280468 0 0.2082291800225603 0.066043280120252124 0 0.22613356481757629 0.0775902723280468 0 0.2082291800225603 0.066043280120252124 0 0.2259496113806885 0.070300708218039992 0 0.21450653174737461 0.057635669175196122 0 0.2259496113806885 0.070300708218039992 0 0.21450653174737461 0.057635669175196122 0 0.2082291800225603 0.066043280120252124 0 0.2259496113806885 0.070300708218039992 0 0.22613356481757629 0.0775902723280468 0 0.2259496113806885 0.070300708218039992 0 0.2248665156508784 0.061611733455129589 0 0.21450653174737461 0.057635669175196122 0 0.2259496113806885 0.070300708218039992 0 0.22613356481757629 0.0775902723280468 0 0.23739269101400209 0.082965747260884265 0 0.2259496113806885 0.070300708218039992 0 0.23739269101400209 0.082965747260884265 0 0.237967452106535 0.070105640596903412 0 0.2259496113806885 0.070300708218039992 0 0.23739269101400209 0.082965747260884265 0 0.2259496113806885 0.070300708218039992 0 0.2330718446673557 0.064441819436705627 0 0.2248665156508784 0.061611733455129589 0 0.2259496113806885 0.070300708218039992 0 0.2330718446673557 0.064441819436705627 0 0.237967452106535 0.070105640596903412 0 0.2308580048349978 0.09939168424622695 0 0.21723881235993189 0.092441087960636145 0 0.23739269101400209 0.082965747260884265 0 0.21723881235993189 0.092441087960636145 0 0.22613356481757629 0.0775902723280468 0 0.23739269101400209 0.082965747260884265 0 0.21723881235993189 0.092441087960636145 0 0.23739269101400209 0.082965747260884265 0 0.23739269101400209 0.082965747260884265 0 0.25158482098595109 0.098673396421397969 0 0.23739269101400209 0.082965747260884265 0 0.25243039498113262 0.075895774732197205 0 0.25158482098595109 0.098673396421397969 0 0.2308580048349978 0.09939168424622695 0 0.23739269101400209 0.082965747260884265 0 0.25158482098595109 0.098673396421397969 0 0.23739269101400209 0.082965747260884265 0 0.25243039498113262 0.075895774732197205 0 0.23934469018649959 0.064583282500140851 0 0.237967452106535 0.070105640596903412 0 0.24496427956833819 0.066036472520138348 0 0.2330718446673557 0.064441819436705627 0 0.23934469018649959 0.064583282500140851 0 0.2376257901407148 0.059976102198904507 0 0.2330718446673557 0.064441819436705627 0 0.23934469018649959 0.064583282500140851 0 0.237967452106535 0.070105640596903412 0 0.23739269101400209 0.082965747260884265 0 0.237967452106535 0.070105640596903412 0 0.24429048066179679 0.072622021298478806 0 0.24429048066179679 0.072622021298478806 0 0.24842415088314279 0.069033451464499671 0 0.25243039498113262 0.075895774732197205 0 0.23739269101400209 0.082965747260884265 0 0.24429048066179679 0.072622021298478806 0 0.25243039498113262 0.075895774732197205 0 0.24842415088314279 0.069033451464499671 0 0.24853219730195361 0.063845178725116872 0 0.25274476311700622 0.067427493409812952 0 0.237967452106535 0.070105640596903412 0 0.24429048066179679 0.072622021298478806 0 0.24496427956833819 0.066036472520138348 0 0.24429048066179679 0.072622021298478806 0 0.24842415088314279 0.069033451464499671 0 0.24496427956833819 0.066036472520138348 0 0.23934469018649959 0.064583282500140851 0 0.24496427956833819 0.066036472520138348 0 0.24309408444955441 0.062356377748052388 0 0.24496427956833819 0.066036472520138348 0 0.24602681454492631 0.062964227281045088 0 0.24309408444955441 0.062356377748052388 0 0.24496427956833819 0.066036472520138348 0 0.24602681454492631 0.062964227281045088 0 0.24853219730195361 0.063845178725116872 0 0.24842415088314279 0.069033451464499671 0 0.24496427956833819 0.066036472520138348 0 0.24853219730195361 0.063845178725116872 0 0.24751669685985911 0.059618880130872708 0 0.24309408444955441 0.062356377748052388 0 0.2376257901407148 0.059976102198904507 0 0.24751669685985911 0.059618880130872708 0 0.24426241142214139 0.049994713685017962 0 0.2310385276818335 0.053106641608170198 0 0.24751669685985911 0.059618880130872708 0 0.2376257901407148 0.059976102198904507 0 0.2310385276818335 0.053106641608170198 0 0.24751669685985911 0.059618880130872708 0 0.2310385276818335 0.053106641608170198 0 0.24853219730195361 0.063845178725116872 0 0.24751669685985911 0.059618880130872708 0 0.2530174900015254 0.0600809219264858 0 0.24602681454492631 0.062964227281045088 0 0.24853219730195361 0.063845178725116872 0 0.24751669685985911 0.059618880130872708 0 0.24602681454492631 0.062964227281045088 0 0.24751669685985911 0.059618880130872708 0 0.24309408444955441 0.062356377748052388 0 0.23934469018649959 0.064583282500140851 0 0.24309408444955441 0.062356377748052388 0 0.2376257901407148 0.059976102198904507 0 0.24426241142214139 0.049994713685017962 0 0.23928634064401511 0.040096757013566242 0 0.2310385276818335 0.053106641608170198 0 0.24751669685985911 0.059618880130872708 0 0.24426241142214139 0.049994713685017962 0 0.25102243244437311 0.053297338652025752 0 0.24426241142214139 0.049994713685017962 0 0.25174039047255609 0.044464402284776217 0 0.25102243244437311 0.053297338652025752 0 0.23928634064401511 0.040096757013566242 0 0.2320502206633881 0.021165953515508481 0 0.25044211127373811 0.032849993626191502 0 0.23928634064401511 0.040096757013566242 0 0.25044211127373811 0.032849993626191502 0 0.25174039047255609 0.044464402284776217 0 0.24426241142214139 0.049994713685017962 0 0.23928634064401511 0.040096757013566242 0 0.25174039047255609 0.044464402284776217 0 0.22618438235043381 0.038998837361733103 0 0.2320502206633881 0.021165953515508481 0 0.20963369093729961 0.03941564640516447 0 0.23928634064401511 0.040096757013566242 0 0.22618438235043381 0.038998837361733103 0 0.2320502206633881 0.021165953515508481 0 0.22618438235043381 0.038998837361733103 0 0.2310385276818335 0.053106641608170198 0 0.21456035850380811 0.046594403085467223 0 0.23928634064401511 0.040096757013566242 0 0.22618438235043381 0.038998837361733103 0 0.2310385276818335 0.053106641608170198 0 0.2310385276818335 0.053106641608170198 0 0.21456035850380811 0.046594403085467223 0 0.2248665156508784 0.061611733455129589 0 0.2310385276818335 0.053106641608170198 0 0.21456035850380811 0.046594403085467223 0 0.2248665156508784 0.061611733455129589 0 0.21456035850380811 0.046594403085467223 0 0.2330718446673557 0.064441819436705627 0 0.2248665156508784 0.061611733455129589 0 0.23150027442910881 0.059501590197602497 0 0.2248665156508784 0.061611733455129589 0 0.23150027442910881 0.059501590197602497 0 0.2310385276818335 0.053106641608170198 0 0.2330718446673557 0.064441819436705627 0 0.2376257901407148 0.059976102198904507 0 0.23150027442910881 0.059501590197602497 0 0.2376257901407148 0.059976102198904507 0 0.23150027442910881 0.059501590197602497 0 0.2310385276818335 0.053106641608170198 0 0.2320502206633881 0.021165953515508481 0 0.22999165343287109 0.0038227322559807589 0 0.25446675038947358 0.0029162606258486688 0 0.2320502206633881 0.021165953515508481 0 0.2600935707136679 0.019574361616358959 0 0.25446675038947358 0.0029162606258486688 0 0.22999165343287109 0.0038227322559807589 0 0.25446675038947358 0.0029162606258486688 0 0.24138147174972829 -0.0061427828714447699 0 0.2320502206633881 0.021165953515508481 0 0.25446675038947358 0.0029162606258486688 0 0.2320502206633881 0.021165953515508481 0 0.2600935707136679 0.019574361616358959 0 0.25044211127373811 0.032849993626191502 0 0.2320502206633881 0.021165953515508481 0 0.20963369093729961 0.03941564640516447 0 0.22999165343287109 0.0038227322559807589 0 0.21340461703840111 0.0096506044731711187 0 0.21351355446813719 -0.0021103410187178909 0 0.2320502206633881 0.021165953515508481 0 0.22999165343287109 0.0038227322559807589 0 0.21340461703840111 0.0096506044731711187 0 0.21340461703840111 0.0096506044731711187 0 0.1998105265397013 0.00335350757378736 0 0.21351355446813719 -0.0021103410187178909 0 0.21340461703840111 0.0096506044731711187 0 0.20371525389429951 0.01279949030761077 0 0.2082588668535221 0.02245160931237615 0 0.21340461703840111 0.0096506044731711187 0 0.20371525389429951 0.01279949030761077 0 0.1998105265397013 0.00335350757378736 0 0.2320502206633881 0.021165953515508481 0 0.2082588668535221 0.02245160931237615 0 0.20963369093729961 0.03941564640516447 0 0.2320502206633881 0.021165953515508481 0 0.21340461703840111 0.0096506044731711187 0 0.2082588668535221 0.02245160931237615 0 0.2082588668535221 0.02245160931237615 0 0.19338700514557339 0.015742239871108451 0 0.20963369093729961 0.03941564640516447 0 0.19338700514557339 0.015742239871108451 0 0.1989601287501698 0.040429129743079398 0 0.18048502430789731 0.01998114488410483 0 0.1989601287501698 0.040429129743079398 0 0.18048502430789731 0.01998114488410483 0 0.19338700514557339 0.015742239871108451 0 0.20963369093729961 0.03941564640516447 0 0.20371525389429951 0.01279949030761077 0 0.2082588668535221 0.02245160931237615 0 0.19338700514557339 0.015742239871108451 0 0.19338700514557339 0.015742239871108451 0 0.1998105265397013 0.00335350757378736 0 0.17714031935384769 -0.0079311666629475405 0 0.20371525389429951 0.01279949030761077 0 0.19338700514557339 0.015742239871108451 0 0.1998105265397013 0.00335350757378736 0 0.21450653174737461 0.057635669175196122 0 0.2029561920580818 0.044851916216142339 0 0.21450653174737461 0.057635669175196122 0 0.2029561920580818 0.044851916216142339 0 0.2021088015620611 0.053433964061651712 0 0.21450653174737461 0.057635669175196122 0 0.21456035850380811 0.046594403085467223 0 0.2029561920580818 0.044851916216142339 0 0.2082291800225603 0.066043280120252124 0 0.21450653174737461 0.057635669175196122 0 0.2021088015620611 0.053433964061651712 0 0.2248665156508784 0.061611733455129589 0 0.21450653174737461 0.057635669175196122 0 0.21456035850380811 0.046594403085467223 0 0.2082291800225603 0.066043280120252124 0 0.21450653174737461 0.057635669175196122 0 0.22618438235043381 0.038998837361733103 0 0.21456035850380811 0.046594403085467223 0 0.20963369093729961 0.03941564640516447 0 0.21456035850380811 0.046594403085467223 0 0.20963369093729961 0.03941564640516447 0 0.21456035850380811 0.046594403085467223 0 0.20530753189452691 0.042937648913457381 0 0.2029561920580818 0.044851916216142339 0 0.20963369093729961 0.03941564640516447 0 0.20530753189452691 0.042937648913457381 0 0.1989601287501698 0.040429129743079398 0 0.21456035850380811 0.046594403085467223 0 0.20530753189452691 0.042937648913457381 0 0.21456035850380811 0.046594403085467223 0 0.20963369093729961 0.03941564640516447 0 0.20530753189452691 0.042937648913457381 0 0.20963369093729961 0.03941564640516447 0 0.20530753189452691 0.042937648913457381 0 0.20530753189452691 0.042937648913457381 0 0.2029561920580818 0.044851916216142339 0 0.1989601287501698 0.040429129743079398 0 0.1774654858828027 0.031934360706524292 0 0.2029561920580818 0.044851916216142339 0 0.1989601287501698 0.040429129743079398 0 0.19971656766465989 0.047489351670260083 0 0.1989601287501698 0.040429129743079398 0 0.19133087755196571 0.045131483978966998 0 0.19971656766465989 0.047489351670260083 0 0.2029561920580818 0.044851916216142339 0 0.19971656766465989 0.047489351670260083 0 0.19338700514557339 0.015742239871108451 0 0.20963369093729961 0.03941564640516447 0 0.1989601287501698 0.040429129743079398 0 0.1989601287501698 0.040429129743079398 0 0.19133087755196571 0.045131483978966998 0 0.18298678422305309 0.040980100737508622 0 0.20530753189452691 0.042937648913457381 0 0.2029561920580818 0.044851916216142339 0 0.1989601287501698 0.040429129743079398 0 0.20530753189452691 0.042937648913457381 0 0.1989601287501698 0.040429129743079398 0 0.2029561920580818 0.044851916216142339 0 0.1989601287501698 0.040429129743079398 0 0.2082291800225603 0.066043280120252124 0 0.18513553631762919 0.051149603126408108 0 0.2021088015620611 0.053433964061651712 0 0.19971656766465989 0.047489351670260083 0 0.18513553631762919 0.051149603126408108 0 0.2082291800225603 0.066043280120252124 0 0.2021088015620611 0.053433964061651712 0 0.18513553631762919 0.051149603126408108 0 0.19067723801237901 0.065525043857756982 0 0.2082291800225603 0.066043280120252124 0 0.18513553631762919 0.051149603126408108 0 0.19133087755196571 0.045131483978966998 0 0.19971656766465989 0.047489351670260083 0 0.18513553631762919 0.051149603126408108 0 0.2029561920580818 0.044851916216142339 0 0.2021088015620611 0.053433964061651712 0 0.19971656766465989 0.047489351670260083 0 0.17734631865053521 0.060730067185729229 0 0.18513553631762919 0.051149603126408108 0 0.16725106424272049 0.052894846580172288 0 0.19067723801237901 0.065525043857756982 0 0.17734631865053521 0.060730067185729229 0 0.18513553631762919 0.051149603126408108 0 0.18298678422305309 0.040980100737508622 0 0.1774654858828027 0.031934360706524292 0 0.1620418926126978 0.036255926132564682 0 0.19133087755196571 0.045131483978966998 0 0.18513553631762919 0.051149603126408108 0 0.18298678422305309 0.040980100737508622 0 0.18513553631762919 0.051149603126408108 0 0.18298678422305309 0.040980100737508622 0 0.1620418926126978 0.036255926132564682 0 0.1989601287501698 0.040429129743079398 0 0.18298678422305309 0.040980100737508622 0 0.1774654858828027 0.031934360706524292 0 0.18513553631762919 0.051149603126408108 0 0.1620418926126978 0.036255926132564682 0 0.1620418926126978 0.036255926132564682 0 0.16725106424272049 0.052894846580172288 0 0.15541952745182569 0.04677658384696623 0 0.18513553631762919 0.051149603126408108 0 0.1620418926126978 0.036255926132564682 0 0.16725106424272049 0.052894846580172288 0 0.16725106424272049 0.052894846580172288 0 0.15507694825043991 0.057889849327421902 0 0.15541952745182569 0.04677658384696623 0 0.16725106424272049 0.052894846580172288 0 0.15507694825043991 0.057889849327421902 0 0.1653937448538241 0.067538194789913991 0 0.17734631865053521 0.060730067185729229 0 0.16725106424272049 0.052894846580172288 0 0.1653937448538241 0.067538194789913991 0 0.18048502430789731 0.01998114488410483 0 0.1657030786406338 0.0084270166623369204 0 0.17714031935384769 -0.0079311666629475405 0 0.19338700514557339 0.015742239871108451 0 0.17714031935384769 -0.0079311666629475405 0 0.19338700514557339 0.015742239871108451 0 0.18048502430789731 0.01998114488410483 0 0.17714031935384769 -0.0079311666629475405 0 0.1989601287501698 0.040429129743079398 0 0.1774654858828027 0.031934360706524292 0 0.18048502430789731 0.01998114488410483 0 0.1774654858828027 0.031934360706524292 0 0.18048502430789731 0.01998114488410483 0 0.16935520337559401 0.020657770454092759 0 0.1774654858828027 0.031934360706524292 0 0.15597084301543529 0.02343959166996953 0 0.1774654858828027 0.031934360706524292 0 0.1620418926126978 0.036255926132564682 0 0.15597084301543529 0.02343959166996953 0 0.1774654858828027 0.031934360706524292 0 0.16935520337559401 0.020657770454092759 0 0.15597084301543529 0.02343959166996953 0 0.16935520337559401 0.020657770454092759 0 0.1657030786406338 0.0084270166623369204 0 0.15597084301543529 0.02343959166996953 0 0.18048502430789731 0.01998114488410483 0 0.16935520337559401 0.020657770454092759 0 0.1657030786406338 0.0084270166623369204 0 0.1657030786406338 0.0084270166623369204 0 0.14883794818754281 0.01110572894874149 0 0.15480995508657039 -0.001084596553268768 0 0.1657030786406338 0.0084270166623369204 0 0.14883794818754281 0.01110572894874149 0 0.15597084301543529 0.02343959166996953 0 0.14883794818754281 0.01110572894874149 0 0.13464870039648349 0.00080453217212592717 0 0.15480995508657039 -0.001084596553268768 0 0.14883794818754281 0.01110572894874149 0 0.13894824890776639 0.02136224913872127 0 0.13464870039648349 0.00080453217212592717 0 0.1620418926126978 0.036255926132564682 0 0.13894824890776639 0.02136224913872127 0 0.14883794818754281 0.01110572894874149 0 0.15597084301543529 0.02343959166996953 0 0.13894824890776639 0.02136224913872127 0 0.1620418926126978 0.036255926132564682 0 0.15597084301543529 0.02343959166996953 0 0.13894824890776639 0.02136224913872127 0 0.11961069471150609 0.02296590295220987 0 0.13894824890776639 0.02136224913872127 0 0.12977361784467401 0.039215218793308727 0 0.1158546052028349 0.0064685721448778594 0 0.13894824890776639 0.02136224913872127 0 0.1158546052028349 0.0064685721448778594 0 0.13894824890776639 0.02136224913872127 0 0.13464870039648349 0.00080453217212592717 0 0.14278372382386809 0.048416123664777412 0 0.1428601767931531 0.062084067640591357 0 0.15507694825043991 0.057889849327421902 0 0.14278372382386809 0.048416123664777412 0 0.15507694825043991 0.057889849327421902 0 0.15541952745182569 0.04677658384696623 0 0.1620418926126978 0.036255926132564682 0 0.13894824890776639 0.02136224913872127 0 0.14579340212816641 0.038405220315267663 0 0.1620418926126978 0.036255926132564682 0 0.15541952745182569 0.04677658384696623 0 0.14579340212816641 0.038405220315267663 0 0.14278372382386809 0.048416123664777412 0 0.15541952745182569 0.04677658384696623 0 0.14579340212816641 0.038405220315267663 0 0.14278372382386809 0.048416123664777412 0 0.14579340212816641 0.038405220315267663 0 0.12977361784467401 0.039215218793308727 0 0.13894824890776639 0.02136224913872127 0 0.14579340212816641 0.038405220315267663 0 0.12977361784467401 0.039215218793308727 0 0.11550376979223601 0.054551475820320147 0 0.12977361784467401 0.039215218793308727 0 0.1326943019686847 0.054606112458038862 0 0.11550376979223601 0.054551475820320147 0 0.1326943019686847 0.054606112458038862 0 0.13255022158949201 0.068763676371196639 0 0.14278372382386809 0.048416123664777412 0 0.12977361784467401 0.039215218793308727 0 0.1326943019686847 0.054606112458038862 0 0.14278372382386809 0.048416123664777412 0 0.1428601767931531 0.062084067640591357 0 0.1326943019686847 0.054606112458038862 0 0.1428601767931531 0.062084067640591357 0 0.1326943019686847 0.054606112458038862 0 0.13255022158949201 0.068763676371196639 0 0.1207366242219714 0.074251990558816788 0 0.13255022158949201 0.068763676371196639 0 0.13578085374332971 0.077614708003019631 0 0.13255022158949201 0.068763676371196639 0 0.13578085374332971 0.077614708003019631 0 0.1430759120552613 0.073085192731263071 0 0.1428601767931531 0.062084067640591357 0 0.13255022158949201 0.068763676371196639 0 0.1430759120552613 0.073085192731263071 0 0.1428601767931531 0.062084067640591357 0 0.1430759120552613 0.073085192731263071 0 0.15260580868734391 0.069203578475014266 0 0.1430759120552613 0.073085192731263071 0 0.14969883640752091 0.076610515579137797 0 0.14563192422462459 0.083183778073064013 0 0.13578085374332971 0.077614708003019631 0 0.1430759120552613 0.073085192731263071 0 0.14563192422462459 0.083183778073064013 0 0.1430759120552613 0.073085192731263071 0 0.14969883640752091 0.076610515579137797 0 0.15260580868734391 0.069203578475014266 0 0.14969883640752091 0.076610515579137797 0 0.15260580868734391 0.069203578475014266 0 0.15677919641446331 0.080277826610221981 0 0.1428601767931531 0.062084067640591357 0 0.15507694825043991 0.057889849327421902 0 0.15260580868734391 0.069203578475014266 0 0.1506819444987289 0.088437751930635633 0 0.14868901735932749 0.09586058707093438 0 0.157853861938485 0.092527754269896317 0 0.1506819444987289 0.088437751930635633 0 0.15677919641446331 0.080277826610221981 0 0.157853861938485 0.092527754269896317 0 0.14969883640752091 0.076610515579137797 0 0.14563192422462459 0.083183778073064013 0 0.15677919641446331 0.080277826610221981 0 0.1506819444987289 0.088437751930635633 0 0.14563192422462459 0.083183778073064013 0 0.15677919641446331 0.080277826610221981 0 0.14563192422462459 0.083183778073064013 0 0.1444557225567443 0.090338813629061501 0 0.13888671887288589 0.088270852986767859 0 0.1506819444987289 0.088437751930635633 0 0.14563192422462459 0.083183778073064013 0 0.1444557225567443 0.090338813629061501 0 0.1444557225567443 0.090338813629061501 0 0.14209274384079601 0.094639397504520467 0 0.14868901735932749 0.09586058707093438 0 0.1506819444987289 0.088437751930635633 0 0.1444557225567443 0.090338813629061501 0 0.14868901735932749 0.09586058707093438 0 0.1444557225567443 0.090338813629061501 0 0.13888671887288589 0.088270852986767859 0 0.14209274384079601 0.094639397504520467 0 0.13888671887288589 0.088270852986767859 0 0.13668050292917741 0.098217611464673699 0 0.14209274384079601 0.094639397504520467 0 0.13888671887288589 0.088270852986767859 0 0.1300820653953097 0.084166932106396392 0 0.13668050292917741 0.098217611464673699 0 0.11116449005577619 0.086473750785835857 0 0.1300820653953097 0.084166932106396392 0 0.13668050292917741 0.098217611464673699 0 0.13578085374332971 0.077614708003019631 0 0.13888671887288589 0.088270852986767859 0 0.1300820653953097 0.084166932106396392 0 0.13578085374332971 0.077614708003019631 0 0.14563192422462459 0.083183778073064013 0 0.13888671887288589 0.088270852986767859 0 0.1207366242219714 0.074251990558816788 0 0.13578085374332971 0.077614708003019631 0 0.1300820653953097 0.084166932106396392 0 0.1216961693062274 0.1020981758197984 0 0.1302764983332621 0.10693497851168419 0 0.13668050292917741 0.098217611464673699 0 0.1302764983332621 0.10693497851168419 0 0.13758713408363871 0.1043360441680015 0 0.13668050292917741 0.098217611464673699 0 0.1302764983332621 0.10693497851168419 0 0.1360833458267342 0.1084620534226548 0 0.13758713408363871 0.1043360441680015 0 0.1360833458267342 0.1084620534226548 0 0.13758713408363871 0.1043360441680015 0 0.14314356584317489 0.10755645506983 0 0.13758713408363871 0.1043360441680015 0 0.13668050292917741 0.098217611464673699 0 0.14175175748584509 0.1005091223711649 0 0.13668050292917741 0.098217611464673699 0 0.14209274384079601 0.094639397504520467 0 0.14175175748584509 0.1005091223711649 0 0.12813823657366311 0.12049833089676459 0 0.13246275659848361 0.1130811342378658 0 0.13708322035591489 0.118794437000363 0 0.12212988809696081 0.1249307776834532 0 0.12788127083107459 0.1291064789800366 0 0.12813823657366311 0.12049833089676459 0 0.1197878353292403 0.1092484053650479 0 0.1302764983332621 0.10693497851168419 0 0.12624189261331301 0.1140678077034443 0 0.12813823657366311 0.12049833089676459 0 0.12624189261331301 0.1140678077034443 0 0.13246275659848361 0.1130811342378658 0 0.1302764983332621 0.10693497851168419 0 0.12624189261331301 0.1140678077034443 0 0.13246275659848361 0.1130811342378658 0 0.138866780176991 0.11235807520418389 0 0.13708322035591489 0.118794437000363 0 0.14572099158606311 0.1154247658161887 0 0.1360833458267342 0.1084620534226548 0 0.13246275659848361 0.1130811342378658 0 0.138866780176991 0.11235807520418389 0 0.1302764983332621 0.10693497851168419 0 0.1360833458267342 0.1084620534226548 0 0.13246275659848361 0.1130811342378658 0 0.1360833458267342 0.1084620534226548 0 0.138866780176991 0.11235807520418389 0 0.14314356584317489 0.10755645506983 0 0.13246275659848361 0.1130811342378658 0 0.138866780176991 0.11235807520418389 0 0.13708322035591489 0.118794437000363 0 0.13409394305489639 0.1257339851238449 0 0.14295710802469111 0.12768772724150559 0 0.13708322035591489 0.118794437000363 0 0.13409394305489639 0.1257339851238449 0 0.12813823657366311 0.12049833089676459 0 0.13708322035591489 0.118794437000363 0 0.14572099158606311 0.1154247658161887 0 0.15364605026385231 0.1227496740475859 0 0.15839207309433961 0.10550736800805539 0 0.14295710802469111 0.12768772724150559 0 0.13708322035591489 0.118794437000363 0 0.14572099158606311 0.1154247658161887 0 0.14295710802469111 0.12768772724150559 0 0.14572099158606311 0.1154247658161887 0 0.15364605026385231 0.1227496740475859 0 0.138866780176991 0.11235807520418389 0 0.14572099158606311 0.1154247658161887 0 0.14314356584317489 0.10755645506983 0 0.14572099158606311 0.1154247658161887 0 0.14314356584317489 0.10755645506983 0 0.15839207309433961 0.10550736800805539 0 0.14175175748584509 0.1005091223711649 0 0.15839207309433961 0.10550736800805539 0 0.14175175748584509 0.1005091223711649 0 0.14314356584317489 0.10755645506983 0 0.15839207309433961 0.10550736800805539 0 0.14175175748584509 0.1005091223711649 0 0.14868901735932749 0.09586058707093438 0 0.15839207309433961 0.10550736800805539 0 0.14209274384079601 0.094639397504520467 0 0.14175175748584509 0.1005091223711649 0 0.14868901735932749 0.09586058707093438 0 0.13758713408363871 0.1043360441680015 0 0.14175175748584509 0.1005091223711649 0 0.14314356584317489 0.10755645506983 0 0.14868901735932749 0.09586058707093438 0 0.15839207309433961 0.10550736800805539 0 0.157853861938485 0.092527754269896317 0 0.15839207309433961 0.10550736800805539 0 0.17503238870283441 0.11050561364494491 0 0.15839207309433961 0.10550736800805539 0 0.1705578526620479 0.095927182961129481 0 0.157853861938485 0.092527754269896317 0 0.15839207309433961 0.10550736800805539 0 0.1705578526620479 0.095927182961129481 0 0.17503238870283441 0.11050561364494491 0 0.16417220099380411 0.12505127510387981 0 0.15839207309433961 0.10550736800805539 0 0.17503238870283441 0.11050561364494491 0 0.16417220099380411 0.12505127510387981 0 0.15364605026385231 0.1227496740475859 0 0.15839207309433961 0.10550736800805539 0 0.16417220099380411 0.12505127510387981 0 0.17503238870283441 0.11050561364494491 0 0.18002451345814399 0.12716596121819479 0 0.16417220099380411 0.12505127510387981 0 0.17503238870283441 0.11050561364494491 0 0.18002451345814399 0.12716596121819479 0 0.2001236667938262 0.1180422718546187 0 0.17503238870283441 0.11050561364494491 0 0.1916307843626972 0.08827444688259839 0 0.1705578526620479 0.095927182961129481 0 0.17503238870283441 0.11050561364494491 0 0.1916307843626972 0.08827444688259839 0 0.17503238870283441 0.11050561364494491 0 0.1916307843626972 0.08827444688259839 0 0.17935943521264269 0.07135827912697662 0 0.16988015521188329 0.08282073200015258 0 0.1916307843626972 0.08827444688259839 0 0.1705578526620479 0.095927182961129481 0 0.16988015521188329 0.08282073200015258 0 0.19067723801237901 0.065525043857756982 0 0.1916307843626972 0.08827444688259839 0 0.17935943521264269 0.07135827912697662 0 0.19067723801237901 0.065525043857756982 0 0.17734631865053521 0.060730067185729229 0 0.17935943521264269 0.07135827912697662 0 0.17734631865053521 0.060730067185729229 0 0.17935943521264269 0.07135827912697662 0 0.1653937448538241 0.067538194789913991 0 0.17935943521264269 0.07135827912697662 0 0.1653937448538241 0.067538194789913991 0 0.16988015521188329 0.08282073200015258 0 0.15507694825043991 0.057889849327421902 0 0.15260580868734391 0.069203578475014266 0 0.1653937448538241 0.067538194789913991 0 0.15260580868734391 0.069203578475014266 0 0.1653937448538241 0.067538194789913991 0 0.15677919641446331 0.080277826610221981 0 0.1653937448538241 0.067538194789913991 0 0.15677919641446331 0.080277826610221981 0 0.16988015521188329 0.08282073200015258 0 0.15677919641446331 0.080277826610221981 0 0.157853861938485 0.092527754269896317 0 0.16988015521188329 0.08282073200015258 0 0.1705578526620479 0.095927182961129481 0 0.157853861938485 0.092527754269896317 0 0.16988015521188329 0.08282073200015258 0 0.099456207782380623 0.4822659283708195 0 0.1141892196830592 0.48396198267476093 0 0.11304725129434449 0.46767028325629811 0 0.099456207782380623 0.4822659283708195 0 0.11304725129434449 0.46767028325629811 0 0.096803680563272876 0.46646214520586099 0 0.099456207782380623 0.4822659283708195 0 0.10782601469385079 0.5 0 0.078267650747156567 0.50000000000000133 0 0.099456207782380623 0.4822659283708195 0 0.10782601469385079 0.5 0 0.1141892196830592 0.48396198267476093 0 0.10782601469385079 0.5 0 0.1249193769550877 0.49369376296818718 0 0.1141892196830592 0.48396198267476093 0 0.1249193769550877 0.49369376296818718 0 0.1141892196830592 0.48396198267476093 0 0.12569724768963239 0.47617993877849962 0 0.10782601469385079 0.5 0 0.1249193769550877 0.49369376296818718 0 0.13738437864054501 0.5 0 0.1141892196830592 0.48396198267476093 0 0.11304725129434449 0.46767028325629811 0 0.12569724768963239 0.47617993877849962 0 0.11304725129434449 0.46767028325629811 0 0.1267882431275838 0.46370707134437261 0 0.12569724768963239 0.47617993877849962 0 0.11304725129434449 0.46767028325629811 0 0.1221607865463437 0.4507156547582637 0 0.1004821270038239 0.44949914822431608 0 0.11304725129434449 0.46767028325629811 0 0.1221607865463437 0.4507156547582637 0 0.1267882431275838 0.46370707134437261 0 0.1221607865463437 0.4507156547582637 0 0.1004821270038239 0.44949914822431608 0 0.12259086230274099 0.42947812748907283 0 0.1004821270038239 0.44949914822431608 0 0.096803680563272876 0.46646214520586099 0 0.084307548883437972 0.45862843933572522 0 0.11304725129434449 0.46767028325629811 0 0.1004821270038239 0.44949914822431608 0 0.096803680563272876 0.46646214520586099 0 0.084307548883437972 0.45862843933572522 0 0.070120974899159305 0.46867166915081548 0 0.08254081050968877 0.47642281665818748 0 0.096803680563272876 0.46646214520586099 0 0.084307548883437972 0.45862843933572522 0 0.08254081050968877 0.47642281665818748 0 0.084307548883437972 0.45862843933572522 0 0.083205653112744402 0.44008551456546158 0 0.070599818540594342 0.45171728711773013 0 0.1004821270038239 0.44949914822431608 0 0.084307548883437972 0.45862843933572522 0 0.083205653112744402 0.44008551456546158 0 0.1004821270038239 0.44949914822431608 0 0.083205653112744402 0.44008551456546158 0 0.095892719888732866 0.42453745382262881 0 0.070599818540594342 0.45171728711773013 0 0.057347956450285731 0.44480695268810438 0 0.068330088192809502 0.43602814955066621 0 0.083205653112744402 0.44008551456546158 0 0.070599818540594342 0.45171728711773013 0 0.068330088192809502 0.43602814955066621 0 0.070599818540594342 0.45171728711773013 0 0.070120974899159305 0.46867166915081548 0 0.05832870883015126 0.45973880463956351 0 0.084307548883437972 0.45862843933572522 0 0.070599818540594342 0.45171728711773013 0 0.070120974899159305 0.46867166915081548 0 0.070120974899159305 0.46867166915081548 0 0.08254081050968877 0.47642281665818748 0 0.061557047466102868 0.48310025102256282 0 0.070120974899159305 0.46867166915081548 0 0.061557047466102868 0.48310025102256282 0 0.05832870883015126 0.45973880463956351 0 0.099456207782380623 0.4822659283708195 0 0.096803680563272876 0.46646214520586099 0 0.08254081050968877 0.47642281665818748 0 0.099456207782380623 0.4822659283708195 0 0.08254081050968877 0.47642281665818748 0 0.078267650747156567 0.50000000000000133 0 0.078267650747156567 0.50000000000000133 0 0.049166882519808157 0.5 0 0.061557047466102868 0.48310025102256282 0 0.08254081050968877 0.47642281665818748 0 0.078267650747156567 0.50000000000000133 0 0.061557047466102868 0.48310025102256282 0 0.078267650747156567 0.50000000000000133 0 0.061557047466102868 0.48310025102256282 0 0.049166882519808157 0.5 0 0.061557047466102868 0.48310025102256282 0 0.038208171894904559 0.48286056860770488 0 0.061557047466102868 0.48310025102256282 0 0.044846444185049857 0.46620050204512359 0 0.05832870883015126 0.45973880463956351 0 0.061557047466102868 0.48310025102256282 0 0.044846444185049857 0.46620050204512359 0 0.061557047466102868 0.48310025102256282 0 0.038208171894904559 0.48286056860770488 0 0.044846444185049857 0.46620050204512359 0 0.038208171894904559 0.48286056860770488 0 0.029572045059576241 0.469060477695939 0 0.044846444185049857 0.46620050204512359 0 0.049166882519808157 0.5 0 0.038208171894904559 0.48286056860770488 0 0.020066114292459799 0.5 0 0.038208171894904559 0.48286056860770488 0 0.020066114292459799 0.5 0 0.021055159894441029 0.48095839664786189 0 0.038208171894904559 0.48286056860770488 0 0.029572045059576241 0.469060477695939 0 0.021055159894441029 0.48095839664786189 0 0.029572045059576241 0.469060477695939 0 0.021055159894441029 0.48095839664786189 0 0.01561460841948897 0.46598216811131982 0 0.021055159894441029 0.48095839664786189 0 0.0030933759349822849 0.48266358315495572 0 0.01561460841948897 0.46598216811131982 0 0.0030933759349822849 0.48266358315495572 0 0.01561460841948897 0.46598216811131982 0 0.0036787250480955699 0.47408322248379448 0 0.0030933759349822849 0.48266358315495572 0 0.01561460841948897 0.46598216811131982 0 -0.0016340076521478781 0.48633642657919801 0 0.0036787250480955699 0.47408322248379448 0 0.0030933759349822849 0.48266358315495572 0 0.020066114292459799 0.5 0 0.021055159894441029 0.48095839664786189 0 0.0030933759349822849 0.48266358315495572 0 -0.0090346539348886701 0.5 0 -0.0016340076521478781 0.48633642657919801 0 0.020066114292459799 0.5 0 -0.0016340076521478781 0.48633642657919801 0 0.020066114292459799 0.5 0 0.0030933759349822849 0.48266358315495572 0 -0.0030841453677343121 0.43636499760021141 0 -0.002359076509941094 0.46135071208970457 0 0.010470448459028871 0.45111158928184719 0 -0.0030841453677343121 0.43636499760021141 0 0.010470448459028871 0.45111158928184719 0 0.017893296784651399 0.43894227458572882 0 -0.002359076509941094 0.46135071208970457 0 0.010470448459028871 0.45111158928184719 0 0.01561460841948897 0.46598216811131982 0 -0.002359076509941094 0.46135071208970457 0 0.0036787250480955699 0.47408322248379448 0 0.01561460841948897 0.46598216811131982 0 0.010470448459028871 0.45111158928184719 0 0.01561460841948897 0.46598216811131982 0 0.0281358409039968 0.44930075306768458 0 0.029572045059576241 0.469060477695939 0 0.01561460841948897 0.46598216811131982 0 0.0281358409039968 0.44930075306768458 0 0.01561460841948897 0.46598216811131982 0 0.0281358409039968 0.44930075306768458 0 0.010470448459028871 0.45111158928184719 0 0.0281358409039968 0.44930075306768458 0 0.017893296784651399 0.43894227458572882 0 0.0281358409039968 0.44930075306768458 0 0.017893296784651399 0.43894227458572882 0 0.03800042812263172 0.43615865433005307 0 0.0281358409039968 0.44930075306768458 0 0.017893296784651399 0.43894227458572882 0 0.0281358409039968 0.44930075306768458 0 0.04587361322417214 0.448769157871174 0 0.03800042812263172 0.43615865433005307 0 0.0281358409039968 0.44930075306768458 0 0.03800042812263172 0.43615865433005307 0 0.04587361322417214 0.448769157871174 0 0.049411209704934803 0.43621283219101809 0 0.03800042812263172 0.43615865433005307 0 0.029572045059576241 0.469060477695939 0 0.0281358409039968 0.44930075306768458 0 0.044846444185049857 0.46620050204512359 0 0.0281358409039968 0.44930075306768458 0 0.04587361322417214 0.448769157871174 0 0.044846444185049857 0.46620050204512359 0 0.0281358409039968 0.44930075306768458 0 0.044846444185049857 0.46620050204512359 0 0.04587361322417214 0.448769157871174 0 0.044846444185049857 0.46620050204512359 0 0.05832870883015126 0.45973880463956351 0 0.04587361322417214 0.448769157871174 0 0.057347956450285731 0.44480695268810438 0 0.049411209704934803 0.43621283219101809 0 0.04587361322417214 0.448769157871174 0 0.05832870883015126 0.45973880463956351 0 0.057347956450285731 0.44480695268810438 0 0.070599818540594342 0.45171728711773013 0 0.05832870883015126 0.45973880463956351 0 0.057347956450285731 0.44480695268810438 0 0.057347956450285731 0.44480695268810438 0 0.058238482531349368 0.43512174465279091 0 0.068330088192809502 0.43602814955066621 0 0.057347956450285731 0.44480695268810438 0 0.058238482531349368 0.43512174465279091 0 0.049411209704934803 0.43621283219101809 0 0.058238482531349368 0.43512174465279091 0 0.05412352915042095 0.42739076434297479 0 0.063786863135573219 0.4234822836218442 0 0.05412352915042095 0.42739076434297479 0 0.047865015341267358 0.42301655559242213 0 0.049411209704934803 0.43621283219101809 0 0.05412352915042095 0.42739076434297479 0 0.047865015341267358 0.42301655559242213 0 0.058238482531349368 0.43512174465279091 0 0.05412352915042095 0.42739076434297479 0 0.049411209704934803 0.43621283219101809 0 0.047865015341267358 0.42301655559242213 0 0.055388731832649349 0.41299308245440008 0 0.044385004541519633 0.40583709082877739 0 0.055388731832649349 0.41299308245440008 0 0.057103340742871267 0.4006394318358022 0 0.0691327228978319 0.40699071288372829 0 0.05412352915042095 0.42739076434297479 0 0.055388731832649349 0.41299308245440008 0 0.063786863135573219 0.4234822836218442 0 0.047865015341267358 0.42301655559242213 0 0.055388731832649349 0.41299308245440008 0 0.05412352915042095 0.42739076434297479 0 0.047865015341267358 0.42301655559242213 0 0.055388731832649349 0.41299308245440008 0 0.055388731832649349 0.41299308245440008 0 0.044385004541519633 0.40583709082877739 0 0.057103340742871267 0.4006394318358022 0 0.047865015341267358 0.42301655559242213 0 0.030398582533070099 0.41080889326869052 0 0.044385004541519633 0.40583709082877739 0 0.047865015341267358 0.42301655559242213 0 0.035686717363660143 0.42423985257235269 0 0.030398582533070099 0.41080889326869052 0 0.047865015341267358 0.42301655559242213 0 0.030398582533070099 0.41080889326869052 0 0.047865015341267358 0.42301655559242213 0 0.049411209704934803 0.43621283219101809 0 0.03800042812263172 0.43615865433005307 0 0.047865015341267358 0.42301655559242213 0 0.03800042812263172 0.43615865433005307 0 0.047865015341267358 0.42301655559242213 0 0.035686717363660143 0.42423985257235269 0 0.03800042812263172 0.43615865433005307 0 0.035686717363660143 0.42423985257235269 0 0.03800042812263172 0.43615865433005307 0 0.0264828434576714 0.42697530709824522 0 0.017893296784651399 0.43894227458572882 0 0.0264828434576714 0.42697530709824522 0 0.013451351612083251 0.42022136891186163 0 0.017893296784651399 0.43894227458572882 0 0.03800042812263172 0.43615865433005307 0 0.0264828434576714 0.42697530709824522 0 0.030398582533070099 0.41080889326869052 0 0.013451351612083251 0.42022136891186163 0 0.012932149724872831 0.39860123094495892 0 0.0264828434576714 0.42697530709824522 0 0.030398582533070099 0.41080889326869052 0 0.013451351612083251 0.42022136891186163 0 0.035686717363660143 0.42423985257235269 0 0.0264828434576714 0.42697530709824522 0 0.030398582533070099 0.41080889326869052 0 -0.0038092142255275289 0.41137928311071797 0 0.013451351612083251 0.42022136891186163 0 0.012932149724872831 0.39860123094495892 0 -0.0030841453677343121 0.43636499760021141 0 0.017893296784651399 0.43894227458572882 0 0.013451351612083251 0.42022136891186163 0 -0.0030841453677343121 0.43636499760021141 0 -0.0038092142255275289 0.41137928311071797 0 0.013451351612083251 0.42022136891186163 0 -0.0045342830833226501 0.3863935686212247 0 0.012932149724872831 0.39860123094495892 0 0.0079023355216259559 0.37348921158265391 0 0.012932149724872831 0.39860123094495892 0 0.025375843575522711 0.38021681034322929 0 0.0079023355216259559 0.37348921158265391 0 -0.0045342830833226501 0.3863935686212247 0 0.012932149724872831 0.39860123094495892 0 -0.0045342830833226501 0.3863935686212247 0 -0.0038092142255275289 0.41137928311071797 0 0.012932149724872831 0.39860123094495892 0 0.030398582533070099 0.41080889326869052 0 0.012932149724872831 0.39860123094495892 0 0.030398582533070099 0.41080889326869052 0 0.012932149724872831 0.39860123094495892 0 0.030218872497922818 0.39559608178221078 0 0.012932149724872831 0.39860123094495892 0 0.030218872497922818 0.39559608178221078 0 0.025375843575522711 0.38021681034322929 0 0.025375843575522711 0.38021681034322929 0 0.045236422390978262 0.39339421550307069 0 0.045418656597819553 0.37354288132317159 0 0.030218872497922818 0.39559608178221078 0 0.025375843575522711 0.38021681034322929 0 0.045236422390978262 0.39339421550307069 0 0.030398582533070099 0.41080889326869052 0 0.030218872497922818 0.39559608178221078 0 0.044385004541519633 0.40583709082877739 0 0.030218872497922818 0.39559608178221078 0 0.045236422390978262 0.39339421550307069 0 0.044385004541519633 0.40583709082877739 0 0.045236422390978262 0.39339421550307069 0 0.057103340742871267 0.4006394318358022 0 0.06607043693335328 0.38973814947632979 0 0.045236422390978262 0.39339421550307069 0 0.044385004541519633 0.40583709082877739 0 0.057103340742871267 0.4006394318358022 0 0.045236422390978262 0.39339421550307069 0 0.06607043693335328 0.38973814947632979 0 0.045418656597819553 0.37354288132317159 0 0.06607043693335328 0.38973814947632979 0 0.066778362586220691 0.36264744131756171 0 0.045418656597819553 0.37354288132317159 0 0.06607043693335328 0.38973814947632979 0 0.086713905658550791 0.37461406501925459 0 0.066778362586220691 0.36264744131756171 0 0.091303312773641829 0.3995757594209417 0 0.1025776524751303 0.38486691706586951 0 0.086713905658550791 0.37461406501925459 0 0.06607043693335328 0.38973814947632979 0 0.091303312773641829 0.3995757594209417 0 0.086713905658550791 0.37461406501925459 0 0.091303312773641829 0.3995757594209417 0 0.086713905658550791 0.37461406501925459 0 0.06607043693335328 0.38973814947632979 0 0.091303312773641829 0.3995757594209417 0 0.0691327228978319 0.40699071288372829 0 0.057103340742871267 0.4006394318358022 0 0.06607043693335328 0.38973814947632979 0 0.0691327228978319 0.40699071288372829 0 0.055388731832649349 0.41299308245440008 0 0.0691327228978319 0.40699071288372829 0 0.063786863135573219 0.4234822836218442 0 0.0691327228978319 0.40699071288372829 0 0.077714875811277062 0.4214876261871765 0 0.063786863135573219 0.4234822836218442 0 0.083205653112744402 0.44008551456546158 0 0.077714875811277062 0.4214876261871765 0 0.068330088192809502 0.43602814955066621 0 0.058238482531349368 0.43512174465279091 0 0.068330088192809502 0.43602814955066621 0 0.063786863135573219 0.4234822836218442 0 0.077714875811277062 0.4214876261871765 0 0.068330088192809502 0.43602814955066621 0 0.063786863135573219 0.4234822836218442 0 0.083205653112744402 0.44008551456546158 0 0.077714875811277062 0.4214876261871765 0 0.095892719888732866 0.42453745382262881 0 0.091303312773641829 0.3995757594209417 0 0.0691327228978319 0.40699071288372829 0 0.077714875811277062 0.4214876261871765 0 0.091303312773641829 0.3995757594209417 0 0.095892719888732866 0.42453745382262881 0 0.091303312773641829 0.3995757594209417 0 0.077714875811277062 0.4214876261871765 0 0.095892719888732866 0.42453745382262881 0 0.091303312773641829 0.3995757594209417 0 0.095892719888732866 0.42453745382262881 0 0.115428724103706 0.40267530492779557 0 0.1004821270038239 0.44949914822431608 0 0.095892719888732866 0.42453745382262881 0 0.12259086230274099 0.42947812748907283 0 0.1004821270038239 0.44949914822431608 0 0.095892719888732866 0.42453745382262881 0 0.095892719888732866 0.42453745382262881 0 0.12259086230274099 0.42947812748907283 0 0.115428724103706 0.40267530492779557 0 0.115428724103706 0.40267530492779557 0 0.119448870245615 0.38256434187866972 0 0.13692284990477191 0.38930777957628943 0 0.119448870245615 0.38256434187866972 0 0.1025776524751303 0.38486691706586951 0 0.1087205780393706 0.3656269003386084 0 0.115428724103706 0.40267530492779557 0 0.119448870245615 0.38256434187866972 0 0.1025776524751303 0.38486691706586951 0 0.1025776524751303 0.38486691706586951 0 0.1087205780393706 0.3656269003386084 0 0.086713905658550791 0.37461406501925459 0 0.091303312773641829 0.3995757594209417 0 0.115428724103706 0.40267530492779557 0 0.1025776524751303 0.38486691706586951 0 0.1087205780393706 0.3656269003386084 0 0.1202868522871179 0.34060046584014031 0 0.0915497208986496 0.34709204532757532 0 0.1087205780393706 0.3656269003386084 0 0.0915497208986496 0.34709204532757532 0 0.086713905658550791 0.37461406501925459 0 0.119448870245615 0.38256434187866972 0 0.1087205780393706 0.3656269003386084 0 0.13274728415341139 0.36410634055334368 0 0.1087205780393706 0.3656269003386084 0 0.1202868522871179 0.34060046584014031 0 0.13274728415341139 0.36410634055334368 0 0.1202868522871179 0.34060046584014031 0 0.1104734498024164 0.31171603628350752 0 0.14183880654046921 0.32250528078568202 0 0.1202868522871179 0.34060046584014031 0 0.1016552612267161 0.33013161519950079 0 0.1104734498024164 0.31171603628350752 0 0.1016552612267161 0.33013161519950079 0 0.081254576285268804 0.3210829637434266 0 0.1104734498024164 0.31171603628350752 0 0.1202868522871179 0.34060046584014031 0 0.1016552612267161 0.33013161519950079 0 0.0915497208986496 0.34709204532757532 0 0.081254576285268804 0.3210829637434266 0 0.072654821413094289 0.33942743407960763 0 0.0915497208986496 0.34709204532757532 0 0.1016552612267161 0.33013161519950079 0 0.081254576285268804 0.3210829637434266 0 0.0915497208986496 0.34709204532757532 0 0.081254576285268804 0.3210829637434266 0 0.06358813508901956 0.32234581427363851 0 0.071244474661197085 0.3036312559279935 0 0.081254576285268804 0.3210829637434266 0 0.06358813508901956 0.32234581427363851 0 0.072654821413094289 0.33942743407960763 0 0.06358813508901956 0.32234581427363851 0 0.072654821413094289 0.33942743407960763 0 0.055199983679349987 0.34246375673151652 0 0.072654821413094289 0.33942743407960763 0 0.066778362586220691 0.36264744131756171 0 0.055199983679349987 0.34246375673151652 0 0.072654821413094289 0.33942743407960763 0 0.0915497208986496 0.34709204532757532 0 0.066778362586220691 0.36264744131756171 0 0.0915497208986496 0.34709204532757532 0 0.086713905658550791 0.37461406501925459 0 0.066778362586220691 0.36264744131756171 0 0.066778362586220691 0.36264744131756171 0 0.044951457965310811 0.3555124197003488 0 0.045418656597819553 0.37354288132317159 0 0.066778362586220691 0.36264744131756171 0 0.044951457965310811 0.3555124197003488 0 0.055199983679349987 0.34246375673151652 0 0.044951457965310811 0.3555124197003488 0 0.021903196078839001 0.35746348141110651 0 0.035457090884324839 0.34144453771838768 0 0.044951457965310811 0.3555124197003488 0 0.035457090884324839 0.34144453771838768 0 0.055199983679349987 0.34246375673151652 0 0.044951457965310811 0.3555124197003488 0 0.045418656597819553 0.37354288132317159 0 0.021903196078839001 0.35746348141110651 0 0.025375843575522711 0.38021681034322929 0 0.021903196078839001 0.35746348141110651 0 0.0079023355216259559 0.37348921158265391 0 0.025375843575522711 0.38021681034322929 0 0.045418656597819553 0.37354288132317159 0 0.021903196078839001 0.35746348141110651 0 0.021903196078839001 0.35746348141110651 0 0.017151683724365509 0.3376665205351736 0 0.035457090884324839 0.34144453771838768 0 0.021903196078839001 0.35746348141110651 0 0.0095650341834115256 0.34490192427506011 0 0.017151683724365509 0.3376665205351736 0 0.021903196078839001 0.35746348141110651 0 0.0095650341834115256 0.34490192427506011 0 0.0061318462344260851 0.35417601161121459 0 -0.0050552824635438226 0.34569829691311771 0 0.0095650341834115256 0.34490192427506011 0 0.0061318462344260851 0.35417601161121459 0 0.021903196078839001 0.35746348141110651 0 0.0061318462344260851 0.35417601161121459 0 0.0079023355216259559 0.37348921158265391 0 -0.0052616759920083916 0.36132776784546622 0 0.0061318462344260851 0.35417601161121459 0 0.0079023355216259559 0.37348921158265391 0 0.0087281755863181168 0.33049580891976171 0 0.020410497070949891 0.30832150289807031 0 0.0056044744337335906 0.31412092038659428 0 0.0087281755863181168 0.33049580891976171 0 0.020410497070949891 0.30832150289807031 0 -0.003280447873963227 0.32161399115684158 0 0.0056044744337335906 0.31412092038659428 0 0.0087281755863181168 0.33049580891976171 0 0.0064742168078369342 0.3347740657525386 0 0.0087281755863181168 0.33049580891976171 0 -0.0050552824635438226 0.34569829691311771 0 0.0095650341834115256 0.34490192427506011 0 0.0064742168078369342 0.3347740657525386 0 0.0095650341834115256 0.34490192427506011 0 0.0064742168078369342 0.3347740657525386 0 0.017151683724365509 0.3376665205351736 0 0.0064742168078369342 0.3347740657525386 0 0.0087281755863181168 0.33049580891976171 0 0.017151683724365509 0.3376665205351736 0 0.0087281755863181168 0.33049580891976171 0 0.025353163704189718 0.33024288796319817 0 0.017151683724365509 0.3376665205351736 0 0.0087281755863181168 0.33049580891976171 0 0.025353163704189718 0.33024288796319817 0 0.025353163704189718 0.33024288796319817 0 0.017151683724365509 0.3376665205351736 0 0.035457090884324839 0.34144453771838768 0 0.0087281755863181168 0.33049580891976171 0 0.025353163704189718 0.33024288796319817 0 0.020410497070949891 0.30832150289807031 0 0.025353163704189718 0.33024288796319817 0 0.038017806832533571 0.30672300381527179 0 0.020410497070949891 0.30832150289807031 0 0.025353163704189718 0.33024288796319817 0 0.045812945845809312 0.32351293560108041 0 0.038017806832533571 0.30672300381527179 0 0.025353163704189718 0.33024288796319817 0 0.045812945845809312 0.32351293560108041 0 0.035457090884324839 0.34144453771838768 0 0.045812945845809312 0.32351293560108041 0 0.035457090884324839 0.34144453771838768 0 0.055199983679349987 0.34246375673151652 0 0.06358813508901956 0.32234581427363851 0 0.045812945845809312 0.32351293560108041 0 0.055199983679349987 0.34246375673151652 0 0.06358813508901956 0.32234581427363851 0 0.045812945845809312 0.32351293560108041 0 0.055148108477292443 0.3057593846019967 0 0.055148108477292443 0.3057593846019967 0 0.047586914097201803 0.29032131063477928 0 0.038017806832533571 0.30672300381527179 0 0.055148108477292443 0.3057593846019967 0 0.047586914097201803 0.29032131063477928 0 0.066935962560195753 0.28615893812798288 0 0.047586914097201803 0.29032131063477928 0 0.050578246113349837 0.27455429857722041 0 0.066935962560195753 0.28615893812798288 0 0.047586914097201803 0.29032131063477928 0 0.032092818555581597 0.28614719687637868 0 0.038017806832533571 0.30672300381527179 0 0.047586914097201803 0.29032131063477928 0 0.032092818555581597 0.28614719687637868 0 0.050578246113349837 0.27455429857722041 0 0.045812945845809312 0.32351293560108041 0 0.055148108477292443 0.3057593846019967 0 0.038017806832533571 0.30672300381527179 0 0.032092818555581597 0.28614719687637868 0 0.038017806832533571 0.30672300381527179 0 0.020410497070949891 0.30832150289807031 0 0.032092818555581597 0.28614719687637868 0 0.020410497070949891 0.30832150289807031 0 0.032092818555581597 0.28614719687637868 0 0.020410497070949891 0.30832150289807031 0 0.0083336089875100904 0.29343585490586271 0 0.032092818555581597 0.28614719687637868 0 0.0083336089875100904 0.29343585490586271 0 0.021382191810826279 0.2686960609189637 0 -0.0088759444352828343 0.31092800175718183 0 0.0056044744337335906 0.31412092038659428 0 0.0083336089875100904 0.29343585490586271 0 0.0056044744337335906 0.31412092038659428 0 0.020410497070949891 0.30832150289807031 0 0.0083336089875100904 0.29343585490586271 0 0.0073806355134042019 0.25529449578482938 0 3.3590645499582607e-05 0.27236849017123349 0 0.021382191810826279 0.2686960609189637 0 0.0083336089875100904 0.29343585490586271 0 3.3590645499582607e-05 0.27236849017123349 0 0.021382191810826279 0.2686960609189637 0 0.025149977659741599 0.24684982625080901 0 0.0073806355134042019 0.25529449578482938 0 0.021382191810826279 0.2686960609189637 0 0.025149977659741599 0.24684982625080901 0 0.021382191810826279 0.2686960609189637 0 0.043775140040213267 0.26397289085468728 0 0.025149977659741599 0.24684982625080901 0 0.045472231705318063 0.24424317023843681 0 0.050158093690384618 0.2598810672441918 0 0.025149977659741599 0.24684982625080901 0 0.050158093690384618 0.2598810672441918 0 0.025149977659741599 0.24684982625080901 0 0.043775140040213267 0.26397289085468728 0 0.050158093690384618 0.2598810672441918 0 0.032092818555581597 0.28614719687637868 0 0.043775140040213267 0.26397289085468728 0 0.032092818555581597 0.28614719687637868 0 0.021382191810826279 0.2686960609189637 0 0.043775140040213267 0.26397289085468728 0 0.032092818555581597 0.28614719687637868 0 0.043775140040213267 0.26397289085468728 0 0.050578246113349837 0.27455429857722041 0 0.050578246113349837 0.27455429857722041 0 0.063875668081316214 0.2678607518654692 0 0.066935962560195753 0.28615893812798288 0 0.043775140040213267 0.26397289085468728 0 0.050578246113349837 0.27455429857722041 0 0.050158093690384618 0.2598810672441918 0 0.050578246113349837 0.27455429857722041 0 0.056046126259945157 0.25263236173372139 0 0.063875668081316214 0.2678607518654692 0 0.050578246113349837 0.27455429857722041 0 0.050158093690384618 0.2598810672441918 0 0.056046126259945157 0.25263236173372139 0 0.045472231705318063 0.24424317023843681 0 0.050158093690384618 0.2598810672441918 0 0.056046126259945157 0.25263236173372139 0 0.050578246113349837 0.27455429857722041 0 0.056046126259945157 0.25263236173372139 0 0.078525547080241467 0.2465942846531784 0 0.067905867336300579 0.25358800162702 0 0.079567988853459573 0.27014218499250892 0 0.067905867336300579 0.25358800162702 0 0.079567988853459573 0.27014218499250892 0 0.063875668081316214 0.2678607518654692 0 0.056046126259945157 0.25263236173372139 0 0.067905867336300579 0.25358800162702 0 0.063875668081316214 0.2678607518654692 0 0.078525547080241467 0.2465942846531784 0 0.079567988853459573 0.27014218499250892 0 0.093798877441032588 0.2579700649065903 0 0.079567988853459573 0.27014218499250892 0 0.063875668081316214 0.2678607518654692 0 0.066935962560195753 0.28615893812798288 0 0.079567988853459573 0.27014218499250892 0 0.066935962560195753 0.28615893812798288 0 0.087430381393448858 0.29852998767476718 0 0.066935962560195753 0.28615893812798288 0 0.071244474661197085 0.3036312559279935 0 0.087430381393448858 0.29852998767476718 0 0.055148108477292443 0.3057593846019967 0 0.066935962560195753 0.28615893812798288 0 0.071244474661197085 0.3036312559279935 0 0.06358813508901956 0.32234581427363851 0 0.055148108477292443 0.3057593846019967 0 0.071244474661197085 0.3036312559279935 0 0.081254576285268804 0.3210829637434266 0 0.087430381393448858 0.29852998767476718 0 0.1104734498024164 0.31171603628350752 0 0.081254576285268804 0.3210829637434266 0 0.071244474661197085 0.3036312559279935 0 0.087430381393448858 0.29852998767476718 0 0.079567988853459573 0.27014218499250892 0 0.087430381393448858 0.29852998767476718 0 0.1079828451826004 0.27738565586056829 0 0.087430381393448858 0.29852998767476718 0 0.1104734498024164 0.31171603628350752 0 0.1079828451826004 0.27738565586056829 0 0.1104734498024164 0.31171603628350752 0 0.1079828451826004 0.27738565586056829 0 0.13401849175413849 0.29214957311260448 0 0.1079828451826004 0.27738565586056829 0 0.13401849175413849 0.29214957311260448 0 0.1100607559553454 0.25396994184181759 0 0.1079828451826004 0.27738565586056829 0 0.13366986361514199 0.26692500362740812 0 0.12787711237058769 0.24521089126939841 0 0.1100607559553454 0.25396994184181759 0 0.13366986361514199 0.26692500362740812 0 0.092857250133516089 0.24175825718487831 0 0.1100607559553454 0.25396994184181759 0 0.093798877441032588 0.2579700649065903 0 0.1100607559553454 0.25396994184181759 0 0.093798877441032588 0.2579700649065903 0 0.1079828451826004 0.27738565586056829 0 0.079567988853459573 0.27014218499250892 0 0.093798877441032588 0.2579700649065903 0 0.1079828451826004 0.27738565586056829 0 0.13366986361514199 0.26692500362740812 0 0.1558685034792309 0.28595093384994291 0 0.15959452244756481 0.26367036214955358 0 0.14702044576598061 0.2478904659134552 0 0.13366986361514199 0.26692500362740812 0 0.15959452244756481 0.26367036214955358 0 0.14702044576598061 0.2478904659134552 0 0.12787711237058769 0.24521089126939841 0 0.13366986361514199 0.26692500362740812 0 0.1079828451826004 0.27738565586056829 0 0.13366986361514199 0.26692500362740812 0 0.13401849175413849 0.29214957311260448 0 0.1104734498024164 0.31171603628350752 0 0.13401849175413849 0.29214957311260448 0 0.14183880654046921 0.32250528078568202 0 0.13401849175413849 0.29214957311260448 0 0.16005413832567669 0.30691349036464077 0 0.14183880654046921 0.32250528078568202 0 0.13401849175413849 0.29214957311260448 0 0.16005413832567669 0.30691349036464077 0 0.13401849175413849 0.29214957311260448 0 0.1558685034792309 0.28595093384994291 0 0.16005413832567669 0.30691349036464077 0 0.13366986361514199 0.26692500362740812 0 0.13401849175413849 0.29214957311260448 0 0.1558685034792309 0.28595093384994291 0 0.1558685034792309 0.28595093384994291 0 0.1700220001876428 0.28782965529906401 0 0.16005413832567669 0.30691349036464077 0 0.1558685034792309 0.28595093384994291 0 0.1700220001876428 0.28782965529906401 0 0.17370236977615991 0.27502287964280692 0 0.1700220001876428 0.28782965529906401 0 0.16005413832567669 0.30691349036464077 0 0.1764196225356903 0.29880027385689728 0 0.16005413832567669 0.30691349036464077 0 0.1764196225356903 0.29880027385689728 0 0.18686192329242929 0.31378732528256248 0 0.1764196225356903 0.29880027385689728 0 0.18674031124236579 0.30201460306836742 0 0.19086383386244751 0.2907864273273883 0 0.1764196225356903 0.29880027385689728 0 0.18674031124236579 0.30201460306836742 0 0.18686192329242929 0.31378732528256248 0 0.1700220001876428 0.28782965529906401 0 0.18013512871176271 0.28566990799825959 0 0.17370236977615991 0.27502287964280692 0 0.1700220001876428 0.28782965529906401 0 0.1764196225356903 0.29880027385689728 0 0.18013512871176271 0.28566990799825959 0 0.1764196225356903 0.29880027385689728 0 0.18013512871176271 0.28566990799825959 0 0.19086383386244751 0.2907864273273883 0 0.18013512871176271 0.28566990799825959 0 0.1896678171968729 0.27591030386514148 0 0.19086383386244751 0.2907864273273883 0 0.18251379545819379 0.26835647973838378 0 0.17370236977615991 0.27502287964280692 0 0.1896678171968729 0.27591030386514148 0 0.18013512871176271 0.28566990799825959 0 0.17370236977615991 0.27502287964280692 0 0.1896678171968729 0.27591030386514148 0 0.18251379545819379 0.26835647973838378 0 0.17370236977615991 0.27502287964280692 0 0.17699066645021869 0.2595722272450377 0 0.17370236977615991 0.27502287964280692 0 0.15959452244756481 0.26367036214955358 0 0.17699066645021869 0.2595722272450377 0 0.1558685034792309 0.28595093384994291 0 0.17370236977615991 0.27502287964280692 0 0.15959452244756481 0.26367036214955358 0 0.16774616909827719 0.2460930353984315 0 0.15959452244756481 0.26367036214955358 0 0.17699066645021869 0.2595722272450377 0 0.14702044576598061 0.2478904659134552 0 0.16774616909827719 0.2460930353984315 0 0.15959452244756481 0.26367036214955358 0 0.18692125413578081 0.24552837502103991 0 0.16774616909827719 0.2460930353984315 0 0.17699066645021869 0.2595722272450377 0 0.18692125413578081 0.24552837502103991 0 0.17699066645021869 0.2595722272450377 0 0.19242781921148469 0.26384338938458129 0 0.18251379545819379 0.26835647973838378 0 0.17699066645021869 0.2595722272450377 0 0.19242781921148469 0.26384338938458129 0 0.18692125413578081 0.24552837502103991 0 0.19242781921148469 0.26384338938458129 0 0.20107379594449931 0.25686311186437227 0 0.18692125413578081 0.24552837502103991 0 0.20107379594449931 0.25686311186437227 0 0.19242781921148469 0.26384338938458129 0 0.20107379594449931 0.25686311186437227 0 0.2008998280478862 0.26959186196165702 0 0.19242781921148469 0.26384338938458129 0 0.20107379594449931 0.25686311186437227 0 0.19242781921148469 0.26384338938458129 0 0.1896678171968729 0.27591030386514148 0 0.2008998280478862 0.26959186196165702 0 0.18251379545819379 0.26835647973838378 0 0.19242781921148469 0.26384338938458129 0 0.1896678171968729 0.27591030386514148 0 0.1896678171968729 0.27591030386514148 0 0.2008998280478862 0.26959186196165702 0 0.20354188417430641 0.281093168015905 0 0.2008998280478862 0.26959186196165702 0 0.2177878237122676 0.27024933667828532 0 0.20354188417430641 0.281093168015905 0 0.2177878237122676 0.27024933667828532 0 0.20354188417430641 0.281093168015905 0 0.2166033006779626 0.28924568688104418 0 0.21557305570370441 0.24515722135805329 0 0.20107379594449931 0.25686311186437227 0 0.2177878237122676 0.27024933667828532 0 0.20107379594449931 0.25686311186437227 0 0.2177878237122676 0.27024933667828532 0 0.20107379594449931 0.25686311186437227 0 0.2008998280478862 0.26959186196165702 0 0.2177878237122676 0.27024933667828532 0 0.21557305570370441 0.24515722135805329 0 0.20107379594449931 0.25686311186437227 0 0.21557305570370441 0.24515722135805329 0 0.2177878237122676 0.27024933667828532 0 0.23628031136540401 0.25597328662156199 0 0.2177878237122676 0.27024933667828532 0 0.23628031136540401 0.25597328662156199 0 0.23450185148003599 0.28363556149219821 0 0.2177878237122676 0.27024933667828532 0 0.23450185148003599 0.28363556149219821 0 0.2166033006779626 0.28924568688104418 0 0.2177878237122676 0.27024933667828532 0 0.23450185148003599 0.28363556149219821 0 0.23628031136540401 0.25597328662156199 0 0.23450185148003599 0.28363556149219821 0 0.25102838231212438 0.26850893423506528 0 0.23450185148003599 0.28363556149219821 0 0.25953152444998728 0.28294166139542631 0 0.25102838231212438 0.26850893423506528 0 0.23628031136540401 0.25597328662156199 0 0.25102838231212438 0.26850893423506528 0 0.26221447651104962 0.2479993693513689 0 0.2297645605960125 0.30261029929826411 0 0.25121587924780342 0.29702178630611242 0 0.2484846271056145 0.31037308609574782 0 0.2297645605960125 0.30261029929826411 0 0.23798581837376781 0.31938142953188831 0 0.2484846271056145 0.31037308609574782 0 0.2297645605960125 0.30261029929826411 0 0.25121587924780342 0.29702178630611242 0 0.23450185148003599 0.28363556149219821 0 0.2297645605960125 0.30261029929826411 0 0.25121587924780342 0.29702178630611242 0 0.23450185148003599 0.28363556149219821 0 0.25121587924780342 0.29702178630611242 0 0.23450185148003599 0.28363556149219821 0 0.25953152444998728 0.28294166139542631 0 0.25121587924780342 0.29702178630611242 0 0.23450185148003599 0.28363556149219821 0 0.2297645605960125 0.30261029929826411 0 0.2166033006779626 0.28924568688104418 0 0.2297645605960125 0.30261029929826411 0 0.20831324194422091 0.30819881229041318 0 0.2297645605960125 0.30261029929826411 0 0.20831324194422091 0.30819881229041318 0 0.21977364325038071 0.31928170538083578 0 0.20831324194422091 0.30819881229041318 0 0.2166033006779626 0.28924568688104418 0 0.20288664267638859 0.29424953150154581 0 0.2297645605960125 0.30261029929826411 0 0.20831324194422091 0.30819881229041318 0 0.2166033006779626 0.28924568688104418 0 0.20354188417430641 0.281093168015905 0 0.2166033006779626 0.28924568688104418 0 0.20288664267638859 0.29424953150154581 0 0.20354188417430641 0.281093168015905 0 0.20288664267638859 0.29424953150154581 0 0.19086383386244751 0.2907864273273883 0 0.20288664267638859 0.29424953150154581 0 0.19086383386244751 0.2907864273273883 0 0.19511095272300569 0.3019235629929784 0 0.1896678171968729 0.27591030386514148 0 0.20354188417430641 0.281093168015905 0 0.19086383386244751 0.2907864273273883 0 0.20831324194422091 0.30819881229041318 0 0.18686192329242929 0.31378732528256248 0 0.20831324194422091 0.30819881229041318 0 0.19511095272300569 0.3019235629929784 0 0.18686192329242929 0.31378732528256248 0 0.20831324194422091 0.30819881229041318 0 0.20288664267638859 0.29424953150154581 0 0.19511095272300569 0.3019235629929784 0 0.18674031124236579 0.30201460306836742 0 0.19086383386244751 0.2907864273273883 0 0.19511095272300569 0.3019235629929784 0 0.18674031124236579 0.30201460306836742 0 0.19511095272300569 0.3019235629929784 0 0.18686192329242929 0.31378732528256248 0 0.20141288137377081 0.31920030670374799 0 0.18686192329242929 0.31378732528256248 0 0.18608978489721489 0.32167740761667712 0 0.20831324194422091 0.30819881229041318 0 0.20141288137377081 0.31920030670374799 0 0.18686192329242929 0.31378732528256248 0 0.20141288137377081 0.31920030670374799 0 0.21212543146875301 0.33644132486871342 0 0.18608978489721489 0.32167740761667712 0 0.21212543146875301 0.33644132486871342 0 0.18608978489721489 0.32167740761667712 0 0.19231113454718349 0.34165597013868199 0 0.21212543146875301 0.33644132486871342 0 0.18608978489721489 0.32167740761667712 0 0.20831324194422091 0.30819881229041318 0 0.20141288137377081 0.31920030670374799 0 0.21977364325038071 0.31928170538083578 0 0.20141288137377081 0.31920030670374799 0 0.21212543146875301 0.33644132486871342 0 0.21977364325038071 0.31928170538083578 0 0.21977364325038071 0.31928170538083578 0 0.2290399257457596 0.32985805959198788 0 0.23798581837376781 0.31938142953188831 0 0.2297645605960125 0.30261029929826411 0 0.21977364325038071 0.31928170538083578 0 0.23798581837376781 0.31938142953188831 0 0.21212543146875301 0.33644132486871342 0 0.21977364325038071 0.31928170538083578 0 0.2290399257457596 0.32985805959198788 0 0.21212543146875301 0.33644132486871342 0 0.23060518033342339 0.33807106122714048 0 0.2290399257457596 0.32985805959198788 0 0.21212543146875301 0.33644132486871342 0 0.23060518033342339 0.33807106122714048 0 0.23816107804029091 0.35120524212074949 0 0.23060518033342339 0.33807106122714048 0 0.2290399257457596 0.32985805959198788 0 0.2430942860788903 0.33477961832711151 0 0.23060518033342339 0.33807106122714048 0 0.2430942860788903 0.33477961832711151 0 0.23816107804029091 0.35120524212074949 0 0.2484846271056145 0.31037308609574782 0 0.23798581837376781 0.31938142953188831 0 0.25508783524565293 0.32209220201309929 0 0.2430942860788903 0.33477961832711151 0 0.23798581837376781 0.31938142953188831 0 0.25508783524565293 0.32209220201309929 0 0.2290399257457596 0.32985805959198788 0 0.2430942860788903 0.33477961832711151 0 0.23798581837376781 0.31938142953188831 0 0.23439037865920059 0.35560025357312369 0 0.2386764282036242 0.37725286527910618 0 0.24311907173897271 0.36013203008567057 0 0.23439037865920059 0.35560025357312369 0 0.2386764282036242 0.37725286527910618 0 0.2492643002430574 0.365916522193315 0 0.24311907173897271 0.36013203008567057 0 0.2386764282036242 0.37725286527910618 0 0.2492643002430574 0.365916522193315 0 0.2386764282036242 0.37725286527910618 0 0.25383912625151372 0.37755129754335942 0 0.24311907173897271 0.36013203008567057 0 0.23816107804029091 0.35120524212074949 0 0.2641967246118288 0.36596915937278562 0 0.2430942860788903 0.33477961832711151 0 0.23816107804029091 0.35120524212074949 0 0.26173146881309822 0.35734024057335978 0 0.24311907173897271 0.36013203008567057 0 0.23816107804029091 0.35120524212074949 0 0.23439037865920059 0.35560025357312369 0 0.21212543146875301 0.33644132486871342 0 0.23816107804029091 0.35120524212074949 0 0.21848510057545151 0.35453686872473111 0 0.23816107804029091 0.35120524212074949 0 0.23439037865920059 0.35560025357312369 0 0.21848510057545151 0.35453686872473111 0 0.21212543146875301 0.33644132486871342 0 0.23816107804029091 0.35120524212074949 0 0.23439037865920059 0.35560025357312369 0 0.22513916990612379 0.36868200325308897 0 0.2386764282036242 0.37725286527910618 0 0.23439037865920059 0.35560025357312369 0 0.22513916990612379 0.36868200325308897 0 0.21848510057545151 0.35453686872473111 0 0.22513916990612379 0.36868200325308897 0 0.20931495008602691 0.36890180222237801 0 0.21961872799640589 0.38146559318592133 0 0.22513916990612379 0.36868200325308897 0 0.20931495008602691 0.36890180222237801 0 0.21848510057545151 0.35453686872473111 0 0.20931495008602691 0.36890180222237801 0 0.21848510057545151 0.35453686872473111 0 0.2018014651714847 0.35413555731190122 0 0.21212543146875301 0.33644132486871342 0 0.21848510057545151 0.35453686872473111 0 0.2018014651714847 0.35413555731190122 0 0.19231113454718349 0.34165597013868199 0 0.2018014651714847 0.35413555731190122 0 0.1832131523033072 0.3569188224833833 0 0.19231113454718349 0.34165597013868199 0 0.21212543146875301 0.33644132486871342 0 0.2018014651714847 0.35413555731190122 0 0.20931495008602691 0.36890180222237801 0 0.2018014651714847 0.35413555731190122 0 0.19217836357317111 0.36996972767433872 0 0.20931495008602691 0.36890180222237801 0 0.19217836357317111 0.36996972767433872 0 0.20289108470775991 0.38370682355227331 0 0.2018014651714847 0.35413555731190122 0 0.19217836357317111 0.36996972767433872 0 0.1832131523033072 0.3569188224833833 0 0.19217836357317111 0.36996972767433872 0 0.17197644233242751 0.37002706837148541 0 0.1832131523033072 0.3569188224833833 0 0.17197644233242751 0.37002706837148541 0 0.16866852787741549 0.35230522619665788 0 0.1832131523033072 0.3569188224833833 0 0.17197644233242751 0.37002706837148541 0 0.16866852787741549 0.35230522619665788 0 0.15186920095361911 0.35620033980905319 0 0.17197644233242751 0.37002706837148541 0 0.15186920095361911 0.35620033980905319 0 0.15185568245476189 0.37707061606136422 0 0.16866852787741549 0.35230522619665788 0 0.1579580049025659 0.33927316190663209 0 0.15186920095361911 0.35620033980905319 0 0.16866852787741549 0.35230522619665788 0 0.1832131523033072 0.3569188224833833 0 0.17832583889515771 0.33910673841273542 0 0.19231113454718349 0.34165597013868199 0 0.1832131523033072 0.3569188224833833 0 0.17832583889515771 0.33910673841273542 0 0.17832583889515771 0.33910673841273542 0 0.18608978489721489 0.32167740761667712 0 0.16647560889869609 0.32578562508456149 0 0.19231113454718349 0.34165597013868199 0 0.17832583889515771 0.33910673841273542 0 0.18608978489721489 0.32167740761667712 0 0.16005413832567669 0.30691349036464077 0 0.18608978489721489 0.32167740761667712 0 0.16005413832567669 0.30691349036464077 0 0.18686192329242929 0.31378732528256248 0 0.18608978489721489 0.32167740761667712 0 0.16005413832567669 0.30691349036464077 0 0.18608978489721489 0.32167740761667712 0 0.16647560889869609 0.32578562508456149 0 0.17832583889515771 0.33910673841273542 0 0.16647560889869609 0.32578562508456149 0 0.1579580049025659 0.33927316190663209 0 0.16866852787741549 0.35230522619665788 0 0.17832583889515771 0.33910673841273542 0 0.1579580049025659 0.33927316190663209 0 0.16647560889869609 0.32578562508456149 0 0.1579580049025659 0.33927316190663209 0 0.14183880654046921 0.32250528078568202 0 0.1579580049025659 0.33927316190663209 0 0.14183880654046921 0.32250528078568202 0 0.14054269679001921 0.34363296691054102 0 0.16005413832567669 0.30691349036464077 0 0.16647560889869609 0.32578562508456149 0 0.14183880654046921 0.32250528078568202 0 0.1202868522871179 0.34060046584014031 0 0.14183880654046921 0.32250528078568202 0 0.14054269679001921 0.34363296691054102 0 0.1202868522871179 0.34060046584014031 0 0.14054269679001921 0.34363296691054102 0 0.13274728415341139 0.36410634055334368 0 0.13274728415341139 0.36410634055334368 0 0.15186920095361911 0.35620033980905319 0 0.15185568245476189 0.37707061606136422 0 0.14054269679001921 0.34363296691054102 0 0.13274728415341139 0.36410634055334368 0 0.15186920095361911 0.35620033980905319 0 0.1579580049025659 0.33927316190663209 0 0.14054269679001921 0.34363296691054102 0 0.15186920095361911 0.35620033980905319 0 0.15352992747694119 0.40026604784697911 0 0.13692284990477191 0.38930777957628943 0 0.1397509022148696 0.40843688002483958 0 0.15352992747694119 0.40026604784697911 0 0.15185568245476189 0.37707061606136422 0 0.13692284990477191 0.38930777957628943 0 0.13274728415341139 0.36410634055334368 0 0.15185568245476189 0.37707061606136422 0 0.13692284990477191 0.38930777957628943 0 0.119448870245615 0.38256434187866972 0 0.13274728415341139 0.36410634055334368 0 0.13692284990477191 0.38930777957628943 0 0.115428724103706 0.40267530492779557 0 0.13692284990477191 0.38930777957628943 0 0.1397509022148696 0.40843688002483958 0 0.12259086230274099 0.42947812748907283 0 0.1397509022148696 0.40843688002483958 0 0.14363603346764281 0.42707530835579988 0 0.12259086230274099 0.42947812748907283 0 0.115428724103706 0.40267530492779557 0 0.1397509022148696 0.40843688002483958 0 0.12259086230274099 0.42947812748907283 0 0.14363603346764281 0.42707530835579988 0 0.13510526379757609 0.44116740875256688 0 0.14363603346764281 0.42707530835579988 0 0.16526304614212209 0.42908608809292892 0 0.1507341445198021 0.44370602134863157 0 0.14363603346764281 0.42707530835579988 0 0.15527295380072001 0.4153931176925994 0 0.16526304614212209 0.42908608809292892 0 0.14363603346764281 0.42707530835579988 0 0.1507341445198021 0.44370602134863157 0 0.13510526379757609 0.44116740875256688 0 0.1397509022148696 0.40843688002483958 0 0.14363603346764281 0.42707530835579988 0 0.15527295380072001 0.4153931176925994 0 0.15352992747694119 0.40026604784697911 0 0.1397509022148696 0.40843688002483958 0 0.15527295380072001 0.4153931176925994 0 0.15527295380072001 0.4153931176925994 0 0.1711416470664554 0.41062619466687539 0 0.16526304614212209 0.42908608809292892 0 0.15352992747694119 0.40026604784697911 0 0.15527295380072001 0.4153931176925994 0 0.1711416470664554 0.41062619466687539 0 0.16526304614212209 0.42908608809292892 0 0.1809560021812836 0.43814832633623357 0 0.16598328874466911 0.44273574664910909 0 0.16526304614212209 0.42908608809292892 0 0.18469425222239219 0.42125941149134333 0 0.1809560021812836 0.43814832633623357 0 0.1711416470664554 0.41062619466687539 0 0.16526304614212209 0.42908608809292892 0 0.18469425222239219 0.42125941149134333 0 0.1711416470664554 0.41062619466687539 0 0.18469425222239219 0.42125941149134333 0 0.1843100454414533 0.40126956181167389 0 0.1711416470664554 0.41062619466687539 0 0.1843100454414533 0.40126956181167389 0 0.16952276405911931 0.3912061138884545 0 0.1843100454414533 0.40126956181167389 0 0.16952276405911931 0.3912061138884545 0 0.18589276442329861 0.38606835492789338 0 0.15352992747694119 0.40026604784697911 0 0.1711416470664554 0.41062619466687539 0 0.16952276405911931 0.3912061138884545 0 0.15352992747694119 0.40026604784697911 0 0.15185568245476189 0.37707061606136422 0 0.16952276405911931 0.3912061138884545 0 0.17197644233242751 0.37002706837148541 0 0.15185568245476189 0.37707061606136422 0 0.16952276405911931 0.3912061138884545 0 0.17197644233242751 0.37002706837148541 0 0.16952276405911931 0.3912061138884545 0 0.18589276442329861 0.38606835492789338 0 0.19217836357317111 0.36996972767433872 0 0.17197644233242751 0.37002706837148541 0 0.18589276442329861 0.38606835492789338 0 0.18589276442329861 0.38606835492789338 0 0.20289108470775991 0.38370682355227331 0 0.19700705340585539 0.39579078134538831 0 0.19217836357317111 0.36996972767433872 0 0.18589276442329861 0.38606835492789338 0 0.20289108470775991 0.38370682355227331 0 0.19700705340585539 0.39579078134538831 0 0.21316338490038089 0.39704202397260657 0 0.19877798755638451 0.41086714246249401 0 0.1843100454414533 0.40126956181167389 0 0.19700705340585539 0.39579078134538831 0 0.19877798755638451 0.41086714246249401 0 0.1843100454414533 0.40126956181167389 0 0.18589276442329861 0.38606835492789338 0 0.19700705340585539 0.39579078134538831 0 0.20289108470775991 0.38370682355227331 0 0.19700705340585539 0.39579078134538831 0 0.21316338490038089 0.39704202397260657 0 0.20931495008602691 0.36890180222237801 0 0.20289108470775991 0.38370682355227331 0 0.21961872799640589 0.38146559318592133 0 0.20289108470775991 0.38370682355227331 0 0.21316338490038089 0.39704202397260657 0 0.21961872799640589 0.38146559318592133 0 0.22513916990612379 0.36868200325308897 0 0.21961872799640589 0.38146559318592133 0 0.2386764282036242 0.37725286527910618 0 0.21961872799640589 0.38146559318592133 0 0.22852735017452019 0.39320804083607441 0 0.2386764282036242 0.37725286527910618 0 0.21316338490038089 0.39704202397260657 0 0.21961872799640589 0.38146559318592133 0 0.22852735017452019 0.39320804083607441 0 0.21316338490038089 0.39704202397260657 0 0.22852735017452019 0.39320804083607441 0 0.22983145469658259 0.40925978250573319 0 0.21316338490038089 0.39704202397260657 0 0.22983145469658259 0.40925978250573319 0 0.22852735017452019 0.39320804083607441 0 0.2429624777480478 0.39890547698508871 0 0.22983145469658259 0.40925978250573319 0 0.2429624777480478 0.39890547698508871 0 0.2386764282036242 0.37725286527910618 0 0.22852735017452019 0.39320804083607441 0 0.2429624777480478 0.39890547698508871 0 0.2386764282036242 0.37725286527910618 0 0.2429624777480478 0.39890547698508871 0 0.2386764282036242 0.37725286527910618 0 0.25341304662754638 0.38974012394171498 0 0.2386764282036242 0.37725286527910618 0 0.25383912625151372 0.37755129754335942 0 0.25341304662754638 0.38974012394171498 0 0.24649952449278431 0.42147754103885982 0 0.22996656543308741 0.44177288309861867 0 0.24946733303660301 0.43176723098649622 0 0.24649952449278431 0.42147754103885982 0 0.22996656543308741 0.44177288309861867 0 0.24649952449278431 0.42147754103885982 0 0.22738899126970491 0.42458926785457718 0 0.22996656543308741 0.44177288309861867 0 0.24946733303660301 0.43176723098649622 0 0.24649952449278431 0.42147754103885982 0 0.2429624777480478 0.39890547698508871 0 0.24649952449278431 0.42147754103885982 0 0.24649952449278431 0.42147754103885982 0 0.22983145469658259 0.40925978250573319 0 0.22738899126970491 0.42458926785457718 0 0.24649952449278431 0.42147754103885982 0 0.22983145469658259 0.40925978250573319 0 0.2429624777480478 0.39890547698508871 0 0.24649952449278431 0.42147754103885982 0 0.22983145469658259 0.40925978250573319 0 0.21316338490038089 0.39704202397260657 0 0.22983145469658259 0.40925978250573319 0 0.21370806227123909 0.41789950377956148 0 0.22983145469658259 0.40925978250573319 0 0.22738899126970491 0.42458926785457718 0 0.21370806227123909 0.41789950377956148 0 0.22738899126970491 0.42458926785457718 0 0.21739304288862979 0.43200563017257382 0 0.22996656543308741 0.44177288309861867 0 0.22738899126970491 0.42458926785457718 0 0.21739304288862979 0.43200563017257382 0 0.21370806227123909 0.41789950377956148 0 0.21739304288862979 0.43200563017257382 0 0.1999317510848099 0.43097584272053618 0 0.2111195299095035 0.44359306409302351 0 0.21739304288862979 0.43200563017257382 0 0.21370806227123909 0.41789950377956148 0 0.1999317510848099 0.43097584272053618 0 0.21370806227123909 0.41789950377956148 0 0.19877798755638451 0.41086714246249401 0 0.1999317510848099 0.43097584272053618 0 0.21316338490038089 0.39704202397260657 0 0.21370806227123909 0.41789950377956148 0 0.19877798755638451 0.41086714246249401 0 0.18469425222239219 0.42125941149134333 0 0.19877798755638451 0.41086714246249401 0 0.1999317510848099 0.43097584272053618 0 0.18469425222239219 0.42125941149134333 0 0.1843100454414533 0.40126956181167389 0 0.19877798755638451 0.41086714246249401 0 0.18469425222239219 0.42125941149134333 0 0.1999317510848099 0.43097584272053618 0 0.1809560021812836 0.43814832633623357 0 0.1999317510848099 0.43097584272053618 0 0.19479511809318301 0.4526549487178691 0 0.2111195299095035 0.44359306409302351 0 0.1999317510848099 0.43097584272053618 0 0.19479511809318301 0.4526549487178691 0 0.1809560021812836 0.43814832633623357 0 0.19479511809318301 0.4526549487178691 0 0.213169792932182 0.46047172596691099 0 0.19211155850092579 0.47790980627879082 0 0.19479511809318301 0.4526549487178691 0 0.19211155850092579 0.47790980627879082 0 0.18348770279874721 0.46143911161818069 0 0.213169792932182 0.46047172596691099 0 0.2111195299095035 0.44359306409302351 0 0.22996656543308741 0.44177288309861867 0 0.19479511809318301 0.4526549487178691 0 0.213169792932182 0.46047172596691099 0 0.2111195299095035 0.44359306409302351 0 0.21739304288862979 0.43200563017257382 0 0.2111195299095035 0.44359306409302351 0 0.22996656543308741 0.44177288309861867 0 0.22996656543308741 0.44177288309861867 0 0.22854105436186559 0.46372788353366717 0 0.24141841662185301 0.45603819576859073 0 0.213169792932182 0.46047172596691099 0 0.22854105436186559 0.46372788353366717 0 0.221321310837439 0.47674074212904899 0 0.213169792932182 0.46047172596691099 0 0.22996656543308741 0.44177288309861867 0 0.22854105436186559 0.46372788353366717 0 0.24141841662185301 0.45603819576859073 0 0.23645949407781469 0.47608243786178739 0 0.25047151807745072 0.47036873115219768 0 0.22854105436186559 0.46372788353366717 0 0.24141841662185301 0.45603819576859073 0 0.23645949407781469 0.47608243786178739 0 0.24141841662185301 0.45603819576859073 0 0.25047151807745072 0.47036873115219768 0 0.25477099823403621 0.45804476415031298 0 0.24141841662185301 0.45603819576859073 0 0.25282491994113748 0.44831200937164878 0 0.25477099823403621 0.45804476415031298 0 0.22996656543308741 0.44177288309861867 0 0.24141841662185301 0.45603819576859073 0 0.24583280085865111 0.44361242472787987 0 0.24946733303660301 0.43176723098649622 0 0.22996656543308741 0.44177288309861867 0 0.24583280085865111 0.44361242472787987 0 0.24141841662185301 0.45603819576859073 0 0.24583280085865111 0.44361242472787987 0 0.25282491994113748 0.44831200937164878 0 0.24904418528453851 0.48634810883828161 0 0.23645949407781469 0.47608243786178739 0 0.23352830384551029 0.49999999999999978 0 0.24904418528453851 0.48634810883828161 0 0.23352830384551029 0.49999999999999978 0 0.25181722630913472 0.5 0 0.24904418528453851 0.48634810883828161 0 0.23645949407781469 0.47608243786178739 0 0.25047151807745072 0.47036873115219768 0 0.23645949407781469 0.47608243786178739 0 0.221321310837439 0.47674074212904899 0 0.23352830384551029 0.49999999999999978 0 0.22854105436186559 0.46372788353366717 0 0.23645949407781469 0.47608243786178739 0 0.221321310837439 0.47674074212904899 0 0.23352830384551029 0.49999999999999978 0 0.2128199311732181 0.48895490313939532 0 0.21702906166474581 0.5 0 0.23352830384551029 0.49999999999999978 0 0.2128199311732181 0.48895490313939532 0 0.221321310837439 0.47674074212904899 0 0.23352830384551029 0.49999999999999978 0 0.2128199311732181 0.48895490313939532 0 0.2128199311732181 0.48895490313939532 0 0.21702906166474581 0.5 0 0.20052981948398141 0.49999999999999989 0 0.213169792932182 0.46047172596691099 0 0.221321310837439 0.47674074212904899 0 0.19211155850092579 0.47790980627879082 0 0.221321310837439 0.47674074212904899 0 0.2128199311732181 0.48895490313939532 0 0.19211155850092579 0.47790980627879082 0 0.2128199311732181 0.48895490313939532 0 0.19211155850092579 0.47790980627879082 0 0.2128199311732181 0.48895490313939532 0 0.20052981948398141 0.49999999999999989 0 0.19295831529489699 0.4905304616351287 0 0.2128199311732181 0.48895490313939532 0 0.19211155850092579 0.47790980627879082 0 0.19295831529489699 0.4905304616351287 0 0.20052981948398141 0.49999999999999989 0 0.1839227339461352 0.49861489743603538 0 0.20052981948398141 0.49999999999999989 0 0.19295831529489699 0.4905304616351287 0 0.1839227339461352 0.49861489743603538 0 0.19211155850092579 0.47790980627879082 0 0.19295831529489699 0.4905304616351287 0 0.1809625144841838 0.48570342190566712 0 0.1839227339461352 0.49861489743603538 0 0.1809625144841838 0.48570342190566712 0 0.16731564840828889 0.49722979487207219 0 0.1839227339461352 0.49861489743603538 0 0.16731564840828889 0.49722979487207219 0 0.1839227339461352 0.49861489743603538 0 0.1669427425872391 0.49999999999999922 0 0.16731564840828889 0.49722979487207219 0 0.19295831529489699 0.4905304616351287 0 0.1839227339461352 0.49861489743603538 0 0.1809625144841838 0.48570342190566712 0 0.1809625144841838 0.48570342190566712 0 0.16731564840828889 0.49722979487207219 0 0.16935941711846161 0.48204725214512889 0 0.16731564840828889 0.49722979487207219 0 0.157708884996551 0.48584061526662409 0 0.14611751268168829 0.49546177892012921 0 0.16731564840828889 0.49722979487207219 0 0.14611751268168829 0.49546177892012921 0 0.1669427425872391 0.49999999999999922 0 0.16731564840828889 0.49722979487207219 0 0.14611751268168829 0.49546177892012921 0 0.1669427425872391 0.49999999999999922 0 0.16731564840828889 0.49722979487207219 0 0.16731564840828889 0.49722979487207219 0 0.16935941711846161 0.48204725214512889 0 0.16731564840828889 0.49722979487207219 0 0.157708884996551 0.48584061526662409 0 0.16935941711846161 0.48204725214512889 0 0.16382575626869561 0.4735735187060508 0 0.15802571703479451 0.46684670821381258 0 0.1531189490294651 0.47544631339495541 0 0.157708884996551 0.48584061526662409 0 0.16382575626869561 0.4735735187060508 0 0.1531189490294651 0.47544631339495541 0 0.157708884996551 0.48584061526662409 0 0.16382575626869561 0.4735735187060508 0 0.16935941711846161 0.48204725214512889 0 0.16935941711846161 0.48204725214512889 0 0.17140318582863401 0.46686470941818559 0 0.16382575626869561 0.4735735187060508 0 0.16935941711846161 0.48204725214512889 0 0.17140318582863401 0.46686470941818559 0 0.1809625144841838 0.48570342190566712 0 0.16935941711846161 0.48204725214512889 0 0.17140318582863401 0.46686470941818559 0 0.19211155850092579 0.47790980627879082 0 0.1809625144841838 0.48570342190566712 0 0.17140318582863401 0.46686470941818559 0 0.19211155850092579 0.47790980627879082 0 0.17140318582863401 0.46686470941818559 0 0.19479511809318301 0.4526549487178691 0 0.18348770279874721 0.46143911161818069 0 0.17341546959919829 0.45191605883299152 0 0.19211155850092579 0.47790980627879082 0 0.18348770279874721 0.46143911161818069 0 0.17140318582863401 0.46686470941818559 0 0.18348770279874721 0.46143911161818069 0 0.17341546959919829 0.45191605883299152 0 0.17140318582863401 0.46686470941818559 0 0.17341546959919829 0.45191605883299152 0 0.17140318582863401 0.46686470941818559 0 0.19479511809318301 0.4526549487178691 0 0.1809560021812836 0.43814832633623357 0 0.17341546959919829 0.45191605883299152 0 0.1809560021812836 0.43814832633623357 0 0.17341546959919829 0.45191605883299152 0 0.16598328874466911 0.44273574664910909 0 0.17341546959919829 0.45191605883299152 0 0.16598328874466911 0.44273574664910909 0 0.15954778128093949 0.4508222386347599 0 0.16598328874466911 0.44273574664910909 0 0.15954778128093949 0.4508222386347599 0 0.1507341445198021 0.44370602134863157 0 0.16526304614212209 0.42908608809292892 0 0.16598328874466911 0.44273574664910909 0 0.1507341445198021 0.44370602134863157 0 0.16382575626869561 0.4735735187060508 0 0.1651762257979181 0.46354347419730452 0 0.17140318582863401 0.46686470941818559 0 0.1651762257979181 0.46354347419730452 0 0.17140318582863401 0.46686470941818559 0 0.17341546959919829 0.45191605883299152 0 0.1651762257979181 0.46354347419730452 0 0.17140318582863401 0.46686470941818559 0 0.17341546959919829 0.45191605883299152 0 0.15954778128093949 0.4508222386347599 0 0.1651762257979181 0.46354347419730452 0 0.15954778128093949 0.4508222386347599 0 0.1651762257979181 0.46354347419730452 0 0.1582471669695637 0.45974252444074731 0 0.16382575626869561 0.4735735187060508 0 0.1651762257979181 0.46354347419730452 0 0.15802571703479451 0.46684670821381258 0 0.1651762257979181 0.46354347419730452 0 0.1582471669695637 0.45974252444074731 0 0.15802571703479451 0.46684670821381258 0 0.14976048710833001 0.46192771033000529 0 0.1507341445198021 0.44370602134863157 0 0.136404492151351 0.45486193181106682 0 0.1582471669695637 0.45974252444074731 0 0.15802571703479451 0.46684670821381258 0 0.14976048710833001 0.46192771033000529 0 0.15802571703479451 0.46684670821381258 0 0.14976048710833001 0.46192771033000529 0 0.1531189490294651 0.47544631339495541 0 0.15954778128093949 0.4508222386347599 0 0.1582471669695637 0.45974252444074731 0 0.14976048710833001 0.46192771033000529 0 0.14976048710833001 0.46192771033000529 0 0.136404492151351 0.45486193181106682 0 0.13663143795624749 0.46910754811773492 0 0.15954778128093949 0.4508222386347599 0 0.14976048710833001 0.46192771033000529 0 0.1507341445198021 0.44370602134863157 0 0.1507341445198021 0.44370602134863157 0 0.13510526379757609 0.44116740875256688 0 0.136404492151351 0.45486193181106682 0 0.1221607865463437 0.4507156547582637 0 0.12259086230274099 0.42947812748907283 0 0.13510526379757609 0.44116740875256688 0 0.1221607865463437 0.4507156547582637 0 0.13510526379757609 0.44116740875256688 0 0.136404492151351 0.45486193181106682 0 0.136404492151351 0.45486193181106682 0 0.1267882431275838 0.46370707134437261 0 0.13663143795624749 0.46910754811773492 0 0.1221607865463437 0.4507156547582637 0 0.136404492151351 0.45486193181106682 0 0.1267882431275838 0.46370707134437261 0 0.1267882431275838 0.46370707134437261 0 0.12569724768963239 0.47617993877849962 0 0.13663143795624749 0.46910754811773492 0 0.12569724768963239 0.47617993877849962 0 0.13663143795624749 0.46910754811773492 0 0.1364132019148096 0.48384982340983701 0 0.13663143795624749 0.46910754811773492 0 0.1364132019148096 0.48384982340983701 0 0.14361111091913481 0.47574478002545789 0 0.1249193769550877 0.49369376296818718 0 0.1364132019148096 0.48384982340983701 0 0.14611751268168829 0.49546177892012921 0 0.1249193769550877 0.49369376296818718 0 0.14611751268168829 0.49546177892012921 0 0.1249193769550877 0.49369376296818718 0 0.12569724768963239 0.47617993877849962 0 0.1364132019148096 0.48384982340983701 0 0.1249193769550877 0.49369376296818718 0 0.13738437864054501 0.5 0 0.14611751268168829 0.49546177892012921 0 0.1364132019148096 0.48384982340983701 0 0.14611751268168829 0.49546177892012921 0 0.14718343377546941 0.48347361591025501 0 0.1669427425872391 0.49999999999999922 0 0.13738437864054501 0.5 0 0.14611751268168829 0.49546177892012921 0 0.157708884996551 0.48584061526662409 0 0.14611751268168829 0.49546177892012921 0 0.14718343377546941 0.48347361591025501 0 0.157708884996551 0.48584061526662409 0 0.1531189490294651 0.47544631339495541 0 0.14718343377546941 0.48347361591025501 0 0.14976048710833001 0.46192771033000529 0 0.1531189490294651 0.47544631339495541 0 0.14361111091913481 0.47574478002545789 0 0.14976048710833001 0.46192771033000529 0 0.13663143795624749 0.46910754811773492 0 0.14361111091913481 0.47574478002545789 0 0.1364132019148096 0.48384982340983701 0 0.14361111091913481 0.47574478002545789 0 0.14718343377546941 0.48347361591025501 0 0.1531189490294651 0.47544631339495541 0 0.14361111091913481 0.47574478002545789 0 0.14718343377546941 0.48347361591025501 0 0.35832214194920592 0.47929915408112939 0 0.34611268429232461 0.46591887339206078 0 0.3375369348076922 0.4829399206954248 0 0.35832214194920592 0.47929915408112939 0 0.35850557312216419 0.5 0 0.3375369348076922 0.4829399206954248 0 0.35850557312216419 0.5 0 0.37801407526051067 0.48065415083330842 0 0.38797204790529932 0.5 0 0.35832214194920592 0.47929915408112939 0 0.35850557312216419 0.5 0 0.37801407526051067 0.48065415083330842 0 0.35832214194920592 0.47929915408112939 0 0.36980735363827261 0.46050290225189661 0 0.37801407526051067 0.48065415083330842 0 0.36980735363827261 0.46050290225189661 0 0.34502769605759259 0.44546544446971242 0 0.36959298495063608 0.43610817863788948 0 0.35832214194920592 0.47929915408112939 0 0.36980735363827261 0.46050290225189661 0 0.34611268429232461 0.46591887339206078 0 0.36980735363827261 0.46050290225189661 0 0.34502769605759259 0.44546544446971242 0 0.34611268429232461 0.46591887339206078 0 0.36980735363827261 0.46050290225189661 0 0.34611268429232461 0.46591887339206078 0 0.34611268429232461 0.46591887339206078 0 0.3317687487832644 0.45597005559148451 0 0.32241801494637662 0.47133484453222518 0 0.34502769605759259 0.44546544446971242 0 0.34611268429232461 0.46591887339206078 0 0.3317687487832644 0.45597005559148451 0 0.34611268429232461 0.46591887339206078 0 0.32241801494637662 0.47133484453222518 0 0.34502769605759259 0.44546544446971242 0 0.3317687487832644 0.45597005559148451 0 0.32480939915707069 0.44218818576869201 0 0.34502769605759259 0.44546544446971242 0 0.32480939915707069 0.44218818576869201 0 0.33523501366627878 0.43221560569608392 0 0.3107318966111981 0.4514989769174147 0 0.3227404476219688 0.42624713816244092 0 0.3317687487832644 0.45597005559148451 0 0.32480939915707069 0.44218818576869201 0 0.3107318966111981 0.4514989769174147 0 0.32480939915707069 0.44218818576869201 0 0.3107318966111981 0.4514989769174147 0 0.3227404476219688 0.42624713816244092 0 0.3317687487832644 0.45597005559148451 0 0.32241801494637662 0.47133484453222518 0 0.3107318966111981 0.4514989769174147 0 0.32241801494637662 0.47133484453222518 0 0.3375369348076922 0.4829399206954248 0 0.31372501333874958 0.48784291822244708 0 0.34611268429232461 0.46591887339206078 0 0.32241801494637662 0.47133484453222518 0 0.3375369348076922 0.4829399206954248 0 0.35850557312216419 0.5 0 0.3375369348076922 0.4829399206954248 0 0.32903909833902928 0.5 0 0.32903909833902928 0.5 0 0.31372501333874958 0.48784291822244708 0 0.29957262355589431 0.5 0 0.3375369348076922 0.4829399206954248 0 0.32903909833902928 0.5 0 0.31372501333874958 0.48784291822244708 0 0.31372501333874958 0.48784291822244708 0 0.30130976803097798 0.48891801032572652 0 0.29957262355589431 0.5 0 0.31372501333874958 0.48784291822244708 0 0.30130976803097798 0.48891801032572652 0 0.29872334560042851 0.47675081567238892 0 0.30130976803097798 0.48891801032572652 0 0.29957262355589431 0.5 0 0.28978827390519868 0.49553967616935518 0 0.32241801494637662 0.47133484453222518 0 0.29872334560042851 0.47675081567238892 0 0.32241801494637662 0.47133484453222518 0 0.31372501333874958 0.48784291822244708 0 0.29872334560042851 0.47675081567238892 0 0.29872334560042851 0.47675081567238892 0 0.28397488520641462 0.48012192141307769 0 0.28978827390519868 0.49553967616935518 0 0.29872334560042851 0.47675081567238892 0 0.28929399795500932 0.47058792179259418 0 0.29703527816799058 0.46117092995693892 0 0.29872334560042851 0.47675081567238892 0 0.28929399795500932 0.47058792179259418 0 0.28397488520641462 0.48012192141307769 0 0.29872334560042851 0.47675081567238892 0 0.28397488520641462 0.48012192141307769 0 0.28929399795500932 0.47058792179259418 0 0.28397488520641462 0.48012192141307769 0 0.27920072977811172 0.47805830749059319 0 0.28397488520641462 0.48012192141307769 0 0.28978827390519868 0.49553967616935518 0 0.27010614877275918 0.50000000000000067 0 0.29957262355589431 0.5 0 0.28978827390519868 0.49553967616935518 0 0.27010614877275918 0.50000000000000067 0 0.30130976803097798 0.48891801032572652 0 0.29872334560042851 0.47675081567238892 0 0.28978827390519868 0.49553967616935518 0 0.29872334560042851 0.47675081567238892 0 0.28978827390519868 0.49553967616935518 0 0.28397488520641462 0.48012192141307769 0 0.27010614877275918 0.50000000000000067 0 0.27920072977811172 0.47805830749059319 0 0.27010614877275918 0.50000000000000067 0 0.26909437115437917 0.48384867389528768 0 0.26130641782501518 0.49139676135406141 0 0.27010614877275918 0.50000000000000067 0 0.27920072977811172 0.47805830749059319 0 0.26909437115437917 0.48384867389528768 0 0.27010614877275918 0.50000000000000067 0 0.27920072977811172 0.47805830749059319 0 0.27920072977811172 0.47805830749059319 0 0.27306774476234302 0.47644699960251641 0 0.26909437115437917 0.48384867389528768 0 0.27920072977811172 0.47805830749059319 0 0.27306774476234302 0.47644699960251641 0 0.27643472525740193 0.46726539210963169 0 0.26824582816420722 0.47348896141386071 0 0.27306774476234302 0.47644699960251641 0 0.27643472525740193 0.46726539210963169 0 0.26824582816420722 0.47348896141386071 0 0.26909437115437917 0.48384867389528768 0 0.25993240985832161 0.47939275616227872 0 0.26824582816420722 0.47348896141386071 0 0.27306774476234302 0.47644699960251641 0 0.26909437115437917 0.48384867389528768 0 0.24904418528453851 0.48634810883828161 0 0.25993240985832161 0.47939275616227872 0 0.25047151807745072 0.47036873115219768 0 0.26824582816420722 0.47348896141386071 0 0.25993240985832161 0.47939275616227872 0 0.26165523792153211 0.46576309323832682 0 0.25993240985832161 0.47939275616227872 0 0.25047151807745072 0.47036873115219768 0 0.26165523792153211 0.46576309323832682 0 0.27010614877275918 0.50000000000000067 0 0.25181722630913472 0.5 0 0.26130641782501518 0.49139676135406141 0 0.24904418528453851 0.48634810883828161 0 0.25993240985832161 0.47939275616227872 0 0.26130641782501518 0.49139676135406141 0 0.24904418528453851 0.48634810883828161 0 0.25181722630913472 0.5 0 0.26130641782501518 0.49139676135406141 0 0.26909437115437917 0.48384867389528768 0 0.25993240985832161 0.47939275616227872 0 0.26130641782501518 0.49139676135406141 0 0.26490489917960358 0.45079530358348557 0 0.25548676926057468 0.44017180441404491 0 0.26331147225899149 0.43380076267102891 0 0.24946733303660301 0.43176723098649622 0 0.24583280085865111 0.44361242472787987 0 0.25548676926057468 0.44017180441404491 0 0.24583280085865111 0.44361242472787987 0 0.25548676926057468 0.44017180441404491 0 0.25282491994113748 0.44831200937164878 0 0.26490489917960358 0.45079530358348557 0 0.25548676926057468 0.44017180441404491 0 0.25282491994113748 0.44831200937164878 0 0.26490489917960358 0.45079530358348557 0 0.25282491994113748 0.44831200937164878 0 0.25477099823403621 0.45804476415031298 0 0.25047151807745072 0.47036873115219768 0 0.25477099823403621 0.45804476415031298 0 0.26165523792153211 0.46576309323832682 0 0.26490489917960358 0.45079530358348557 0 0.25477099823403621 0.45804476415031298 0 0.26165523792153211 0.46576309323832682 0 0.26490489917960358 0.45079530358348557 0 0.27160577401557351 0.46248804296782559 0 0.27679169795675967 0.45600994403837303 0 0.26490489917960358 0.45079530358348557 0 0.26165523792153211 0.46576309323832682 0 0.27160577401557351 0.46248804296782559 0 0.26824582816420722 0.47348896141386071 0 0.27160577401557351 0.46248804296782559 0 0.27643472525740193 0.46726539210963169 0 0.26824582816420722 0.47348896141386071 0 0.26165523792153211 0.46576309323832682 0 0.27160577401557351 0.46248804296782559 0 0.27160577401557351 0.46248804296782559 0 0.27643472525740193 0.46726539210963169 0 0.27679169795675967 0.45600994403837303 0 0.27643472525740193 0.46726539210963169 0 0.27679169795675967 0.45600994403837303 0 0.28829531078346382 0.45611661498118572 0 0.27903440424894049 0.4453257315987294 0 0.26331147225899149 0.43380076267102891 0 0.26490489917960358 0.45079530358348557 0 0.27903440424894049 0.4453257315987294 0 0.26331147225899149 0.43380076267102891 0 0.26490489917960358 0.45079530358348557 0 0.27679169795675967 0.45600994403837303 0 0.27903440424894049 0.4453257315987294 0 0.27903440424894049 0.4453257315987294 0 0.2917470315179379 0.44281751567604499 0 0.28179675760275558 0.42932557237874241 0 0.27679169795675967 0.45600994403837303 0 0.27903440424894049 0.4453257315987294 0 0.28829531078346382 0.45611661498118572 0 0.27903440424894049 0.4453257315987294 0 0.2917470315179379 0.44281751567604499 0 0.28829531078346382 0.45611661498118572 0 0.2917470315179379 0.44281751567604499 0 0.28829531078346382 0.45611661498118572 0 0.29813183988985342 0.45090032042111128 0 0.27920072977811172 0.47805830749059319 0 0.27643472525740193 0.46726539210963169 0 0.28829531078346382 0.45611661498118572 0 0.28929399795500932 0.47058792179259418 0 0.27920072977811172 0.47805830749059319 0 0.28829531078346382 0.45611661498118572 0 0.27920072977811172 0.47805830749059319 0 0.28829531078346382 0.45611661498118572 0 0.28829531078346382 0.45611661498118572 0 0.29703527816799058 0.46117092995693892 0 0.29813183988985342 0.45090032042111128 0 0.28929399795500932 0.47058792179259418 0 0.28829531078346382 0.45611661498118572 0 0.29703527816799058 0.46117092995693892 0 0.29872334560042851 0.47675081567238892 0 0.29703527816799058 0.46117092995693892 0 0.3107318966111981 0.4514989769174147 0 0.29872334560042851 0.47675081567238892 0 0.3107318966111981 0.4514989769174147 0 0.32241801494637662 0.47133484453222518 0 0.29872334560042851 0.47675081567238892 0 0.3107318966111981 0.4514989769174147 0 0.29703527816799058 0.46117092995693892 0 0.29813183988985342 0.45090032042111128 0 0.3107318966111981 0.4514989769174147 0 0.30159082278473881 0.44219288247638061 0 0.3107318966111981 0.4514989769174147 0 0.30884109342504262 0.43428586920116352 0 0.2917470315179379 0.44281751567604499 0 0.30159082278473881 0.44219288247638061 0 0.29850225247966211 0.43146173016616862 0 0.2917470315179379 0.44281751567604499 0 0.30159082278473881 0.44219288247638061 0 0.29813183988985342 0.45090032042111128 0 0.30159082278473881 0.44219288247638061 0 0.29813183988985342 0.45090032042111128 0 0.3107318966111981 0.4514989769174147 0 0.30884109342504262 0.43428586920116352 0 0.29850225247966211 0.43146173016616862 0 0.30862162828234507 0.42004495563460759 0 0.29850225247966211 0.43146173016616862 0 0.30862162828234507 0.42004495563460759 0 0.29547148538100448 0.41817397575591742 0 0.30159082278473881 0.44219288247638061 0 0.30884109342504262 0.43428586920116352 0 0.29850225247966211 0.43146173016616862 0 0.30862162828234507 0.42004495563460759 0 0.30304430461131138 0.40735012112542651 0 0.3196782615082488 0.40265332564926309 0 0.30862162828234507 0.42004495563460759 0 0.30304430461131138 0.40735012112542651 0 0.29547148538100448 0.41817397575591742 0 0.30304430461131138 0.40735012112542651 0 0.29062365375375682 0.40708788978866228 0 0.29547148538100448 0.41817397575591742 0 0.29062365375375682 0.40708788978866228 0 0.29547148538100448 0.41817397575591742 0 0.28288479604298378 0.41446876034122271 0 0.29547148538100448 0.41817397575591742 0 0.28288479604298378 0.41446876034122271 0 0.28179675760275558 0.42932557237874241 0 0.29062365375375682 0.40708788978866228 0 0.28288479604298378 0.41446876034122271 0 0.28001120465417539 0.40182109974822727 0 0.29850225247966211 0.43146173016616862 0 0.29547148538100448 0.41817397575591742 0 0.28179675760275558 0.42932557237874241 0 0.2917470315179379 0.44281751567604499 0 0.29850225247966211 0.43146173016616862 0 0.28179675760275558 0.42932557237874241 0 0.28179675760275558 0.42932557237874241 0 0.27042562322166658 0.41684269204638819 0 0.26331147225899149 0.43380076267102891 0 0.27903440424894049 0.4453257315987294 0 0.28179675760275558 0.42932557237874241 0 0.26331147225899149 0.43380076267102891 0 0.27042562322166658 0.41684269204638819 0 0.26380858941988822 0.4002294757553399 0 0.28001120465417539 0.40182109974822727 0 0.28288479604298378 0.41446876034122271 0 0.28179675760275558 0.42932557237874241 0 0.27042562322166658 0.41684269204638819 0 0.28288479604298378 0.41446876034122271 0 0.27042562322166658 0.41684269204638819 0 0.28001120465417539 0.40182109974822727 0 0.24649952449278431 0.42147754103885982 0 0.25492995388566009 0.41993008507457552 0 0.26380858941988822 0.4002294757553399 0 0.27042562322166658 0.41684269204638819 0 0.25492995388566009 0.41993008507457552 0 0.26380858941988822 0.4002294757553399 0 0.24649952449278431 0.42147754103885982 0 0.26380858941988822 0.4002294757553399 0 0.2429624777480478 0.39890547698508871 0 0.24649952449278431 0.42147754103885982 0 0.26380858941988822 0.4002294757553399 0 0.24946733303660301 0.43176723098649622 0 0.24649952449278431 0.42147754103885982 0 0.26331147225899149 0.43380076267102891 0 0.24649952449278431 0.42147754103885982 0 0.25492995388566009 0.41993008507457552 0 0.26331147225899149 0.43380076267102891 0 0.24649952449278431 0.42147754103885982 0 0.26331147225899149 0.43380076267102891 0 0.27042562322166658 0.41684269204638819 0 0.25492995388566009 0.41993008507457552 0 0.26331147225899149 0.43380076267102891 0 0.24946733303660301 0.43176723098649622 0 0.25548676926057468 0.44017180441404491 0 0.26331147225899149 0.43380076267102891 0 0.26350653962281989 0.38010735630523079 0 0.25341304662754638 0.38974012394171498 0 0.26380858941988822 0.4002294757553399 0 0.26350653962281989 0.38010735630523079 0 0.25383912625151372 0.37755129754335942 0 0.25710864090743918 0.37145542319719338 0 0.26350653962281989 0.38010735630523079 0 0.25383912625151372 0.37755129754335942 0 0.25341304662754638 0.38974012394171498 0 0.2429624777480478 0.39890547698508871 0 0.25341304662754638 0.38974012394171498 0 0.26380858941988822 0.4002294757553399 0 0.26380858941988822 0.4002294757553399 0 0.28001120465417539 0.40182109974822727 0 0.28036865154730628 0.37990086281960789 0 0.26350653962281989 0.38010735630523079 0 0.28036865154730628 0.37990086281960789 0 0.2641967246118288 0.36596915937278562 0 0.26380858941988822 0.4002294757553399 0 0.28036865154730628 0.37990086281960789 0 0.26350653962281989 0.38010735630523079 0 0.26380858941988822 0.4002294757553399 0 0.28036865154730628 0.37990086281960789 0 0.28036865154730628 0.37990086281960789 0 0.29170647807930872 0.39362549197251728 0 0.2987730087010142 0.37934426936791982 0 0.28036865154730628 0.37990086281960789 0 0.29170647807930872 0.39362549197251728 0 0.28001120465417539 0.40182109974822727 0 0.28036865154730628 0.37990086281960789 0 0.29170647807930872 0.39362549197251728 0 0.29062365375375682 0.40708788978866228 0 0.28001120465417539 0.40182109974822727 0 0.29170647807930872 0.39362549197251728 0 0.30304430461131138 0.40735012112542651 0 0.29062365375375682 0.40708788978866228 0 0.29170647807930872 0.39362549197251728 0 0.30304430461131138 0.40735012112542651 0 0.30637452063024528 0.39219955594670219 0 0.3196782615082488 0.40265332564926309 0 0.30304430461131138 0.40735012112542651 0 0.29170647807930872 0.39362549197251728 0 0.30304430461131138 0.40735012112542651 0 0.29170647807930872 0.39362549197251728 0 0.30637452063024528 0.39219955594670219 0 0.30637452063024528 0.39219955594670219 0 0.2987730087010142 0.37934426936791982 0 0.31661607539452802 0.37905951313608538 0 0.29170647807930872 0.39362549197251728 0 0.30637452063024528 0.39219955594670219 0 0.2987730087010142 0.37934426936791982 0 0.31661607539452802 0.37905951313608538 0 0.32905198958534931 0.38831461949406398 0 0.3196782615082488 0.40265332564926309 0 0.31661607539452802 0.37905951313608538 0 0.32905198958534931 0.38831461949406398 0 0.33389487655237682 0.3658352592629312 0 0.32905198958534931 0.38831461949406398 0 0.34270248502322931 0.38427053755298168 0 0.33389487655237682 0.3658352592629312 0 0.32905198958534931 0.38831461949406398 0 0.34270248502322931 0.38427053755298168 0 0.33272146632259869 0.40525883785771122 0 0.34270248502322931 0.38427053755298168 0 0.33272146632259869 0.40525883785771122 0 0.34270248502322931 0.38427053755298168 0 0.33272146632259869 0.40525883785771122 0 0.34670895149724801 0.40816004440777182 0 0.31661607539452802 0.37905951313608538 0 0.3196782615082488 0.40265332564926309 0 0.32905198958534931 0.38831461949406398 0 0.33272146632259869 0.40525883785771122 0 0.3196782615082488 0.40265332564926309 0 0.30637452063024528 0.39219955594670219 0 0.31661607539452802 0.37905951313608538 0 0.3196782615082488 0.40265332564926309 0 0.3196782615082488 0.40265332564926309 0 0.3227404476219688 0.42624713816244092 0 0.30862162828234507 0.42004495563460759 0 0.3196782615082488 0.40265332564926309 0 0.3227404476219688 0.42624713816244092 0 0.33272146632259869 0.40525883785771122 0 0.3196782615082488 0.40265332564926309 0 0.3227404476219688 0.42624713816244092 0 0.33272146632259869 0.40525883785771122 0 0.3227404476219688 0.42624713816244092 0 0.32480939915707069 0.44218818576869201 0 0.3227404476219688 0.42624713816244092 0 0.3107318966111981 0.4514989769174147 0 0.30884109342504262 0.43428586920116352 0 0.3227404476219688 0.42624713816244092 0 0.32480939915707069 0.44218818576869201 0 0.3227404476219688 0.42624713816244092 0 0.33523501366627878 0.43221560569608392 0 0.30884109342504262 0.43428586920116352 0 0.30862162828234507 0.42004495563460759 0 0.3227404476219688 0.42624713816244092 0 0.34502769605759259 0.44546544446971242 0 0.33523501366627878 0.43221560569608392 0 0.34795858503051302 0.425881111768525 0 0.3227404476219688 0.42624713816244092 0 0.33523501366627878 0.43221560569608392 0 0.33659904832278342 0.4201421825902541 0 0.33523501366627878 0.43221560569608392 0 0.33659904832278342 0.4201421825902541 0 0.34795858503051302 0.425881111768525 0 0.33272146632259869 0.40525883785771122 0 0.3227404476219688 0.42624713816244092 0 0.33659904832278342 0.4201421825902541 0 0.33272146632259869 0.40525883785771122 0 0.33659904832278342 0.4201421825902541 0 0.34670895149724801 0.40816004440777182 0 0.33659904832278342 0.4201421825902541 0 0.34670895149724801 0.40816004440777182 0 0.34795858503051302 0.425881111768525 0 0.34670895149724801 0.40816004440777182 0 0.34795858503051302 0.425881111768525 0 0.36336601300371613 0.41450991002864218 0 0.34670895149724801 0.40816004440777182 0 0.36336601300371613 0.41450991002864218 0 0.35690611128064731 0.3988976866485166 0 0.34502769605759259 0.44546544446971242 0 0.34795858503051302 0.425881111768525 0 0.36959298495063608 0.43610817863788948 0 0.34795858503051302 0.425881111768525 0 0.36959298495063608 0.43610817863788948 0 0.36336601300371613 0.41450991002864218 0 0.36959298495063608 0.43610817863788948 0 0.36336601300371613 0.41450991002864218 0 0.38530342098431941 0.41064856824057122 0 0.36336601300371613 0.41450991002864218 0 0.3736470799201031 0.39378130610698531 0 0.38530342098431941 0.41064856824057122 0 0.3736470799201031 0.39378130610698531 0 0.3601059063978746 0.38125551426405008 0 0.35690611128064731 0.3988976866485166 0 0.36336601300371613 0.41450991002864218 0 0.3736470799201031 0.39378130610698531 0 0.35690611128064731 0.3988976866485166 0 0.3736470799201031 0.39378130610698531 0 0.3601059063978746 0.38125551426405008 0 0.37414389550204002 0.36898578533419818 0 0.34270248502322931 0.38427053755298168 0 0.3601059063978746 0.38125551426405008 0 0.35690611128064731 0.3988976866485166 0 0.34270248502322931 0.38427053755298168 0 0.3601059063978746 0.38125551426405008 0 0.35268350372385993 0.36328223724825232 0 0.34270248502322931 0.38427053755298168 0 0.34670895149724801 0.40816004440777182 0 0.35690611128064731 0.3988976866485166 0 0.35268350372385993 0.36328223724825232 0 0.36266452242448938 0.34229393694352239 0 0.35030182712711511 0.35130594720886232 0 0.35268350372385993 0.36328223724825232 0 0.36266452242448938 0.34229393694352239 0 0.35030182712711511 0.35130594720886232 0 0.35146565257524442 0.34420791440797271 0 0.36266452242448938 0.34229393694352239 0 0.35030182712711511 0.35130594720886232 0 0.35146565257524442 0.34420791440797271 0 0.34269927497721508 0.34493512072036142 0 0.35030182712711511 0.35130594720886232 0 0.35268350372385993 0.36328223724825232 0 0.33389487655237682 0.3658352592629312 0 0.34270248502322931 0.38427053755298168 0 0.35268350372385993 0.36328223724825232 0 0.3601059063978746 0.38125551426405008 0 0.35268350372385993 0.36328223724825232 0 0.37414389550204002 0.36898578533419818 0 0.35268350372385993 0.36328223724825232 0 0.37414389550204002 0.36898578533419818 0 0.36300645299402812 0.35604351837507042 0 0.37414389550204002 0.36898578533419818 0 0.37228166628853332 0.35471301169251829 0 0.36300645299402812 0.35604351837507042 0 0.35268350372385993 0.36328223724825232 0 0.36300645299402812 0.35604351837507042 0 0.36266452242448938 0.34229393694352239 0 0.37228166628853332 0.35471301169251829 0 0.36300645299402812 0.35604351837507042 0 0.36840829020790361 0.34668560051738673 0 0.36300645299402812 0.35604351837507042 0 0.36840829020790361 0.34668560051738673 0 0.36266452242448938 0.34229393694352239 0 0.36840829020790361 0.34668560051738673 0 0.36266452242448938 0.34229393694352239 0 0.36587418437400321 0.34278907974668538 0 0.37228166628853332 0.35471301169251829 0 0.36840829020790361 0.34668560051738673 0 0.37486749369974542 0.34694596905823039 0 0.37486749369974542 0.34694596905823039 0 0.37256750073976291 0.34304532959464751 0 0.37670219357667811 0.34177383067972761 0 0.36840829020790361 0.34668560051738673 0 0.37486749369974542 0.34694596905823039 0 0.37256750073976291 0.34304532959464751 0 0.36124897776362869 0.33531944770056321 0 0.36266452242448938 0.34229393694352239 0 0.36411885078159001 0.32644375487552563 0 0.37256750073976291 0.34304532959464751 0 0.36916640720496519 0.34145859007673351 0 0.37369311900952262 0.33836265764115908 0 0.37256750073976291 0.34304532959464751 0 0.37369311900952262 0.33836265764115908 0 0.37670219357667811 0.34177383067972761 0 0.36266452242448938 0.34229393694352239 0 0.37014896644917339 0.316543878568457 0 0.36770298492566261 0.33637877995368609 0 0.36266452242448938 0.34229393694352239 0 0.37368960646642962 0.31911015363466272 0 0.36770298492566261 0.33637877995368609 0 0.36985494237623989 0.33311962493185521 0 0.37368960646642962 0.31911015363466272 0 0.36266452242448938 0.34229393694352239 0 0.37368960646642962 0.31911015363466272 0 0.36266452242448938 0.34229393694352239 0 0.37014896644917339 0.316543878568457 0 0.36411885078159001 0.32644375487552563 0 0.36840829020790361 0.34668560051738673 0 0.36916640720496519 0.34145859007673351 0 0.36587418437400321 0.34278907974668538 0 0.36840829020790361 0.34668560051738673 0 0.37256750073976291 0.34304532959464751 0 0.36916640720496519 0.34145859007673351 0 0.36916640720496519 0.34145859007673351 0 0.36587418437400321 0.34278907974668538 0 0.36708394454210669 0.33994961910346172 0 0.36916640720496519 0.34145859007673351 0 0.37010024416019238 0.33739894816112592 0 0.36708394454210669 0.33994961910346172 0 0.36916640720496519 0.34145859007673351 0 0.37010024416019238 0.33739894816112592 0 0.37369311900952262 0.33836265764115908 0 0.36770298492566261 0.33637877995368609 0 0.37010024416019238 0.33739894816112592 0 0.36708394454210669 0.33994961910346172 0 0.37010024416019238 0.33739894816112592 0 0.37369311900952262 0.33836265764115908 0 0.3722735272100694 0.33425106354392481 0 0.3722735272100694 0.33425106354392481 0 0.37245621682226088 0.32924087979990557 0 0.375263113682131 0.33313320718557798 0 0.37369311900952262 0.33836265764115908 0 0.3722735272100694 0.33425106354392481 0 0.375263113682131 0.33313320718557798 0 0.3722735272100694 0.33425106354392481 0 0.37245621682226088 0.32924087979990557 0 0.36985494237623989 0.33311962493185521 0 0.37245621682226088 0.32924087979990557 0 0.37577016905582622 0.32787937856968757 0 0.375263113682131 0.33313320718557798 0 0.37010024416019238 0.33739894816112592 0 0.3722735272100694 0.33425106354392481 0 0.36985494237623989 0.33311962493185521 0 0.36770298492566261 0.33637877995368609 0 0.37010024416019238 0.33739894816112592 0 0.36985494237623989 0.33311962493185521 0 0.36128237795215928 0.33126347269122047 0 0.36124897776362869 0.33531944770056321 0 0.36411885078159001 0.32644375487552563 0 0.36150631125237548 0.32912422255951068 0 0.36128237795215928 0.33126347269122047 0 0.36411885078159001 0.32644375487552563 0 0.36150631125237548 0.32912422255951068 0 0.35994194411877378 0.32646204206530971 0 0.35835984371964152 0.33045614064968309 0 0.36128237795215928 0.33126347269122047 0 0.35899626180536931 0.33430086833413269 0 0.35835984371964152 0.33045614064968309 0 0.36150631125237548 0.32912422255951068 0 0.36128237795215928 0.33126347269122047 0 0.35835984371964152 0.33045614064968309 0 0.36128237795215928 0.33126347269122047 0 0.36124897776362869 0.33531944770056321 0 0.35899626180536931 0.33430086833413269 0 0.36124897776362869 0.33531944770056321 0 0.36001134864139028 0.33778823672905661 0 0.35899626180536931 0.33430086833413269 0 0.36124897776362869 0.33531944770056321 0 0.36001134864139028 0.33778823672905661 0 0.36266452242448938 0.34229393694352239 0 0.36001134864139028 0.33778823672905661 0 0.36266452242448938 0.34229393694352239 0 0.3582225103283424 0.33883319475427592 0 0.36266452242448938 0.34229393694352239 0 0.36587418437400321 0.34278907974668538 0 0.36708394454210669 0.33994961910346172 0 0.36770298492566261 0.33637877995368609 0 0.36266452242448938 0.34229393694352239 0 0.36708394454210669 0.33994961910346172 0 0.36266452242448938 0.34229393694352239 0 0.37368960646642962 0.31911015363466272 0 0.37014896644917339 0.316543878568457 0 0.37014896644917339 0.316543878568457 0 0.36604953812300478 0.31497278055865852 0 0.36630954626425261 0.31087512405144152 0 0.37499251130121058 0.31593455150060828 0 0.37014896644917339 0.316543878568457 0 0.37695808612291098 0.31120865645681561 0 0.37499251130121058 0.31593455150060828 0 0.37368960646642962 0.31911015363466272 0 0.37014896644917339 0.316543878568457 0 0.37014896644917339 0.316543878568457 0 0.36646072203027302 0.32009490443849897 0 0.3659238024377004 0.31770243144255911 0 0.37014896644917339 0.316543878568457 0 0.3659238024377004 0.31770243144255911 0 0.36604953812300478 0.31497278055865852 0 0.37245621682226088 0.32924087979990557 0 0.36985494237623989 0.33311962493185521 0 0.37368960646642962 0.31911015363466272 0 0.37245621682226088 0.32924087979990557 0 0.37368960646642962 0.31911015363466272 0 0.37506056064123422 0.32471797871916308 0 0.37245621682226088 0.32924087979990557 0 0.37577016905582622 0.32787937856968757 0 0.37506056064123422 0.32471797871916308 0 0.37014896644917339 0.316543878568457 0 0.36411885078159001 0.32644375487552563 0 0.36646072203027302 0.32009490443849897 0 0.36411885078159001 0.32644375487552563 0 0.35994194411877378 0.32646204206530971 0 0.36132202517978662 0.32303080634539388 0 0.36150631125237548 0.32912422255951068 0 0.36411885078159001 0.32644375487552563 0 0.35994194411877378 0.32646204206530971 0 0.36132202517978662 0.32303080634539388 0 0.36348301458407639 0.32047903077872458 0 0.35962675317161102 0.31893041505789499 0 0.36411885078159001 0.32644375487552563 0 0.36132202517978662 0.32303080634539388 0 0.36348301458407639 0.32047903077872458 0 0.36411885078159001 0.32644375487552563 0 0.36348301458407639 0.32047903077872458 0 0.36646072203027302 0.32009490443849897 0 0.36348301458407639 0.32047903077872458 0 0.36646072203027302 0.32009490443849897 0 0.3659238024377004 0.31770243144255911 0 0.3659238024377004 0.31770243144255911 0 0.36344593390349789 0.31667187251247519 0 0.36604953812300478 0.31497278055865852 0 0.36348301458407639 0.32047903077872458 0 0.3659238024377004 0.31770243144255911 0 0.36344593390349789 0.31667187251247519 0 0.36348301458407639 0.32047903077872458 0 0.36344593390349789 0.31667187251247519 0 0.35962675317161102 0.31893041505789499 0 0.36344593390349789 0.31667187251247519 0 0.35962675317161102 0.31893041505789499 0 0.35878641637012221 0.31305233625990619 0 0.36344593390349789 0.31667187251247519 0 0.36331333565659901 0.31283202127524651 0 0.35878641637012221 0.31305233625990619 0 0.36331333565659901 0.31283202127524651 0 0.36604953812300478 0.31497278055865852 0 0.36630954626425261 0.31087512405144152 0 0.36344593390349789 0.31667187251247519 0 0.36331333565659901 0.31283202127524651 0 0.36604953812300478 0.31497278055865852 0 0.35878641637012221 0.31305233625990619 0 0.35512602374864599 0.31718053618965047 0 0.35090510471213721 0.31152713165908658 0 0.35512602374864599 0.31718053618965047 0 0.34983435518440159 0.31943204998396652 0 0.35090510471213721 0.31152713165908658 0 0.35962675317161102 0.31893041505789499 0 0.35878641637012221 0.31305233625990619 0 0.35512602374864599 0.31718053618965047 0 0.35962675317161102 0.31893041505789499 0 0.35512602374864599 0.31718053618965047 0 0.35673455485560862 0.32229528426682241 0 0.35512602374864599 0.31718053618965047 0 0.35673455485560862 0.32229528426682241 0 0.34983435518440159 0.31943204998396652 0 0.35673455485560862 0.32229528426682241 0 0.35060422568955008 0.32587015674736058 0 0.34983435518440159 0.31943204998396652 0 0.35994194411877378 0.32646204206530971 0 0.36132202517978662 0.32303080634539388 0 0.35673455485560862 0.32229528426682241 0 0.36132202517978662 0.32303080634539388 0 0.35962675317161102 0.31893041505789499 0 0.35673455485560862 0.32229528426682241 0 0.35994194411877378 0.32646204206530971 0 0.35673455485560862 0.32229528426682241 0 0.35627338036128769 0.32705738058013539 0 0.35994194411877378 0.32646204206530971 0 0.35627338036128769 0.32705738058013539 0 0.35835984371964152 0.33045614064968309 0 0.35627338036128769 0.32705738058013539 0 0.35060422568955008 0.32587015674736058 0 0.35398721241228231 0.33095327650953749 0 0.35673455485560862 0.32229528426682241 0 0.35627338036128769 0.32705738058013539 0 0.35060422568955008 0.32587015674736058 0 0.35060422568955008 0.32587015674736058 0 0.34514221143703899 0.32919058107390442 0 0.34284551192874652 0.32364904383841531 0 0.35060422568955008 0.32587015674736058 0 0.34983435518440159 0.31943204998396652 0 0.34284551192874652 0.32364904383841531 0 0.34983435518440159 0.31943204998396652 0 0.34480088275632298 0.31606258733578418 0 0.35090510471213721 0.31152713165908658 0 0.34983435518440159 0.31943204998396652 0 0.34480088275632298 0.31606258733578418 0 0.34284551192874652 0.32364904383841531 0 0.35146565257524442 0.34420791440797271 0 0.36266452242448938 0.34229393694352239 0 0.35562031764263757 0.34031424282986023 0 0.35302683950207769 0.33602013814058929 0 0.35562031764263757 0.34031424282986023 0 0.35672120529774148 0.33684362974708199 0 0.35202203774268331 0.33965573310897551 0 0.35302683950207769 0.33602013814058929 0 0.35562031764263757 0.34031424282986023 0 0.35146565257524442 0.34420791440797271 0 0.35202203774268331 0.33965573310897551 0 0.35562031764263757 0.34031424282986023 0 0.36266452242448938 0.34229393694352239 0 0.35562031764263757 0.34031424282986023 0 0.3582225103283424 0.33883319475427592 0 0.35562031764263757 0.34031424282986023 0 0.3582225103283424 0.33883319475427592 0 0.35672120529774148 0.33684362974708199 0 0.36001134864139028 0.33778823672905661 0 0.3582225103283424 0.33883319475427592 0 0.35672120529774148 0.33684362974708199 0 0.36001134864139028 0.33778823672905661 0 0.35672120529774148 0.33684362974708199 0 0.35899626180536931 0.33430086833413269 0 0.35899626180536931 0.33430086833413269 0 0.35641212776078268 0.33381706902087938 0 0.35835984371964152 0.33045614064968309 0 0.35672120529774148 0.33684362974708199 0 0.35899626180536931 0.33430086833413269 0 0.35641212776078268 0.33381706902087938 0 0.35627338036128769 0.32705738058013539 0 0.35835984371964152 0.33045614064968309 0 0.35398721241228231 0.33095327650953749 0 0.35641212776078268 0.33381706902087938 0 0.35835984371964152 0.33045614064968309 0 0.35398721241228231 0.33095327650953749 0 0.35302683950207769 0.33602013814058929 0 0.35641212776078268 0.33381706902087938 0 0.35398721241228231 0.33095327650953749 0 0.35302683950207769 0.33602013814058929 0 0.35398721241228231 0.33095327650953749 0 0.34924685744035389 0.33249877391857741 0 0.35302683950207769 0.33602013814058929 0 0.35672120529774148 0.33684362974708199 0 0.35641212776078268 0.33381706902087938 0 0.35302683950207769 0.33602013814058929 0 0.34924685744035389 0.33249877391857741 0 0.34788509595764172 0.33882226599831611 0 0.35060422568955008 0.32587015674736058 0 0.34924685744035389 0.33249877391857741 0 0.34514221143703899 0.32919058107390442 0 0.35060422568955008 0.32587015674736058 0 0.35398721241228231 0.33095327650953749 0 0.34924685744035389 0.33249877391857741 0 0.34924685744035389 0.33249877391857741 0 0.34514221143703899 0.32919058107390442 0 0.34474234507332802 0.33433591834825649 0 0.34924685744035389 0.33249877391857741 0 0.34474234507332802 0.33433591834825649 0 0.34788509595764172 0.33882226599831611 0 0.34474234507332802 0.33433591834825649 0 0.34788509595764172 0.33882226599831611 0 0.34057592936449049 0.33809639891542392 0 0.35146565257524442 0.34420791440797271 0 0.34788509595764172 0.33882226599831611 0 0.34269927497721508 0.34493512072036142 0 0.35202203774268331 0.33965573310897551 0 0.35302683950207769 0.33602013814058929 0 0.34788509595764172 0.33882226599831611 0 0.35146565257524442 0.34420791440797271 0 0.35202203774268331 0.33965573310897551 0 0.34788509595764172 0.33882226599831611 0 0.34057592936449049 0.33809639891542392 0 0.33318390910610529 0.34358855052096038 0 0.34269927497721508 0.34493512072036142 0 0.34788509595764172 0.33882226599831611 0 0.34057592936449049 0.33809639891542392 0 0.34269927497721508 0.34493512072036142 0 0.34474234507332802 0.33433591834825649 0 0.34057592936449049 0.33809639891542392 0 0.33946855119551672 0.33096103471374028 0 0.34514221143703899 0.32919058107390442 0 0.34474234507332802 0.33433591834825649 0 0.33946855119551672 0.33096103471374028 0 0.34057592936449049 0.33809639891542392 0 0.33946855119551672 0.33096103471374028 0 0.33283637980140879 0.33469331179832718 0 0.33946855119551672 0.33096103471374028 0 0.33283637980140879 0.33469331179832718 0 0.33464693517381472 0.32630086361949601 0 0.33283637980140879 0.33469331179832718 0 0.33464693517381472 0.32630086361949601 0 0.3250964778074269 0.32978689602061512 0 0.34057592936449049 0.33809639891542392 0 0.33283637980140879 0.33469331179832718 0 0.33318390910610529 0.34358855052096038 0 0.33283637980140879 0.33469331179832718 0 0.33318390910610529 0.34358855052096038 0 0.32611481079287369 0.33974729713420021 0 0.34480088275632298 0.31606258733578418 0 0.33769186663180051 0.31814262317354819 0 0.34192449374142192 0.30753297203612773 0 0.34480088275632298 0.31606258733578418 0 0.33769186663180051 0.31814262317354819 0 0.34284551192874652 0.32364904383841531 0 0.33946855119551672 0.33096103471374028 0 0.34284551192874652 0.32364904383841531 0 0.33464693517381472 0.32630086361949601 0 0.33769186663180051 0.31814262317354819 0 0.34284551192874652 0.32364904383841531 0 0.33464693517381472 0.32630086361949601 0 0.34514221143703899 0.32919058107390442 0 0.33946855119551672 0.33096103471374028 0 0.34284551192874652 0.32364904383841531 0 0.33769186663180051 0.31814262317354819 0 0.33464693517381472 0.32630086361949601 0 0.32994282367798861 0.32057227217232959 0 0.33464693517381472 0.32630086361949601 0 0.32994282367798861 0.32057227217232959 0 0.3250964778074269 0.32978689602061512 0 0.33769186663180051 0.31814262317354819 0 0.32994282367798861 0.32057227217232959 0 0.32867162081685902 0.31028670060733149 0 0.32176892132522322 0.32006025561378759 0 0.31440941436971798 0.31242774502049953 0 0.32867162081685902 0.31028670060733149 0 0.32994282367798861 0.32057227217232959 0 0.32176892132522322 0.32006025561378759 0 0.32867162081685902 0.31028670060733149 0 0.32176892132522322 0.32006025561378759 0 0.31484893044661 0.32778579360563193 0 0.3250964778074269 0.32978689602061512 0 0.32994282367798861 0.32057227217232959 0 0.32176892132522322 0.32006025561378759 0 0.3250964778074269 0.32978689602061512 0 0.32176892132522322 0.32006025561378759 0 0.31484893044661 0.32778579360563193 0 0.31440941436971798 0.31242774502049953 0 0.32611481079287369 0.33974729713420021 0 0.3250964778074269 0.32978689602061512 0 0.31767498628904178 0.33862919533695518 0 0.32611481079287369 0.33974729713420021 0 0.31767498628904178 0.33862919533695518 0 0.32336406622478242 0.34852958887145069 0 0.33283637980140879 0.33469331179832718 0 0.32611481079287369 0.33974729713420021 0 0.3250964778074269 0.32978689602061512 0 0.31484893044661 0.32778579360563193 0 0.31767498628904178 0.33862919533695518 0 0.30654896287530792 0.34033791233229299 0 0.31484893044661 0.32778579360563193 0 0.3250964778074269 0.32978689602061512 0 0.31767498628904178 0.33862919533695518 0 0.31767498628904178 0.33862919533695518 0 0.31315570067328902 0.3464643712977632 0 0.32336406622478242 0.34852958887145069 0 0.31315570067328902 0.3464643712977632 0 0.31355388928080707 0.35546570062290778 0 0.32336406622478242 0.34852958887145069 0 0.32336406622478242 0.34852958887145069 0 0.33442175170730049 0.35218858713626039 0 0.32437013183195901 0.3602157298059272 0 0.31355388928080707 0.35546570062290778 0 0.32336406622478242 0.34852958887145069 0 0.32437013183195901 0.3602157298059272 0 0.33318390910610529 0.34358855052096038 0 0.32611481079287369 0.33974729713420021 0 0.32336406622478242 0.34852958887145069 0 0.35030182712711511 0.35130594720886232 0 0.33442175170730049 0.35218858713626039 0 0.33389487655237682 0.3658352592629312 0 0.33318390910610529 0.34358855052096038 0 0.32336406622478242 0.34852958887145069 0 0.33442175170730049 0.35218858713626039 0 0.35030182712711511 0.35130594720886232 0 0.33442175170730049 0.35218858713626039 0 0.34269927497721508 0.34493512072036142 0 0.33318390910610529 0.34358855052096038 0 0.33442175170730049 0.35218858713626039 0 0.34269927497721508 0.34493512072036142 0 0.34270248502322931 0.38427053755298168 0 0.35268350372385993 0.36328223724825232 0 0.33389487655237682 0.3658352592629312 0 0.33442175170730049 0.35218858713626039 0 0.33389487655237682 0.3658352592629312 0 0.32437013183195901 0.3602157298059272 0 0.31661607539452802 0.37905951313608538 0 0.33389487655237682 0.3658352592629312 0 0.32437013183195901 0.3602157298059272 0 0.31661607539452802 0.37905951313608538 0 0.31355388928080707 0.35546570062290778 0 0.32437013183195901 0.3602157298059272 0 0.31661607539452802 0.37905951313608538 0 0.31355388928080707 0.35546570062290778 0 0.31661607539452802 0.37905951313608538 0 0.31355388928080707 0.35546570062290778 0 0.30541822204374358 0.36584678197342768 0 0.2987730087010142 0.37934426936791982 0 0.31661607539452802 0.37905951313608538 0 0.30541822204374358 0.36584678197342768 0 0.30541822204374358 0.36584678197342768 0 0.30393955747459928 0.35096595789874813 0 0.29215410451095353 0.36543341035917859 0 0.2987730087010142 0.37934426936791982 0 0.30541822204374358 0.36584678197342768 0 0.29215410451095353 0.36543341035917859 0 0.31315570067328902 0.3464643712977632 0 0.30393955747459928 0.35096595789874813 0 0.30654896287530792 0.34033791233229299 0 0.31315570067328902 0.3464643712977632 0 0.31355388928080707 0.35546570062290778 0 0.30393955747459928 0.35096595789874813 0 0.31355388928080707 0.35546570062290778 0 0.30541822204374358 0.36584678197342768 0 0.30393955747459928 0.35096595789874813 0 0.30393955747459928 0.35096595789874813 0 0.29215410451095353 0.36543341035917859 0 0.30393955747459928 0.35096595789874813 0 0.29720735802849829 0.34424744790442102 0 0.29027641861796738 0.35164951467646482 0 0.30393955747459928 0.35096595789874813 0 0.29720735802849829 0.34424744790442102 0 0.30654896287530792 0.34033791233229299 0 0.29720735802849829 0.34424744790442102 0 0.29027641861796738 0.35164951467646482 0 0.28998304713239348 0.34105976447064218 0 0.30393955747459928 0.35096595789874813 0 0.29027641861796738 0.35164951467646482 0 0.29215410451095353 0.36543341035917859 0 0.29027641861796738 0.35164951467646482 0 0.29215410451095353 0.36543341035917859 0 0.27920137084664282 0.3573603676334649 0 0.29027641861796738 0.35164951467646482 0 0.27920137084664282 0.3573603676334649 0 0.28068773357058369 0.34198453751068081 0 0.29027641861796738 0.35164951467646482 0 0.28068773357058369 0.34198453751068081 0 0.28998304713239348 0.34105976447064218 0 0.28036865154730628 0.37990086281960789 0 0.29215410451095353 0.36543341035917859 0 0.27920137084664282 0.3573603676334649 0 0.28036865154730628 0.37990086281960789 0 0.2987730087010142 0.37934426936791982 0 0.29215410451095353 0.36543341035917859 0 0.28036865154730628 0.37990086281960789 0 0.29215410451095353 0.36543341035917859 0 0.28036865154730628 0.37990086281960789 0 0.27920137084664282 0.3573603676334649 0 0.26173146881309822 0.35734024057335978 0 0.28036865154730628 0.37990086281960789 0 0.26173146881309822 0.35734024057335978 0 0.28036865154730628 0.37990086281960789 0 0.26173146881309822 0.35734024057335978 0 0.2641967246118288 0.36596915937278562 0 0.27920137084664282 0.3573603676334649 0 0.27030047393074008 0.3474963096498429 0 0.26173146881309822 0.35734024057335978 0 0.27920137084664282 0.3573603676334649 0 0.27030047393074008 0.3474963096498429 0 0.28068773357058369 0.34198453751068081 0 0.2430942860788903 0.33477961832711151 0 0.26173146881309822 0.35734024057335978 0 0.27030047393074008 0.3474963096498429 0 0.26173146881309822 0.35734024057335978 0 0.26240083601839698 0.33727672217147331 0 0.23816107804029091 0.35120524212074949 0 0.26173146881309822 0.35734024057335978 0 0.2641967246118288 0.36596915937278562 0 0.23816107804029091 0.35120524212074949 0 0.2641967246118288 0.36596915937278562 0 0.2492643002430574 0.365916522193315 0 0.24311907173897271 0.36013203008567057 0 0.2641967246118288 0.36596915937278562 0 0.2492643002430574 0.365916522193315 0 0.25710864090743918 0.37145542319719338 0 0.2641967246118288 0.36596915937278562 0 0.2492643002430574 0.365916522193315 0 0.25383912625151372 0.37755129754335942 0 0.25710864090743918 0.37145542319719338 0 0.26350653962281989 0.38010735630523079 0 0.25710864090743918 0.37145542319719338 0 0.2641967246118288 0.36596915937278562 0 0.2484846271056145 0.31037308609574782 0 0.25508783524565293 0.32209220201309929 0 0.26836904206483531 0.31075971332937607 0 0.25508783524565293 0.32209220201309929 0 0.26240083601839698 0.33727672217147331 0 0.26677092012209491 0.32204036282613252 0 0.25508783524565293 0.32209220201309929 0 0.26677092012209491 0.32204036282613252 0 0.26836904206483531 0.31075971332937607 0 0.2430942860788903 0.33477961832711151 0 0.25508783524565293 0.32209220201309929 0 0.26240083601839698 0.33727672217147331 0 0.2430942860788903 0.33477961832711151 0 0.26173146881309822 0.35734024057335978 0 0.26240083601839698 0.33727672217147331 0 0.26240083601839698 0.33727672217147331 0 0.27184092000699639 0.33891315949469752 0 0.27388917516664008 0.32964775149744319 0 0.26240083601839698 0.33727672217147331 0 0.27388917516664008 0.32964775149744319 0 0.26677092012209491 0.32204036282613252 0 0.27030047393074008 0.3474963096498429 0 0.26240083601839698 0.33727672217147331 0 0.27184092000699639 0.33891315949469752 0 0.27030047393074008 0.3474963096498429 0 0.27184092000699639 0.33891315949469752 0 0.28068773357058369 0.34198453751068081 0 0.27184092000699639 0.33891315949469752 0 0.28068773357058369 0.34198453751068081 0 0.27388917516664008 0.32964775149744319 0 0.28068773357058369 0.34198453751068081 0 0.27388917516664008 0.32964775149744319 0 0.28570907475377572 0.33188311037056872 0 0.27388917516664008 0.32964775149744319 0 0.26677092012209491 0.32204036282613252 0 0.28178409254690689 0.31684790712797722 0 0.27388917516664008 0.32964775149744319 0 0.28178409254690689 0.31684790712797722 0 0.28570907475377572 0.33188311037056872 0 0.26677092012209491 0.32204036282613252 0 0.28178409254690689 0.31684790712797722 0 0.26836904206483531 0.31075971332937607 0 0.28178409254690689 0.31684790712797722 0 0.29262159606390598 0.32453461147271162 0 0.29660332646403359 0.30785121346786842 0 0.28178409254690689 0.31684790712797722 0 0.29262159606390598 0.32453461147271162 0 0.28570907475377572 0.33188311037056872 0 0.28068773357058369 0.34198453751068081 0 0.28570907475377572 0.33188311037056872 0 0.28998304713239348 0.34105976447064218 0 0.29262159606390598 0.32453461147271162 0 0.28570907475377572 0.33188311037056872 0 0.29603465069114282 0.33553421189107618 0 0.29720735802849829 0.34424744790442102 0 0.29603465069114282 0.33553421189107618 0 0.28998304713239348 0.34105976447064218 0 0.28570907475377572 0.33188311037056872 0 0.29603465069114282 0.33553421189107618 0 0.28998304713239348 0.34105976447064218 0 0.29720735802849829 0.34424744790442102 0 0.29603465069114282 0.33553421189107618 0 0.30654896287530792 0.34033791233229299 0 0.29603465069114282 0.33553421189107618 0 0.30654896287530792 0.34033791233229299 0 0.30445412428221041 0.32558903425911379 0 0.29262159606390598 0.32453461147271162 0 0.29603465069114282 0.33553421189107618 0 0.30445412428221041 0.32558903425911379 0 0.31484893044661 0.32778579360563193 0 0.30654896287530792 0.34033791233229299 0 0.30445412428221041 0.32558903425911379 0 0.31767498628904178 0.33862919533695518 0 0.31315570067328902 0.3464643712977632 0 0.30654896287530792 0.34033791233229299 0 0.30445412428221041 0.32558903425911379 0 0.29660332646403359 0.30785121346786842 0 0.31440941436971798 0.31242774502049953 0 0.29262159606390598 0.32453461147271162 0 0.30445412428221041 0.32558903425911379 0 0.29660332646403359 0.30785121346786842 0 0.31484893044661 0.32778579360563193 0 0.30445412428221041 0.32558903425911379 0 0.31440941436971798 0.31242774502049953 0 0.30822946874662033 0.29998271616579031 0 0.29660332646403359 0.30785121346786842 0 0.31440941436971798 0.31242774502049953 0 0.30822946874662033 0.29998271616579031 0 0.30055108247350393 0.28416894361273021 0 0.29660332646403359 0.30785121346786842 0 0.30822946874662033 0.29998271616579031 0 0.30055108247350393 0.28416894361273021 0 0.32109763140443309 0.29547610107375327 0 0.30055108247350393 0.28416894361273021 0 0.29660332646403359 0.30785121346786842 0 0.27430616976337108 0.29100628718303567 0 0.30055108247350393 0.28416894361273021 0 0.27430616976337108 0.29100628718303567 0 0.28443506245096839 0.27205148705280008 0 0.30055108247350393 0.28416894361273021 0 0.27430616976337108 0.29100628718303567 0 0.28178409254690689 0.31684790712797722 0 0.29660332646403359 0.30785121346786842 0 0.27430616976337108 0.29100628718303567 0 0.28178409254690689 0.31684790712797722 0 0.26836904206483531 0.31075971332937607 0 0.27430616976337108 0.29100628718303567 0 0.28178409254690689 0.31684790712797722 0 0.27430616976337108 0.29100628718303567 0 0.27430616976337108 0.29100628718303567 0 0.25121587924780342 0.29702178630611242 0 0.27430616976337108 0.29100628718303567 0 0.25953152444998728 0.28294166139542631 0 0.25121587924780342 0.29702178630611242 0 0.26836904206483531 0.31075971332937607 0 0.27430616976337108 0.29100628718303567 0 0.25121587924780342 0.29702178630611242 0 0.26836904206483531 0.31075971332937607 0 0.25121587924780342 0.29702178630611242 0 0.2484846271056145 0.31037308609574782 0 0.26836904206483531 0.31075971332937607 0 0.25121587924780342 0.29702178630611242 0 0.25102838231212438 0.26850893423506528 0 0.26790857605335527 0.26889798384773289 0 0.26221447651104962 0.2479993693513689 0 0.26790857605335527 0.26889798384773289 0 0.26221447651104962 0.2479993693513689 0 0.25953152444998728 0.28294166139542631 0 0.25102838231212438 0.26850893423506528 0 0.26790857605335527 0.26889798384773289 0 0.27430616976337108 0.29100628718303567 0 0.26790857605335527 0.26889798384773289 0 0.28443506245096839 0.27205148705280008 0 0.27430616976337108 0.29100628718303567 0 0.25953152444998728 0.28294166139542631 0 0.26790857605335527 0.26889798384773289 0 0.27430616976337108 0.29100628718303567 0 0.26790857605335527 0.26889798384773289 0 0.26790857605335527 0.26889798384773289 0 0.28119448123381058 0.25405304303149878 0 0.26221447651104962 0.2479993693513689 0 0.26790857605335527 0.26889798384773289 0 0.28119448123381058 0.25405304303149878 0 0.28443506245096839 0.27205148705280008 0 0.28119448123381058 0.25405304303149878 0 0.28443506245096839 0.27205148705280008 0 0.2982150027308012 0.26213117758900317 0 0.28119448123381058 0.25405304303149878 0 0.2982150027308012 0.26213117758900317 0 0.30328699804120918 0.24394477185791469 0 0.30055108247350393 0.28416894361273021 0 0.28443506245096839 0.27205148705280008 0 0.2982150027308012 0.26213117758900317 0 0.30055108247350393 0.28416894361273021 0 0.2982150027308012 0.26213117758900317 0 0.31879452400631653 0.25919465198291952 0 0.2982150027308012 0.26213117758900317 0 0.31879452400631653 0.25919465198291952 0 0.30328699804120918 0.24394477185791469 0 0.31879452400631653 0.25919465198291952 0 0.33092809789354199 0.24744869965648561 0 0.31845456220733243 0.24449663650262579 0 0.31879452400631653 0.25919465198291952 0 0.33565265393095528 0.25675142138279861 0 0.33982225619875311 0.26765994074234428 0 0.31879452400631653 0.25919465198291952 0 0.33982225619875311 0.26765994074234428 0 0.31879452400631653 0.25919465198291952 0 0.33565265393095528 0.25675142138279861 0 0.33092809789354199 0.24744869965648561 0 0.33565265393095528 0.25675142138279861 0 0.33982225619875311 0.26765994074234428 0 0.34536281311255052 0.25941060478944128 0 0.33565265393095528 0.25675142138279861 0 0.3433555784436142 0.25004320974280247 0 0.33092809789354199 0.24744869965648561 0 0.33565265393095528 0.25675142138279861 0 0.3433555784436142 0.25004320974280247 0 0.34536281311255052 0.25941060478944128 0 0.31879452400631653 0.25919465198291952 0 0.33982225619875311 0.26765994074234428 0 0.32679599518363661 0.27733160004242491 0 0.33982225619875311 0.26765994074234428 0 0.32679599518363661 0.27733160004242491 0 0.34056182851336592 0.28206143899133118 0 0.30055108247350393 0.28416894361273021 0 0.32679599518363661 0.27733160004242491 0 0.30055108247350393 0.28416894361273021 0 0.31879452400631653 0.25919465198291952 0 0.32679599518363661 0.27733160004242491 0 0.32679599518363661 0.27733160004242491 0 0.32109763140443309 0.29547610107375327 0 0.33248404658197278 0.28876668272462419 0 0.30055108247350393 0.28416894361273021 0 0.32679599518363661 0.27733160004242491 0 0.32109763140443309 0.29547610107375327 0 0.32109763140443309 0.29547610107375327 0 0.31440941436971798 0.31242774502049953 0 0.32867162081685902 0.31028670060733149 0 0.30822946874662033 0.29998271616579031 0 0.32109763140443309 0.29547610107375327 0 0.31440941436971798 0.31242774502049953 0 0.32867162081685902 0.31028670060733149 0 0.33472549883669622 0.29791121211074773 0 0.34192449374142192 0.30753297203612773 0 0.32109763140443309 0.29547610107375327 0 0.32867162081685902 0.31028670060733149 0 0.33472549883669622 0.29791121211074773 0 0.33472549883669622 0.29791121211074773 0 0.34281583705185747 0.29966479619329672 0 0.34192449374142192 0.30753297203612773 0 0.33769186663180051 0.31814262317354819 0 0.32867162081685902 0.31028670060733149 0 0.34192449374142192 0.30753297203612773 0 0.32679599518363661 0.27733160004242491 0 0.33248404658197278 0.28876668272462419 0 0.34056182851336592 0.28206143899133118 0 0.32109763140443309 0.29547610107375327 0 0.33472549883669622 0.29791121211074773 0 0.33248404658197278 0.28876668272462419 0 0.33472549883669622 0.29791121211074773 0 0.33248404658197278 0.28876668272462419 0 0.34417327957572558 0.29277050597204329 0 0.33472549883669622 0.29791121211074773 0 0.34281583705185747 0.29966479619329672 0 0.34417327957572558 0.29277050597204329 0 0.33248404658197278 0.28876668272462419 0 0.34056182851336592 0.28206143899133118 0 0.34417327957572558 0.29277050597204329 0 0.34056182851336592 0.28206143899133118 0 0.34979868535227071 0.28728326233729501 0 0.34417327957572558 0.29277050597204329 0 0.34056182851336592 0.28206143899133118 0 0.34979868535227071 0.28728326233729501 0 0.35183199075491411 0.27966461044832719 0 0.34417327957572558 0.29277050597204329 0 0.35334053836337709 0.29410458558147129 0 0.34972900846361488 0.30172704795696642 0 0.34979868535227071 0.28728326233729501 0 0.34417327957572558 0.29277050597204329 0 0.35334053836337709 0.29410458558147129 0 0.34979868535227071 0.28728326233729501 0 0.35334053836337709 0.29410458558147129 0 0.35722235408413222 0.28831366276426512 0 0.35334053836337709 0.29410458558147129 0 0.35826071325737319 0.3003277240158499 0 0.36091512844171192 0.29433704443458902 0 0.35334053836337709 0.29410458558147129 0 0.35722235408413222 0.28831366276426512 0 0.36091512844171192 0.29433704443458902 0 0.34979868535227071 0.28728326233729501 0 0.35722235408413222 0.28831366276426512 0 0.35183199075491411 0.27966461044832719 0 0.35722235408413222 0.28831366276426512 0 0.36152496379752869 0.28359539021876212 0 0.35183199075491411 0.27966461044832719 0 0.34480088275632298 0.31606258733578418 0 0.34192449374142192 0.30753297203612773 0 0.35090510471213721 0.31152713165908658 0 0.34192449374142192 0.30753297203612773 0 0.35090510471213721 0.31152713165908658 0 0.34972900846361488 0.30172704795696642 0 0.34281583705185747 0.29966479619329672 0 0.34417327957572558 0.29277050597204329 0 0.34972900846361488 0.30172704795696642 0 0.34281583705185747 0.29966479619329672 0 0.34192449374142192 0.30753297203612773 0 0.34972900846361488 0.30172704795696642 0 0.34972900846361488 0.30172704795696642 0 0.35826071325737319 0.3003277240158499 0 0.35721607615581658 0.30656573559573969 0 0.35334053836337709 0.29410458558147129 0 0.34972900846361488 0.30172704795696642 0 0.35826071325737319 0.3003277240158499 0 0.35090510471213721 0.31152713165908658 0 0.34972900846361488 0.30172704795696642 0 0.35721607615581658 0.30656573559573969 0 0.35878641637012221 0.31305233625990619 0 0.35090510471213721 0.31152713165908658 0 0.35721607615581658 0.30656573559573969 0 0.37014896644917339 0.316543878568457 0 0.37763341047385651 0.29079382019339128 0 0.37014896644917339 0.316543878568457 0 0.37108481648816682 0.30013899891886681 0 0.36845835323010317 0.30596496181531441 0 0.37014896644917339 0.316543878568457 0 0.37763341047385651 0.29079382019339128 0 0.37695808612291098 0.31120865645681561 0 0.37014896644917339 0.316543878568457 0 0.37108481648816682 0.30013899891886681 0 0.37763341047385651 0.29079382019339128 0 0.36630954626425261 0.31087512405144152 0 0.36228941999803421 0.30896529616435242 0 0.36543096483439103 0.3064802843427199 0 0.36331333565659901 0.31283202127524651 0 0.36630954626425261 0.31087512405144152 0 0.36228941999803421 0.30896529616435242 0 0.36331333565659901 0.31283202127524651 0 0.35878641637012221 0.31305233625990619 0 0.36228941999803421 0.30896529616435242 0 0.35878641637012221 0.31305233625990619 0 0.35721607615581658 0.30656573559573969 0 0.36228941999803421 0.30896529616435242 0 0.35721607615581658 0.30656573559573969 0 0.36228941999803421 0.30896529616435242 0 0.36268018070702418 0.30398627546106088 0 0.36630954626425261 0.31087512405144152 0 0.36543096483439103 0.3064802843427199 0 0.36845835323010317 0.30596496181531441 0 0.36228941999803421 0.30896529616435242 0 0.36543096483439103 0.3064802843427199 0 0.36268018070702418 0.30398627546106088 0 0.36543096483439103 0.3064802843427199 0 0.36607900901995372 0.30349396637540749 0 0.36845835323010317 0.30596496181531441 0 0.36607900901995372 0.30349396637540749 0 0.36268018070702418 0.30398627546106088 0 0.36558719123160882 0.29969948119116269 0 0.36607900901995372 0.30349396637540749 0 0.36558719123160882 0.29969948119116269 0 0.36823835509664099 0.30133882906677939 0 0.36543096483439103 0.3064802843427199 0 0.36607900901995372 0.30349396637540749 0 0.36268018070702418 0.30398627546106088 0 0.35826071325737319 0.3003277240158499 0 0.35721607615581658 0.30656573559573969 0 0.36268018070702418 0.30398627546106088 0 0.35826071325737319 0.3003277240158499 0 0.36268018070702418 0.30398627546106088 0 0.36558719123160882 0.29969948119116269 0 0.35826071325737319 0.3003277240158499 0 0.36558719123160882 0.29969948119116269 0 0.36091512844171192 0.29433704443458902 0 0.36871223371641282 0.29817542324200702 0 0.37108481648816682 0.30013899891886681 0 0.37014933742706652 0.29575476169949788 0 0.36558719123160882 0.29969948119116269 0 0.36871223371641282 0.29817542324200702 0 0.36734652779664789 0.29411680932906442 0 0.36558719123160882 0.29969948119116269 0 0.36871223371641282 0.29817542324200702 0 0.36823835509664099 0.30133882906677939 0 0.36871223371641282 0.29817542324200702 0 0.37108481648816682 0.30013899891886681 0 0.36823835509664099 0.30133882906677939 0 0.37108481648816682 0.30013899891886681 0 0.36823835509664099 0.30133882906677939 0 0.36845835323010317 0.30596496181531441 0 0.36607900901995372 0.30349396637540749 0 0.36823835509664099 0.30133882906677939 0 0.36845835323010317 0.30596496181531441 0 0.37014896644917339 0.316543878568457 0 0.36630954626425261 0.31087512405144152 0 0.36845835323010317 0.30596496181531441 0 0.36812955944888692 0.28419813691800921 0 0.36084998839118931 0.2761252295017701 0 0.37969218042614078 0.28371066929036243 0 0.36152496379752869 0.28359539021876212 0 0.36812955944888692 0.28419813691800921 0 0.36084998839118931 0.2761252295017701 0 0.36414496955441777 0.28941104037434479 0 0.36911771796651938 0.28986917351547109 0 0.36812955944888692 0.28419813691800921 0 0.36152496379752869 0.28359539021876212 0 0.36414496955441777 0.28941104037434479 0 0.36812955944888692 0.28419813691800921 0 0.35722235408413222 0.28831366276426512 0 0.36152496379752869 0.28359539021876212 0 0.36414496955441777 0.28941104037434479 0 0.35722235408413222 0.28831366276426512 0 0.36091512844171192 0.29433704443458902 0 0.36414496955441777 0.28941104037434479 0 0.36558719123160882 0.29969948119116269 0 0.36091512844171192 0.29433704443458902 0 0.36734652779664789 0.29411680932906442 0 0.36091512844171192 0.29433704443458902 0 0.36414496955441777 0.28941104037434479 0 0.36734652779664789 0.29411680932906442 0 0.36414496955441777 0.28941104037434479 0 0.36911771796651938 0.28986917351547109 0 0.36734652779664789 0.29411680932906442 0 0.36911771796651938 0.28986917351547109 0 0.37026464520563152 0.29279186409727531 0 0.36734652779664789 0.29411680932906442 0 0.37108481648816682 0.30013899891886681 0 0.37306860395079622 0.29341917559567809 0 0.37763341047385651 0.29079382019339128 0 0.36911771796651938 0.28986917351547109 0 0.37026464520563152 0.29279186409727531 0 0.37237913536365119 0.29056320862162688 0 0.36871223371641282 0.29817542324200702 0 0.36734652779664789 0.29411680932906442 0 0.37014933742706652 0.29575476169949788 0 0.37026464520563152 0.29279186409727531 0 0.36734652779664789 0.29411680932906442 0 0.37014933742706652 0.29575476169949788 0 0.37108481648816682 0.30013899891886681 0 0.37014933742706652 0.29575476169949788 0 0.37306860395079622 0.29341917559567809 0 0.37026464520563152 0.29279186409727531 0 0.37014933742706652 0.29575476169949788 0 0.37306860395079622 0.29341917559567809 0 0.36911771796651938 0.28986917351547109 0 0.37237913536365119 0.29056320862162688 0 0.37333201972158658 0.2878654242033048 0 0.37306860395079622 0.29341917559567809 0 0.37237913536365119 0.29056320862162688 0 0.37763341047385651 0.29079382019339128 0 0.37237913536365119 0.29056320862162688 0 0.37333201972158658 0.2878654242033048 0 0.37763341047385651 0.29079382019339128 0 0.37026464520563152 0.29279186409727531 0 0.37306860395079622 0.29341917559567809 0 0.37237913536365119 0.29056320862162688 0 0.37333201972158658 0.2878654242033048 0 0.36812955944888692 0.28419813691800921 0 0.37969218042614078 0.28371066929036243 0 0.36911771796651938 0.28986917351547109 0 0.37333201972158658 0.2878654242033048 0 0.36812955944888692 0.28419813691800921 0 0.36084998839118931 0.2761252295017701 0 0.37969218042614078 0.28371066929036243 0 0.36084998839118931 0.2761252295017701 0 0.37017340450925651 0.266060206293324 0 0.3539366042426153 0.26554047293381039 0 0.36084998839118931 0.2761252295017701 0 0.38460708535355081 0.26680105137204091 0 0.36084998839118931 0.2761252295017701 0 0.37017340450925651 0.266060206293324 0 0.38460708535355081 0.26680105137204091 0 0.3539366042426153 0.26554047293381039 0 0.38129994004966872 0.25577407136566988 0 0.37169426656027921 0.24972740256563611 0 0.37017340450925651 0.266060206293324 0 0.3539366042426153 0.26554047293381039 0 0.38129994004966872 0.25577407136566988 0 0.3539366042426153 0.26554047293381039 0 0.37169426656027921 0.24972740256563611 0 0.36205361842742478 0.24882498742118489 0 0.3539366042426153 0.26554047293381039 0 0.38129994004966872 0.25577407136566988 0 0.3539366042426153 0.26554047293381039 0 0.35175757775775729 0.2532797976346674 0 0.36205361842742478 0.24882498742118489 0 0.3433555784436142 0.25004320974280247 0 0.35175757775775729 0.2532797976346674 0 0.34536281311255052 0.25941060478944128 0 0.33982225619875311 0.26765994074234428 0 0.3539366042426153 0.26554047293381039 0 0.34536281311255052 0.25941060478944128 0 0.3539366042426153 0.26554047293381039 0 0.35175757775775729 0.2532797976346674 0 0.34536281311255052 0.25941060478944128 0 0.33982225619875311 0.26765994074234428 0 0.36084998839118931 0.2761252295017701 0 0.33982225619875311 0.26765994074234428 0 0.36084998839118931 0.2761252295017701 0 0.3539366042426153 0.26554047293381039 0 0.33982225619875311 0.26765994074234428 0 0.36084998839118931 0.2761252295017701 0 0.35183199075491411 0.27966461044832719 0 0.33982225619875311 0.26765994074234428 0 0.34056182851336592 0.28206143899133118 0 0.35183199075491411 0.27966461044832719 0 0.36152496379752869 0.28359539021876212 0 0.36084998839118931 0.2761252295017701 0 0.35183199075491411 0.27966461044832719 0 0.36084998839118931 0.2761252295017701 0 0.35183199075491411 0.27966461044832719 0 0.39945440726228237 0.27350419034528239 0 0.38460708535355081 0.26680105137204091 0 0.40768566828284042 0.25774317622192677 0 0.39945440726228237 0.27350419034528239 0 0.4092682188351508 0.26816031590002881 0 0.40768566828284042 0.25774317622192677 0 0.39945440726228237 0.27350419034528239 0 0.38460708535355081 0.26680105137204091 0 0.3904751567012596 0.27530993325585928 0 0.39945440726228237 0.27350419034528239 0 0.3904751567012596 0.27530993325585928 0 0.39488150240831521 0.28173053148540511 0 0.39945440726228237 0.27350419034528239 0 0.40366985246608472 0.28285995447659418 0 0.40929088926209078 0.279020096056181 0 0.39945440726228237 0.27350419034528239 0 0.4092682188351508 0.26816031590002881 0 0.40929088926209078 0.279020096056181 0 0.39945440726228237 0.27350419034528239 0 0.39488150240831521 0.28173053148540511 0 0.40366985246608472 0.28285995447659418 0 0.38783836144724232 0.2556839199238965 0 0.38129994004966872 0.25577407136566988 0 0.40866327585672191 0.24600766979752939 0 0.38460708535355081 0.26680105137204091 0 0.40768566828284042 0.25774317622192677 0 0.38783836144724232 0.2556839199238965 0 0.40768566828284042 0.25774317622192677 0 0.40866327585672191 0.24600766979752939 0 0.38783836144724232 0.2556839199238965 0 0.38460708535355081 0.26680105137204091 0 0.40768566828284042 0.25774317622192677 0 0.38129994004966872 0.25577407136566988 0 0.40866327585672191 0.24600766979752939 0 0.38783836144724232 0.2556839199238965 0 0.38129994004966872 0.25577407136566988 0 0.38460708535355081 0.26680105137204091 0 0.38783836144724232 0.2556839199238965 0 0.38460708535355081 0.26680105137204091 0 0.38129994004966872 0.25577407136566988 0 0.37169426656027921 0.24972740256563611 0 0.38106847269238292 0.24536179082341181 0 0.37017340450925651 0.266060206293324 0 0.38129994004966872 0.25577407136566988 0 0.38460708535355081 0.26680105137204091 0 0.36084998839118931 0.2761252295017701 0 0.38460708535355081 0.26680105137204091 0 0.37969218042614078 0.28371066929036243 0 0.38460708535355081 0.26680105137204091 0 0.3904751567012596 0.27530993325585928 0 0.37969218042614078 0.28371066929036243 0 0.38460708535355081 0.26680105137204091 0 0.37969218042614078 0.28371066929036243 0 0.3904751567012596 0.27530993325585928 0 0.37969218042614078 0.28371066929036243 0 0.39488150240831521 0.28173053148540511 0 0.37969218042614078 0.28371066929036243 0 0.37763341047385651 0.29079382019339128 0 0.40259214502479168 0.29292967641552992 0 0.37763341047385651 0.29079382019339128 0 0.4027243230010164 0.30147339632314252 0 0.37969218042614078 0.28371066929036243 0 0.37763341047385651 0.29079382019339128 0 0.37333201972158658 0.2878654242033048 0 0.37969218042614078 0.28371066929036243 0 0.37763341047385651 0.29079382019339128 0 0.37763341047385651 0.29079382019339128 0 0.37695808612291098 0.31120865645681561 0 0.38599374742651271 0.30414296713942529 0 0.37763341047385651 0.29079382019339128 0 0.38599374742651271 0.30414296713942529 0 0.4027243230010164 0.30147339632314252 0 0.37695808612291098 0.31120865645681561 0 0.38599374742651271 0.30414296713942529 0 0.38754735899376969 0.31282171123814728 0 0.38599374742651271 0.30414296713942529 0 0.4027243230010164 0.30147339632314252 0 0.38754735899376969 0.31282171123814728 0 0.4027243230010164 0.30147339632314252 0 0.3956366020903157 0.32248231082130752 0 0.38754735899376969 0.31282171123814728 0 0.37969218042614078 0.28371066929036243 0 0.40259214502479168 0.29292967641552992 0 0.37969218042614078 0.28371066929036243 0 0.39488150240831521 0.28173053148540511 0 0.40259214502479168 0.29292967641552992 0 0.37763341047385651 0.29079382019339128 0 0.4027243230010164 0.30147339632314252 0 0.40259214502479168 0.29292967641552992 0 0.4027243230010164 0.30147339632314252 0 0.40259214502479168 0.29292967641552992 0 0.41139710839419091 0.29189735433941028 0 0.40259214502479168 0.29292967641552992 0 0.40366985246608472 0.28285995447659418 0 0.41139710839419091 0.29189735433941028 0 0.39488150240831521 0.28173053148540511 0 0.40259214502479168 0.29292967641552992 0 0.40366985246608472 0.28285995447659418 0 0.40366985246608472 0.28285995447659418 0 0.41139710839419091 0.29189735433941028 0 0.40929088926209078 0.279020096056181 0 0.41139710839419091 0.29189735433941028 0 0.42781523552817591 0.31215297245289481 0 0.42226183937510081 0.28327127115801121 0 0.41139710839419091 0.29189735433941028 0 0.42226183937510081 0.28327127115801121 0 0.40929088926209078 0.279020096056181 0 0.4027243230010164 0.30147339632314252 0 0.41139710839419091 0.29189735433941028 0 0.42781523552817591 0.31215297245289481 0 0.4027243230010164 0.30147339632314252 0 0.42781523552817591 0.31215297245289481 0 0.41357021602424721 0.32279281759874212 0 0.4027243230010164 0.30147339632314252 0 0.42781523552817591 0.31215297245289481 0 0.42781523552817591 0.31215297245289481 0 0.42226183937510081 0.28327127115801121 0 0.42781523552817591 0.31215297245289481 0 0.42226183937510081 0.28327127115801121 0 0.44120727567718632 0.28746005308771089 0 0.42226183937510081 0.28327127115801121 0 0.43023391716603732 0.27040224467912161 0 0.44120727567718632 0.28746005308771089 0 0.42226183937510081 0.28327127115801121 0 0.43023391716603732 0.27040224467912161 0 0.41664462513020523 0.25422696758609492 0 0.43023391716603732 0.27040224467912161 0 0.43692075095235122 0.26433370861442979 0 0.44373838257505849 0.27050131303512348 0 0.42226183937510081 0.28327127115801121 0 0.4092682188351508 0.26816031590002881 0 0.41664462513020523 0.25422696758609492 0 0.42226183937510081 0.28327127115801121 0 0.41664462513020523 0.25422696758609492 0 0.42226183937510081 0.28327127115801121 0 0.4092682188351508 0.26816031590002881 0 0.40929088926209078 0.279020096056181 0 0.40768566828284042 0.25774317622192677 0 0.41664462513020523 0.25422696758609492 0 0.40866327585672191 0.24600766979752939 0 0.40768566828284042 0.25774317622192677 0 0.41664462513020523 0.25422696758609492 0 0.4092682188351508 0.26816031590002881 0 0.40768566828284042 0.25774317622192677 0 0.41664462513020523 0.25422696758609492 0 0.42749544465446981 0.25699566217507153 0 0.45166362976964691 0.25106894999712381 0 0.43076425121212841 0.2486853010718087 0 0.41664462513020523 0.25422696758609492 0 0.42749544465446981 0.25699566217507153 0 0.43076425121212841 0.2486853010718087 0 0.43023391716603732 0.27040224467912161 0 0.41664462513020523 0.25422696758609492 0 0.42749544465446981 0.25699566217507153 0 0.41664462513020523 0.25422696758609492 0 0.43076425121212841 0.2486853010718087 0 0.42749544465446981 0.25699566217507153 0 0.43692075095235122 0.26433370861442979 0 0.44456450099631911 0.26043047377218492 0 0.43023391716603732 0.27040224467912161 0 0.42749544465446981 0.25699566217507153 0 0.43692075095235122 0.26433370861442979 0 0.42749544465446981 0.25699566217507153 0 0.45166362976964691 0.25106894999712381 0 0.42749544465446981 0.25699566217507153 0 0.44456450099631911 0.26043047377218492 0 0.45166362976964691 0.25106894999712381 0 0.43692075095235122 0.26433370861442979 0 0.44456450099631911 0.26043047377218492 0 0.44373838257505849 0.27050131303512348 0 0.44456450099631911 0.26043047377218492 0 0.44373838257505849 0.27050131303512348 0 0.45508065662597141 0.26402805921732958 0 0.44456450099631911 0.26043047377218492 0 0.45166362976964691 0.25106894999712381 0 0.45508065662597141 0.26402805921732958 0 0.44373838257505849 0.27050131303512348 0 0.45472874274978531 0.27586911806656422 0 0.44120727567718632 0.28746005308771089 0 0.43023391716603732 0.27040224467912161 0 0.44373838257505849 0.27050131303512348 0 0.44120727567718632 0.28746005308771089 0 0.44373838257505849 0.27050131303512348 0 0.45472874274978531 0.27586911806656422 0 0.45508065662597141 0.26402805921732958 0 0.45472874274978531 0.27586911806656422 0 0.46665275363318931 0.27127710252775639 0 0.46192346945889701 0.28817835066990299 0 0.45472874274978531 0.27586911806656422 0 0.46665275363318931 0.27127710252775639 0 0.45508065662597141 0.26402805921732958 0 0.45166362976964691 0.25106894999712381 0 0.46652816171208539 0.25830808769848879 0 0.47583181488482379 0.2451422378191761 0 0.45166362976964691 0.25106894999712381 0 0.45508065662597141 0.26402805921732958 0 0.46652816171208539 0.25830808769848879 0 0.46665275363318931 0.27127710252775639 0 0.45508065662597141 0.26402805921732958 0 0.46652816171208539 0.25830808769848879 0 0.46665275363318931 0.27127710252775639 0 0.46652816171208539 0.25830808769848879 0 0.48341195364679568 0.26002408893105827 0 0.46652816171208539 0.25830808769848879 0 0.48341195364679568 0.26002408893105827 0 0.47583181488482379 0.2451422378191761 0 0.46665275363318931 0.27127710252775639 0 0.48341195364679568 0.26002408893105827 0 0.48138518434246891 0.28130646820503019 0 0.46665275363318931 0.27127710252775639 0 0.48138518434246891 0.28130646820503019 0 0.46192346945889701 0.28817835066990299 0 0.5 0.26671351767664991 0 0.5 0.29421150971207138 0 0.48138518434246891 0.28130646820503019 0 0.48341195364679568 0.26002408893105827 0 0.5 0.26671351767664991 0 0.48138518434246891 0.28130646820503019 0 0.48341195364679568 0.26002408893105827 0 0.5 0.26671351767664991 0 0.50000000000000067 0.2392155256412283 0 0.5 0.29421150971207138 0 0.47556093647901088 0.30733800586058863 0 0.5 0.32170950174749302 0 0.5 0.29421150971207138 0 0.48138518434246891 0.28130646820503019 0 0.47556093647901088 0.30733800586058863 0 0.48138518434246891 0.28130646820503019 0 0.47556093647901088 0.30733800586058863 0 0.46192346945889701 0.28817835066990299 0 0.47556093647901088 0.30733800586058863 0 0.45214514511688908 0.30370412902975941 0 0.45421880844117613 0.32339126307769928 0 0.47556093647901088 0.30733800586058863 0 0.46192346945889701 0.28817835066990299 0 0.45214514511688908 0.30370412902975941 0 0.46192346945889701 0.28817835066990299 0 0.44120727567718632 0.28746005308771089 0 0.45214514511688908 0.30370412902975941 0 0.45472874274978531 0.27586911806656422 0 0.46192346945889701 0.28817835066990299 0 0.44120727567718632 0.28746005308771089 0 0.42781523552817591 0.31215297245289481 0 0.44120727567718632 0.28746005308771089 0 0.45214514511688908 0.30370412902975941 0 0.42781523552817591 0.31215297245289481 0 0.45421880844117613 0.32339126307769928 0 0.43298436918619881 0.33903622913929549 0 0.42781523552817591 0.31215297245289481 0 0.45214514511688908 0.30370412902975941 0 0.45421880844117613 0.32339126307769928 0 0.42781523552817591 0.31215297245289481 0 0.45421880844117613 0.32339126307769928 0 0.45421880844117613 0.32339126307769928 0 0.45970761232660212 0.34692044601787542 0 0.43298436918619881 0.33903622913929549 0 0.45421880844117613 0.32339126307769928 0 0.48062238135417568 0.33462955370250519 0 0.45421880844117613 0.32339126307769928 0 0.48062238135417568 0.33462955370250519 0 0.45970761232660212 0.34692044601787542 0 0.47556093647901088 0.30733800586058863 0 0.45421880844117613 0.32339126307769928 0 0.48062238135417568 0.33462955370250519 0 0.48062238135417568 0.33462955370250519 0 0.5 0.32170950174749302 0 0.5 0.34920749378291471 0 0.47556093647901088 0.30733800586058863 0 0.48062238135417568 0.33462955370250519 0 0.5 0.32170950174749302 0 0.5 0.34920749378291471 0 0.48254603458521478 0.3522402998402685 0 0.5 0.37670548581833618 0 0.48062238135417568 0.33462955370250519 0 0.5 0.34920749378291471 0 0.48254603458521478 0.3522402998402685 0 0.48254603458521478 0.3522402998402685 0 0.46972057754862501 0.36630584452178799 0 0.45970761232660212 0.34692044601787542 0 0.48062238135417568 0.33462955370250519 0 0.48254603458521478 0.3522402998402685 0 0.45970761232660212 0.34692044601787542 0 0.48254603458521478 0.3522402998402685 0 0.46972057754862501 0.36630584452178799 0 0.5 0.37670548581833618 0 0.46972057754862501 0.36630584452178799 0 0.43815350284422228 0.36591948582569622 0 0.45848938469160699 0.38276388730883248 0 0.46972057754862501 0.36630584452178799 0 0.45970761232660212 0.34692044601787542 0 0.43815350284422228 0.36591948582569622 0 0.45970761232660212 0.34692044601787542 0 0.43815350284422228 0.36591948582569622 0 0.43298436918619881 0.33903622913929549 0 0.43815350284422228 0.36591948582569622 0 0.4167242930516859 0.35972934744593471 0 0.42344095457037051 0.38268701701273461 0 0.4167242930516859 0.35972934744593471 0 0.40101385701800268 0.38518895784325291 0 0.4167242930516859 0.35972934744593471 0 0.40181680918128981 0.35947395412181382 0 0.40101385701800268 0.38518895784325291 0 0.4167242930516859 0.35972934744593471 0 0.40869055031553031 0.33881917925707022 0 0.40181680918128981 0.35947395412181382 0 0.4167242930516859 0.35972934744593471 0 0.43298436918619881 0.33903622913929549 0 0.40869055031553031 0.33881917925707022 0 0.43815350284422228 0.36591948582569622 0 0.4167242930516859 0.35972934744593471 0 0.43298436918619881 0.33903622913929549 0 0.43815350284422228 0.36591948582569622 0 0.43298436918619881 0.33903622913929549 0 0.42781523552817591 0.31215297245289481 0 0.43298436918619881 0.33903622913929549 0 0.42781523552817591 0.31215297245289481 0 0.43298436918619881 0.33903622913929549 0 0.41357021602424721 0.32279281759874212 0 0.43298436918619881 0.33903622913929549 0 0.41357021602424721 0.32279281759874212 0 0.40869055031553031 0.33881917925707022 0 0.40869055031553031 0.33881917925707022 0 0.39369601167170543 0.33564153172070438 0 0.39209274976778918 0.34814598654190299 0 0.40869055031553031 0.33881917925707022 0 0.39369601167170543 0.33564153172070438 0 0.3956366020903157 0.32248231082130752 0 0.39369601167170543 0.33564153172070438 0 0.3956366020903157 0.32248231082130752 0 0.38362385659697051 0.32926172455430031 0 0.39369601167170543 0.33564153172070438 0 0.38635485741833753 0.33883185827426582 0 0.39209274976778918 0.34814598654190299 0 0.41357021602424721 0.32279281759874212 0 0.40869055031553031 0.33881917925707022 0 0.3956366020903157 0.32248231082130752 0 0.4027243230010164 0.30147339632314252 0 0.41357021602424721 0.32279281759874212 0 0.3956366020903157 0.32248231082130752 0 0.3956366020903157 0.32248231082130752 0 0.38754735899376969 0.31282171123814728 0 0.38479800915553353 0.32074741934569512 0 0.38754735899376969 0.31282171123814728 0 0.38479800915553353 0.32074741934569512 0 0.37917338616632867 0.3168755173424983 0 0.3956366020903157 0.32248231082130752 0 0.38479800915553353 0.32074741934569512 0 0.38362385659697051 0.32926172455430031 0 0.38479800915553353 0.32074741934569512 0 0.37832625022041982 0.32264150287239662 0 0.38362385659697051 0.32926172455430031 0 0.37577016905582622 0.32787937856968757 0 0.37832625022041982 0.32264150287239662 0 0.38362385659697051 0.32926172455430031 0 0.37577016905582622 0.32787937856968757 0 0.37506056064123422 0.32471797871916308 0 0.37832625022041982 0.32264150287239662 0 0.37368960646642962 0.31911015363466272 0 0.37506056064123422 0.32471797871916308 0 0.37832625022041982 0.32264150287239662 0 0.37695808612291098 0.31120865645681561 0 0.38754735899376969 0.31282171123814728 0 0.37917338616632867 0.3168755173424983 0 0.38479800915553353 0.32074741934569512 0 0.37832625022041982 0.32264150287239662 0 0.37917338616632867 0.3168755173424983 0 0.37368960646642962 0.31911015363466272 0 0.37832625022041982 0.32264150287239662 0 0.37917338616632867 0.3168755173424983 0 0.37499251130121058 0.31593455150060828 0 0.37368960646642962 0.31911015363466272 0 0.37917338616632867 0.3168755173424983 0 0.37499251130121058 0.31593455150060828 0 0.37695808612291098 0.31120865645681561 0 0.37917338616632867 0.3168755173424983 0 0.38635485741833753 0.33883185827426582 0 0.3795813787571668 0.3363772241379393 0 0.38278029029805521 0.34473282441648212 0 0.39369601167170543 0.33564153172070438 0 0.38635485741833753 0.33883185827426582 0 0.38362385659697051 0.32926172455430031 0 0.38635485741833753 0.33883185827426582 0 0.38362385659697051 0.32926172455430031 0 0.3795813787571668 0.3363772241379393 0 0.37577016905582622 0.32787937856968757 0 0.38362385659697051 0.32926172455430031 0 0.37868435463470768 0.3315773541462857 0 0.38362385659697051 0.32926172455430031 0 0.37868435463470768 0.3315773541462857 0 0.3795813787571668 0.3363772241379393 0 0.37577016905582622 0.32787937856968757 0 0.37868435463470768 0.3315773541462857 0 0.375263113682131 0.33313320718557798 0 0.37868435463470768 0.3315773541462857 0 0.375263113682131 0.33313320718557798 0 0.3795813787571668 0.3363772241379393 0 0.37369311900952262 0.33836265764115908 0 0.3795813787571668 0.3363772241379393 0 0.37670219357667811 0.34177383067972761 0 0.3795813787571668 0.3363772241379393 0 0.37670219357667811 0.34177383067972761 0 0.38278029029805521 0.34473282441648212 0 0.37369311900952262 0.33836265764115908 0 0.375263113682131 0.33313320718557798 0 0.3795813787571668 0.3363772241379393 0 0.3809821990389497 0.35490418517770578 0 0.39056259575344082 0.36548629952090861 0 0.39209274976778918 0.34814598654190299 0 0.37486749369974542 0.34694596905823039 0 0.37670219357667811 0.34177383067972761 0 0.38278029029805521 0.34473282441648212 0 0.37486749369974542 0.34694596905823039 0 0.38278029029805521 0.34473282441648212 0 0.3809821990389497 0.35490418517770578 0 0.38278029029805521 0.34473282441648212 0 0.3809821990389497 0.35490418517770578 0 0.39209274976778918 0.34814598654190299 0 0.38635485741833753 0.33883185827426582 0 0.38278029029805521 0.34473282441648212 0 0.39209274976778918 0.34814598654190299 0 0.37228166628853332 0.35471301169251829 0 0.37486749369974542 0.34694596905823039 0 0.3809821990389497 0.35490418517770578 0 0.37414389550204002 0.36898578533419818 0 0.3809821990389497 0.35490418517770578 0 0.39056259575344082 0.36548629952090861 0 0.37414389550204002 0.36898578533419818 0 0.39056259575344082 0.36548629952090861 0 0.40101385701800268 0.38518895784325291 0 0.37414389550204002 0.36898578533419818 0 0.37228166628853332 0.35471301169251829 0 0.3809821990389497 0.35490418517770578 0 0.39056259575344082 0.36548629952090861 0 0.40181680918128981 0.35947395412181382 0 0.40101385701800268 0.38518895784325291 0 0.39056259575344082 0.36548629952090861 0 0.40181680918128981 0.35947395412181382 0 0.39209274976778918 0.34814598654190299 0 0.40869055031553031 0.33881917925707022 0 0.40181680918128981 0.35947395412181382 0 0.39209274976778918 0.34814598654190299 0 0.40101385701800268 0.38518895784325291 0 0.38530342098431941 0.41064856824057122 0 0.40101385701800268 0.38518895784325291 0 0.38530342098431941 0.41064856824057122 0 0.41521715527738928 0.40390661881175682 0 0.3736470799201031 0.39378130610698531 0 0.37414389550204002 0.36898578533419818 0 0.40101385701800268 0.38518895784325291 0 0.3736470799201031 0.39378130610698531 0 0.40101385701800268 0.38518895784325291 0 0.38530342098431941 0.41064856824057122 0 0.36959298495063608 0.43610817863788948 0 0.38530342098431941 0.41064856824057122 0 0.36959298495063608 0.43610817863788948 0 0.38530342098431941 0.41064856824057122 0 0.3889231515195431 0.43141286456833011 0 0.3889231515195431 0.43141286456833011 0 0.40362265567455102 0.42304679086704539 0 0.39942544658573009 0.43872588670818857 0 0.40362265567455102 0.42304679086704539 0 0.41248490446316177 0.43293377153942381 0 0.39942544658573009 0.43872588670818857 0 0.38530342098431941 0.41064856824057122 0 0.3889231515195431 0.43141286456833011 0 0.40362265567455102 0.42304679086704539 0 0.38530342098431941 0.41064856824057122 0 0.40362265567455102 0.42304679086704539 0 0.41521715527738928 0.40390661881175682 0 0.40362265567455102 0.42304679086704539 0 0.42233359500988371 0.42307221464191669 0 0.41521715527738928 0.40390661881175682 0 0.40362265567455102 0.42304679086704539 0 0.41248490446316177 0.43293377153942381 0 0.42233359500988371 0.42307221464191669 0 0.41248490446316177 0.43293377153942381 0 0.42233359500988371 0.42307221464191669 0 0.42326813014219627 0.43909650749986368 0 0.42233359500988371 0.42307221464191669 0 0.43681876433844857 0.43497208046478802 0 0.42326813014219627 0.43909650749986368 0 0.42233359500988371 0.42307221464191669 0 0.43681876433844857 0.43497208046478802 0 0.43655617137350622 0.42038510460191503 0 0.42233359500988371 0.42307221464191669 0 0.42830887421762198 0.41018013153495869 0 0.41521715527738928 0.40390661881175682 0 0.42233359500988371 0.42307221464191669 0 0.42830887421762198 0.41018013153495869 0 0.43655617137350622 0.42038510460191503 0 0.42830887421762198 0.41018013153495869 0 0.43655617137350622 0.42038510460191503 0 0.439625884597032 0.40642404903869822 0 0.42978568865087441 0.39901034440009059 0 0.42344095457037051 0.38268701701273461 0 0.4433226365022459 0.39280274251209668 0 0.42978568865087441 0.39901034440009059 0 0.41521715527738928 0.40390661881175682 0 0.42344095457037051 0.38268701701273461 0 0.42830887421762198 0.41018013153495869 0 0.42978568865087441 0.39901034440009059 0 0.439625884597032 0.40642404903869822 0 0.42830887421762198 0.41018013153495869 0 0.42978568865087441 0.39901034440009059 0 0.41521715527738928 0.40390661881175682 0 0.4167242930516859 0.35972934744593471 0 0.40101385701800268 0.38518895784325291 0 0.42344095457037051 0.38268701701273461 0 0.40101385701800268 0.38518895784325291 0 0.41521715527738928 0.40390661881175682 0 0.42344095457037051 0.38268701701273461 0 0.43815350284422228 0.36591948582569622 0 0.42344095457037051 0.38268701701273461 0 0.4433226365022459 0.39280274251209668 0 0.43815350284422228 0.36591948582569622 0 0.4433226365022459 0.39280274251209668 0 0.43815350284422228 0.36591948582569622 0 0.4433226365022459 0.39280274251209668 0 0.45848938469160699 0.38276388730883248 0 0.4433226365022459 0.39280274251209668 0 0.4587292321942566 0.40377894109977869 0 0.44849177016026981 0.41968599919849731 0 0.4433226365022459 0.39280274251209668 0 0.44849177016026981 0.41968599919849731 0 0.42978568865087441 0.39901034440009059 0 0.4433226365022459 0.39280274251209668 0 0.439625884597032 0.40642404903869822 0 0.4433226365022459 0.39280274251209668 0 0.4587292321942566 0.40377894109977869 0 0.45848938469160699 0.38276388730883248 0 0.4587292321942566 0.40377894109977869 0 0.45848938469160699 0.38276388730883248 0 0.47720201034463561 0.39055994944820821 0 0.46972057754862501 0.36630584452178799 0 0.45848938469160699 0.38276388730883248 0 0.47720201034463561 0.39055994944820821 0 0.46972057754862501 0.36630584452178799 0 0.47720201034463561 0.39055994944820821 0 0.5 0.37670548581833618 0 0.47720201034463561 0.39055994944820821 0 0.5 0.40420347785375749 0 0.47329291580914951 0.41490179660840648 0 0.4587292321942566 0.40377894109977869 0 0.47720201034463561 0.39055994944820821 0 0.47329291580914951 0.41490179660840648 0 0.47720201034463561 0.39055994944820821 0 0.5 0.40420347785375749 0 0.5 0.37670548581833618 0 0.48546521128148462 0.42572005307568972 0 0.49999999999999828 0.43170146988917901 0 0.48502495584706629 0.44181750450007778 0 0.49999999999999828 0.43170146988917901 0 0.48502495584706629 0.44181750450007778 0 0.5 0.40420347785375749 0 0.48546521128148462 0.42572005307568972 0 0.47329291580914951 0.41490179660840648 0 0.5 0.40420347785375749 0 0.48546521128148462 0.42572005307568972 0 0.49999999999999828 0.43170146988917901 0 0.48546521128148462 0.42572005307568972 0 0.47462076711180717 0.43403653248997731 0 0.48502495584706629 0.44181750450007778 0 0.47329291580914951 0.41490179660840648 0 0.47462076711180717 0.43403653248997731 0 0.45927084092720188 0.43580976915473651 0 0.48546521128148462 0.42572005307568972 0 0.47329291580914951 0.41490179660840648 0 0.47462076711180717 0.43403653248997731 0 0.45927084092720188 0.43580976915473651 0 0.44849177016026981 0.41968599919849731 0 0.47329291580914951 0.41490179660840648 0 0.45927084092720188 0.43580976915473651 0 0.44849177016026981 0.41968599919849731 0 0.45927084092720188 0.43580976915473651 0 0.44849177016026981 0.41968599919849731 0 0.45165089640657707 0.43611575462809582 0 0.4587292321942566 0.40377894109977869 0 0.47329291580914951 0.41490179660840648 0 0.44849177016026981 0.41968599919849731 0 0.4433226365022459 0.39280274251209668 0 0.44849177016026981 0.41968599919849731 0 0.439625884597032 0.40642404903869822 0 0.43655617137350622 0.42038510460191503 0 0.44849177016026981 0.41968599919849731 0 0.439625884597032 0.40642404903869822 0 0.44849177016026981 0.41968599919849731 0 0.439625884597032 0.40642404903869822 0 0.44849177016026981 0.41968599919849731 0 0.45165089640657707 0.43611575462809582 0 0.44386952542921521 0.4295111469185629 0 0.44849177016026981 0.41968599919849731 0 0.45165089640657707 0.43611575462809582 0 0.45165089640657707 0.43611575462809582 0 0.44386952542921521 0.4295111469185629 0 0.44519082659473158 0.43782150968735878 0 0.43655617137350622 0.42038510460191503 0 0.44849177016026981 0.41968599919849731 0 0.44386952542921521 0.4295111469185629 0 0.43681876433844857 0.43497208046478802 0 0.43655617137350622 0.42038510460191503 0 0.44386952542921521 0.4295111469185629 0 0.43681876433844857 0.43497208046478802 0 0.44386952542921521 0.4295111469185629 0 0.44519082659473158 0.43782150968735878 0 0.43681876433844857 0.43497208046478802 0 0.44519082659473158 0.43782150968735878 0 0.44362096681603608 0.44566090358066651 0 0.43681876433844857 0.43497208046478802 0 0.44362096681603608 0.44566090358066651 0 0.43343701099378978 0.44857281610427868 0 0.44362096681603608 0.44566090358066651 0 0.44110505044236059 0.45564825146568327 0 0.43343701099378978 0.44857281610427868 0 0.44362096681603608 0.44566090358066651 0 0.45255374853073171 0.45216262504332899 0 0.45221828903371142 0.44335246171580328 0 0.44362096681603608 0.44566090358066651 0 0.45255374853073171 0.45216262504332899 0 0.44110505044236059 0.45564825146568327 0 0.44519082659473158 0.43782150968735878 0 0.44362096681603608 0.44566090358066651 0 0.45221828903371142 0.44335246171580328 0 0.45165089640657707 0.43611575462809582 0 0.44519082659473158 0.43782150968735878 0 0.45221828903371142 0.44335246171580328 0 0.45255374853073171 0.45216262504332899 0 0.44518446721829791 0.46873079822848901 0 0.44110505044236059 0.45564825146568327 0 0.44518446721829791 0.46873079822848901 0 0.44110505044236059 0.45564825146568327 0 0.43072905865294731 0.46311411437165317 0 0.47284597636140308 0.45611600571247141 0 0.46302896313844299 0.47272331085799019 0 0.45255374853073171 0.45216262504332899 0 0.44518446721829791 0.46873079822848901 0 0.47004991169413368 0.45193353911097589 0 0.47004991169413368 0.45193353911097589 0 0.47284597636140308 0.45611600571247141 0 0.46302896313844299 0.47272331085799019 0 0.44518446721829791 0.46873079822848901 0 0.47004991169413368 0.45193353911097589 0 0.46302896313844299 0.47272331085799019 0 0.44518446721829791 0.46873079822848901 0 0.47004991169413368 0.45193353911097589 0 0.45927084092720188 0.43580976915473651 0 0.47004991169413368 0.45193353911097589 0 0.45927084092720188 0.43580976915473651 0 0.45930684530103161 0.44617181272829648 0 0.47004991169413368 0.45193353911097589 0 0.47462076711180717 0.43403653248997731 0 0.45927084092720188 0.43580976915473651 0 0.47004991169413368 0.45193353911097589 0 0.45255374853073171 0.45216262504332899 0 0.45930684530103161 0.44617181272829648 0 0.47004991169413368 0.45193353911097589 0 0.45927084092720188 0.43580976915473651 0 0.45221828903371142 0.44335246171580328 0 0.45930684530103161 0.44617181272829648 0 0.45927084092720188 0.43580976915473651 0 0.45165089640657707 0.43611575462809582 0 0.45221828903371142 0.44335246171580328 0 0.45255374853073171 0.45216262504332899 0 0.45221828903371142 0.44335246171580328 0 0.45930684530103161 0.44617181272829648 0 0.47462076711180717 0.43403653248997731 0 0.47004991169413368 0.45193353911097589 0 0.48502495584706629 0.44181750450007778 0 0.48189680466807888 0.45106209462173341 0 0.47450081081676521 0.45331654521044668 0 0.48502495584706629 0.44181750450007778 0 0.47004991169413368 0.45193353911097589 0 0.48502495584706629 0.44181750450007778 0 0.47004991169413368 0.45193353911097589 0 0.47450081081676521 0.45331654521044668 0 0.48502495584706629 0.44181750450007778 0 0.47284597636140308 0.45611600571247141 0 0.48050552008400071 0.46757346096286262 0 0.46302896313844299 0.47272331085799019 0 0.47004991169413368 0.45193353911097589 0 0.47284597636140308 0.45611600571247141 0 0.47004991169413368 0.45193353911097589 0 0.47450081081676521 0.45331654521044668 0 0.47284597636140308 0.45611600571247141 0 0.47450081081676521 0.45331654521044668 0 0.47284597636140308 0.45611600571247141 0 0.47951191807974908 0.45654698881850991 0 0.47450081081676521 0.45331654521044668 0 0.47284597636140308 0.45611600571247141 0 0.47284597636140308 0.45611600571247141 0 0.48050552008400071 0.46757346096286262 0 0.47284597636140308 0.45611600571247141 0 0.48050552008400071 0.46757346096286262 0 0.47951191807974908 0.45654698881850991 0 0.48189680466807888 0.45106209462173341 0 0.47951191807974908 0.45654698881850991 0 0.4878104784684959 0.4546668375850359 0 0.48050552008400071 0.46757346096286262 0 0.47951191807974908 0.45654698881850991 0 0.4878104784684959 0.4546668375850359 0 0.48189680466807888 0.45106209462173341 0 0.47450081081676521 0.45331654521044668 0 0.47951191807974908 0.45654698881850991 0 0.48050552008400071 0.46757346096286262 0 0.4878104784684959 0.4546668375850359 0 0.49999999999999928 0.46182898591187349 0 0.48050552008400071 0.46757346096286262 0 0.49999999999999928 0.46182898591187349 0 0.49999999999999828 0.43170146988917901 0 0.4878104784684959 0.4546668375850359 0 0.49999999999999928 0.46182898591187349 0 0.49999999999999828 0.43170146988917901 0 0.4878104784684959 0.4546668375850359 0 0.48502495584706629 0.44181750450007778 0 0.48189680466807888 0.45106209462173341 0 0.4878104784684959 0.4546668375850359 0 0.48502495584706629 0.44181750450007778 0 0.49999999999999928 0.46182898591187349 0 0.5 0.5 0 0.49753071700976492 0.4930404390193398 0 0.5 0.5 0 0.47501141284236448 0.48698608464618232 0 0.44690499747156931 0.4999999999999995 0 0.5 0.5 0 0.49753071700976492 0.4930404390193398 0 0.47501141284236448 0.48698608464618232 0 0.49753071700976492 0.4930404390193398 0 0.48901811854688337 0.4803069499911008 0 0.47501141284236448 0.48698608464618232 0 0.49753071700976492 0.4930404390193398 0 0.48901811854688337 0.4803069499911008 0 0.48050552008400071 0.46757346096286262 0 0.49999999999999928 0.46182898591187349 0 0.48901811854688337 0.4803069499911008 0 0.49999999999999928 0.46182898591187349 0 0.49753071700976492 0.4930404390193398 0 0.48901811854688337 0.4803069499911008 0 0.48050552008400071 0.46757346096286262 0 0.48901811854688337 0.4803069499911008 0 0.48050552008400071 0.46757346096286262 0 0.46302896313844299 0.47272331085799019 0 0.48901811854688337 0.4803069499911008 0 0.47689100365292297 0.47689745161453417 0 0.47501141284236448 0.48698608464618232 0 0.48050552008400071 0.46757346096286262 0 0.47689100365292297 0.47689745161453417 0 0.46302896313844299 0.47272331085799019 0 0.48050552008400071 0.46757346096286262 0 0.48901811854688337 0.4803069499911008 0 0.47689100365292297 0.47689745161453417 0 0.47689100365292297 0.47689745161453417 0 0.47501141284236448 0.48698608464618232 0 0.46302896313844299 0.47272331085799019 0 0.47501141284236448 0.48698608464618232 0 0.45496698030500621 0.48636165542899479 0 0.44690499747156931 0.4999999999999995 0 0.47501141284236448 0.48698608464618232 0 0.45496698030500621 0.48636165542899479 0 0.46302896313844299 0.47272331085799019 0 0.45496698030500621 0.48636165542899479 0 0.46302896313844299 0.47272331085799019 0 0.46302896313844299 0.47272331085799019 0 0.43620850627812668 0.48062654530969717 0 0.44518446721829791 0.46873079822848901 0 0.46302896313844299 0.47272331085799019 0 0.43620850627812668 0.48062654530969717 0 0.45496698030500621 0.48636165542899479 0 0.46302896313844299 0.47272331085799019 0 0.43620850627812668 0.48062654530969717 0 0.45496698030500621 0.48636165542899479 0 0.44690499747156931 0.4999999999999995 0 0.43620850627812668 0.48062654530969717 0 0.45496698030500621 0.48636165542899479 0 0.44690499747156931 0.4999999999999995 0 0.42031902274246069 0.48552805734600057 0 0.41743852268843429 0.5 0 0.43620850627812668 0.48062654530969717 0 0.44690499747156931 0.4999999999999995 0 0.41743852268843429 0.5 0 0.43620850627812668 0.48062654530969717 0 0.42031902274246069 0.48552805734600057 0 0.41743852268843429 0.5 0 0.40134209412993838 0.48520307466421098 0 0.42031902274246069 0.48552805734600057 0 0.40973563488985532 0.47579104778557152 0 0.40134209412993838 0.48520307466421098 0 0.42031902274246069 0.48552805734600057 0 0.40973563488985532 0.47579104778557152 0 0.41789473538963601 0.46705380048502582 0 0.44518446721829791 0.46873079822848901 0 0.42031902274246069 0.48552805734600057 0 0.43072905865294731 0.46311411437165317 0 0.44518446721829791 0.46873079822848901 0 0.42031902274246069 0.48552805734600057 0 0.43620850627812668 0.48062654530969717 0 0.44518446721829791 0.46873079822848901 0 0.42031902274246069 0.48552805734600057 0 0.42031902274246069 0.48552805734600057 0 0.43072905865294731 0.46311411437165317 0 0.41789473538963601 0.46705380048502582 0 0.44110505044236059 0.45564825146568327 0 0.43072905865294731 0.46311411437165317 0 0.43343701099378978 0.44857281610427868 0 0.43072905865294731 0.46311411437165317 0 0.43343701099378978 0.44857281610427868 0 0.42053980660522761 0.45341513910658388 0 0.43072905865294731 0.46311411437165317 0 0.41789473538963601 0.46705380048502582 0 0.42053980660522761 0.45341513910658388 0 0.43681876433844857 0.43497208046478802 0 0.43343701099378978 0.44857281610427868 0 0.42326813014219627 0.43909650749986368 0 0.43343701099378978 0.44857281610427868 0 0.42326813014219627 0.43909650749986368 0 0.42053980660522761 0.45341513910658388 0 0.41248490446316177 0.43293377153942381 0 0.42326813014219627 0.43909650749986368 0 0.41215324011006321 0.44426916471351768 0 0.42326813014219627 0.43909650749986368 0 0.41215324011006321 0.44426916471351768 0 0.42053980660522761 0.45341513910658388 0 0.41215324011006321 0.44426916471351768 0 0.42053980660522761 0.45341513910658388 0 0.40575666434273311 0.45838443146516472 0 0.41248490446316177 0.43293377153942381 0 0.41215324011006321 0.44426916471351768 0 0.39942544658573009 0.43872588670818857 0 0.40973563488985532 0.47579104778557152 0 0.41789473538963601 0.46705380048502582 0 0.40575666434273311 0.45838443146516472 0 0.41789473538963601 0.46705380048502582 0 0.42053980660522761 0.45341513910658388 0 0.40575666434273311 0.45838443146516472 0 0.40973563488985532 0.47579104778557152 0 0.40575666434273311 0.45838443146516472 0 0.39457326129307041 0.46924519202038539 0 0.40575666434273311 0.45838443146516472 0 0.38748492612950952 0.44892285829301931 0 0.39457326129307041 0.46924519202038539 0 0.40575666434273311 0.45838443146516472 0 0.39942544658573009 0.43872588670818857 0 0.38748492612950952 0.44892285829301931 0 0.3889231515195431 0.43141286456833011 0 0.39942544658573009 0.43872588670818857 0 0.38748492612950952 0.44892285829301931 0 0.41215324011006321 0.44426916471351768 0 0.40575666434273311 0.45838443146516472 0 0.39942544658573009 0.43872588670818857 0 0.36980735363827261 0.46050290225189661 0 0.36959298495063608 0.43610817863788948 0 0.38748492612950952 0.44892285829301931 0 0.36959298495063608 0.43610817863788948 0 0.3889231515195431 0.43141286456833011 0 0.38748492612950952 0.44892285829301931 0 0.36980735363827261 0.46050290225189661 0 0.38748492612950952 0.44892285829301931 0 0.39457326129307041 0.46924519202038539 0 0.36980735363827261 0.46050290225189661 0 0.37801407526051067 0.48065415083330842 0 0.39457326129307041 0.46924519202038539 0 0.37801407526051067 0.48065415083330842 0 0.38797204790529932 0.5 0 0.40134209412993838 0.48520307466421098 0 0.41743852268843429 0.5 0 0.38797204790529932 0.5 0 0.40134209412993838 0.48520307466421098 0 0.40973563488985532 0.47579104778557152 0 0.40134209412993838 0.48520307466421098 0 0.39457326129307041 0.46924519202038539 0 0.37801407526051067 0.48065415083330842 0 0.40134209412993838 0.48520307466421098 0 0.39457326129307041 0.46924519202038539 0 0.33471388977496319 0.083869725553476451 0 0.32003772732572838 0.080925826065863432 0 0.34163206045391592 0.099703108374672819 0 0.32003772732572838 0.080925826065863432 0 0.34163206045391592 0.099703108374672819 0 0.33471388977496319 0.083869725553476451 0 0.34163206045391592 0.099703108374672819 0 0.35085433501378249 0.086695181415402722 0 0.33471388977496319 0.083869725553476451 0 0.34209731100959018 0.06531632876058778 0 0.3490795063897344 0.076610282135673974 0 0.33471388977496319 0.083869725553476451 0 0.34209731100959018 0.06531632876058778 0 0.32721969837032222 0.069259436753723466 0 0.33471388977496319 0.083869725553476451 0 0.32721969837032222 0.069259436753723466 0 0.32003772732572838 0.080925826065863432 0 0.31518448171420999 0.065085558788002928 0 0.32721969837032222 0.069259436753723466 0 0.32003772732572838 0.080925826065863432 0 0.32003772732572838 0.080925826065863432 0 0.31657863646219547 0.093324099257994786 0 0.34163206045391592 0.099703108374672819 0 0.32003772732572838 0.080925826065863432 0 0.31657863646219547 0.093324099257994786 0 0.30227411453462139 0.089652133027170247 0 0.33471388977496319 0.083869725553476451 0 0.32003772732572838 0.080925826065863432 0 0.31657863646219547 0.093324099257994786 0 0.32025759602694659 0.1047776340902011 0 0.34163206045391592 0.099703108374672819 0 0.31657863646219547 0.093324099257994786 0 0.32025759602694659 0.1047776340902011 0 0.30640852481201453 0.1024735992044304 0 0.32025759602694659 0.1047776340902011 0 0.31114536757858358 0.11742006929579971 0 0.30640852481201453 0.1024735992044304 0 0.32606950933900308 0.1158177097477945 0 0.31114536757858358 0.11742006929579971 0 0.3195478300457561 0.1332621056988223 0 0.32025759602694659 0.1047776340902011 0 0.32606950933900308 0.1158177097477945 0 0.31114536757858358 0.11742006929579971 0 0.33761965874988609 0.1186889285033586 0 0.34163206045391592 0.099703108374672819 0 0.34956654336434939 0.1234914401014125 0 0.32606950933900308 0.1158177097477945 0 0.33761965874988609 0.1186889285033586 0 0.34163206045391592 0.099703108374672819 0 0.32606950933900308 0.1158177097477945 0 0.33761965874988609 0.1186889285033586 0 0.33436770153514289 0.13112975471366969 0 0.33761965874988609 0.1186889285033586 0 0.34956654336434939 0.1234914401014125 0 0.33436770153514289 0.13112975471366969 0 0.32025759602694659 0.1047776340902011 0 0.32606950933900308 0.1158177097477945 0 0.34163206045391592 0.099703108374672819 0 0.34163206045391592 0.099703108374672819 0 0.35755874922647762 0.098360434014750309 0 0.36322639358210312 0.11848039068348271 0 0.34163206045391592 0.099703108374672819 0 0.36322639358210312 0.11848039068348271 0 0.34163206045391592 0.099703108374672819 0 0.35755874922647762 0.098360434014750309 0 0.35085433501378249 0.086695181415402722 0 0.34163206045391592 0.099703108374672819 0 0.34956654336434939 0.1234914401014125 0 0.36322639358210312 0.11848039068348271 0 0.36322639358210312 0.11848039068348271 0 0.37045299287494049 0.09679375479102828 0 0.38005682511468147 0.12140739343396729 0 0.35755874922647762 0.098360434014750309 0 0.36322639358210312 0.11848039068348271 0 0.37045299287494049 0.09679375479102828 0 0.35755874922647762 0.098360434014750309 0 0.37045299287494049 0.09679375479102828 0 0.35979627253246887 0.087956112087811941 0 0.37045299287494049 0.09679375479102828 0 0.36986657419494789 0.075759843690150083 0 0.37682589963749002 0.081332762740894418 0 0.37045299287494049 0.09679375479102828 0 0.35979627253246887 0.087956112087811941 0 0.36084916063519962 0.072180116148089279 0 0.37045299287494049 0.09679375479102828 0 0.36084916063519962 0.072180116148089279 0 0.36986657419494789 0.075759843690150083 0 0.37045299287494049 0.09679375479102828 0 0.36084916063519962 0.072180116148089279 0 0.35755874922647762 0.098360434014750309 0 0.35979627253246887 0.087956112087811941 0 0.35085433501378249 0.086695181415402722 0 0.35979627253246887 0.087956112087811941 0 0.35560274156159061 0.081403828627082772 0 0.36084916063519962 0.072180116148089279 0 0.33471388977496319 0.083869725553476451 0 0.35085433501378249 0.086695181415402722 0 0.3490795063897344 0.076610282135673974 0 0.35979627253246887 0.087956112087811941 0 0.35560274156159061 0.081403828627082772 0 0.35085433501378249 0.086695181415402722 0 0.35560274156159061 0.081403828627082772 0 0.35085433501378249 0.086695181415402722 0 0.3490795063897344 0.076610282135673974 0 0.34209731100959018 0.06531632876058778 0 0.3490795063897344 0.076610282135673974 0 0.36084916063519962 0.072180116148089279 0 0.36448270712015302 0.068442951443566186 0 0.36084916063519962 0.072180116148089279 0 0.35124532839545858 0.047566477505150237 0 0.35560274156159061 0.081403828627082772 0 0.3490795063897344 0.076610282135673974 0 0.36084916063519962 0.072180116148089279 0 0.36448270712015302 0.068442951443566186 0 0.36084916063519962 0.072180116148089279 0 0.36986657419494789 0.075759843690150083 0 0.36986657419494789 0.075759843690150083 0 0.37596532967213542 0.069868995675824025 0 0.37682589963749002 0.081332762740894418 0 0.36448270712015302 0.068442951443566186 0 0.36986657419494789 0.075759843690150083 0 0.37084641292541748 0.06878424193773866 0 0.36986657419494789 0.075759843690150083 0 0.37084641292541748 0.06878424193773866 0 0.37596532967213542 0.069868995675824025 0 0.36448270712015302 0.068442951443566186 0 0.37084641292541748 0.06878424193773866 0 0.37307104071443398 0.061065176941414383 0 0.37084641292541748 0.06878424193773866 0 0.37307104071443398 0.061065176941414383 0 0.37596532967213542 0.069868995675824025 0 0.36448270712015302 0.068442951443566186 0 0.37307104071443398 0.061065176941414383 0 0.37146335928247548 0.04052602251159599 0 0.36448270712015302 0.068442951443566186 0 0.37146335928247548 0.04052602251159599 0 0.35124532839545858 0.047566477505150237 0 0.36448270712015302 0.068442951443566186 0 0.37146335928247548 0.04052602251159599 0 0.37146335928247548 0.04052602251159599 0 0.35572529983931911 0.032753521421585163 0 0.36312657459820519 0.022962182453169309 0 0.37146335928247548 0.04052602251159599 0 0.35572529983931911 0.032753521421585163 0 0.35124532839545858 0.047566477505150237 0 0.35572529983931911 0.032753521421585163 0 0.35124532839545858 0.047566477505150237 0 0.3321968515854315 0.028027004478648001 0 0.36084916063519962 0.072180116148089279 0 0.35124532839545858 0.047566477505150237 0 0.34209731100959018 0.06531632876058778 0 0.36084916063519962 0.072180116148089279 0 0.35124532839545858 0.047566477505150237 0 0.36312657459820519 0.022962182453169309 0 0.35936362748920009 0.0091271431172253586 0 0.37844401144479839 0.012609093579625891 0 0.35936362748920009 0.0091271431172253586 0 0.37844401144479839 0.012609093579625891 0 0.36665723294200347 -0.001883505129568449 0 0.35936362748920009 0.0091271431172253586 0 0.36665723294200347 -0.001883505129568449 0 0.35531676971978082 -0.0033532784323768001 0 0.37146335928247548 0.04052602251159599 0 0.36312657459820519 0.022962182453169309 0 0.37844401144479839 0.012609093579625891 0 0.37146335928247548 0.04052602251159599 0 0.37844401144479839 0.012609093579625891 0 0.35572529983931911 0.032753521421585163 0 0.35063657493523293 0.0197951316358141 0 0.3321968515854315 0.028027004478648001 0 0.35572529983931911 0.032753521421585163 0 0.36312657459820519 0.022962182453169309 0 0.35063657493523293 0.0197951316358141 0 0.36312657459820519 0.022962182453169309 0 0.35063657493523293 0.0197951316358141 0 0.35936362748920009 0.0091271431172253586 0 0.35936362748920009 0.0091271431172253586 0 0.33689267375143878 0.0039255003288513873 0 0.35531676971978082 -0.0033532784323768001 0 0.35063657493523293 0.0197951316358141 0 0.35936362748920009 0.0091271431172253586 0 0.33689267375143878 0.0039255003288513873 0 0.33689267375143878 0.0039255003288513873 0 0.3321968515854315 0.028027004478648001 0 0.30352242257352219 0.0039185454548519476 0 0.35063657493523293 0.0197951316358141 0 0.33689267375143878 0.0039255003288513873 0 0.3321968515854315 0.028027004478648001 0 0.3321968515854315 0.028027004478648001 0 0.32406508202711942 0.05109974460068676 0 0.30086563814790429 0.035038583275740692 0 0.34209731100959018 0.06531632876058778 0 0.32721969837032222 0.069259436753723466 0 0.32406508202711942 0.05109974460068676 0 0.34209731100959018 0.06531632876058778 0 0.35124532839545858 0.047566477505150237 0 0.32406508202711942 0.05109974460068676 0 0.35124532839545858 0.047566477505150237 0 0.3321968515854315 0.028027004478648001 0 0.32406508202711942 0.05109974460068676 0 0.31518448171420999 0.065085558788002928 0 0.32721969837032222 0.069259436753723466 0 0.32406508202711942 0.05109974460068676 0 0.31518448171420999 0.065085558788002928 0 0.32406508202711942 0.05109974460068676 0 0.29882370077581188 0.062479238108283437 0 0.32406508202711942 0.05109974460068676 0 0.29882370077581188 0.062479238108283437 0 0.30086563814790429 0.035038583275740692 0 0.32406508202711942 0.05109974460068676 0 0.30086563814790429 0.035038583275740692 0 0.30086563814790429 0.035038583275740692 0 0.28350496565293731 0.043820562147367653 0 0.27766619426868899 0.018977421950794569 0 0.29882370077581188 0.062479238108283437 0 0.30086563814790429 0.035038583275740692 0 0.28350496565293731 0.043820562147367653 0 0.29882370077581188 0.062479238108283437 0 0.28350496565293731 0.043820562147367653 0 0.28339325744793759 0.061338593161917712 0 0.3321968515854315 0.028027004478648001 0 0.30086563814790429 0.035038583275740692 0 0.30352242257352219 0.0039185454548519476 0 0.30086563814790429 0.035038583275740692 0 0.27766619426868899 0.018977421950794569 0 0.30086563814790429 0.035038583275740692 0 0.30352242257352219 0.0039185454548519476 0 0.27766619426868899 0.018977421950794569 0 0.30352242257352219 0.0039185454548519476 0 0.27766619426868899 0.018977421950794569 0 0.27708695819087842 -0.0025378708656911609 0 0.27766619426868899 0.018977421950794569 0 0.25446675038947358 0.0029162606258486688 0 0.27766619426868899 0.018977421950794569 0 0.26047117107291767 -0.0019720443344692288 0 0.27708695819087842 -0.0025378708656911609 0 0.27766619426868899 0.018977421950794569 0 0.2600935707136679 0.019574361616358959 0 0.26464981823601458 0.038183209123269009 0 0.2600935707136679 0.019574361616358959 0 0.26464981823601458 0.038183209123269009 0 0.25044211127373811 0.032849993626191502 0 0.27766619426868899 0.018977421950794569 0 0.2600935707136679 0.019574361616358959 0 0.25446675038947358 0.0029162606258486688 0 0.27766619426868899 0.018977421950794569 0 0.25446675038947358 0.0029162606258486688 0 0.26047117107291767 -0.0019720443344692288 0 0.25446675038947358 0.0029162606258486688 0 0.26047117107291767 -0.0019720443344692288 0 0.28339325744793759 0.061338593161917712 0 0.2699795556074106 0.054659435659755229 0 0.26514968559830832 0.069915803624621298 0 0.28350496565293731 0.043820562147367653 0 0.28339325744793759 0.061338593161917712 0 0.2699795556074106 0.054659435659755229 0 0.28350496565293731 0.043820562147367653 0 0.27766619426868899 0.018977421950794569 0 0.26464981823601458 0.038183209123269009 0 0.28350496565293731 0.043820562147367653 0 0.2699795556074106 0.054659435659755229 0 0.26464981823601458 0.038183209123269009 0 0.26464981823601458 0.038183209123269009 0 0.25174039047255609 0.044464402284776217 0 0.2585751734657834 0.052327775232976027 0 0.26464981823601458 0.038183209123269009 0 0.25044211127373811 0.032849993626191502 0 0.25174039047255609 0.044464402284776217 0 0.25174039047255609 0.044464402284776217 0 0.25102243244437311 0.053297338652025752 0 0.2585751734657834 0.052327775232976027 0 0.2699795556074106 0.054659435659755229 0 0.26464981823601458 0.038183209123269009 0 0.2585751734657834 0.052327775232976027 0 0.2699795556074106 0.054659435659755229 0 0.2585751734657834 0.052327775232976027 0 0.26000268679747079 0.061003988239662958 0 0.2699795556074106 0.054659435659755229 0 0.26000268679747079 0.061003988239662958 0 0.26514968559830832 0.069915803624621298 0 0.2585751734657834 0.052327775232976027 0 0.26000268679747079 0.061003988239662958 0 0.2530174900015254 0.0600809219264858 0 0.25102243244437311 0.053297338652025752 0 0.2585751734657834 0.052327775232976027 0 0.2530174900015254 0.0600809219264858 0 0.24751669685985911 0.059618880130872708 0 0.25102243244437311 0.053297338652025752 0 0.2530174900015254 0.0600809219264858 0 0.24853219730195361 0.063845178725116872 0 0.2530174900015254 0.0600809219264858 0 0.25274476311700622 0.067427493409812952 0 0.2530174900015254 0.0600809219264858 0 0.25274476311700622 0.067427493409812952 0 0.26000268679747079 0.061003988239662958 0 0.2530174900015254 0.0600809219264858 0 0.25274476311700622 0.067427493409812952 0 0.25274476311700622 0.067427493409812952 0 0.25243039498113262 0.075895774732197205 0 0.24842415088314279 0.069033451464499671 0 0.25274476311700622 0.067427493409812952 0 0.25243039498113262 0.075895774732197205 0 0.25274476311700622 0.067427493409812952 0 0.25243039498113262 0.075895774732197205 0 0.26514968559830832 0.069915803624621298 0 0.25243039498113262 0.075895774732197205 0 0.26514968559830832 0.069915803624621298 0 0.26417250328098718 0.085299079350852347 0 0.25243039498113262 0.075895774732197205 0 0.26514968559830832 0.069915803624621298 0 0.26000268679747079 0.061003988239662958 0 0.25274476311700622 0.067427493409812952 0 0.26514968559830832 0.069915803624621298 0 0.25274476311700622 0.067427493409812952 0 0.26514968559830832 0.069915803624621298 0 0.25243039498113262 0.075895774732197205 0 0.26417250328098718 0.085299079350852347 0 0.25158482098595109 0.098673396421397969 0 0.25243039498113262 0.075895774732197205 0 0.25158482098595109 0.098673396421397969 0 0.26417250328098718 0.085299079350852347 0 0.27563544099652842 0.091217529053328833 0 0.26597619666038957 0.098681263799979324 0 0.26417250328098718 0.085299079350852347 0 0.27658940398852799 0.081360569412953818 0 0.27563544099652842 0.091217529053328833 0 0.26514968559830832 0.069915803624621298 0 0.26417250328098718 0.085299079350852347 0 0.27658940398852799 0.081360569412953818 0 0.27658940398852799 0.081360569412953818 0 0.27563544099652842 0.091217529053328833 0 0.28742128170162778 0.087331448045782731 0 0.28339325744793759 0.061338593161917712 0 0.26514968559830832 0.069915803624621298 0 0.29259370646201821 0.075420814845242989 0 0.26514968559830832 0.069915803624621298 0 0.27658940398852799 0.081360569412953818 0 0.29259370646201821 0.075420814845242989 0 0.28339325744793759 0.061338593161917712 0 0.26514968559830832 0.069915803624621298 0 0.26514968559830832 0.069915803624621298 0 0.29259370646201821 0.075420814845242989 0 0.29882370077581188 0.062479238108283437 0 0.28339325744793759 0.061338593161917712 0 0.29259370646201821 0.075420814845242989 0 0.27658940398852799 0.081360569412953818 0 0.29259370646201821 0.075420814845242989 0 0.28742128170162778 0.087331448045782731 0 0.27563544099652842 0.091217529053328833 0 0.28742128170162778 0.087331448045782731 0 0.29001374252644291 0.099006193890217781 0 0.28742128170162778 0.087331448045782731 0 0.30227411453462139 0.089652133027170247 0 0.29001374252644291 0.099006193890217781 0 0.29259370646201821 0.075420814845242989 0 0.28742128170162778 0.087331448045782731 0 0.30227411453462139 0.089652133027170247 0 0.32003772732572838 0.080925826065863432 0 0.29259370646201821 0.075420814845242989 0 0.30227411453462139 0.089652133027170247 0 0.32003772732572838 0.080925826065863432 0 0.29259370646201821 0.075420814845242989 0 0.32003772732572838 0.080925826065863432 0 0.29882370077581188 0.062479238108283437 0 0.29259370646201821 0.075420814845242989 0 0.32003772732572838 0.080925826065863432 0 0.29882370077581188 0.062479238108283437 0 0.31518448171420999 0.065085558788002928 0 0.32003772732572838 0.080925826065863432 0 0.29882370077581188 0.062479238108283437 0 0.29818169174329712 0.11066146566519899 0 0.31114536757858358 0.11742006929579971 0 0.294250496481684 0.12267566802032639 0 0.31114536757858358 0.11742006929579971 0 0.294250496481684 0.12267566802032639 0 0.30313841955192899 0.13260249050964579 0 0.29818169174329712 0.11066146566519899 0 0.31114536757858358 0.11742006929579971 0 0.30640852481201453 0.1024735992044304 0 0.30227411453462139 0.089652133027170247 0 0.30640852481201453 0.1024735992044304 0 0.29001374252644291 0.099006193890217781 0 0.29818169174329712 0.11066146566519899 0 0.30640852481201453 0.1024735992044304 0 0.29001374252644291 0.099006193890217781 0 0.31657863646219547 0.093324099257994786 0 0.30227411453462139 0.089652133027170247 0 0.30640852481201453 0.1024735992044304 0 0.29818169174329712 0.11066146566519899 0 0.29001374252644291 0.099006193890217781 0 0.28729541733308872 0.1128284558108848 0 0.29001374252644291 0.099006193890217781 0 0.28729541733308872 0.1128284558108848 0 0.27577858748266387 0.1072301355245756 0 0.29818169174329712 0.11066146566519899 0 0.28729541733308872 0.1128284558108848 0 0.294250496481684 0.12267566802032639 0 0.28729541733308872 0.1128284558108848 0 0.294250496481684 0.12267566802032639 0 0.28067449336876182 0.1220521091494646 0 0.28067449336876182 0.1220521091494646 0 0.26956705708048567 0.1198361090660386 0 0.27577858748266387 0.1072301355245756 0 0.28729541733308872 0.1128284558108848 0 0.28067449336876182 0.1220521091494646 0 0.27577858748266387 0.1072301355245756 0 0.26956705708048567 0.1198361090660386 0 0.27577858748266387 0.1072301355245756 0 0.26270963055581759 0.11098617864974181 0 0.27563544099652842 0.091217529053328833 0 0.27577858748266387 0.1072301355245756 0 0.26597619666038957 0.098681263799979324 0 0.27563544099652842 0.091217529053328833 0 0.29001374252644291 0.099006193890217781 0 0.27577858748266387 0.1072301355245756 0 0.27577858748266387 0.1072301355245756 0 0.26597619666038957 0.098681263799979324 0 0.26270963055581759 0.11098617864974181 0 0.25158482098595109 0.098673396421397969 0 0.25094552198087999 0.11589449234768209 0 0.25158482098595109 0.098673396421397969 0 0.26270963055581759 0.11098617864974181 0 0.25094552198087999 0.11589449234768209 0 0.26417250328098718 0.085299079350852347 0 0.26597619666038957 0.098681263799979324 0 0.25158482098595109 0.098673396421397969 0 0.26597619666038957 0.098681263799979324 0 0.25158482098595109 0.098673396421397969 0 0.26270963055581759 0.11098617864974181 0 0.25158482098595109 0.098673396421397969 0 0.26270963055581759 0.11098617864974181 0 0.25094552198087999 0.11589449234768209 0 0.25030622297580962 0.13311558827396619 0 0.26022612795132161 0.12333036834530881 0 0.25094552198087999 0.11589449234768209 0 0.25030622297580962 0.13311558827396619 0 0.26956705708048567 0.1198361090660386 0 0.26022612795132161 0.12333036834530881 0 0.26270963055581759 0.11098617864974181 0 0.26022612795132161 0.12333036834530881 0 0.26270963055581759 0.11098617864974181 0 0.25094552198087999 0.11589449234768209 0 0.26956705708048567 0.1198361090660386 0 0.26022612795132161 0.12333036834530881 0 0.26675796828336718 0.1380571931171293 0 0.26022612795132161 0.12333036834530881 0 0.25030622297580962 0.13311558827396619 0 0.26675796828336718 0.1380571931171293 0 0.25030622297580962 0.13311558827396619 0 0.26675796828336718 0.1380571931171293 0 0.25030622297580962 0.13311558827396619 0 0.26675796828336718 0.1380571931171293 0 0.25638724149227848 0.14295410589973731 0 0.25004344172447263 0.14019424959050239 0 0.25030622297580962 0.13311558827396619 0 0.25638724149227848 0.14295410589973731 0 0.25004344172447263 0.14019424959050239 0 0.25030622297580962 0.13311558827396619 0 0.26675796828336718 0.1380571931171293 0 0.28320971359092417 0.1429987979602943 0 0.26675796828336718 0.1380571931171293 0 0.28666270206708028 0.1324408374186071 0 0.28320971359092417 0.1429987979602943 0 0.28067449336876182 0.1220521091494646 0 0.26956705708048567 0.1198361090660386 0 0.26675796828336718 0.1380571931171293 0 0.28067449336876182 0.1220521091494646 0 0.26675796828336718 0.1380571931171293 0 0.28666270206708028 0.1324408374186071 0 0.26675796828336718 0.1380571931171293 0 0.27436529468354132 0.15433220537778311 0 0.26010861073109098 0.15248373785575309 0 0.26675796828336718 0.1380571931171293 0 0.27436529468354132 0.15433220537778311 0 0.28320971359092417 0.1429987979602943 0 0.26675796828336718 0.1380571931171293 0 0.26010861073109098 0.15248373785575309 0 0.25638724149227848 0.14295410589973731 0 0.2496536413094039 0.15044712256699261 0 0.25004344172447263 0.14019424959050239 0 0.25638724149227848 0.14295410589973731 0 0.24653130607993951 0.16237692388552691 0 0.2496536413094039 0.15044712256699261 0 0.26010861073109098 0.15248373785575309 0 0.2496536413094039 0.15044712256699261 0 0.26010861073109098 0.15248373785575309 0 0.25638724149227848 0.14295410589973731 0 0.24653130607993951 0.16237692388552691 0 0.25292738168467233 0.17649485219682931 0 0.26638423851283249 0.16867758561061549 0 0.24653130607993951 0.16237692388552691 0 0.26010861073109098 0.15248373785575309 0 0.26638423851283249 0.16867758561061549 0 0.24528107816237801 0.1907036486386274 0 0.25292738168467233 0.17649485219682931 0 0.26633433714882182 0.18577592949096661 0 0.25292738168467233 0.17649485219682931 0 0.26633433714882182 0.18577592949096661 0 0.26638423851283249 0.16867758561061549 0 0.27723266788850742 0.181048228772968 0 0.26638423851283249 0.16867758561061549 0 0.28391425324491287 0.17071999404263091 0 0.26633433714882182 0.18577592949096661 0 0.27723266788850742 0.181048228772968 0 0.26638423851283249 0.16867758561061549 0 0.27436529468354132 0.15433220537778311 0 0.26010861073109098 0.15248373785575309 0 0.26638423851283249 0.16867758561061549 0 0.27436529468354132 0.15433220537778311 0 0.26638423851283249 0.16867758561061549 0 0.28391425324491287 0.17071999404263091 0 0.27436529468354132 0.15433220537778311 0 0.28391425324491287 0.17071999404263091 0 0.29097703849613438 0.15773848939083679 0 0.28391425324491287 0.17071999404263091 0 0.2931647794093819 0.16879209887591959 0 0.29097703849613438 0.15773848939083679 0 0.2931647794093819 0.16879209887591959 0 0.29097703849613438 0.15773848939083679 0 0.30040947706207388 0.16512632217721829 0 0.28391425324491287 0.17071999404263091 0 0.28743664533084129 0.187357279865842 0 0.29743995151898561 0.17866098634217961 0 0.27723266788850742 0.181048228772968 0 0.28391425324491287 0.17071999404263091 0 0.28743664533084129 0.187357279865842 0 0.28391425324491287 0.17071999404263091 0 0.2931647794093819 0.16879209887591959 0 0.29743995151898561 0.17866098634217961 0 0.28743664533084129 0.187357279865842 0 0.29743995151898561 0.17866098634217961 0 0.29971043857951379 0.19298806906372529 0 0.29743995151898561 0.17866098634217961 0 0.30929675685570829 0.1858318568065235 0 0.29971043857951379 0.19298806906372529 0 0.29743995151898561 0.17866098634217961 0 0.3101655001798202 0.17563615506282959 0 0.30040947706207388 0.16512632217721829 0 0.29743995151898561 0.17866098634217961 0 0.3101655001798202 0.17563615506282959 0 0.30929675685570829 0.1858318568065235 0 0.30040947706207388 0.16512632217721829 0 0.30453528129870422 0.15487579661148021 0 0.32848741365188411 0.1727716232507491 0 0.29097703849613438 0.15773848939083679 0 0.30040947706207388 0.16512632217721829 0 0.30453528129870422 0.15487579661148021 0 0.2931647794093819 0.16879209887591959 0 0.29743995151898561 0.17866098634217961 0 0.30040947706207388 0.16512632217721829 0 0.29097703849613438 0.15773848939083679 0 0.30453528129870422 0.15487579661148021 0 0.29618567382365713 0.14404403195872001 0 0.30453528129870422 0.15487579661148021 0 0.30873747279203018 0.14281046260302349 0 0.29618567382365713 0.14404403195872001 0 0.30453528129870422 0.15487579661148021 0 0.30873747279203018 0.14281046260302349 0 0.32007589174333823 0.14676000458717811 0 0.30873747279203018 0.14281046260302349 0 0.30313841955192899 0.13260249050964579 0 0.3195478300457561 0.1332621056988223 0 0.31114536757858358 0.11742006929579971 0 0.30313841955192899 0.13260249050964579 0 0.3195478300457561 0.1332621056988223 0 0.30873747279203018 0.14281046260302349 0 0.30313841955192899 0.13260249050964579 0 0.29618567382365713 0.14404403195872001 0 0.294250496481684 0.12267566802032639 0 0.30313841955192899 0.13260249050964579 0 0.28666270206708028 0.1324408374186071 0 0.30313841955192899 0.13260249050964579 0 0.28666270206708028 0.1324408374186071 0 0.29618567382365713 0.14404403195872001 0 0.294250496481684 0.12267566802032639 0 0.28067449336876182 0.1220521091494646 0 0.28666270206708028 0.1324408374186071 0 0.28666270206708028 0.1324408374186071 0 0.28320971359092417 0.1429987979602943 0 0.29618567382365713 0.14404403195872001 0 0.27436529468354132 0.15433220537778311 0 0.29097703849613438 0.15773848939083679 0 0.28320971359092417 0.1429987979602943 0 0.29097703849613438 0.15773848939083679 0 0.28320971359092417 0.1429987979602943 0 0.29618567382365713 0.14404403195872001 0 0.28119448123381058 0.25405304303149878 0 0.26221447651104962 0.2479993693513689 0 0.28440499104296979 0.23439140090611099 0 0.26221447651104962 0.2479993693513689 0 0.26853130556434218 0.23400660741274959 0 0.28440499104296979 0.23439140090611099 0 0.26221447651104962 0.2479993693513689 0 0.28440499104296979 0.23439140090611099 0 0.2457442494512444 0.24022391879071339 0 0.26221447651104962 0.2479993693513689 0 0.25511338863332461 0.22468137717712711 0 0.26221447651104962 0.2479993693513689 0 0.25511338863332461 0.22468137717712711 0 0.26853130556434218 0.23400660741274959 0 0.26221447651104962 0.2479993693513689 0 0.25511338863332461 0.22468137717712711 0 0.25511338863332461 0.22468137717712711 0 0.25242827713160498 0.21540237912569379 0 0.25511338863332461 0.22468137717712711 0 0.2794126892910288 0.21617120911671081 0 0.25511338863332461 0.22468137717712711 0 0.26853130556434218 0.23400660741274959 0 0.2794126892910288 0.21617120911671081 0 0.26853130556434218 0.23400660741274959 0 0.2794126892910288 0.21617120911671081 0 0.28440499104296979 0.23439140090611099 0 0.25511338863332461 0.22468137717712711 0 0.2794126892910288 0.21617120911671081 0 0.26644318031571418 0.20408753099865831 0 0.2794126892910288 0.21617120911671081 0 0.26644318031571418 0.20408753099865831 0 0.27722953884408802 0.19656269719262509 0 0.24528107816237801 0.1907036486386274 0 0.26644318031571418 0.20408753099865831 0 0.25242827713160498 0.21540237912569379 0 0.25511338863332461 0.22468137717712711 0 0.26644318031571418 0.20408753099865831 0 0.25242827713160498 0.21540237912569379 0 0.26644318031571418 0.20408753099865831 0 0.25242827713160498 0.21540237912569379 0 0.24528107816237801 0.1907036486386274 0 0.26633433714882182 0.18577592949096661 0 0.26644318031571418 0.20408753099865831 0 0.26633433714882182 0.18577592949096661 0 0.26644318031571418 0.20408753099865831 0 0.27722953884408802 0.19656269719262509 0 0.27723266788850742 0.181048228772968 0 0.28743664533084129 0.187357279865842 0 0.27722953884408802 0.19656269719262509 0 0.26633433714882182 0.18577592949096661 0 0.27723266788850742 0.181048228772968 0 0.27722953884408802 0.19656269719262509 0 0.28743664533084129 0.187357279865842 0 0.27722953884408802 0.19656269719262509 0 0.28939512316467059 0.2005252056429343 0 0.28743664533084129 0.187357279865842 0 0.28939512316467059 0.2005252056429343 0 0.29971043857951379 0.19298806906372529 0 0.30929675685570829 0.1858318568065235 0 0.29971043857951379 0.19298806906372529 0 0.31162694501442678 0.19735313208654229 0 0.29971043857951379 0.19298806906372529 0 0.31162694501442678 0.19735313208654229 0 0.30371198994873311 0.20766104105629449 0 0.28939512316467059 0.2005252056429343 0 0.29971043857951379 0.19298806906372529 0 0.30371198994873311 0.20766104105629449 0 0.2794126892910288 0.21617120911671081 0 0.30371198994873311 0.20766104105629449 0 0.2794126892910288 0.21617120911671081 0 0.30371198994873311 0.20766104105629449 0 0.30659550557489001 0.220783432460853 0 0.2794126892910288 0.21617120911671081 0 0.27722953884408802 0.19656269719262509 0 0.28939512316467059 0.2005252056429343 0 0.2794126892910288 0.21617120911671081 0 0.28939512316467059 0.2005252056429343 0 0.30371198994873311 0.20766104105629449 0 0.30659550557489001 0.220783432460853 0 0.28440499104296979 0.23439140090611099 0 0.2794126892910288 0.21617120911671081 0 0.30659550557489001 0.220783432460853 0 0.28440499104296979 0.23439140090611099 0 0.30659550557489001 0.220783432460853 0 0.30328699804120918 0.24394477185791469 0 0.28440499104296979 0.23439140090611099 0 0.30659550557489001 0.220783432460853 0 0.30328699804120918 0.24394477185791469 0 0.31607427666693672 0.2331905299380852 0 0.28119448123381058 0.25405304303149878 0 0.30328699804120918 0.24394477185791469 0 0.28440499104296979 0.23439140090611099 0 0.3433555784436142 0.25004320974280247 0 0.34183468199228573 0.23727684870966961 0 0.33092809789354199 0.24744869965648561 0 0.34183468199228573 0.23727684870966961 0 0.3288410404878227 0.2348757256337824 0 0.33092809789354199 0.24744869965648561 0 0.3288410404878227 0.2348757256337824 0 0.33092809789354199 0.24744869965648561 0 0.31845456220733243 0.24449663650262579 0 0.31879452400631653 0.25919465198291952 0 0.30328699804120918 0.24394477185791469 0 0.31845456220733243 0.24449663650262579 0 0.30328699804120918 0.24394477185791469 0 0.31845456220733243 0.24449663650262579 0 0.31607427666693672 0.2331905299380852 0 0.3288410404878227 0.2348757256337824 0 0.31845456220733243 0.24449663650262579 0 0.31607427666693672 0.2331905299380852 0 0.3288410404878227 0.2348757256337824 0 0.31607427666693672 0.2331905299380852 0 0.32372534117020862 0.22390137225637691 0 0.30659550557489001 0.220783432460853 0 0.31607427666693672 0.2331905299380852 0 0.32372534117020862 0.22390137225637691 0 0.3288410404878227 0.2348757256337824 0 0.32372534117020862 0.22390137225637691 0 0.33832986301458301 0.22348170923356889 0 0.34183468199228573 0.23727684870966961 0 0.3288410404878227 0.2348757256337824 0 0.33832986301458301 0.22348170923356889 0 0.32372534117020862 0.22390137225637691 0 0.33832986301458301 0.22348170923356889 0 0.32878602010681029 0.20717546401559489 0 0.33832986301458301 0.22348170923356889 0 0.32878602010681029 0.20717546401559489 0 0.35089693608391498 0.21212819010674691 0 0.32878602010681029 0.20717546401559489 0 0.35097653463873058 0.19356749557033681 0 0.35089693608391498 0.21212819010674691 0 0.30659550557489001 0.220783432460853 0 0.32372534117020862 0.22390137225637691 0 0.32878602010681029 0.20717546401559489 0 0.31162694501442678 0.19735313208654229 0 0.30371198994873311 0.20766104105629449 0 0.32878602010681029 0.20717546401559489 0 0.30371198994873311 0.20766104105629449 0 0.30659550557489001 0.220783432460853 0 0.32878602010681029 0.20717546401559489 0 0.30659550557489001 0.220783432460853 0 0.32878602010681029 0.20717546401559489 0 0.32878602010681029 0.20717546401559489 0 0.31972446529152482 0.19052244909679969 0 0.3336272658304279 0.18895925974375941 0 0.31162694501442678 0.19735313208654229 0 0.32878602010681029 0.20717546401559489 0 0.31972446529152482 0.19052244909679969 0 0.30929675685570829 0.1858318568065235 0 0.31162694501442678 0.19735313208654229 0 0.31972446529152482 0.19052244909679969 0 0.32878602010681029 0.20717546401559489 0 0.3336272658304279 0.18895925974375941 0 0.35097653463873058 0.19356749557033681 0 0.32878602010681029 0.20717546401559489 0 0.35097653463873058 0.19356749557033681 0 0.3336272658304279 0.18895925974375941 0 0.35097653463873058 0.19356749557033681 0 0.35656535024169428 0.1804169243242798 0 0.35097653463873058 0.19356749557033681 0 0.35896651107905142 0.20360726904620211 0 0.35089693608391498 0.21212819010674691 0 0.35097653463873058 0.19356749557033681 0 0.36405518175537521 0.19484170215684679 0 0.35896651107905142 0.20360726904620211 0 0.35097653463873058 0.19356749557033681 0 0.36405518175537521 0.19484170215684679 0 0.35656535024169428 0.1804169243242798 0 0.36405518175537521 0.19484170215684679 0 0.35656535024169428 0.1804169243242798 0 0.38464328683150451 0.18806222539781059 0 0.36405518175537521 0.19484170215684679 0 0.36923798170140371 0.20928007436804161 0 0.38464328683150451 0.18806222539781059 0 0.36405518175537521 0.19484170215684679 0 0.36923798170140371 0.20928007436804161 0 0.35896651107905142 0.20360726904620211 0 0.36923798170140371 0.20928007436804161 0 0.36132702422268731 0.21787493872225441 0 0.35896651107905142 0.20360726904620211 0 0.36923798170140371 0.20928007436804161 0 0.36132702422268731 0.21787493872225441 0 0.37292139258550783 0.22672254500020811 0 0.36132702422268731 0.21787493872225441 0 0.35896651107905142 0.20360726904620211 0 0.35089693608391498 0.21212819010674691 0 0.34183468199228573 0.23727684870966961 0 0.33832986301458301 0.22348170923356889 0 0.35524969613090918 0.22837961108452459 0 0.36132702422268731 0.21787493872225441 0 0.35089693608391498 0.21212819010674691 0 0.35524969613090918 0.22837961108452459 0 0.33832986301458301 0.22348170923356889 0 0.35089693608391498 0.21212819010674691 0 0.35524969613090918 0.22837961108452459 0 0.36132702422268731 0.21787493872225441 0 0.35524969613090918 0.22837961108452459 0 0.37292139258550783 0.22672254500020811 0 0.35524969613090918 0.22837961108452459 0 0.37292139258550783 0.22672254500020811 0 0.36587213359177301 0.2378375665458646 0 0.37292139258550783 0.22672254500020811 0 0.36587213359177301 0.2378375665458646 0 0.3757768555661396 0.240133652284411 0 0.36587213359177301 0.2378375665458646 0 0.37169426656027921 0.24972740256563611 0 0.3757768555661396 0.240133652284411 0 0.36587213359177301 0.2378375665458646 0 0.37169426656027921 0.24972740256563611 0 0.36205361842742478 0.24882498742118489 0 0.36587213359177301 0.2378375665458646 0 0.36205361842742478 0.24882498742118489 0 0.35356337405553911 0.24205426642971811 0 0.35175757775775729 0.2532797976346674 0 0.36205361842742478 0.24882498742118489 0 0.35356337405553911 0.24205426642971811 0 0.35524969613090918 0.22837961108452459 0 0.36587213359177301 0.2378375665458646 0 0.35356337405553911 0.24205426642971811 0 0.34183468199228573 0.23727684870966961 0 0.35524969613090918 0.22837961108452459 0 0.35356337405553911 0.24205426642971811 0 0.3433555784436142 0.25004320974280247 0 0.34183468199228573 0.23727684870966961 0 0.35356337405553911 0.24205426642971811 0 0.3433555784436142 0.25004320974280247 0 0.35175757775775729 0.2532797976346674 0 0.35356337405553911 0.24205426642971811 0 0.33379856680907583 0.1437068241164389 0 0.32007589174333823 0.14676000458717811 0 0.33365817402274128 0.15789089208148979 0 0.33379856680907583 0.1437068241164389 0 0.33365817402274128 0.15789089208148979 0 0.34780073530519279 0.14835628742565241 0 0.33379856680907583 0.1437068241164389 0 0.34780073530519279 0.14835628742565241 0 0.34586764947947463 0.1362539899128139 0 0.33379856680907583 0.1437068241164389 0 0.33436770153514289 0.13112975471366969 0 0.34586764947947463 0.1362539899128139 0 0.34956654336434939 0.1234914401014125 0 0.33436770153514289 0.13112975471366969 0 0.34586764947947463 0.1362539899128139 0 0.33379856680907583 0.1437068241164389 0 0.33436770153514289 0.13112975471366969 0 0.3195478300457561 0.1332621056988223 0 0.32606950933900308 0.1158177097477945 0 0.33436770153514289 0.13112975471366969 0 0.3195478300457561 0.1332621056988223 0 0.30873747279203018 0.14281046260302349 0 0.3195478300457561 0.1332621056988223 0 0.32007589174333823 0.14676000458717811 0 0.30453528129870422 0.15487579661148021 0 0.32007589174333823 0.14676000458717811 0 0.33365817402274128 0.15789089208148979 0 0.33379856680907583 0.1437068241164389 0 0.3195478300457561 0.1332621056988223 0 0.32007589174333823 0.14676000458717811 0 0.30453528129870422 0.15487579661148021 0 0.33365817402274128 0.15789089208148979 0 0.30453528129870422 0.15487579661148021 0 0.32848741365188411 0.1727716232507491 0 0.33365817402274128 0.15789089208148979 0 0.30040947706207388 0.16512632217721829 0 0.32848741365188411 0.1727716232507491 0 0.3101655001798202 0.17563615506282959 0 0.30040947706207388 0.16512632217721829 0 0.32848741365188411 0.1727716232507491 0 0.3101655001798202 0.17563615506282959 0 0.31983557186529732 0.18171103000860481 0 0.32848741365188411 0.1727716232507491 0 0.3336272658304279 0.18895925974375941 0 0.31983557186529732 0.18171103000860481 0 0.32848741365188411 0.1727716232507491 0 0.3101655001798202 0.17563615506282959 0 0.30929675685570829 0.1858318568065235 0 0.31983557186529732 0.18171103000860481 0 0.30929675685570829 0.1858318568065235 0 0.31972446529152482 0.19052244909679969 0 0.31983557186529732 0.18171103000860481 0 0.31972446529152482 0.19052244909679969 0 0.3336272658304279 0.18895925974375941 0 0.31983557186529732 0.18171103000860481 0 0.32848741365188411 0.1727716232507491 0 0.34507730906385942 0.16855187839241309 0 0.35656535024169428 0.1804169243242798 0 0.3336272658304279 0.18895925974375941 0 0.32848741365188411 0.1727716232507491 0 0.35656535024169428 0.1804169243242798 0 0.32848741365188411 0.1727716232507491 0 0.35656535024169428 0.1804169243242798 0 0.32848741365188411 0.1727716232507491 0 0.33365817402274128 0.15789089208148979 0 0.34507730906385942 0.16855187839241309 0 0.33365817402274128 0.15789089208148979 0 0.34507730906385942 0.16855187839241309 0 0.36278106674677829 0.1609059875514994 0 0.34507730906385942 0.16855187839241309 0 0.35656535024169428 0.1804169243242798 0 0.36278106674677829 0.1609059875514994 0 0.33365817402274128 0.15789089208148979 0 0.36278106674677829 0.1609059875514994 0 0.35656535024169428 0.1804169243242798 0 0.37356219856206202 0.1741215612114578 0 0.38464328683150451 0.18806222539781059 0 0.35656535024169428 0.1804169243242798 0 0.38464328683150451 0.18806222539781059 0 0.35656535024169428 0.1804169243242798 0 0.37356219856206202 0.1741215612114578 0 0.36278106674677829 0.1609059875514994 0 0.36278106674677829 0.1609059875514994 0 0.36531512046589693 0.1378839500987098 0 0.37680076681991098 0.15092733218095339 0 0.36278106674677829 0.1609059875514994 0 0.34780073530519279 0.14835628742565241 0 0.36531512046589693 0.1378839500987098 0 0.34780073530519279 0.14835628742565241 0 0.34586764947947463 0.1362539899128139 0 0.36531512046589693 0.1378839500987098 0 0.33365817402274128 0.15789089208148979 0 0.36278106674677829 0.1609059875514994 0 0.34780073530519279 0.14835628742565241 0 0.34956654336434939 0.1234914401014125 0 0.34586764947947463 0.1362539899128139 0 0.36531512046589693 0.1378839500987098 0 0.34956654336434939 0.1234914401014125 0 0.36322639358210312 0.11848039068348271 0 0.36531512046589693 0.1378839500987098 0 0.36322639358210312 0.11848039068348271 0 0.36531512046589693 0.1378839500987098 0 0.38482072671029011 0.13725767299229241 0 0.36322639358210312 0.11848039068348271 0 0.38482072671029011 0.13725767299229241 0 0.36322639358210312 0.11848039068348271 0 0.38482072671029011 0.13725767299229241 0 0.38005682511468147 0.12140739343396729 0 0.38482072671029011 0.13725767299229241 0 0.39398634319161102 0.12556361147638159 0 0.38005682511468147 0.12140739343396729 0 0.38482072671029011 0.13725767299229241 0 0.39398634319161102 0.12556361147638159 0 0.40386822996399702 0.1370092008917044 0 0.39398634319161102 0.12556361147638159 0 0.40386822996399702 0.1370092008917044 0 0.40630256149234217 0.12337914253670321 0 0.38482072671029011 0.13725767299229241 0 0.40641505983847698 0.15603495530110209 0 0.38482072671029011 0.13725767299229241 0 0.40386822996399702 0.1370092008917044 0 0.40641505983847698 0.15603495530110209 0 0.38482072671029011 0.13725767299229241 0 0.39190395947081519 0.16392108302150901 0 0.40641505983847698 0.15603495530110209 0 0.36531512046589693 0.1378839500987098 0 0.38482072671029011 0.13725767299229241 0 0.37680076681991098 0.15092733218095339 0 0.38482072671029011 0.13725767299229241 0 0.37680076681991098 0.15092733218095339 0 0.39190395947081519 0.16392108302150901 0 0.36278106674677829 0.1609059875514994 0 0.39190395947081519 0.16392108302150901 0 0.36278106674677829 0.1609059875514994 0 0.37680076681991098 0.15092733218095339 0 0.39190395947081519 0.16392108302150901 0 0.37356219856206202 0.1741215612114578 0 0.36278106674677829 0.1609059875514994 0 0.39190395947081519 0.16392108302150901 0 0.37356219856206202 0.1741215612114578 0 0.39190395947081519 0.16392108302150901 0 0.38464328683150451 0.18806222539781059 0 0.4059128807594603 0.17981630131623391 0 0.39190395947081519 0.16392108302150901 0 0.38464328683150451 0.18806222539781059 0 0.39190395947081519 0.16392108302150901 0 0.42102685219485209 0.16693617849151851 0 0.40641505983847698 0.15603495530110209 0 0.4059128807594603 0.17981630131623391 0 0.39190395947081519 0.16392108302150901 0 0.42102685219485209 0.16693617849151851 0 0.42102685219485209 0.16693617849151851 0 0.40641505983847698 0.15603495530110209 0 0.41490094777653419 0.14712571815411829 0 0.39190395947081519 0.16392108302150901 0 0.42102685219485209 0.16693617849151851 0 0.4059128807594603 0.17981630131623391 0 0.42102685219485209 0.16693617849151851 0 0.42759287120751482 0.1799189573059411 0 0.4059128807594603 0.17981630131623391 0 0.42759287120751482 0.1799189573059411 0 0.42045703890892938 0.19185412915784311 0 0.42102685219485209 0.16693617849151851 0 0.42759287120751482 0.1799189573059411 0 0.45014974491888898 0.16995127396152809 0 0.42759287120751482 0.1799189573059411 0 0.42045703890892938 0.19185412915784311 0 0.43799329450951457 0.1898848624547933 0 0.42102685219485209 0.16693617849151851 0 0.45014974491888898 0.16995127396152809 0 0.42102685219485209 0.16693617849151851 0 0.43641214087317609 0.15776157540708571 0 0.42820809332857229 0.14540676379554701 0 0.42102685219485209 0.16693617849151851 0 0.43641214087317609 0.15776157540708571 0 0.45014974491888898 0.16995127396152809 0 0.43641214087317609 0.15776157540708571 0 0.42820809332857229 0.14540676379554701 0 0.44305345270963392 0.14224085277467549 0 0.42820809332857229 0.14540676379554701 0 0.43267139290449452 0.12562392175117529 0 0.41815906511665779 0.13368892679480551 0 0.42820809332857229 0.14540676379554701 0 0.43267139290449452 0.12562392175117529 0 0.44305345270963392 0.14224085277467549 0 0.43267139290449452 0.12562392175117529 0 0.41815906511665779 0.13368892679480551 0 0.41840244549433692 0.1204435227777134 0 0.41815906511665779 0.13368892679480551 0 0.41840244549433692 0.1204435227777134 0 0.40630256149234217 0.12337914253670321 0 0.40386822996399702 0.1370092008917044 0 0.41815906511665779 0.13368892679480551 0 0.40630256149234217 0.12337914253670321 0 0.40386822996399702 0.1370092008917044 0 0.41815906511665779 0.13368892679480551 0 0.41490094777653419 0.14712571815411829 0 0.42102685219485209 0.16693617849151851 0 0.42820809332857229 0.14540676379554701 0 0.41490094777653419 0.14712571815411829 0 0.40386822996399702 0.1370092008917044 0 0.40641505983847698 0.15603495530110209 0 0.41490094777653419 0.14712571815411829 0 0.42820809332857229 0.14540676379554701 0 0.41815906511665779 0.13368892679480551 0 0.41490094777653419 0.14712571815411829 0 0.39196586341458151 0.242441409442547 0 0.40329821407583749 0.23025496453590971 0 0.40866327585672191 0.24600766979752939 0 0.38129994004966872 0.25577407136566988 0 0.39196586341458151 0.242441409442547 0 0.40866327585672191 0.24600766979752939 0 0.38129994004966872 0.25577407136566988 0 0.39196586341458151 0.242441409442547 0 0.38106847269238292 0.24536179082341181 0 0.37169426656027921 0.24972740256563611 0 0.38106847269238292 0.24536179082341181 0 0.3757768555661396 0.240133652284411 0 0.37292139258550783 0.22672254500020811 0 0.3757768555661396 0.240133652284411 0 0.38460543787124563 0.238732418458795 0 0.38106847269238292 0.24536179082341181 0 0.3757768555661396 0.240133652284411 0 0.38460543787124563 0.238732418458795 0 0.39196586341458151 0.242441409442547 0 0.38106847269238292 0.24536179082341181 0 0.38460543787124563 0.238732418458795 0 0.39196586341458151 0.242441409442547 0 0.38460543787124563 0.238732418458795 0 0.38844350160088592 0.2284985707660753 0 0.37292139258550783 0.22672254500020811 0 0.38460543787124563 0.238732418458795 0 0.38844350160088592 0.2284985707660753 0 0.37292139258550783 0.22672254500020811 0 0.38844350160088592 0.2284985707660753 0 0.38369130631537601 0.21297307403445409 0 0.38844350160088592 0.2284985707660753 0 0.39679964264504158 0.21937630878092959 0 0.38369130631537601 0.21297307403445409 0 0.38844350160088592 0.2284985707660753 0 0.39679964264504158 0.21937630878092959 0 0.40329821407583749 0.23025496453590971 0 0.39196586341458151 0.242441409442547 0 0.38844350160088592 0.2284985707660753 0 0.40329821407583749 0.23025496453590971 0 0.39679964264504158 0.21937630878092959 0 0.40329821407583749 0.23025496453590971 0 0.41066806580544729 0.2160617609406458 0 0.39598296716959969 0.20626700748070109 0 0.40513352984814438 0.19492560706685999 0 0.41066806580544729 0.2160617609406458 0 0.39679964264504158 0.21937630878092959 0 0.39598296716959969 0.20626700748070109 0 0.41066806580544729 0.2160617609406458 0 0.39679964264504158 0.21937630878092959 0 0.39598296716959969 0.20626700748070109 0 0.38369130631537601 0.21297307403445409 0 0.36923798170140371 0.20928007436804161 0 0.37292139258550783 0.22672254500020811 0 0.38369130631537601 0.21297307403445409 0 0.36923798170140371 0.20928007436804161 0 0.38369130631537601 0.21297307403445409 0 0.38464328683150451 0.18806222539781059 0 0.39598296716959969 0.20626700748070109 0 0.38369130631537601 0.21297307403445409 0 0.38464328683150451 0.18806222539781059 0 0.39598296716959969 0.20626700748070109 0 0.38464328683150451 0.18806222539781059 0 0.40513352984814438 0.19492560706685999 0 0.4059128807594603 0.17981630131623391 0 0.38464328683150451 0.18806222539781059 0 0.40513352984814438 0.19492560706685999 0 0.40513352984814438 0.19492560706685999 0 0.42045703890892938 0.19185412915784311 0 0.42444067869502011 0.20693424997503959 0 0.4059128807594603 0.17981630131623391 0 0.40513352984814438 0.19492560706685999 0 0.42045703890892938 0.19185412915784311 0 0.42045703890892938 0.19185412915784311 0 0.42444067869502011 0.20693424997503959 0 0.43799329450951457 0.1898848624547933 0 0.42444067869502011 0.20693424997503959 0 0.44184419378540352 0.2076794424592901 0 0.43799329450951457 0.1898848624547933 0 0.42444067869502011 0.20693424997503959 0 0.4302098735549707 0.2206458244329694 0 0.44184419378540352 0.2076794424592901 0 0.42444067869502011 0.20693424997503959 0 0.41066806580544729 0.2160617609406458 0 0.4302098735549707 0.2206458244329694 0 0.40513352984814438 0.19492560706685999 0 0.42444067869502011 0.20693424997503959 0 0.41066806580544729 0.2160617609406458 0 0.41066806580544729 0.2160617609406458 0 0.41777320819135039 0.22984229758728861 0 0.4302098735549707 0.2206458244329694 0 0.40329821407583749 0.23025496453590971 0 0.41066806580544729 0.2160617609406458 0 0.41777320819135039 0.22984229758728861 0 0.4302098735549707 0.2206458244329694 0 0.43602661166377499 0.2362412682293889 0 0.44584438813649652 0.2203436080528294 0 0.41777320819135039 0.22984229758728861 0 0.4302098735549707 0.2206458244329694 0 0.43602661166377499 0.2362412682293889 0 0.43602661166377499 0.2362412682293889 0 0.43076425121212841 0.2486853010718087 0 0.40866327585672191 0.24600766979752939 0 0.43602661166377499 0.2362412682293889 0 0.40866327585672191 0.24600766979752939 0 0.41777320819135039 0.22984229758728861 0 0.43602661166377499 0.2362412682293889 0 0.40866327585672191 0.24600766979752939 0 0.41664462513020523 0.25422696758609492 0 0.43076425121212841 0.2486853010718087 0 0.40866327585672191 0.24600766979752939 0 0.40329821407583749 0.23025496453590971 0 0.41777320819135039 0.22984229758728861 0 0.40866327585672191 0.24600766979752939 0 0.45166362976964691 0.25106894999712381 0 0.45384283414141641 0.23962742592169059 0 0.47583181488482379 0.2451422378191761 0 0.45166362976964691 0.25106894999712381 0 0.47583181488482379 0.2451422378191761 0 0.45384283414141641 0.23962742592169059 0 0.47692141707070451 0.23056955077157251 0 0.45166362976964691 0.25106894999712381 0 0.43076425121212841 0.2486853010718087 0 0.45384283414141641 0.23962742592169059 0 0.43602661166377499 0.2362412682293889 0 0.43076425121212841 0.2486853010718087 0 0.45384283414141641 0.23962742592169059 0 0.43076425121212841 0.2486853010718087 0 0.45384283414141641 0.23962742592169059 0 0.43602661166377499 0.2362412682293889 0 0.46338994747082818 0.22647486666124839 0 0.43602661166377499 0.2362412682293889 0 0.44584438813649652 0.2203436080528294 0 0.46338994747082818 0.22647486666124839 0 0.43602661166377499 0.2362412682293889 0 0.45384283414141641 0.23962742592169059 0 0.46338994747082818 0.22647486666124839 0 0.44584438813649652 0.2203436080528294 0 0.46338994747082818 0.22647486666124839 0 0.4574246187180494 0.20998202225832771 0 0.45384283414141641 0.23962742592169059 0 0.46338994747082818 0.22647486666124839 0 0.47692141707070451 0.23056955077157251 0 0.46338994747082818 0.22647486666124839 0 0.4574246187180494 0.20998202225832771 0 0.47311107537994651 0.21060674662752529 0 0.4574246187180494 0.20998202225832771 0 0.46861366351278472 0.19789432193598561 0 0.47311107537994651 0.21060674662752529 0 0.44584438813649652 0.2203436080528294 0 0.4574246187180494 0.20998202225832771 0 0.44184419378540352 0.2076794424592901 0 0.4302098735549707 0.2206458244329694 0 0.44584438813649652 0.2203436080528294 0 0.44184419378540352 0.2076794424592901 0 0.4574246187180494 0.20998202225832771 0 0.44184419378540352 0.2076794424592901 0 0.45120510308892831 0.19507838461398491 0 0.44184419378540352 0.2076794424592901 0 0.43799329450951457 0.1898848624547933 0 0.45120510308892831 0.19507838461398491 0 0.4574246187180494 0.20998202225832771 0 0.45120510308892831 0.19507838461398491 0 0.46861366351278472 0.19789432193598561 0 0.45120510308892831 0.19507838461398491 0 0.46861366351278472 0.19789432193598561 0 0.45014974491888898 0.16995127396152809 0 0.46861366351278472 0.19789432193598561 0 0.48377650321145821 0.20030440734603891 0 0.47890777313388699 0.17818810929941131 0 0.46861366351278472 0.19789432193598561 0 0.48377650321145821 0.20030440734603891 0 0.47311107537994651 0.21060674662752529 0 0.48377650321145821 0.20030440734603891 0 0.5 0.19442179120654851 0 0.47890777313388699 0.17818810929941131 0 0.48377650321145821 0.20030440734603891 0 0.5 0.19442179120654851 0 0.49075328327788142 0.2167084650931079 0 0.5 0.19442179120654851 0 0.49075328327788142 0.2167084650931079 0 0.49999999999999339 0.2215116756214566 0 0.48377650321145821 0.20030440734603891 0 0.49075328327788142 0.2167084650931079 0 0.47311107537994651 0.21060674662752529 0 0.46338994747082818 0.22647486666124839 0 0.49075328327788142 0.2167084650931079 0 0.47311107537994651 0.21060674662752529 0 0.46338994747082818 0.22647486666124839 0 0.49075328327788142 0.2167084650931079 0 0.46338994747082818 0.22647486666124839 0 0.49075328327788142 0.2167084650931079 0 0.47692141707070451 0.23056955077157251 0 0.47692141707070451 0.23056955077157251 0 0.49999999999999339 0.2215116756214566 0 0.50000000000000067 0.2392155256412283 0 0.49075328327788142 0.2167084650931079 0 0.47692141707070451 0.23056955077157251 0 0.49999999999999339 0.2215116756214566 0 0.47692141707070451 0.23056955077157251 0 0.49999999999999339 0.2215116756214566 0 0.50000000000000067 0.2392155256412283 0 0.47583181488482379 0.2451422378191761 0 0.48341195364679568 0.26002408893105827 0 0.50000000000000067 0.2392155256412283 0 0.47583181488482379 0.2451422378191761 0 0.47692141707070451 0.23056955077157251 0 0.50000000000000067 0.2392155256412283 0 0.47583181488482379 0.2451422378191761 0 0.45384283414141641 0.23962742592169059 0 0.47692141707070451 0.23056955077157251 0 0.47583181488482379 0.2451422378191761 0 0.46053260521531592 0.14091734283165991 0 0.45014974491888898 0.16995127396152809 0 0.47759274938693741 0.15337993901402261 0 0.46053260521531592 0.14091734283165991 0 0.47596637305353268 0.1236489788231635 0 0.45094723062946279 0.12208098845927939 0 0.46053260521531592 0.14091734283165991 0 0.44305345270963392 0.14224085277467549 0 0.45094723062946279 0.12208098845927939 0 0.43267139290449452 0.12562392175117529 0 0.44305345270963392 0.14224085277467549 0 0.45094723062946279 0.12208098845927939 0 0.46053260521531592 0.14091734283165991 0 0.44305345270963392 0.14224085277467549 0 0.45014974491888898 0.16995127396152809 0 0.43641214087317609 0.15776157540708571 0 0.44305345270963392 0.14224085277467549 0 0.45014974491888898 0.16995127396152809 0 0.42759287120751482 0.1799189573059411 0 0.43799329450951457 0.1898848624547933 0 0.45014974491888898 0.16995127396152809 0 0.43799329450951457 0.1898848624547933 0 0.45120510308892831 0.19507838461398491 0 0.45014974491888898 0.16995127396152809 0 0.46861366351278472 0.19789432193598561 0 0.45014974491888898 0.16995127396152809 0 0.47890777313388699 0.17818810929941131 0 0.45014974491888898 0.16995127396152809 0 0.47890777313388699 0.17818810929941131 0 0.47759274938693741 0.15337993901402261 0 0.5 0.19442179120654851 0 0.47890777313388699 0.17818810929941131 0 0.5 0.16733190679164031 0 0.47890777313388699 0.17818810929941131 0 0.5 0.16733190679164031 0 0.47759274938693741 0.15337993901402261 0 0.5 0.16733190679164031 0 0.47759274938693741 0.15337993901402261 0 0.5 0.14024202237673219 0 0.46053260521531592 0.14091734283165991 0 0.47759274938693741 0.15337993901402261 0 0.47596637305353268 0.1236489788231635 0 0.5 0.14024202237673219 0 0.5 0.11315213796182411 0 0.47596637305353268 0.1236489788231635 0 0.47759274938693741 0.15337993901402261 0 0.5 0.14024202237673219 0 0.47596637305353268 0.1236489788231635 0 0.5 0.11315213796182411 0 0.48146508414057748 0.097867616362435003 0 0.47596637305353268 0.1236489788231635 0 0.5 0.11315213796182411 0 0.48146508414057748 0.097867616362435003 0 0.5 0.08606225354691599 0 0.48146508414057748 0.097867616362435003 0 0.46684480345772023 0.083704774648097419 0 0.46085076100455152 0.1051260388446932 0 0.48146508414057748 0.097867616362435003 0 0.47596637305353268 0.1236489788231635 0 0.46085076100455152 0.1051260388446932 0 0.5 0.08606225354691599 0 0.48297411160829701 0.071419164250366693 0 0.5 0.058972369132007867 0 0.48146508414057748 0.097867616362435003 0 0.5 0.08606225354691599 0 0.48297411160829701 0.071419164250366693 0 0.48146508414057748 0.097867616362435003 0 0.48297411160829701 0.071419164250366693 0 0.46684480345772023 0.083704774648097419 0 0.48297411160829701 0.071419164250366693 0 0.46368779630991369 0.062884433647911922 0 0.46684480345772023 0.083704774648097419 0 0.46368779630991369 0.062884433647911922 0 0.4455316944648699 0.078385408113317706 0 0.46368779630991369 0.062884433647911922 0 0.46684480345772023 0.083704774648097419 0 0.4455316944648699 0.078385408113317706 0 0.46684480345772023 0.083704774648097419 0 0.4455316944648699 0.078385408113317706 0 0.46085076100455152 0.1051260388446932 0 0.4455316944648699 0.078385408113317706 0 0.46085076100455152 0.1051260388446932 0 0.43655847815144871 0.087567909291679069 0 0.4455316944648699 0.078385408113317706 0 0.43655847815144871 0.087567909291679069 0 0.43300293116684879 0.070359854062556224 0 0.4455316944648699 0.078385408113317706 0 0.43300293116684879 0.070359854062556224 0 0.44432728466234178 0.059795406129610977 0 0.46368779630991369 0.062884433647911922 0 0.4455316944648699 0.078385408113317706 0 0.44432728466234178 0.059795406129610977 0 0.47596637305353268 0.1236489788231635 0 0.46085076100455152 0.1051260388446932 0 0.45094723062946279 0.12208098845927939 0 0.46085076100455152 0.1051260388446932 0 0.43655847815144871 0.087567909291679069 0 0.46085076100455152 0.1051260388446932 0 0.43845481143497073 0.110031162788742 0 0.43302597451412722 0.09911942802672713 0 0.46085076100455152 0.1051260388446932 0 0.43302597451412722 0.09911942802672713 0 0.43655847815144871 0.087567909291679069 0 0.43267139290449452 0.12562392175117529 0 0.45094723062946279 0.12208098845927939 0 0.43845481143497073 0.110031162788742 0 0.46085076100455152 0.1051260388446932 0 0.45094723062946279 0.12208098845927939 0 0.43845481143497073 0.110031162788742 0 0.43267139290449452 0.12562392175117529 0 0.43845481143497073 0.110031162788742 0 0.42512360996164289 0.1101942667169049 0 0.43267139290449452 0.12562392175117529 0 0.42512360996164289 0.1101942667169049 0 0.41840244549433692 0.1204435227777134 0 0.42512360996164289 0.1101942667169049 0 0.41840244549433692 0.1204435227777134 0 0.41145911669595331 0.1096997076075869 0 0.41840244549433692 0.1204435227777134 0 0.41145911669595331 0.1096997076075869 0 0.40630256149234217 0.12337914253670321 0 0.41145911669595331 0.1096997076075869 0 0.41782870111656589 0.098086010242617663 0 0.40188519574572068 0.098349840232826835 0 0.41782870111656589 0.098086010242617663 0 0.41132824907511162 0.087668761689670915 0 0.40188519574572068 0.098349840232826835 0 0.42512360996164289 0.1101942667169049 0 0.41145911669595331 0.1096997076075869 0 0.41782870111656589 0.098086010242617663 0 0.41782870111656589 0.098086010242617663 0 0.43302597451412722 0.09911942802672713 0 0.42198136315300161 0.08812274721924529 0 0.42512360996164289 0.1101942667169049 0 0.41782870111656589 0.098086010242617663 0 0.43302597451412722 0.09911942802672713 0 0.43845481143497073 0.110031162788742 0 0.42512360996164289 0.1101942667169049 0 0.43302597451412722 0.09911942802672713 0 0.43655847815144871 0.087567909291679069 0 0.42198136315300161 0.08812274721924529 0 0.41226619529834591 0.070009779738664735 0 0.43655847815144871 0.087567909291679069 0 0.41226619529834591 0.070009779738664735 0 0.43302597451412722 0.09911942802672713 0 0.43655847815144871 0.087567909291679069 0 0.42198136315300161 0.08812274721924529 0 0.43300293116684879 0.070359854062556224 0 0.41226619529834591 0.070009779738664735 0 0.42739758089851382 0.054541393999090262 0 0.43655847815144871 0.087567909291679069 0 0.43300293116684879 0.070359854062556224 0 0.41226619529834591 0.070009779738664735 0 0.42198136315300161 0.08812274721924529 0 0.41226619529834591 0.070009779738664735 0 0.41132824907511162 0.087668761689670915 0 0.41226619529834591 0.070009779738664735 0 0.41132824907511162 0.087668761689670915 0 0.39992923875424519 0.082621500021195282 0 0.41782870111656589 0.098086010242617663 0 0.42198136315300161 0.08812274721924529 0 0.41132824907511162 0.087668761689670915 0 0.41132824907511162 0.087668761689670915 0 0.39992923875424519 0.082621500021195282 0 0.40188519574572068 0.098349840232826835 0 0.39992923875424519 0.082621500021195282 0 0.38759228221014619 0.095233220303727467 0 0.40188519574572068 0.098349840232826835 0 0.39992923875424519 0.082621500021195282 0 0.38759228221014619 0.095233220303727467 0 0.41226619529834591 0.070009779738664735 0 0.39707386889515511 0.070908779594843374 0 0.39683376059791597 0.058855427163935138 0 0.41226619529834591 0.070009779738664735 0 0.39683376059791597 0.058855427163935138 0 0.41226619529834591 0.070009779738664735 0 0.39992923875424519 0.082621500021195282 0 0.41226619529834591 0.070009779738664735 0 0.39992923875424519 0.082621500021195282 0 0.39707386889515511 0.070908779594843374 0 0.39992923875424519 0.082621500021195282 0 0.39707386889515511 0.070908779594843374 0 0.38583977896057609 0.075316135258006081 0 0.39707386889515511 0.070908779594843374 0 0.38282045226763678 0.060547433734587333 0 0.39683376059791597 0.058855427163935138 0 0.39707386889515511 0.070908779594843374 0 0.38583977896057609 0.075316135258006081 0 0.38282045226763678 0.060547433734587333 0 0.38583977896057609 0.075316135258006081 0 0.37596532967213542 0.069868995675824025 0 0.37682589963749002 0.081332762740894418 0 0.37307104071443398 0.061065176941414383 0 0.37596532967213542 0.069868995675824025 0 0.38282045226763678 0.060547433734587333 0 0.38583977896057609 0.075316135258006081 0 0.37596532967213542 0.069868995675824025 0 0.38282045226763678 0.060547433734587333 0 0.39992923875424519 0.082621500021195282 0 0.38412803848747967 0.086259474622970303 0 0.38759228221014619 0.095233220303727467 0 0.39992923875424519 0.082621500021195282 0 0.38583977896057609 0.075316135258006081 0 0.38412803848747967 0.086259474622970303 0 0.37045299287494049 0.09679375479102828 0 0.38412803848747967 0.086259474622970303 0 0.38759228221014619 0.095233220303727467 0 0.38583977896057609 0.075316135258006081 0 0.38412803848747967 0.086259474622970303 0 0.37682589963749002 0.081332762740894418 0 0.37045299287494049 0.09679375479102828 0 0.38412803848747967 0.086259474622970303 0 0.37682589963749002 0.081332762740894418 0 0.37045299287494049 0.09679375479102828 0 0.38005682511468147 0.12140739343396729 0 0.37045299287494049 0.09679375479102828 0 0.38759228221014619 0.095233220303727467 0 0.38890959528695412 0.1083938038889192 0 0.37045299287494049 0.09679375479102828 0 0.38890959528695412 0.1083938038889192 0 0.38005682511468147 0.12140739343396729 0 0.39398634319161102 0.12556361147638159 0 0.38890959528695412 0.1083938038889192 0 0.38005682511468147 0.12140739343396729 0 0.39398634319161102 0.12556361147638159 0 0.38890959528695412 0.1083938038889192 0 0.39948393258462489 0.11301500309558379 0 0.39398634319161102 0.12556361147638159 0 0.40630256149234217 0.12337914253670321 0 0.39948393258462489 0.11301500309558379 0 0.41145911669595331 0.1096997076075869 0 0.40630256149234217 0.12337914253670321 0 0.39948393258462489 0.11301500309558379 0 0.41145911669595331 0.1096997076075869 0 0.39948393258462489 0.11301500309558379 0 0.40188519574572068 0.098349840232826835 0 0.38759228221014619 0.095233220303727467 0 0.38890959528695412 0.1083938038889192 0 0.40188519574572068 0.098349840232826835 0 0.38890959528695412 0.1083938038889192 0 0.39948393258462489 0.11301500309558379 0 0.40188519574572068 0.098349840232826835 0 0.3912475249538237 0.025882868266216091 0 0.40325323122183843 0.024352223252143548 0 0.39536881189699241 0.01378873843063998 0 0.3912475249538237 0.025882868266216091 0 0.40325323122183843 0.024352223252143548 0 0.39805180056669343 0.032772735105760037 0 0.40325323122183843 0.024352223252143548 0 0.39805180056669343 0.032772735105760037 0 0.40655765028286611 0.035582104639029083 0 0.40325323122183843 0.024352223252143548 0 0.39536881189699241 0.01378873843063998 0 0.40720094273855439 0.01372602960598159 0 0.40060323373222451 0.0042547197705496897 0 0.39536881189699241 0.01378873843063998 0 0.40720094273855439 0.01372602960598159 0 0.40060323373222451 0.0042547197705496897 0 0.41081432206005303 0.0037114498956348132 0 0.4046584776842293 -0.0050702490882302163 0 0.40060323373222451 0.0042547197705496897 0 0.41081432206005303 0.0037114498956348132 0 0.40720094273855439 0.01372602960598159 0 0.40060323373222451 0.0042547197705496897 0 0.39025836247721268 0.0036292771787240202 0 0.39531848553630572 -0.0042569273994520467 0 0.40060323373222451 0.0042547197705496897 0 0.39536881189699241 0.01378873843063998 0 0.39025836247721268 0.0036292771787240202 0 0.37844401144479839 0.012609093579625891 0 0.38356146703633898 -0.0078565650350033434 0 0.37844401144479839 0.012609093579625891 0 0.39025836247721268 0.0036292771787240202 0 0.38356146703633898 -0.0078565650350033434 0 0.39536881189699241 0.01378873843063998 0 0.37844401144479839 0.012609093579625891 0 0.39025836247721268 0.0036292771787240202 0 0.3912475249538237 0.025882868266216091 0 0.37844401144479839 0.012609093579625891 0 0.38063223185621792 0.036578263657106522 0 0.37844401144479839 0.012609093579625891 0 0.38063223185621792 0.036578263657106522 0 0.37146335928247548 0.04052602251159599 0 0.37844401144479839 0.012609093579625891 0 0.38063223185621792 0.036578263657106522 0 0.3912475249538237 0.025882868266216091 0 0.39536881189699241 0.01378873843063998 0 0.37844401144479839 0.012609093579625891 0 0.37146335928247548 0.04052602251159599 0 0.38063223185621792 0.036578263657106522 0 0.38282045226763678 0.060547433734587333 0 0.3912475249538237 0.025882868266216091 0 0.38063223185621792 0.036578263657106522 0 0.3908528121234538 0.035995570554822158 0 0.38063223185621792 0.036578263657106522 0 0.38791705742610771 0.044539104287684539 0 0.3908528121234538 0.035995570554822158 0 0.38791705742610771 0.044539104287684539 0 0.38282045226763678 0.060547433734587333 0 0.39079668350586277 0.051215399393808793 0 0.37307104071443398 0.061065176941414383 0 0.37146335928247548 0.04052602251159599 0 0.38282045226763678 0.060547433734587333 0 0.38063223185621792 0.036578263657106522 0 0.38791705742610771 0.044539104287684539 0 0.38282045226763678 0.060547433734587333 0 0.38063223185621792 0.036578263657106522 0 0.38282045226763678 0.060547433734587333 0 0.38282045226763678 0.060547433734587333 0 0.39683376059791597 0.058855427163935138 0 0.39079668350586277 0.051215399393808793 0 0.41226619529834591 0.070009779738664735 0 0.39683376059791597 0.058855427163935138 0 0.40948896714378957 0.05055434744181983 0 0.39683376059791597 0.058855427163935138 0 0.39079668350586277 0.051215399393808793 0 0.39674782008621368 0.04348041067995833 0 0.39683376059791597 0.058855427163935138 0 0.39674782008621368 0.04348041067995833 0 0.40948896714378957 0.05055434744181983 0 0.3908528121234538 0.035995570554822158 0 0.39805180056669343 0.032772735105760037 0 0.39674782008621368 0.04348041067995833 0 0.3912475249538237 0.025882868266216091 0 0.3908528121234538 0.035995570554822158 0 0.39805180056669343 0.032772735105760037 0 0.38791705742610771 0.044539104287684539 0 0.3908528121234538 0.035995570554822158 0 0.39674782008621368 0.04348041067995833 0 0.38791705742610771 0.044539104287684539 0 0.39079668350586277 0.051215399393808793 0 0.39674782008621368 0.04348041067995833 0 0.39674782008621368 0.04348041067995833 0 0.40655765028286611 0.035582104639029083 0 0.40948896714378957 0.05055434744181983 0 0.39805180056669343 0.032772735105760037 0 0.39674782008621368 0.04348041067995833 0 0.40655765028286611 0.035582104639029083 0 0.40655765028286611 0.035582104639029083 0 0.41713079569888262 0.040856968430241461 0 0.41557099838193923 0.024039796491718179 0 0.41713079569888262 0.040856968430241461 0 0.42755741698364552 0.032815777208855347 0 0.41557099838193923 0.024039796491718179 0 0.40655765028286611 0.035582104639029083 0 0.41713079569888262 0.040856968430241461 0 0.40948896714378957 0.05055434744181983 0 0.41226619529834591 0.070009779738664735 0 0.40948896714378957 0.05055434744181983 0 0.42739758089851382 0.054541393999090262 0 0.41713079569888262 0.040856968430241461 0 0.40948896714378957 0.05055434744181983 0 0.42739758089851382 0.054541393999090262 0 0.41226619529834591 0.070009779738664735 0 0.42739758089851382 0.054541393999090262 0 0.43300293116684879 0.070359854062556224 0 0.42739758089851382 0.054541393999090262 0 0.44432728466234178 0.059795406129610977 0 0.41713079569888262 0.040856968430241461 0 0.42739758089851382 0.054541393999090262 0 0.42755741698364552 0.032815777208855347 0 0.42739758089851382 0.054541393999090262 0 0.42755741698364552 0.032815777208855347 0 0.44252896649868317 0.039073008259517338 0 0.42739758089851382 0.054541393999090262 0 0.44252896649868317 0.039073008259517338 0 0.42755741698364552 0.032815777208855347 0 0.4358194844604939 0.024219735287320941 0 0.44252896649868317 0.039073008259517338 0 0.42755741698364552 0.032815777208855347 0 0.41557099838193923 0.024039796491718179 0 0.4265644217351573 0.014684511896395219 0 0.4358194844604939 0.024219735287320941 0 0.4265644217351573 0.014684511896395219 0 0.44548351627008242 0.01642882659412407 0 0.42755741698364552 0.032815777208855347 0 0.4358194844604939 0.024219735287320941 0 0.4265644217351573 0.014684511896395219 0 0.41557099838193923 0.024039796491718179 0 0.4165272652869268 0.01155925859927168 0 0.4265644217351573 0.014684511896395219 0 0.41557099838193923 0.024039796491718179 0 0.40720094273855439 0.01372602960598159 0 0.4165272652869268 0.01155925859927168 0 0.40325323122183843 0.024352223252143548 0 0.41557099838193923 0.024039796491718179 0 0.40720094273855439 0.01372602960598159 0 0.40325323122183843 0.024352223252143548 0 0.40655765028286611 0.035582104639029083 0 0.41557099838193923 0.024039796491718179 0 0.41081432206005303 0.0037114498956348132 0 0.40720094273855439 0.01372602960598159 0 0.4165272652869268 0.01155925859927168 0 0.4165272652869268 0.01155925859927168 0 0.42248564151892998 0.0016345051066286029 0 0.4265644217351573 0.014684511896395219 0 0.41081432206005303 0.0037114498956348132 0 0.4165272652869268 0.01155925859927168 0 0.42248564151892998 0.0016345051066286029 0 0.42248564151892998 0.0016345051066286029 0 0.4265644217351573 0.014684511896395219 0 0.4382820622288856 -0.0014159552958160841 0 0.4265644217351573 0.014684511896395219 0 0.44548351627008242 0.01642882659412407 0 0.4382820622288856 -0.0014159552958160841 0 0.45100246047295739 0.0046664116742636159 0 0.44548351627008242 0.01642882659412407 0 0.4382820622288856 -0.0014159552958160841 0 0.45100246047295739 0.0046664116742636159 0 0.44548351627008242 0.01642882659412407 0 0.4580470330794123 0.0188547641718908 0 0.4358194844604939 0.024219735287320941 0 0.4514029071021442 0.02821869916314456 0 0.44548351627008242 0.01642882659412407 0 0.4358194844604939 0.024219735287320941 0 0.4514029071021442 0.02821869916314456 0 0.44252896649868317 0.039073008259517338 0 0.4514029071021442 0.02821869916314456 0 0.44548351627008242 0.01642882659412407 0 0.4580470330794123 0.0188547641718908 0 0.4514029071021442 0.02821869916314456 0 0.4580470330794123 0.0188547641718908 0 0.46553563141862692 0.027383902935855992 0 0.4580470330794123 0.0188547641718908 0 0.46553563141862692 0.027383902935855992 0 0.471035018561343 0.01684384088441979 0 0.4580470330794123 0.0188547641718908 0 0.4620271672997433 0.0081957990277541914 0 0.471035018561343 0.01684384088441979 0 0.4620271672997433 0.0081957990277541914 0 0.47207727543944228 0.0077163925679632076 0 0.45540766643685782 -0.0078732224449345398 0 0.4620271672997433 0.0081957990277541914 0 0.47207727543944228 0.0077163925679632076 0 0.471035018561343 0.01684384088441979 0 0.45100246047295739 0.0046664116742636159 0 0.4620271672997433 0.0081957990277541914 0 0.45540766643685782 -0.0078732224449345398 0 0.45100246047295739 0.0046664116742636159 0 0.4580470330794123 0.0188547641718908 0 0.4620271672997433 0.0081957990277541914 0 0.42739758089851382 0.054541393999090262 0 0.44432728466234178 0.059795406129610977 0 0.44252896649868317 0.039073008259517338 0 0.44432728466234178 0.059795406129610977 0 0.44252896649868317 0.039073008259517338 0 0.46100281088556699 0.043351957730158222 0 0.4514029071021442 0.02821869916314456 0 0.44252896649868317 0.039073008259517338 0 0.46100281088556699 0.043351957730158222 0 0.4514029071021442 0.02821869916314456 0 0.46553563141862692 0.027383902935855992 0 0.46100281088556699 0.043351957730158222 0 0.46553563141862692 0.027383902935855992 0 0.46100281088556699 0.043351957730158222 0 0.4764725540003833 0.035303178421407518 0 0.46368779630991369 0.062884433647911922 0 0.44432728466234178 0.059795406129610977 0 0.46100281088556699 0.043351957730158222 0 0.48297411160829701 0.071419164250366693 0 0.46368779630991369 0.062884433647911922 0 0.48184389815495748 0.047383459182506117 0 0.46368779630991369 0.062884433647911922 0 0.46100281088556699 0.043351957730158222 0 0.48184389815495748 0.047383459182506117 0 0.46368779630991369 0.062884433647911922 0 0.48184389815495748 0.047383459182506117 0 0.46100281088556699 0.043351957730158222 0 0.48184389815495748 0.047383459182506117 0 0.4764725540003833 0.035303178421407518 0 0.48184389815495748 0.047383459182506117 0 0.50000000000000089 0.031882484717099757 0 0.48184389815495748 0.047383459182506117 0 0.50000000000000089 0.031882484717099757 0 0.5 0.058972369132007867 0 0.48184389815495748 0.047383459182506117 0 0.4764725540003833 0.035303178421407518 0 0.50000000000000089 0.031882484717099757 0 0.48297411160829701 0.071419164250366693 0 0.48184389815495748 0.047383459182506117 0 0.5 0.058972369132007867 0 0.48173822001607031 0.002441982684480838 0 0.47207727543944228 0.0077163925679632076 0 0.45540766643685782 -0.0078732224449345398 0 0.48073089036299149 0.01447516008145705 0 0.48088876464914698 0.0066420825236524483 0 0.47207727543944228 0.0077163925679632076 0 0.48088876464914698 0.0066420825236524483 0 0.48173822001607031 0.002441982684480838 0 0.48944624590280772 0.014576472087587141 0 0.48073089036299149 0.01447516008145705 0 0.48088876464914698 0.0066420825236524483 0 0.48944624590280772 0.014576472087587141 0 0.48088876464914698 0.0066420825236524483 0 0.48173822001607031 0.002441982684480838 0 0.47207727543944228 0.0077163925679632076 0 0.48088876464914698 0.0066420825236524483 0 0.48173822001607031 0.002441982684480838 0 0.48073089036299149 0.01447516008145705 0 0.47207727543944228 0.0077163925679632076 0 0.471035018561343 0.01684384088441979 0 0.46553563141862692 0.027383902935855992 0 0.471035018561343 0.01684384088441979 0 0.48098968552297122 0.023479159592672289 0 0.46553563141862692 0.027383902935855992 0 0.4764725540003833 0.035303178421407518 0 0.48098968552297122 0.023479159592672289 0 0.48073089036299149 0.01447516008145705 0 0.471035018561343 0.01684384088441979 0 0.48098968552297122 0.023479159592672289 0 0.48073089036299149 0.01447516008145705 0 0.48098968552297122 0.023479159592672289 0 0.48944624590280772 0.014576472087587141 0 0.50000000000000089 0.031882484717099757 0 0.50000000000000044 0.0095961811708810997 0 0.48944624590280772 0.014576472087587141 0 0.4764725540003833 0.035303178421407518 0 0.50000000000000089 0.031882484717099757 0 0.48098968552297122 0.023479159592672289 0 0.50000000000000089 0.031882484717099757 0 0.48098968552297122 0.023479159592672289 0 0.48944624590280772 0.014576472087587141 0 0.48173822001607031 0.002441982684480838 0 0.50000000000000044 0.0095961811708810997 0 0.48944624590280772 0.014576472087587141 0 0.48173822001607031 0.002441982684480838 0 0.50000000000000044 0.0095961811708810997 0 0.48173822001607031 0.002441982684480838 0 0.50000000000000044 0.0095961811708810997 0 0.5 -0.01553848795347695 0 0.48173822001607031 0.002441982684480838 0 0.5 -0.01553848795347695 0 0.48723509010938909 -0.024737082977995831 0 0.48173822001607031 0.002441982684480838 0 0.48723509010938909 -0.024737082977995831 0 0.48173822001607031 0.002441982684480838 0 0.46944239540012012 -0.021901386132034111 0 0.45540766643685782 -0.0078732224449345398 0 0.48173822001607031 0.002441982684480838 0 0.46944239540012012 -0.021901386132034111 0 0.48723509010938909 -0.024737082977995831 0 0.46944239540012012 -0.021901386132034111 0 0.48723509010938909 -0.024737082977995831 0 0.47311684284700922 -0.039980301183512167 0 0.5 -0.01553848795347695 0 0.48723509010938909 -0.024737082977995831 0 0.5 -0.040673157077835087 0 0.48723509010938909 -0.024737082977995831 0 0.49273196020270971 -0.051916148640471983 0 0.48034048547664182 -0.050194577481915269 0 0.48723509010938909 -0.024737082977995831 0 0.49273196020270971 -0.051916148640471983 0 0.48723509010938909 -0.024737082977995831 0 0.5 -0.040673157077835087 0 0.49273196020270971 -0.051916148640471983 0 0.5 -0.040673157077835087 0 0.49273196020270971 -0.051916148640471983 0 0.5 -0.065807826202193331 0 0.49273196020270971 -0.051916148640471983 0 0.48384360039889979 -0.062204599920787272 0 0.48034048547664182 -0.050194577481915269 0 0.48034048547664182 -0.050194577481915269 0 0.47035120232490191 -0.060528185902064997 0 0.47311684284700922 -0.039980301183512167 0 0.47035120232490191 -0.060528185902064997 0 0.47311684284700922 -0.039980301183512167 0 0.48384360039889979 -0.062204599920787272 0 0.48034048547664182 -0.050194577481915269 0 0.47035120232490191 -0.060528185902064997 0 0.48723509010938909 -0.024737082977995831 0 0.48034048547664182 -0.050194577481915269 0 0.47311684284700922 -0.039980301183512167 0 0.46944239540012012 -0.021901386132034111 0 0.47311684284700922 -0.039980301183512167 0 0.44971415759127392 -0.039358306738208573 0 0.47035120232490191 -0.060528185902064997 0 0.47311684284700922 -0.039980301183512167 0 0.44971415759127392 -0.039358306738208573 0 0.47035120232490191 -0.060528185902064997 0 0.44971415759127392 -0.039358306738208573 0 0.47035120232490191 -0.060528185902064997 0 0.43963483674523918 -0.055334607978488382 0 0.44971415759127392 -0.039358306738208573 0 0.43963483674523918 -0.055334607978488382 0 0.44971415759127392 -0.039358306738208573 0 0.42419530264354072 -0.042652000491910397 0 0.46944239540012012 -0.021901386132034111 0 0.44971415759127392 -0.039358306738208573 0 0.45540766643685782 -0.0078732224449345398 0 0.44971415759127392 -0.039358306738208573 0 0.42907711285764621 -0.01818842757435184 0 0.44971415759127392 -0.039358306738208573 0 0.45540766643685782 -0.0078732224449345398 0 0.42907711285764621 -0.01818842757435184 0 0.45540766643685782 -0.0078732224449345398 0 0.42907711285764621 -0.01818842757435184 0 0.45100246047295739 0.0046664116742636159 0 0.4382820622288856 -0.0014159552958160841 0 0.45540766643685782 -0.0078732224449345398 0 0.4382820622288856 -0.0014159552958160841 0 0.45540766643685782 -0.0078732224449345398 0 0.42907711285764621 -0.01818842757435184 0 0.48173822001607031 0.002441982684480838 0 0.45540766643685782 -0.0078732224449345398 0 0.47129126618897188 -0.1223351355815797 0 0.47148248434309947 -0.114916285604633 0 0.48087269318342413 -0.1216818802472065 0 0.47148248434309947 -0.114916285604633 0 0.48087269318342413 -0.1216818802472065 0 0.47838814501791832 -0.1066654575105275 0 0.48087269318342413 -0.1216818802472065 0 0.48924328608656842 -0.1141618265083332 0 0.47838814501791832 -0.1066654575105275 0 0.5 -0.1122204549214597 0 0.48924328608656842 -0.1141618265083332 0 0.5 -0.13349841451636779 0 0.48087269318342413 -0.1216818802472065 0 0.48924328608656842 -0.1141618265083332 0 0.5 -0.13349841451636779 0 0.5 -0.1122204549214597 0 0.48924328608656842 -0.1141618265083332 0 0.48827073793524339 -0.097774102912636218 0 0.48924328608656842 -0.1141618265083332 0 0.48827073793524339 -0.097774102912636218 0 0.47838814501791832 -0.1066654575105275 0 0.5 -0.1122204549214597 0 0.48827073793524339 -0.097774102912636218 0 0.50000000000000266 -0.090942495326551576 0 0.47652975213937199 -0.091635549067057065 0 0.46683976751390588 -0.086617099886465918 0 0.46456669494636288 -0.10350535152343909 0 0.48827073793524339 -0.097774102912636218 0 0.47838814501791832 -0.1066654575105275 0 0.47652975213937199 -0.091635549067057065 0 0.47148248434309947 -0.114916285604633 0 0.47838814501791832 -0.1066654575105275 0 0.46456669494636288 -0.10350535152343909 0 0.47838814501791832 -0.1066654575105275 0 0.47652975213937199 -0.091635549067057065 0 0.46456669494636288 -0.10350535152343909 0 0.48827073793524339 -0.097774102912636218 0 0.47652975213937199 -0.091635549067057065 0 0.48517560116245317 -0.075735340614307423 0 0.47652975213937199 -0.091635549067057065 0 0.48517560116245317 -0.075735340614307423 0 0.46683976751390588 -0.086617099886465918 0 0.47652975213937199 -0.091635549067057065 0 0.46683976751390588 -0.086617099886465918 0 0.50000000000000266 -0.090942495326551576 0 0.49822883029603021 -0.079095214302948247 0 0.5 -0.065807826202193331 0 0.48827073793524339 -0.097774102912636218 0 0.50000000000000266 -0.090942495326551576 0 0.48517560116245317 -0.075735340614307423 0 0.50000000000000266 -0.090942495326551576 0 0.48517560116245317 -0.075735340614307423 0 0.50000000000000266 -0.090942495326551576 0 0.49822883029603021 -0.079095214302948247 0 0.48517560116245317 -0.075735340614307423 0 0.49273196020270971 -0.051916148640471983 0 0.49822883029603021 -0.079095214302948247 0 0.48384360039889979 -0.062204599920787272 0 0.49822883029603021 -0.079095214302948247 0 0.48517560116245317 -0.075735340614307423 0 0.49273196020270971 -0.051916148640471983 0 0.48384360039889979 -0.062204599920787272 0 0.49822883029603021 -0.079095214302948247 0 0.49273196020270971 -0.051916148640471983 0 0.49822883029603021 -0.079095214302948247 0 0.5 -0.065807826202193331 0 0.47035120232490191 -0.060528185902064997 0 0.48517560116245317 -0.075735340614307423 0 0.47035120232490191 -0.060528185902064997 0 0.48517560116245317 -0.075735340614307423 0 0.46683976751390588 -0.086617099886465918 0 0.48384360039889979 -0.062204599920787272 0 0.47035120232490191 -0.060528185902064997 0 0.48517560116245317 -0.075735340614307423 0 0.47035120232490191 -0.060528185902064997 0 0.46683976751390588 -0.086617099886465918 0 0.47035120232490191 -0.060528185902064997 0 0.44249197108241189 -0.074007360679063244 0 0.46683976751390588 -0.086617099886465918 0 0.47035120232490191 -0.060528185902064997 0 0.43963483674523918 -0.055334607978488382 0 0.44249197108241189 -0.074007360679063244 0 0.44249197108241189 -0.074007360679063244 0 0.46683976751390588 -0.086617099886465918 0 0.4490662803509099 -0.094083529251462475 0 0.44249197108241189 -0.074007360679063244 0 0.4490662803509099 -0.094083529251462475 0 0.42834270349958448 -0.099226311759436261 0 0.44249197108241189 -0.074007360679063244 0 0.46683976751390588 -0.086617099886465918 0 0.46683976751390588 -0.086617099886465918 0 0.46456669494636288 -0.10350535152343909 0 0.4490662803509099 -0.094083529251462475 0 0.46683976751390588 -0.086617099886465918 0 0.46456669494636288 -0.10350535152343909 0 0.46456669494636288 -0.10350535152343909 0 0.4490662803509099 -0.094083529251462475 0 0.44386094964032902 -0.11054798122052439 0 0.4490662803509099 -0.094083529251462475 0 0.44386094964032902 -0.11054798122052439 0 0.42834270349958448 -0.099226311759436261 0 0.44386094964032902 -0.11054798122052439 0 0.46257396642688631 -0.12529077885077469 0 0.45239247298790419 -0.125419693033265 0 0.44386094964032902 -0.11054798122052439 0 0.42916935431308728 -0.1205456085246996 0 0.4435038969132965 -0.12540022695152131 0 0.44386094964032902 -0.11054798122052439 0 0.45239247298790419 -0.125419693033265 0 0.4435038969132965 -0.12540022695152131 0 0.44386094964032902 -0.11054798122052439 0 0.46229362237882032 -0.1203936031604123 0 0.46257396642688631 -0.12529077885077469 0 0.46456669494636288 -0.10350535152343909 0 0.46229362237882032 -0.1203936031604123 0 0.46456669494636288 -0.10350535152343909 0 0.44386094964032902 -0.11054798122052439 0 0.46229362237882032 -0.1203936031604123 0 0.44386094964032902 -0.11054798122052439 0 0.46257396642688631 -0.12529077885077469 0 0.47148248434309947 -0.114916285604633 0 0.46456669494636288 -0.10350535152343909 0 0.46229362237882032 -0.1203936031604123 0 0.47129126618897188 -0.1223351355815797 0 0.46229362237882032 -0.1203936031604123 0 0.46257396642688631 -0.12529077885077469 0 0.47129126618897188 -0.1223351355815797 0 0.47148248434309947 -0.114916285604633 0 0.46229362237882032 -0.1203936031604123 0 0.44386094964032902 -0.11054798122052439 0 0.42916935431308728 -0.1205456085246996 0 0.42834270349958448 -0.099226311759436261 0 0.41143930547928681 -0.11934523636421419 0 0.42916935431308728 -0.1205456085246996 0 0.42834270349958448 -0.099226311759436261 0 0.41143930547928681 -0.11934523636421419 0 0.40555832972599831 -0.095826118330896617 0 0.41143930547928681 -0.11934523636421419 0 0.42834270349958448 -0.099226311759436261 0 0.40555832972599831 -0.095826118330896617 0 0.42834270349958448 -0.099226311759436261 0 0.41884290658632428 -0.080552882507727325 0 0.40555832972599831 -0.095826118330896617 0 0.41884290658632428 -0.080552882507727325 0 0.39967735397270959 -0.072307000297579083 0 0.40555832972599831 -0.095826118330896617 0 0.44249197108241189 -0.074007360679063244 0 0.42834270349958448 -0.099226311759436261 0 0.41884290658632428 -0.080552882507727325 0 0.44249197108241189 -0.074007360679063244 0 0.41814417465091752 -0.061397621471661459 0 0.43963483674523918 -0.055334607978488382 0 0.44249197108241189 -0.074007360679063244 0 0.41814417465091752 -0.061397621471661459 0 0.44249197108241189 -0.074007360679063244 0 0.41884290658632428 -0.080552882507727325 0 0.41814417465091752 -0.061397621471661459 0 0.41884290658632428 -0.080552882507727325 0 0.39967735397270959 -0.072307000297579083 0 0.41814417465091752 -0.061397621471661459 0 0.39967735397270959 -0.072307000297579083 0 0.38669795957132042 -0.057310603286660967 0 0.37240766699872252 -0.068318548019290964 0 0.39967735397270959 -0.072307000297579083 0 0.37781097748786241 -0.089314889372882261 0 0.37240766699872252 -0.068318548019290964 0 0.39967735397270959 -0.072307000297579083 0 0.37781097748786241 -0.089314889372882261 0 0.40555832972599831 -0.095826118330896617 0 0.39967735397270959 -0.072307000297579083 0 0.40555832972599831 -0.095826118330896617 0 0.40555832972599831 -0.095826118330896617 0 0.38953803654933628 -0.10754997095337659 0 0.39823574772599779 -0.11763079726210079 0 0.37781097748786241 -0.089314889372882261 0 0.40555832972599831 -0.095826118330896617 0 0.38953803654933628 -0.10754997095337659 0 0.37781097748786241 -0.089314889372882261 0 0.38953803654933628 -0.10754997095337659 0 0.37644505785585192 -0.1058120404938334 0 0.38953803654933628 -0.10754997095337659 0 0.37644505785585192 -0.1058120404938334 0 0.37720890243704291 -0.12310924361699779 0 0.38953803654933628 -0.10754997095337659 0 0.37720890243704291 -0.12310924361699779 0 0.38918813321375051 -0.12739880168557821 0 0.38953803654933628 -0.10754997095337659 0 0.39823574772599779 -0.11763079726210079 0 0.38918813321375051 -0.12739880168557821 0 0.41143930547928681 -0.11934523636421419 0 0.39823574772599779 -0.11763079726210079 0 0.40257569972698831 -0.13396225485532559 0 0.41143930547928681 -0.11934523636421419 0 0.40555832972599831 -0.095826118330896617 0 0.39823574772599779 -0.11763079726210079 0 0.42011428296152808 -0.02169968792975261 0 0.41401194260749391 -0.028450411104576211 0 0.41343304557213612 -0.018371446868227208 0 0.42011428296152808 -0.02169968792975261 0 0.41343304557213612 -0.018371446868227208 0 0.41928481904255338 -0.01548900553927589 0 0.42011428296152808 -0.02169968792975261 0 0.41928481904255338 -0.01548900553927589 0 0.42542521438275183 -0.0144422395697206 0 0.42011428296152808 -0.02169968792975261 0 0.41401194260749391 -0.028450411104576211 0 0.42742255973229643 -0.030069766767760062 0 0.41401194260749391 -0.028450411104576211 0 0.40522076275047969 -0.019933987949522329 0 0.40044964155059998 -0.029094842751199331 0 0.41401194260749391 -0.028450411104576211 0 0.41343304557213612 -0.018371446868227208 0 0.40522076275047969 -0.019933987949522329 0 0.41343304557213612 -0.018371446868227208 0 0.40806592415966281 -0.01253819616599721 0 0.40522076275047969 -0.019933987949522329 0 0.40806592415966281 -0.01253819616599721 0 0.4135204533098043 -0.0054466611181140526 0 0.41498054603746559 -0.011947546426581419 0 0.41343304557213612 -0.018371446868227208 0 0.40806592415966281 -0.01253819616599721 0 0.41498054603746559 -0.011947546426581419 0 0.41081432206005303 0.0037114498956348132 0 0.4135204533098043 -0.0054466611181140526 0 0.4046584776842293 -0.0050702490882302163 0 0.40806592415966281 -0.01253819616599721 0 0.4135204533098043 -0.0054466611181140526 0 0.4046584776842293 -0.0050702490882302163 0 0.41081432206005303 0.0037114498956348132 0 0.42248564151892998 0.0016345051066286029 0 0.4135204533098043 -0.0054466611181140526 0 0.42248564151892998 0.0016345051066286029 0 0.4135204533098043 -0.0054466611181140526 0 0.42119781252485211 -0.0083000839364812864 0 0.41343304557213612 -0.018371446868227208 0 0.41498054603746559 -0.011947546426581419 0 0.41928481904255338 -0.01548900553927589 0 0.4135204533098043 -0.0054466611181140526 0 0.41498054603746559 -0.011947546426581419 0 0.42119781252485211 -0.0083000839364812864 0 0.41498054603746559 -0.011947546426581419 0 0.42119781252485211 -0.0083000839364812864 0 0.41928481904255338 -0.01548900553927589 0 0.42542521438275183 -0.0144422395697206 0 0.42820760236351979 -0.0076976995852137747 0 0.42907711285764621 -0.01818842757435184 0 0.4382820622288856 -0.0014159552958160841 0 0.42820760236351979 -0.0076976995852137747 0 0.42907711285764621 -0.01818842757435184 0 0.42119781252485211 -0.0083000839364812864 0 0.41928481904255338 -0.01548900553927589 0 0.42542521438275183 -0.0144422395697206 0 0.42248564151892998 0.0016345051066286029 0 0.4382820622288856 -0.0014159552958160841 0 0.42820760236351979 -0.0076976995852137747 0 0.42119781252485211 -0.0083000839364812864 0 0.42542521438275183 -0.0144422395697206 0 0.42820760236351979 -0.0076976995852137747 0 0.42248564151892998 0.0016345051066286029 0 0.42119781252485211 -0.0083000839364812864 0 0.42820760236351979 -0.0076976995852137747 0 0.44971415759127392 -0.039358306738208573 0 0.42907711285764621 -0.01818842757435184 0 0.42742255973229643 -0.030069766767760062 0 0.42011428296152808 -0.02169968792975261 0 0.42907711285764621 -0.01818842757435184 0 0.42742255973229643 -0.030069766767760062 0 0.42011428296152808 -0.02169968792975261 0 0.42542521438275183 -0.0144422395697206 0 0.42907711285764621 -0.01818842757435184 0 0.42011428296152808 -0.02169968792975261 0 0.42907711285764621 -0.01818842757435184 0 0.42542521438275183 -0.0144422395697206 0 0.42907711285764621 -0.01818842757435184 0 0.44971415759127392 -0.039358306738208573 0 0.42742255973229643 -0.030069766767760062 0 0.42419530264354072 -0.042652000491910397 0 0.41401194260749391 -0.028450411104576211 0 0.42742255973229643 -0.030069766767760062 0 0.42419530264354072 -0.042652000491910397 0 0.43963483674523918 -0.055334607978488382 0 0.42419530264354072 -0.042652000491910397 0 0.41814417465091752 -0.061397621471661459 0 0.41814417465091752 -0.061397621471661459 0 0.41107184061272262 -0.047596707948501772 0 0.39379637821942232 -0.04878788226426127 0 0.42419530264354072 -0.042652000491910397 0 0.41814417465091752 -0.061397621471661459 0 0.41107184061272262 -0.047596707948501772 0 0.41401194260749391 -0.028450411104576211 0 0.42419530264354072 -0.042652000491910397 0 0.40815150693701141 -0.037549327566173699 0 0.42419530264354072 -0.042652000491910397 0 0.41107184061272262 -0.047596707948501772 0 0.40815150693701141 -0.037549327566173699 0 0.41401194260749391 -0.028450411104576211 0 0.40815150693701141 -0.037549327566173699 0 0.40044964155059998 -0.029094842751199331 0 0.41107184061272262 -0.047596707948501772 0 0.40815150693701141 -0.037549327566173699 0 0.39379637821942232 -0.04878788226426127 0 0.40815150693701141 -0.037549327566173699 0 0.39379637821942232 -0.04878788226426127 0 0.40044964155059998 -0.029094842751199331 0 0.39379637821942232 -0.04878788226426127 0 0.38867892262788012 -0.028322223649632432 0 0.39379637821942232 -0.04878788226426127 0 0.38867892262788012 -0.028322223649632432 0 0.40044964155059998 -0.029094842751199331 0 0.39967735397270959 -0.072307000297579083 0 0.39379637821942232 -0.04878788226426127 0 0.38669795957132042 -0.057310603286660967 0 0.41814417465091752 -0.061397621471661459 0 0.39379637821942232 -0.04878788226426127 0 0.39967735397270959 -0.072307000297579083 0 0.39379637821942232 -0.04878788226426127 0 0.39967735397270959 -0.072307000297579083 0 0.41814417465091752 -0.061397621471661459 0 0.39379637821942232 -0.04878788226426127 0 0.39379637821942232 -0.04878788226426127 0 0.38896036142985008 -0.046283306103098283 0 0.38669795957132042 -0.057310603286660967 0 0.37839056082150663 -0.050608978831784571 0 0.37240766699872252 -0.068318548019290964 0 0.38669795957132042 -0.057310603286660967 0 0.37839056082150663 -0.050608978831784571 0 0.38896036142985008 -0.046283306103098283 0 0.39379637821942232 -0.04878788226426127 0 0.38669795957132042 -0.057310603286660967 0 0.38896036142985008 -0.046283306103098283 0 0.39379637821942232 -0.04878788226426127 0 0.38896036142985008 -0.046283306103098283 0 0.38867892262788012 -0.028322223649632432 0 0.3834615598562825 -0.037386722635115492 0 0.38896036142985008 -0.046283306103098283 0 0.38867892262788012 -0.028322223649632432 0 0.37839056082150663 -0.050608978831784571 0 0.3834615598562825 -0.037386722635115492 0 0.38896036142985008 -0.046283306103098283 0 0.37839056082150663 -0.050608978831784571 0 0.3834615598562825 -0.037386722635115492 0 0.37356965880113402 -0.040783236975350308 0 0.38867892262788012 -0.028322223649632432 0 0.38356146703633898 -0.0078565650350033434 0 0.3834615598562825 -0.037386722635115492 0 0.37600683512296651 -0.014087071697862221 0 0.37356965880113402 -0.040783236975350308 0 0.3834615598562825 -0.037386722635115492 0 0.38867892262788012 -0.028322223649632432 0 0.37600683512296651 -0.014087071697862221 0 0.38867892262788012 -0.028322223649632432 0 0.37600683512296651 -0.014087071697862221 0 0.38356146703633898 -0.0078565650350033434 0 0.38867892262788012 -0.028322223649632432 0 0.39658225960386179 -0.014459285545308009 0 0.38356146703633898 -0.0078565650350033434 0 0.38867892262788012 -0.028322223649632432 0 0.40044964155059998 -0.029094842751199331 0 0.39658225960386179 -0.014459285545308009 0 0.40522076275047969 -0.019933987949522329 0 0.40044964155059998 -0.029094842751199331 0 0.39658225960386179 -0.014459285545308009 0 0.40806592415966281 -0.01253819616599721 0 0.40522076275047969 -0.019933987949522329 0 0.39658225960386179 -0.014459285545308009 0 0.40060323373222451 0.0042547197705496897 0 0.4046584776842293 -0.0050702490882302163 0 0.39531848553630572 -0.0042569273994520467 0 0.40806592415966281 -0.01253819616599721 0 0.4046584776842293 -0.0050702490882302163 0 0.39658225960386179 -0.014459285545308009 0 0.4046584776842293 -0.0050702490882302163 0 0.39658225960386179 -0.014459285545308009 0 0.39531848553630572 -0.0042569273994520467 0 0.39658225960386179 -0.014459285545308009 0 0.39531848553630572 -0.0042569273994520467 0 0.38356146703633898 -0.0078565650350033434 0 0.39025836247721268 0.0036292771787240202 0 0.39531848553630572 -0.0042569273994520467 0 0.38356146703633898 -0.0078565650350033434 0 0.37844401144479839 0.012609093579625891 0 0.37600683512296651 -0.014087071697862221 0 0.37844401144479839 0.012609093579625891 0 0.37600683512296651 -0.014087071697862221 0 0.38356146703633898 -0.0078565650350033434 0 0.37600683512296651 -0.014087071697862221 0 0.36665723294200347 -0.001883505129568449 0 0.35850646790810559 -0.01395473468271459 0 0.37844401144479839 0.012609093579625891 0 0.37600683512296651 -0.014087071697862221 0 0.36665723294200347 -0.001883505129568449 0 0.36665723294200347 -0.001883505129568449 0 0.35531676971978082 -0.0033532784323768001 0 0.35850646790810559 -0.01395473468271459 0 0.37600683512296651 -0.014087071697862221 0 0.37356965880113402 -0.040783236975350308 0 0.37600683512296651 -0.014087071697862221 0 0.36404947753274258 -0.026706798856440471 0 0.35850646790810559 -0.01395473468271459 0 0.37600683512296651 -0.014087071697862221 0 0.36404947753274258 -0.026706798856440471 0 0.37356965880113402 -0.040783236975350308 0 0.34748556133762742 -0.02738266599094942 0 0.35850646790810559 -0.01395473468271459 0 0.34370628527030811 -0.0115647124322744 0 0.36404947753274258 -0.026706798856440471 0 0.34748556133762742 -0.02738266599094942 0 0.35850646790810559 -0.01395473468271459 0 0.36404947753274258 -0.026706798856440471 0 0.34748556133762742 -0.02738266599094942 0 0.36012817770438982 -0.039413746555128387 0 0.33689267375143878 0.0039255003288513873 0 0.35531676971978082 -0.0033532784323768001 0 0.34370628527030811 -0.0115647124322744 0 0.35531676971978082 -0.0033532784323768001 0 0.35850646790810559 -0.01395473468271459 0 0.34370628527030811 -0.0115647124322744 0 0.33689267375143878 0.0039255003288513873 0 0.34370628527030811 -0.0115647124322744 0 0.32469666258817742 -0.019557632270551 0 0.33689267375143878 0.0039255003288513873 0 0.30352242257352219 0.0039185454548519476 0 0.32469666258817742 -0.019557632270551 0 0.34748556133762742 -0.02738266599094942 0 0.34370628527030811 -0.0115647124322744 0 0.32469666258817742 -0.019557632270551 0 0.34748556133762742 -0.02738266599094942 0 0.32469666258817742 -0.019557632270551 0 0.33457477032001748 -0.043965109755099818 0 0.31326255248553708 -0.043768501277314603 0 0.32924913997341337 -0.063603686862235317 0 0.31014365419524398 -0.06072536978512106 0 0.31326255248553708 -0.043768501277314603 0 0.32924913997341337 -0.063603686862235317 0 0.31326255248553708 -0.043768501277314603 0 0.33457477032001748 -0.043965109755099818 0 0.32924913997341337 -0.063603686862235317 0 0.32469666258817742 -0.019557632270551 0 0.31326255248553708 -0.043768501277314603 0 0.33457477032001748 -0.043965109755099818 0 0.33457477032001748 -0.043965109755099818 0 0.34313363496153881 -0.061193084728204693 0 0.35029003257871461 -0.048624574981710279 0 0.33457477032001748 -0.043965109755099818 0 0.34313363496153881 -0.061193084728204693 0 0.32924913997341337 -0.063603686862235317 0 0.35029003257871461 -0.048624574981710279 0 0.36524615827173029 -0.053571455971191423 0 0.35631850447425872 -0.066333179594821989 0 0.34313363496153881 -0.061193084728204693 0 0.35029003257871461 -0.048624574981710279 0 0.35631850447425872 -0.066333179594821989 0 0.35029003257871461 -0.048624574981710279 0 0.36012817770438982 -0.039413746555128387 0 0.36524615827173029 -0.053571455971191423 0 0.34748556133762742 -0.02738266599094942 0 0.33457477032001748 -0.043965109755099818 0 0.35029003257871461 -0.048624574981710279 0 0.34748556133762742 -0.02738266599094942 0 0.35029003257871461 -0.048624574981710279 0 0.36012817770438982 -0.039413746555128387 0 0.36404947753274258 -0.026706798856440471 0 0.36012817770438982 -0.039413746555128387 0 0.37356965880113402 -0.040783236975350308 0 0.36012817770438982 -0.039413746555128387 0 0.37356965880113402 -0.040783236975350308 0 0.36524615827173029 -0.053571455971191423 0 0.37839056082150663 -0.050608978831784571 0 0.36524615827173029 -0.053571455971191423 0 0.37240766699872252 -0.068318548019290964 0 0.37839056082150663 -0.050608978831784571 0 0.37356965880113402 -0.040783236975350308 0 0.36524615827173029 -0.053571455971191423 0 0.36524615827173029 -0.053571455971191423 0 0.37240766699872252 -0.068318548019290964 0 0.35631850447425872 -0.066333179594821989 0 0.37240766699872252 -0.068318548019290964 0 0.36259903827425999 -0.08213590949324566 0 0.35631850447425872 -0.066333179594821989 0 0.37781097748786241 -0.089314889372882261 0 0.37240766699872252 -0.068318548019290964 0 0.36259903827425999 -0.08213590949324566 0 0.37781097748786241 -0.089314889372882261 0 0.36259903827425999 -0.08213590949324566 0 0.3612223149491664 -0.1032740580320769 0 0.34523572746128989 -0.083438872447156087 0 0.3612223149491664 -0.1032740580320769 0 0.36259903827425999 -0.08213590949324566 0 0.34523572746128989 -0.083438872447156087 0 0.3612223149491664 -0.1032740580320769 0 0.34313363496153881 -0.061193084728204693 0 0.34523572746128989 -0.083438872447156087 0 0.35631850447425872 -0.066333179594821989 0 0.36259903827425999 -0.08213590949324566 0 0.34523572746128989 -0.083438872447156087 0 0.35631850447425872 -0.066333179594821989 0 0.37720890243704291 -0.12310924361699779 0 0.36253108037134668 -0.1248744885805331 0 0.3612223149491664 -0.1032740580320769 0 0.37644505785585192 -0.1058120404938334 0 0.37720890243704291 -0.12310924361699779 0 0.3612223149491664 -0.1032740580320769 0 0.37720890243704291 -0.12310924361699779 0 0.3612223149491664 -0.1032740580320769 0 0.37781097748786241 -0.089314889372882261 0 0.37644505785585192 -0.1058120404938334 0 0.3612223149491664 -0.1032740580320769 0 0.34523572746128989 -0.083438872447156087 0 0.3612223149491664 -0.1032740580320769 0 0.33932087337301742 -0.1007066993955318 0 0.3612223149491664 -0.1032740580320769 0 0.34941185211170689 -0.1127717253903176 0 0.33932087337301742 -0.1007066993955318 0 0.36253108037134668 -0.1248744885805331 0 0.33587402752894302 -0.122350175475488 0 0.36253108037134668 -0.1248744885805331 0 0.34941185211170689 -0.1127717253903176 0 0.33587402752894302 -0.122350175475488 0 0.36253108037134668 -0.1248744885805331 0 0.3612223149491664 -0.1032740580320769 0 0.34941185211170689 -0.1127717253903176 0 0.34941185211170689 -0.1127717253903176 0 0.33587402752894302 -0.122350175475488 0 0.33932087337301742 -0.1007066993955318 0 0.33587402752894302 -0.122350175475488 0 0.33932087337301742 -0.1007066993955318 0 0.31943204723016899 -0.10139701157958859 0 0.33932087337301742 -0.1007066993955318 0 0.31943204723016899 -0.10139701157958859 0 0.32474927095682959 -0.081008353448563344 0 0.33587402752894302 -0.122350175475488 0 0.31943204723016899 -0.10139701157958859 0 0.3092169746865393 -0.1198258623704429 0 0.33587402752894302 -0.122350175475488 0 0.3092169746865393 -0.1198258623704429 0 0.34523572746128989 -0.083438872447156087 0 0.32924913997341337 -0.063603686862235317 0 0.32474927095682959 -0.081008353448563344 0 0.34523572746128989 -0.083438872447156087 0 0.32924913997341337 -0.063603686862235317 0 0.34313363496153881 -0.061193084728204693 0 0.34523572746128989 -0.083438872447156087 0 0.32924913997341337 -0.063603686862235317 0 0.34523572746128989 -0.083438872447156087 0 0.33932087337301742 -0.1007066993955318 0 0.32474927095682959 -0.081008353448563344 0 0.31943204723016899 -0.10139701157958859 0 0.32474927095682959 -0.081008353448563344 0 0.31117343018006932 -0.08835554327446378 0 0.32474927095682959 -0.081008353448563344 0 0.30201438303726968 -0.075929904193525521 0 0.32474927095682959 -0.081008353448563344 0 0.30201438303726968 -0.075929904193525521 0 0.31117343018006932 -0.08835554327446378 0 0.32924913997341337 -0.063603686862235317 0 0.32474927095682959 -0.081008353448563344 0 0.31014365419524398 -0.06072536978512106 0 0.32474927095682959 -0.081008353448563344 0 0.30201438303726968 -0.075929904193525521 0 0.31014365419524398 -0.06072536978512106 0 0.30201438303726968 -0.075929904193525521 0 0.31014365419524398 -0.06072536978512106 0 0.29222542489931519 -0.060978945333093171 0 0.31117343018006932 -0.08835554327446378 0 0.29442961060618023 -0.089764156713605506 0 0.30306705175182019 -0.101009202806625 0 0.30201438303726968 -0.075929904193525521 0 0.31117343018006932 -0.08835554327446378 0 0.29442961060618023 -0.089764156713605506 0 0.29442961060618023 -0.089764156713605506 0 0.28691460331806928 -0.079185378374353493 0 0.27734124638624891 -0.089737863242296378 0 0.30201438303726968 -0.075929904193525521 0 0.29442961060618023 -0.089764156713605506 0 0.28691460331806928 -0.079185378374353493 0 0.30201438303726968 -0.075929904193525521 0 0.27927949511770961 -0.070851454938488739 0 0.29222542489931519 -0.060978945333093171 0 0.30201438303726968 -0.075929904193525521 0 0.27927949511770961 -0.070851454938488739 0 0.30201438303726968 -0.075929904193525521 0 0.28691460331806928 -0.079185378374353493 0 0.27927949511770961 -0.070851454938488739 0 0.28691460331806928 -0.079185378374353493 0 0.27927949511770961 -0.070851454938488739 0 0.27809334201771629 -0.079209584513290715 0 0.28691460331806928 -0.079185378374353493 0 0.27927949511770961 -0.070851454938488739 0 0.27927949511770961 -0.070851454938488739 0 0.27868582307562201 -0.055886184139343542 0 0.29222542489931519 -0.060978945333093171 0 0.31943204723016899 -0.10139701157958859 0 0.3092169746865393 -0.1198258623704429 0 0.30306705175182019 -0.101009202806625 0 0.3092169746865393 -0.1198258623704429 0 0.30306705175182019 -0.101009202806625 0 0.28879183359809052 -0.10393054527906551 0 0.31943204723016899 -0.10139701157958859 0 0.31117343018006932 -0.08835554327446378 0 0.30306705175182019 -0.101009202806625 0 0.28879183359809052 -0.10393054527906551 0 0.28255992184413548 -0.11730154926539781 0 0.27267591943638608 -0.1048970298088977 0 0.29442961060618023 -0.089764156713605506 0 0.28879183359809052 -0.10393054527906551 0 0.27734124638624891 -0.089737863242296378 0 0.29442961060618023 -0.089764156713605506 0 0.30306705175182019 -0.101009202806625 0 0.28879183359809052 -0.10393054527906551 0 0.3092169746865393 -0.1198258623704429 0 0.28255992184413548 -0.11730154926539781 0 0.3092169746865393 -0.1198258623704429 0 0.28879183359809052 -0.10393054527906551 0 0.28255992184413548 -0.11730154926539781 0 0.3092169746865393 -0.1198258623704429 0 0.28255992184413548 -0.11730154926539781 0 0.28721398294742878 -0.13035474923543569 0 0.28255992184413548 -0.11730154926539781 0 0.26776517015272971 -0.1222840496799191 0 0.28721398294742878 -0.13035474923543569 0 0.28255992184413548 -0.11730154926539781 0 0.26776517015272971 -0.1222840496799191 0 0.27267591943638608 -0.1048970298088977 0 0.26776517015272971 -0.1222840496799191 0 0.27267591943638608 -0.1048970298088977 0 0.26047800574605201 -0.11084537767631369 0 0.28879183359809052 -0.10393054527906551 0 0.27267591943638608 -0.1048970298088977 0 0.27734124638624891 -0.089737863242296378 0 0.27267591943638608 -0.1048970298088977 0 0.27734124638624891 -0.089737863242296378 0 0.26256105175446781 -0.092679464148907056 0 0.25771864553297669 -0.099620140202181948 0 0.26047800574605201 -0.11084537767631369 0 0.24375228786211539 -0.116580291014256 0 0.27267591943638608 -0.1048970298088977 0 0.25771864553297669 -0.099620140202181948 0 0.26256105175446781 -0.092679464148907056 0 0.25771864553297669 -0.099620140202181948 0 0.25304747237378489 -0.090741332181114118 0 0.24292322406264641 -0.096552741650977186 0 0.25771864553297669 -0.099620140202181948 0 0.26256105175446781 -0.092679464148907056 0 0.25304747237378489 -0.090741332181114118 0 0.27267591943638608 -0.1048970298088977 0 0.25771864553297669 -0.099620140202181948 0 0.26047800574605201 -0.11084537767631369 0 0.26776517015272971 -0.1222840496799191 0 0.26153006621115998 -0.13421007507225571 0 0.24375228786211539 -0.116580291014256 0 0.26776517015272971 -0.1222840496799191 0 0.24375228786211539 -0.116580291014256 0 0.26776517015272971 -0.1222840496799191 0 0.26047800574605201 -0.11084537767631369 0 0.24375228786211539 -0.116580291014256 0 0.27927949511770961 -0.070851454938488739 0 0.25811154610651499 -0.066123023671663908 0 0.26329678137076351 -0.053405898285071182 0 0.27927949511770961 -0.070851454938488739 0 0.25811154610651499 -0.066123023671663908 0 0.26883802324883782 -0.077063641498024305 0 0.27927949511770961 -0.070851454938488739 0 0.25811154610651499 -0.066123023671663908 0 0.26883802324883782 -0.077063641498024305 0 0.27927949511770961 -0.070851454938488739 0 0.27809334201771629 -0.079209584513290715 0 0.26883802324883782 -0.077063641498024305 0 0.27809334201771629 -0.079209584513290715 0 0.27734124638624891 -0.089737863242296378 0 0.26883802324883782 -0.077063641498024305 0 0.27734124638624891 -0.089737863242296378 0 0.25202197504294188 -0.078400955310045109 0 0.28691460331806928 -0.079185378374353493 0 0.27809334201771629 -0.079209584513290715 0 0.27734124638624891 -0.089737863242296378 0 0.27734124638624891 -0.089737863242296378 0 0.26256105175446781 -0.092679464148907056 0 0.25202197504294188 -0.078400955310045109 0 0.27734124638624891 -0.089737863242296378 0 0.25202197504294188 -0.078400955310045109 0 0.26256105175446781 -0.092679464148907056 0 0.25304747237378489 -0.090741332181114118 0 0.25202197504294188 -0.078400955310045109 0 0.25304747237378489 -0.090741332181114118 0 0.25202197504294188 -0.078400955310045109 0 0.24624903761231479 -0.086847438891893419 0 0.26883802324883782 -0.077063641498024305 0 0.25202197504294188 -0.078400955310045109 0 0.25811154610651499 -0.066123023671663908 0 0.25811154610651499 -0.066123023671663908 0 0.26329678137076351 -0.053405898285071182 0 0.24870160087168189 -0.052882304334001928 0 0.26329678137076351 -0.053405898285071182 0 0.24870160087168189 -0.052882304334001928 0 0.24731406762381819 -0.035960341631652723 0 0.27927949511770961 -0.070851454938488739 0 0.26329678137076351 -0.053405898285071182 0 0.27868582307562201 -0.055886184139343542 0 0.27927949511770961 -0.070851454938488739 0 0.26329678137076351 -0.053405898285071182 0 0.26329678137076351 -0.053405898285071182 0 0.27868582307562201 -0.055886184139343542 0 0.27337213238318842 -0.044040078526876879 0 0.27868582307562201 -0.055886184139343542 0 0.27337213238318842 -0.044040078526876879 0 0.28525528160713332 -0.050154543613187753 0 0.26329678137076351 -0.053405898285071182 0 0.27337213238318842 -0.044040078526876879 0 0.26311483972878968 -0.036713614733010089 0 0.27337213238318842 -0.044040078526876879 0 0.27217486102646721 -0.027861542379398439 0 0.28494473946257981 -0.034556038004921102 0 0.27337213238318842 -0.044040078526876879 0 0.26311483972878968 -0.036713614733010089 0 0.27217486102646721 -0.027861542379398439 0 0.27337213238318842 -0.044040078526876879 0 0.28525528160713332 -0.050154543613187753 0 0.28494473946257981 -0.034556038004921102 0 0.26311483972878968 -0.036713614733010089 0 0.25941635623971138 -0.02230021284205122 0 0.24731406762381819 -0.035960341631652723 0 0.26329678137076351 -0.053405898285071182 0 0.24731406762381819 -0.035960341631652723 0 0.26329678137076351 -0.053405898285071182 0 0.26311483972878968 -0.036713614733010089 0 0.24731406762381819 -0.035960341631652723 0 0.25941635623971138 -0.02230021284205122 0 0.24731406762381819 -0.035960341631652723 0 0.2482857443068576 -0.021714794414400052 0 0.25941635623971138 -0.02230021284205122 0 0.25508119948702751 -0.010083838205662381 0 0.2482857443068576 -0.021714794414400052 0 0.26311483972878968 -0.036713614733010089 0 0.25941635623971138 -0.02230021284205122 0 0.27217486102646721 -0.027861542379398439 0 0.2541426920980116 -0.0036136263454906951 0 0.25508119948702751 -0.010083838205662381 0 0.24138147174972829 -0.0061427828714447699 0 0.2541426920980116 -0.0036136263454906951 0 0.25508119948702751 -0.010083838205662381 0 0.26047117107291767 -0.0019720443344692288 0 0.25446675038947358 0.0029162606258486688 0 0.2541426920980116 -0.0036136263454906951 0 0.26047117107291767 -0.0019720443344692288 0 0.25941635623971138 -0.02230021284205122 0 0.25508119948702751 -0.010083838205662381 0 0.26474460583379889 -0.01023883548432745 0 0.25941635623971138 -0.02230021284205122 0 0.26474460583379889 -0.01023883548432745 0 0.27166734417845928 -0.01430021117376327 0 0.25508119948702751 -0.010083838205662381 0 0.26474460583379889 -0.01023883548432745 0 0.26047117107291767 -0.0019720443344692288 0 0.26474460583379889 -0.01023883548432745 0 0.26047117107291767 -0.0019720443344692288 0 0.27708695819087842 -0.0025378708656911609 0 0.26474460583379889 -0.01023883548432745 0 0.27166734417845928 -0.01430021117376327 0 0.27708695819087842 -0.0025378708656911609 0 0.27166734417845928 -0.01430021117376327 0 0.27708695819087842 -0.0025378708656911609 0 0.28469269166600031 -0.01545933141113482 0 0.27217486102646721 -0.027861542379398439 0 0.28469269166600031 -0.01545933141113482 0 0.28494473946257981 -0.034556038004921102 0 0.25941635623971138 -0.02230021284205122 0 0.27166734417845928 -0.01430021117376327 0 0.27217486102646721 -0.027861542379398439 0 0.27166734417845928 -0.01430021117376327 0 0.27217486102646721 -0.027861542379398439 0 0.28469269166600031 -0.01545933141113482 0 0.28469269166600031 -0.01545933141113482 0 0.29727596499766062 -0.023933315692393788 0 0.28494473946257981 -0.034556038004921102 0 0.30352242257352219 0.0039185454548519476 0 0.28469269166600031 -0.01545933141113482 0 0.29727596499766062 -0.023933315692393788 0 0.30352242257352219 0.0039185454548519476 0 0.27708695819087842 -0.0025378708656911609 0 0.28469269166600031 -0.01545933141113482 0 0.30352242257352219 0.0039185454548519476 0 0.32469666258817742 -0.019557632270551 0 0.29727596499766062 -0.023933315692393788 0 0.32469666258817742 -0.019557632270551 0 0.31326255248553708 -0.043768501277314603 0 0.29727596499766062 -0.023933315692393788 0 0.31326255248553708 -0.043768501277314603 0 0.29727596499766062 -0.023933315692393788 0 0.2968975050950291 -0.045887416406534938 0 0.31326255248553708 -0.043768501277314603 0 0.29727596499766062 -0.023933315692393788 0 0.31326255248553708 -0.043768501277314603 0 0.2968975050950291 -0.045887416406534938 0 0.31014365419524398 -0.06072536978512106 0 0.2968975050950291 -0.045887416406534938 0 0.31014365419524398 -0.06072536978512106 0 0.29222542489931519 -0.060978945333093171 0 0.2968975050950291 -0.045887416406534938 0 0.29222542489931519 -0.060978945333093171 0 0.28525528160713332 -0.050154543613187753 0 0.27868582307562201 -0.055886184139343542 0 0.29222542489931519 -0.060978945333093171 0 0.28525528160713332 -0.050154543613187753 0 0.2968975050950291 -0.045887416406534938 0 0.28525528160713332 -0.050154543613187753 0 0.28494473946257981 -0.034556038004921102 0 0.29727596499766062 -0.023933315692393788 0 0.2968975050950291 -0.045887416406534938 0 0.28494473946257981 -0.034556038004921102 0 0.29579617193404978 -0.19432558104056491 0 0.30588539897632072 -0.22256652654210629 0 0.2776594049058328 -0.2175861504380624 0 0.29579617193404978 -0.19432558104056491 0 0.2776594049058328 -0.2175861504380624 0 0.2764107852420567 -0.19644220614923899 0 0.29579617193404978 -0.19432558104056491 0 0.2764107852420567 -0.19644220614923899 0 0.2792899687438003 -0.18116405860585089 0 0.29579617193404978 -0.19432558104056491 0 0.31045946319455608 -0.20263901644370941 0 0.31057073564158039 -0.17760626025882659 0 0.29579617193404978 -0.19432558104056491 0 0.30588539897632072 -0.22256652654210629 0 0.31045946319455608 -0.20263901644370941 0 0.30588539897632072 -0.22256652654210629 0 0.32020032842118662 -0.2136972324735969 0 0.29579617193404978 -0.19432558104056491 0 0.31045946319455608 -0.20263901644370941 0 0.30588539897632072 -0.22256652654210629 0 0.29681701546221179 -0.23419681124085551 0 0.31597462601859122 -0.25080747204364812 0 0.30111904597271899 -0.2536098058489899 0 0.30588539897632072 -0.22256652654210629 0 0.29681701546221179 -0.23419681124085551 0 0.31597462601859122 -0.25080747204364812 0 0.30588539897632072 -0.22256652654210629 0 0.31597462601859122 -0.25080747204364812 0 0.29681701546221179 -0.23419681124085551 0 0.31597462601859122 -0.25080747204364812 0 0.29681701546221179 -0.23419681124085551 0 0.30111904597271899 -0.2536098058489899 0 0.28456511698073272 -0.25518130134833977 0 0.29681701546221179 -0.23419681124085551 0 0.27830026498091959 -0.23745462562099759 0 0.28456511698073272 -0.25518130134833977 0 0.30588539897632072 -0.22256652654210629 0 0.29681701546221179 -0.23419681124085551 0 0.2776594049058328 -0.2175861504380624 0 0.29681701546221179 -0.23419681124085551 0 0.27830026498091959 -0.23745462562099759 0 0.2776594049058328 -0.2175861504380624 0 0.29681701546221179 -0.23419681124085551 0 0.2776594049058328 -0.2175861504380624 0 0.26584409390649738 -0.23415831621220631 0 0.27830026498091959 -0.23745462562099759 0 0.2776594049058328 -0.2175861504380624 0 0.26584409390649738 -0.23415831621220631 0 0.25658827463044448 -0.2222138965281123 0 0.2776594049058328 -0.2175861504380624 0 0.27830026498091959 -0.23745462562099759 0 0.28456511698073272 -0.25518130134833977 0 0.26629969424128969 -0.25192769388052821 0 0.26584409390649738 -0.23415831621220631 0 0.27830026498091959 -0.23745462562099759 0 0.26629969424128969 -0.25192769388052821 0 0.26584409390649738 -0.23415831621220631 0 0.25037283077400019 -0.2416092145933311 0 0.26629969424128969 -0.25192769388052821 0 0.25037283077400019 -0.2416092145933311 0 0.25658827463044448 -0.2222138965281123 0 0.2446094219978813 -0.2276121794933563 0 0.26584409390649738 -0.23415831621220631 0 0.25037283077400019 -0.2416092145933311 0 0.25658827463044448 -0.2222138965281123 0 0.25658827463044448 -0.2222138965281123 0 0.2776594049058328 -0.2175861504380624 0 0.25850179434945381 -0.20097548963526929 0 0.25658827463044448 -0.2222138965281123 0 0.25850179434945381 -0.20097548963526929 0 0.23907695871134879 -0.21289681242661959 0 0.2776594049058328 -0.2175861504380624 0 0.25850179434945381 -0.20097548963526929 0 0.2776594049058328 -0.2175861504380624 0 0.2764107852420567 -0.19644220614923899 0 0.25850179434945381 -0.20097548963526929 0 0.2764107852420567 -0.19644220614923899 0 0.25850179434945381 -0.20097548963526929 0 0.26539786460737957 -0.18100391429238191 0 0.25850179434945381 -0.20097548963526929 0 0.26539786460737957 -0.18100391429238191 0 0.23934418379307471 -0.18436482883247621 0 0.26539786460737957 -0.18100391429238191 0 0.25449645062408999 -0.16331052089379791 0 0.23934418379307471 -0.18436482883247621 0 0.26539786460737957 -0.18100391429238191 0 0.25449645062408999 -0.16331052089379791 0 0.27043371620885309 -0.16438603764101259 0 0.25449645062408999 -0.16331052089379791 0 0.27043371620885309 -0.16438603764101259 0 0.2633734196266177 -0.15149826902969399 0 0.27043371620885309 -0.16438603764101259 0 0.2792899687438003 -0.18116405860585089 0 0.28570694489177878 -0.1660846355390232 0 0.27043371620885309 -0.16438603764101259 0 0.27930784456020519 -0.15183985913025491 0 0.28570694489177878 -0.1660846355390232 0 0.26539786460737957 -0.18100391429238191 0 0.27043371620885309 -0.16438603764101259 0 0.2792899687438003 -0.18116405860585089 0 0.2764107852420567 -0.19644220614923899 0 0.26539786460737957 -0.18100391429238191 0 0.2792899687438003 -0.18116405860585089 0 0.26153006621115998 -0.13421007507225571 0 0.24375228786211539 -0.116580291014256 0 0.24955680073527009 -0.143898101237383 0 0.26153006621115998 -0.13421007507225571 0 0.24375228786211539 -0.116580291014256 0 0.25449645062408999 -0.16331052089379791 0 0.2633734196266177 -0.15149826902969399 0 0.24955680073527009 -0.143898101237383 0 0.26153006621115998 -0.13421007507225571 0 0.2633734196266177 -0.15149826902969399 0 0.24955680073527009 -0.143898101237383 0 0.27043371620885309 -0.16438603764101259 0 0.2633734196266177 -0.15149826902969399 0 0.27930784456020519 -0.15183985913025491 0 0.27561771784950778 -0.13784369003748159 0 0.28570694489177878 -0.1660846355390232 0 0.26153006621115998 -0.13421007507225571 0 0.27930784456020519 -0.15183985913025491 0 0.27561771784950778 -0.13784369003748159 0 0.27930784456020519 -0.15183985913025491 0 0.27561771784950778 -0.13784369003748159 0 0.28570694489177878 -0.1660846355390232 0 0.26153006621115998 -0.13421007507225571 0 0.2633734196266177 -0.15149826902969399 0 0.27930784456020519 -0.15183985913025491 0 0.26153006621115998 -0.13421007507225571 0 0.27930784456020519 -0.15183985913025491 0 0.26776517015272971 -0.1222840496799191 0 0.27561771784950778 -0.13784369003748159 0 0.28721398294742878 -0.13035474923543569 0 0.26776517015272971 -0.1222840496799191 0 0.26153006621115998 -0.13421007507225571 0 0.27561771784950778 -0.13784369003748159 0 0.27561771784950778 -0.13784369003748159 0 0.28721398294742878 -0.13035474923543569 0 0.28891568690104508 -0.14625428249578579 0 0.28721398294742878 -0.13035474923543569 0 0.28891568690104508 -0.14625428249578579 0 0.29920842625061578 -0.1386190615635868 0 0.28891568690104508 -0.14625428249578579 0 0.29920842625061578 -0.1386190615635868 0 0.29789574789403661 -0.15876522012859751 0 0.27561771784950778 -0.13784369003748159 0 0.28891568690104508 -0.14625428249578579 0 0.28570694489177878 -0.1660846355390232 0 0.30985117626407932 -0.1486491484402036 0 0.29920842625061578 -0.1386190615635868 0 0.29789574789403661 -0.15876522012859751 0 0.30985117626407932 -0.1486491484402036 0 0.29789574789403661 -0.15876522012859751 0 0.3134799250960158 -0.16133035304856411 0 0.30985117626407932 -0.1486491484402036 0 0.29920842625061578 -0.1386190615635868 0 0.31980994510895661 -0.13408045692276491 0 0.3092169746865393 -0.1198258623704429 0 0.28721398294742878 -0.13035474923543569 0 0.29920842625061578 -0.1386190615635868 0 0.3092169746865393 -0.1198258623704429 0 0.29920842625061578 -0.1386190615635868 0 0.31980994510895661 -0.13408045692276491 0 0.29579617193404978 -0.19432558104056491 0 0.2792899687438003 -0.18116405860585089 0 0.28570694489177878 -0.1660846355390232 0 0.29579617193404978 -0.19432558104056491 0 0.28570694489177878 -0.1660846355390232 0 0.29579617193404978 -0.19432558104056491 0 0.28570694489177878 -0.1660846355390232 0 0.29784246694311001 -0.17248502473641619 0 0.28891568690104508 -0.14625428249578579 0 0.28570694489177878 -0.1660846355390232 0 0.29789574789403661 -0.15876522012859751 0 0.28570694489177878 -0.1660846355390232 0 0.29789574789403661 -0.15876522012859751 0 0.29784246694311001 -0.17248502473641619 0 0.29789574789403661 -0.15876522012859751 0 0.31057073564158039 -0.17760626025882659 0 0.3134799250960158 -0.16133035304856411 0 0.29789574789403661 -0.15876522012859751 0 0.31057073564158039 -0.17760626025882659 0 0.29784246694311001 -0.17248502473641619 0 0.29789574789403661 -0.15876522012859751 0 0.31057073564158039 -0.17760626025882659 0 0.29579617193404978 -0.19432558104056491 0 0.31057073564158039 -0.17760626025882659 0 0.29784246694311001 -0.17248502473641619 0 0.31057073564158039 -0.17760626025882659 0 0.33117051957001492 -0.16690810347740409 0 0.33960500058918919 -0.18923554211963439 0 0.31057073564158039 -0.17760626025882659 0 0.32324572338912438 -0.19644730038905581 0 0.3134799250960158 -0.16133035304856411 0 0.33117051957001492 -0.16690810347740409 0 0.32297156368297691 -0.15191279281852399 0 0.31057073564158039 -0.17760626025882659 0 0.3134799250960158 -0.16133035304856411 0 0.33117051957001492 -0.16690810347740409 0 0.33117051957001492 -0.16690810347740409 0 0.34312821131240068 -0.1490342399984359 0 0.35150112372442083 -0.17432517416681301 0 0.33117051957001492 -0.16690810347740409 0 0.35150112372442083 -0.17432517416681301 0 0.33960500058918919 -0.18923554211963439 0 0.33587402752894302 -0.122350175475488 0 0.3092169746865393 -0.1198258623704429 0 0.31980994510895661 -0.13408045692276491 0 0.30985117626407932 -0.1486491484402036 0 0.31980994510895661 -0.13408045692276491 0 0.32297156368297691 -0.15191279281852399 0 0.30985117626407932 -0.1486491484402036 0 0.3134799250960158 -0.16133035304856411 0 0.32297156368297691 -0.15191279281852399 0 0.33117051957001492 -0.16690810347740409 0 0.32297156368297691 -0.15191279281852399 0 0.34312821131240068 -0.1490342399984359 0 0.31980994510895661 -0.13408045692276491 0 0.32297156368297691 -0.15191279281852399 0 0.34312821131240068 -0.1490342399984359 0 0.33587402752894302 -0.122350175475488 0 0.31980994510895661 -0.13408045692276491 0 0.34312821131240068 -0.1490342399984359 0 0.36253108037134668 -0.1248744885805331 0 0.33587402752894302 -0.122350175475488 0 0.3555623608711499 -0.1359942506039106 0 0.33587402752894302 -0.122350175475488 0 0.34312821131240068 -0.1490342399984359 0 0.3555623608711499 -0.1359942506039106 0 0.34312821131240068 -0.1490342399984359 0 0.3555623608711499 -0.1359942506039106 0 0.36858459771950869 -0.15733985743645959 0 0.3555623608711499 -0.1359942506039106 0 0.36652086356581781 -0.12946943863695781 0 0.36858459771950869 -0.15733985743645959 0 0.36652086356581781 -0.12946943863695781 0 0.36858459771950869 -0.15733985743645959 0 0.36652086356581781 -0.12946943863695781 0 0.36858459771950869 -0.15733985743645959 0 0.3787995421462832 -0.1425544525875144 0 0.36652086356581781 -0.12946943863695781 0 0.37808333446084269 -0.1309391893982525 0 0.3787995421462832 -0.1425544525875144 0 0.36253108037134668 -0.1248744885805331 0 0.36652086356581781 -0.12946943863695781 0 0.37808333446084269 -0.1309391893982525 0 0.36253108037134668 -0.1248744885805331 0 0.3555623608711499 -0.1359942506039106 0 0.36652086356581781 -0.12946943863695781 0 0.35150112372442083 -0.17432517416681301 0 0.37064833187319962 -0.1852102762359614 0 0.35587008128221181 -0.19822302573298239 0 0.35150112372442083 -0.17432517416681301 0 0.35587008128221181 -0.19822302573298239 0 0.33960500058918919 -0.18923554211963439 0 0.34312821131240068 -0.1490342399984359 0 0.35150112372442083 -0.17432517416681301 0 0.36858459771950869 -0.15733985743645959 0 0.36858459771950869 -0.15733985743645959 0 0.37064833187319962 -0.1852102762359614 0 0.35150112372442083 -0.17432517416681301 0 0.36858459771950869 -0.15733985743645959 0 0.37064833187319962 -0.1852102762359614 0 0.36858459771950869 -0.15733985743645959 0 0.37064833187319962 -0.1852102762359614 0 0.3834788620725188 -0.17954848884060079 0 0.37064833187319962 -0.1852102762359614 0 0.37271206602689039 -0.21308069503546309 0 0.38139900114097952 -0.20469292352659629 0 0.37064833187319962 -0.1852102762359614 0 0.37271206602689039 -0.21308069503546309 0 0.37064833187319962 -0.1852102762359614 0 0.37271206602689039 -0.21308069503546309 0 0.35587008128221181 -0.19822302573298239 0 0.37271206602689039 -0.21308069503546309 0 0.35603419272415182 -0.2169366224123114 0 0.35587008128221181 -0.19822302573298239 0 0.35603419272415182 -0.2169366224123114 0 0.35587008128221181 -0.19822302573298239 0 0.33592071113666833 -0.21528834051928489 0 0.35587008128221181 -0.19822302573298239 0 0.33960500058918919 -0.18923554211963439 0 0.33592071113666833 -0.21528834051928489 0 0.33960500058918919 -0.18923554211963439 0 0.33592071113666833 -0.21528834051928489 0 0.32324572338912438 -0.19644730038905581 0 0.33592071113666833 -0.21528834051928489 0 0.32324572338912438 -0.19644730038905581 0 0.33592071113666833 -0.21528834051928489 0 0.32020032842118662 -0.2136972324735969 0 0.32324572338912438 -0.19644730038905581 0 0.31045946319455608 -0.20263901644370941 0 0.32020032842118662 -0.2136972324735969 0 0.32324572338912438 -0.19644730038905581 0 0.31057073564158039 -0.17760626025882659 0 0.33960500058918919 -0.18923554211963439 0 0.32324572338912438 -0.19644730038905581 0 0.31045946319455608 -0.20263901644370941 0 0.31057073564158039 -0.17760626025882659 0 0.32324572338912438 -0.19644730038905581 0 0.32549034540926353 -0.23154497847382799 0 0.33517615116993849 -0.24743488902137309 0 0.31597462601859122 -0.25080747204364812 0 0.30588539897632072 -0.22256652654210629 0 0.32549034540926353 -0.23154497847382799 0 0.31597462601859122 -0.25080747204364812 0 0.30588539897632072 -0.22256652654210629 0 0.32020032842118662 -0.2136972324735969 0 0.32549034540926353 -0.23154497847382799 0 0.33592071113666833 -0.21528834051928489 0 0.32020032842118662 -0.2136972324735969 0 0.32549034540926353 -0.23154497847382799 0 0.33592071113666833 -0.21528834051928489 0 0.32549034540926353 -0.23154497847382799 0 0.34859569888421221 -0.23412938064951411 0 0.33592071113666833 -0.21528834051928489 0 0.34859569888421221 -0.23412938064951411 0 0.32549034540926353 -0.23154497847382799 0 0.33517615116993849 -0.24743488902137309 0 0.34859569888421221 -0.23412938064951411 0 0.33517615116993849 -0.24743488902137309 0 0.34859569888421221 -0.23412938064951411 0 0.35185333732921159 -0.25428502110151557 0 0.34859569888421221 -0.23412938064951411 0 0.36075586336603621 -0.2426037127049111 0 0.35185333732921159 -0.25428502110151557 0 0.34859569888421221 -0.23412938064951411 0 0.36291464790978972 -0.22902601310760301 0 0.36075586336603621 -0.2426037127049111 0 0.35603419272415182 -0.2169366224123114 0 0.34859569888421221 -0.23412938064951411 0 0.36291464790978972 -0.22902601310760301 0 0.35603419272415182 -0.2169366224123114 0 0.33592071113666833 -0.21528834051928489 0 0.34859569888421221 -0.23412938064951411 0 0.37271206602689039 -0.21308069503546309 0 0.35603419272415182 -0.2169366224123114 0 0.36291464790978972 -0.22902601310760301 0 0.37271206602689039 -0.21308069503546309 0 0.37477580018058132 -0.24095111383496479 0 0.37555308153547928 -0.22286467051027881 0 0.37271206602689039 -0.21308069503546309 0 0.37477580018058132 -0.24095111383496479 0 0.37271206602689039 -0.21308069503546309 0 0.36291464790978972 -0.22902601310760301 0 0.37477580018058132 -0.24095111383496479 0 0.36075586336603621 -0.2426037127049111 0 0.37477580018058132 -0.24095111383496479 0 0.36563983252638571 -0.25462703483095822 0 0.36291464790978972 -0.22902601310760301 0 0.36075586336603621 -0.2426037127049111 0 0.37477580018058132 -0.24095111383496479 0 0.37477580018058132 -0.24095111383496479 0 0.39321551516580561 -0.23618023300957031 0 0.38725375881062551 -0.25185160038302579 0 0.39321551516580561 -0.23618023300957031 0 0.41087794879613182 -0.2494957955088617 0 0.40741230325918792 -0.23450562481703699 0 0.39321551516580561 -0.23618023300957031 0 0.41087794879613182 -0.2494957955088617 0 0.39321551516580561 -0.23618023300957031 0 0.38725375881062551 -0.25185160038302579 0 0.39640803358832022 -0.25154779433757402 0 0.39321551516580561 -0.23618023300957031 0 0.41087794879613182 -0.2494957955088617 0 0.39640803358832022 -0.25154779433757402 0 0.4055308246994358 -0.22407667781788709 0 0.39424069285124719 -0.22310079746779379 0 0.40434357831770951 -0.21487406561090469 0 0.4055308246994358 -0.22407667781788709 0 0.39424069285124719 -0.22310079746779379 0 0.40741230325918792 -0.23450562481703699 0 0.39321551516580561 -0.23618023300957031 0 0.39424069285124719 -0.22310079746779379 0 0.40741230325918792 -0.23450562481703699 0 0.37477580018058132 -0.24095111383496479 0 0.39321551516580561 -0.23618023300957031 0 0.37555308153547928 -0.22286467051027881 0 0.39424069285124719 -0.22310079746779379 0 0.37555308153547928 -0.22286467051027881 0 0.38300691860546521 -0.21527996176244341 0 0.39321551516580561 -0.23618023300957031 0 0.37555308153547928 -0.22286467051027881 0 0.39321551516580561 -0.23618023300957031 0 0.39424069285124719 -0.22310079746779379 0 0.37555308153547928 -0.22286467051027881 0 0.37271206602689039 -0.21308069503546309 0 0.37555308153547928 -0.22286467051027881 0 0.38300691860546521 -0.21527996176244341 0 0.37271206602689039 -0.21308069503546309 0 0.38139900114097952 -0.20469292352659629 0 0.38300691860546521 -0.21527996176244341 0 0.38139900114097952 -0.20469292352659629 0 0.39078770323730427 -0.19674260859680251 0 0.39112975147272949 -0.2126607222720846 0 0.38139900114097952 -0.20469292352659629 0 0.38300691860546521 -0.21527996176244341 0 0.39112975147272949 -0.2126607222720846 0 0.39424069285124719 -0.22310079746779379 0 0.38300691860546521 -0.21527996176244341 0 0.39112975147272949 -0.2126607222720846 0 0.37064833187319962 -0.1852102762359614 0 0.38139900114097952 -0.20469292352659629 0 0.39078770323730427 -0.19674260859680251 0 0.39078770323730427 -0.19674260859680251 0 0.40475141021500721 -0.1910589369573561 0 0.39510197637232292 -0.1839605883432579 0 0.39078770323730427 -0.19674260859680251 0 0.40426546228868082 -0.20108352786525729 0 0.397631623829106 -0.20634023108626229 0 0.39078770323730427 -0.19674260859680251 0 0.40426546228868082 -0.20108352786525729 0 0.40475141021500721 -0.1910589369573561 0 0.39078770323730427 -0.19674260859680251 0 0.39112975147272949 -0.2126607222720846 0 0.397631623829106 -0.20634023108626229 0 0.39112975147272949 -0.2126607222720846 0 0.397631623829106 -0.20634023108626229 0 0.40434357831770951 -0.21487406561090469 0 0.39424069285124719 -0.22310079746779379 0 0.39112975147272949 -0.2126607222720846 0 0.40434357831770951 -0.21487406561090469 0 0.40426546228868082 -0.20108352786525729 0 0.397631623829106 -0.20634023108626229 0 0.40434357831770951 -0.21487406561090469 0 0.40434357831770951 -0.21487406561090469 0 0.41713092845542321 -0.20900944133272009 0 0.41612672436959858 -0.22382622337581301 0 0.40426546228868082 -0.20108352786525729 0 0.40434357831770951 -0.21487406561090469 0 0.41713092845542321 -0.20900944133272009 0 0.41713092845542321 -0.20900944133272009 0 0.42330136258736267 -0.2174116668913772 0 0.41612672436959858 -0.22382622337581301 0 0.40475141021500721 -0.1910589369573561 0 0.41487892771890261 -0.19826025474908979 0 0.4146572714410397 -0.186958864794112 0 0.40426546228868082 -0.20108352786525729 0 0.41713092845542321 -0.20900944133272009 0 0.41487892771890261 -0.19826025474908979 0 0.40426546228868082 -0.20108352786525729 0 0.40475141021500721 -0.1910589369573561 0 0.41487892771890261 -0.19826025474908979 0 0.41713092845542321 -0.20900944133272009 0 0.41487892771890261 -0.19826025474908979 0 0.42701217502226602 -0.19751647228806199 0 0.41487892771890261 -0.19826025474908979 0 0.42053294087941678 -0.1923617771039739 0 0.42701217502226602 -0.19751647228806199 0 0.42053294087941678 -0.1923617771039739 0 0.4146572714410397 -0.186958864794112 0 0.42558338933545942 -0.1867115165846317 0 0.41487892771890261 -0.19826025474908979 0 0.42053294087941678 -0.1923617771039739 0 0.4146572714410397 -0.186958864794112 0 0.42701217502226602 -0.19751647228806199 0 0.43844209377108118 -0.18689286854296691 0 0.44355474576021348 -0.2050869029196882 0 0.42053294087941678 -0.1923617771039739 0 0.42701217502226602 -0.19751647228806199 0 0.42558338933545942 -0.1867115165846317 0 0.42701217502226602 -0.19751647228806199 0 0.42558338933545942 -0.1867115165846317 0 0.43844209377108118 -0.18689286854296691 0 0.42701217502226602 -0.19751647228806199 0 0.43006687167525981 -0.21185300334864521 0 0.44355474576021348 -0.2050869029196882 0 0.41713092845542321 -0.20900944133272009 0 0.42330136258736267 -0.2174116668913772 0 0.43006687167525981 -0.21185300334864521 0 0.42330136258736267 -0.2174116668913772 0 0.43006687167525981 -0.21185300334864521 0 0.42988092584916948 -0.2249579995083304 0 0.41713092845542321 -0.20900944133272009 0 0.42701217502226602 -0.19751647228806199 0 0.43006687167525981 -0.21185300334864521 0 0.43006687167525981 -0.21185300334864521 0 0.42988092584916948 -0.2249579995083304 0 0.44009267276725389 -0.2176624614444449 0 0.42330136258736267 -0.2174116668913772 0 0.42988092584916948 -0.2249579995083304 0 0.41612672436959858 -0.22382622337581301 0 0.42988092584916948 -0.2249579995083304 0 0.43458399188612801 -0.2397076170126072 0 0.42159465327244361 -0.23640953485310751 0 0.42988092584916948 -0.2249579995083304 0 0.42159465327244361 -0.23640953485310751 0 0.41612672436959858 -0.22382622337581301 0 0.42988092584916948 -0.2249579995083304 0 0.43458399188612801 -0.2397076170126072 0 0.44416109061426973 -0.22983272991065171 0 0.43458399188612801 -0.2397076170126072 0 0.42656562700980838 -0.24831468624349931 0 0.4372088962240912 -0.25169219704383999 0 0.43458399188612801 -0.2397076170126072 0 0.42656562700980838 -0.24831468624349931 0 0.42159465327244361 -0.23640953485310751 0 0.42656562700980838 -0.24831468624349931 0 0.42159465327244361 -0.23640953485310751 0 0.41087794879613182 -0.2494957955088617 0 0.42159465327244361 -0.23640953485310751 0 0.41087794879613182 -0.2494957955088617 0 0.40741230325918792 -0.23450562481703699 0 0.4055308246994358 -0.22407667781788709 0 0.40741230325918792 -0.23450562481703699 0 0.41612672436959858 -0.22382622337581301 0 0.4055308246994358 -0.22407667781788709 0 0.40434357831770951 -0.21487406561090469 0 0.41612672436959858 -0.22382622337581301 0 0.42159465327244361 -0.23640953485310751 0 0.40741230325918792 -0.23450562481703699 0 0.41612672436959858 -0.22382622337581301 0 0.39823574772599779 -0.11763079726210079 0 0.40257569972698831 -0.13396225485532559 0 0.38918813321375051 -0.12739880168557821 0 0.40257569972698831 -0.13396225485532559 0 0.38918813321375051 -0.12739880168557821 0 0.39017348084279901 -0.13955387731924049 0 0.38918813321375051 -0.12739880168557821 0 0.37808333446084269 -0.1309391893982525 0 0.39017348084279901 -0.13955387731924049 0 0.37720890243704291 -0.12310924361699779 0 0.36253108037134668 -0.1248744885805331 0 0.38918813321375051 -0.12739880168557821 0 0.36253108037134668 -0.1248744885805331 0 0.38918813321375051 -0.12739880168557821 0 0.37808333446084269 -0.1309391893982525 0 0.36253108037134668 -0.1248744885805331 0 0.38918813321375051 -0.12739880168557821 0 0.37808333446084269 -0.1309391893982525 0 0.39017348084279901 -0.13955387731924049 0 0.3787995421462832 -0.1425544525875144 0 0.36858459771950869 -0.15733985743645959 0 0.3787995421462832 -0.1425544525875144 0 0.38535727780346091 -0.1527557998392445 0 0.39017348084279901 -0.13955387731924049 0 0.3787995421462832 -0.1425544525875144 0 0.38535727780346091 -0.1527557998392445 0 0.40257569972698831 -0.13396225485532559 0 0.39822107621443897 -0.1501202070538992 0 0.41732028123257531 -0.14286435439753159 0 0.40257569972698831 -0.13396225485532559 0 0.39017348084279901 -0.13955387731924049 0 0.39822107621443897 -0.1501202070538992 0 0.39017348084279901 -0.13955387731924049 0 0.38535727780346091 -0.1527557998392445 0 0.39822107621443897 -0.1501202070538992 0 0.39822107621443897 -0.1501202070538992 0 0.39107178753907162 -0.16851380255406381 0 0.40713652226246821 -0.16744863749245631 0 0.39107178753907162 -0.16851380255406381 0 0.40713652226246821 -0.16744863749245631 0 0.38535727780346091 -0.1527557998392445 0 0.39822107621443897 -0.1501202070538992 0 0.39107178753907162 -0.16851380255406381 0 0.39107178753907162 -0.16851380255406381 0 0.40460499843718001 -0.17902112385493851 0 0.40713652226246821 -0.16744863749245631 0 0.36858459771950869 -0.15733985743645959 0 0.38535727780346091 -0.1527557998392445 0 0.39107178753907162 -0.16851380255406381 0 0.36858459771950869 -0.15733985743645959 0 0.39107178753907162 -0.16851380255406381 0 0.3834788620725188 -0.17954848884060079 0 0.39107178753907162 -0.16851380255406381 0 0.3834788620725188 -0.17954848884060079 0 0.39510197637232292 -0.1839605883432579 0 0.39078770323730427 -0.19674260859680251 0 0.3834788620725188 -0.17954848884060079 0 0.39510197637232292 -0.1839605883432579 0 0.37064833187319962 -0.1852102762359614 0 0.39078770323730427 -0.19674260859680251 0 0.3834788620725188 -0.17954848884060079 0 0.39107178753907162 -0.16851380255406381 0 0.39510197637232292 -0.1839605883432579 0 0.40460499843718001 -0.17902112385493851 0 0.40475141021500721 -0.1910589369573561 0 0.39510197637232292 -0.1839605883432579 0 0.40460499843718001 -0.17902112385493851 0 0.40475141021500721 -0.1910589369573561 0 0.40460499843718001 -0.17902112385493851 0 0.4146572714410397 -0.186958864794112 0 0.40460499843718001 -0.17902112385493851 0 0.41491102279317088 -0.17618591298838529 0 0.4146572714410397 -0.186958864794112 0 0.40460499843718001 -0.17902112385493851 0 0.41491102279317088 -0.17618591298838529 0 0.40713652226246821 -0.16744863749245631 0 0.41491102279317088 -0.17618591298838529 0 0.42527009306055918 -0.1746571334479238 0 0.4232012569858648 -0.16638347243084889 0 0.41491102279317088 -0.17618591298838529 0 0.42095079563492938 -0.18072636251124541 0 0.42527009306055918 -0.1746571334479238 0 0.41491102279317088 -0.17618591298838529 0 0.42095079563492938 -0.18072636251124541 0 0.4146572714410397 -0.186958864794112 0 0.42095079563492938 -0.18072636251124541 0 0.4146572714410397 -0.186958864794112 0 0.42558338933545942 -0.1867115165846317 0 0.43180268423531071 -0.1802632517690351 0 0.42527009306055918 -0.1746571334479238 0 0.44880083799057491 -0.164686103644653 0 0.42095079563492938 -0.18072636251124541 0 0.42558338933545942 -0.1867115165846317 0 0.43180268423531071 -0.1802632517690351 0 0.42558338933545942 -0.1867115165846317 0 0.43180268423531071 -0.1802632517690351 0 0.43844209377108118 -0.18689286854296691 0 0.42095079563492938 -0.18072636251124541 0 0.43180268423531071 -0.1802632517690351 0 0.42527009306055918 -0.1746571334479238 0 0.42527009306055918 -0.1746571334479238 0 0.4232012569858648 -0.16638347243084889 0 0.44880083799057491 -0.164686103644653 0 0.4232012569858648 -0.16638347243084889 0 0.43334283997313311 -0.15135273030925811 0 0.44880083799057491 -0.164686103644653 0 0.4232012569858648 -0.16638347243084889 0 0.44880083799057491 -0.164686103644653 0 0.42527009306055918 -0.1746571334479238 0 0.4232012569858648 -0.16638347243084889 0 0.4232012569858648 -0.16638347243084889 0 0.40713652226246821 -0.16744863749245631 0 0.41732028123257531 -0.14286435439753159 0 0.41491102279317088 -0.17618591298838529 0 0.4232012569858648 -0.16638347243084889 0 0.40713652226246821 -0.16744863749245631 0 0.4232012569858648 -0.16638347243084889 0 0.40713652226246821 -0.16744863749245631 0 0.4232012569858648 -0.16638347243084889 0 0.41732028123257531 -0.14286435439753159 0 0.39822107621443897 -0.1501202070538992 0 0.40713652226246821 -0.16744863749245631 0 0.41732028123257531 -0.14286435439753159 0 0.41732028123257531 -0.14286435439753159 0 0.43334283997313311 -0.15135273030925811 0 0.43763345530417341 -0.13584027725706749 0 0.4232012569858648 -0.16638347243084889 0 0.41732028123257531 -0.14286435439753159 0 0.43334283997313311 -0.15135273030925811 0 0.42916935431308728 -0.1205456085246996 0 0.41732028123257531 -0.14286435439753159 0 0.43763345530417341 -0.13584027725706749 0 0.42916935431308728 -0.1205456085246996 0 0.4435038969132965 -0.12540022695152131 0 0.43763345530417341 -0.13584027725706749 0 0.41143930547928681 -0.11934523636421419 0 0.42916935431308728 -0.1205456085246996 0 0.41732028123257531 -0.14286435439753159 0 0.41143930547928681 -0.11934523636421419 0 0.40257569972698831 -0.13396225485532559 0 0.41732028123257531 -0.14286435439753159 0 0.41143930547928681 -0.11934523636421419 0 0.41732028123257531 -0.14286435439753159 0 0.46257396642688631 -0.12529077885077469 0 0.46381730130484328 -0.1363472541609663 0 0.4585659370706795 -0.1308283620105129 0 0.46381730130484328 -0.1363472541609663 0 0.4585659370706795 -0.1308283620105129 0 0.45274550479158487 -0.1345999168850856 0 0.46381730130484328 -0.1363472541609663 0 0.45274550479158487 -0.1345999168850856 0 0.46138481906560302 -0.14686228775601681 0 0.46257396642688631 -0.12529077885077469 0 0.4585659370706795 -0.1308283620105129 0 0.45239247298790419 -0.125419693033265 0 0.4585659370706795 -0.1308283620105129 0 0.45239247298790419 -0.125419693033265 0 0.45274550479158487 -0.1345999168850856 0 0.45239247298790419 -0.125419693033265 0 0.4435038969132965 -0.12540022695152131 0 0.45274550479158487 -0.1345999168850856 0 0.4435038969132965 -0.12540022695152131 0 0.43763345530417341 -0.13584027725706749 0 0.45274550479158487 -0.1345999168850856 0 0.43763345530417341 -0.13584027725706749 0 0.45274550479158487 -0.1345999168850856 0 0.44678149142501389 -0.1466682631704162 0 0.43334283997313311 -0.15135273030925811 0 0.44678149142501389 -0.1466682631704162 0 0.44880083799057491 -0.164686103644653 0 0.44678149142501389 -0.1466682631704162 0 0.46138481906560302 -0.14686228775601681 0 0.44880083799057491 -0.164686103644653 0 0.43334283997313311 -0.15135273030925811 0 0.43763345530417341 -0.13584027725706749 0 0.44678149142501389 -0.1466682631704162 0 0.45274550479158487 -0.1345999168850856 0 0.44678149142501389 -0.1466682631704162 0 0.46138481906560302 -0.14686228775601681 0 0.46138481906560302 -0.14686228775601681 0 0.44880083799057491 -0.164686103644653 0 0.47440041899528501 -0.16298873485845719 0 0.44880083799057491 -0.164686103644653 0 0.46834799031954211 -0.17915452781490099 0 0.47440041899528501 -0.16298873485845719 0 0.44880083799057491 -0.164686103644653 0 0.47440041899528501 -0.16298873485845719 0 0.43180268423531071 -0.1802632517690351 0 0.44880083799057491 -0.164686103644653 0 0.43844209377108118 -0.18689286854296691 0 0.44880083799057491 -0.164686103644653 0 0.43844209377108118 -0.18689286854296691 0 0.45508032593701309 -0.1914137801830845 0 0.44880083799057491 -0.164686103644653 0 0.46834799031954211 -0.17915452781490099 0 0.45508032593701309 -0.1914137801830845 0 0.46834799031954211 -0.17915452781490099 0 0.48419704391512092 -0.17843144908975531 0 0.47440041899528501 -0.16298873485845719 0 0.46834799031954211 -0.17915452781490099 0 0.48419704391512092 -0.17843144908975531 0 0.47823681026078202 -0.19812675643970101 0 0.48419704391512092 -0.17843144908975531 0 0.49999999999999523 -0.16129136607226169 0 0.5 -0.1905958602634561 0 0.49999999999999523 -0.16129136607226169 0 0.47440041899528501 -0.16298873485845719 0 0.50000000000000067 -0.1547763741112759 0 0.48419704391512092 -0.17843144908975531 0 0.49999999999999523 -0.16129136607226169 0 0.47440041899528501 -0.16298873485845719 0 0.49999999999999523 -0.16129136607226169 0 0.47440041899528501 -0.16298873485845719 0 0.46138481906560302 -0.14686228775601681 0 0.47440041899528501 -0.16298873485845719 0 0.48128698321344371 -0.14003357648102521 0 0.46381730130484328 -0.1363472541609663 0 0.46138481906560302 -0.14686228775601681 0 0.48128698321344371 -0.14003357648102521 0 0.50000000000000067 -0.1547763741112759 0 0.48128698321344371 -0.14003357648102521 0 0.50000000000000067 -0.1547763741112759 0 0.5 -0.13349841451636779 0 0.48128698321344371 -0.14003357648102521 0 0.47440041899528501 -0.16298873485845719 0 0.50000000000000067 -0.1547763741112759 0 0.48128698321344371 -0.14003357648102521 0 0.48087269318342413 -0.1216818802472065 0 0.5 -0.13349841451636779 0 0.48128698321344371 -0.14003357648102521 0 0.46257396642688631 -0.12529077885077469 0 0.48128698321344371 -0.14003357648102521 0 0.46257396642688631 -0.12529077885077469 0 0.46381730130484328 -0.1363472541609663 0 0.48128698321344371 -0.14003357648102521 0 0.47129126618897188 -0.1223351355815797 0 0.48087269318342413 -0.1216818802472065 0 0.48128698321344371 -0.14003357648102521 0 0.47129126618897188 -0.1223351355815797 0 0.46257396642688631 -0.12529077885077469 0 0.48128698321344371 -0.14003357648102521 0 0.46029750420545162 -0.23134667767863379 0 0.45079963313025367 -0.219495204315066 0 0.46126535540865482 -0.21094244298034759 0 0.46029750420545162 -0.23134667767863379 0 0.46126535540865482 -0.21094244298034759 0 0.47937109712497578 -0.22608105856418539 0 0.46029750420545162 -0.23134667767863379 0 0.44856132313442931 -0.24393079079591279 0 0.47387431588802909 -0.25499376211151131 0 0.46029750420545162 -0.23134667767863379 0 0.44856132313442931 -0.24393079079591279 0 0.44416109061426973 -0.22983272991065171 0 0.43458399188612801 -0.2397076170126072 0 0.44856132313442931 -0.24393079079591279 0 0.4372088962240912 -0.25169219704383999 0 0.43458399188612801 -0.2397076170126072 0 0.44856132313442931 -0.24393079079591279 0 0.44416109061426973 -0.22983272991065171 0 0.46029750420545162 -0.23134667767863379 0 0.44416109061426973 -0.22983272991065171 0 0.45079963313025367 -0.219495204315066 0 0.44416109061426973 -0.22983272991065171 0 0.45079963313025367 -0.219495204315066 0 0.44009267276725389 -0.2176624614444449 0 0.42988092584916948 -0.2249579995083304 0 0.44416109061426973 -0.22983272991065171 0 0.44009267276725389 -0.2176624614444449 0 0.45079963313025367 -0.219495204315066 0 0.44355474576021348 -0.2050869029196882 0 0.46126535540865482 -0.21094244298034759 0 0.43006687167525981 -0.21185300334864521 0 0.44009267276725389 -0.2176624614444449 0 0.44355474576021348 -0.2050869029196882 0 0.45079963313025367 -0.219495204315066 0 0.44009267276725389 -0.2176624614444449 0 0.44355474576021348 -0.2050869029196882 0 0.43844209377108118 -0.18689286854296691 0 0.44355474576021348 -0.2050869029196882 0 0.45508032593701309 -0.1914137801830845 0 0.46834799031954211 -0.17915452781490099 0 0.45508032593701309 -0.1914137801830845 0 0.47823681026078202 -0.19812675643970101 0 0.44355474576021348 -0.2050869029196882 0 0.45508032593701309 -0.1914137801830845 0 0.46126535540865482 -0.21094244298034759 0 0.45508032593701309 -0.1914137801830845 0 0.46126535540865482 -0.21094244298034759 0 0.47823681026078202 -0.19812675643970101 0 0.46126535540865482 -0.21094244298034759 0 0.47823681026078202 -0.19812675643970101 0 0.47937109712497578 -0.22608105856418539 0 0.48419704391512092 -0.17843144908975531 0 0.47823681026078202 -0.19812675643970101 0 0.5 -0.1905958602634561 0 0.47823681026078202 -0.19812675643970101 0 0.5 -0.1905958602634561 0 0.5 -0.21990035445465039 0 0.47823681026078202 -0.19812675643970101 0 0.5 -0.21990035445465039 0 0.47937109712497578 -0.22608105856418539 0 0.5 -0.21990035445465039 0 0.47937109712497578 -0.22608105856418539 0 0.50000000000000444 -0.24920484864584491 0 0.46029750420545162 -0.23134667767863379 0 0.47937109712497578 -0.22608105856418539 0 0.47387431588802909 -0.25499376211151131 0 0.47937109712497578 -0.22608105856418539 0 0.50000000000000444 -0.24920484864584491 0 0.47387431588802909 -0.25499376211151131 0 0.50000000000000444 -0.24920484864584491 0 0.4915669900217115 -0.25615479242606781 0 0.5 -0.27170772691138367 0 0.50000000000000444 -0.24920484864584491 0 0.4915669900217115 -0.25615479242606781 0 0.47387431588802909 -0.25499376211151131 0 0.50000000000000444 -0.24920484864584491 0 0.47387431588802909 -0.25499376211151131 0 0.4915669900217115 -0.25615479242606781 0 0.48280749151585822 -0.27129304150170008 0 0.47954864786353962 -0.26301133191085868 0 0.4915669900217115 -0.25615479242606781 0 0.5 -0.27170772691138367 0 0.48280749151585822 -0.27129304150170008 0 0.5 -0.27170772691138367 0 0.48280749151585822 -0.27129304150170008 0 0.48951500520952212 -0.28458010338455908 0 0.48280749151585822 -0.27129304150170008 0 0.47474596181800061 -0.28621450290334632 0 0.48951500520952212 -0.28458010338455908 0 0.48280749151585822 -0.27129304150170008 0 0.47416229901770612 -0.26612875971404459 0 0.47954864786353962 -0.26301133191085868 0 0.48280749151585822 -0.27129304150170008 0 0.47416229901770612 -0.26612875971404459 0 0.47052118473631321 -0.27447720361836658 0 0.47416229901770612 -0.26612875971404459 0 0.47052118473631321 -0.27447720361836658 0 0.46319689217890331 -0.26835660325056299 0 0.48280749151585822 -0.27129304150170008 0 0.47052118473631321 -0.27447720361836658 0 0.47474596181800061 -0.28621450290334632 0 0.4915669900217115 -0.25615479242606781 0 0.46965781089888248 -0.25846873400162218 0 0.4915669900217115 -0.25615479242606781 0 0.47387431588802909 -0.25499376211151131 0 0.46965781089888248 -0.25846873400162218 0 0.4915669900217115 -0.25615479242606781 0 0.47954864786353962 -0.26301133191085868 0 0.46965781089888248 -0.25846873400162218 0 0.47416229901770612 -0.26612875971404459 0 0.47954864786353962 -0.26301133191085868 0 0.46965781089888248 -0.25846873400162218 0 0.47416229901770612 -0.26612875971404459 0 0.46965781089888248 -0.25846873400162218 0 0.46319689217890331 -0.26835660325056299 0 0.46965781089888248 -0.25846873400162218 0 0.46319689217890331 -0.26835660325056299 0 0.4477486317760534 -0.26078267557717671 0 0.44856132313442931 -0.24393079079591279 0 0.47387431588802909 -0.25499376211151131 0 0.4477486317760534 -0.26078267557717671 0 0.47387431588802909 -0.25499376211151131 0 0.4477486317760534 -0.26078267557717671 0 0.46965781089888248 -0.25846873400162218 0 0.4477486317760534 -0.26078267557717671 0 0.47387431588802909 -0.25499376211151131 0 0.46965781089888248 -0.25846873400162218 0 0.4477486317760534 -0.26078267557717671 0 0.47052118473631321 -0.27447720361836658 0 0.45389453446556111 -0.28192564334160541 0 0.47474596181800061 -0.28621450290334632 0 0.47052118473631321 -0.27447720361836658 0 0.46319689217890331 -0.26835660325056299 0 0.45389453446556111 -0.28192564334160541 0 0.46319689217890331 -0.26835660325056299 0 0.4477486317760534 -0.26078267557717671 0 0.45389453446556111 -0.28192564334160541 0 0.45389453446556111 -0.28192564334160541 0 0.430823863629894 -0.26453285558412298 0 0.45389453446556111 -0.28192564334160541 0 0.430823863629894 -0.26453285558412298 0 0.43570592202634773 -0.28205449164250063 0 0.4477486317760534 -0.26078267557717671 0 0.45389453446556111 -0.28192564334160541 0 0.430823863629894 -0.26453285558412298 0 0.4477486317760534 -0.26078267557717671 0 0.42854038242645709 -0.26281135800815408 0 0.44856132313442931 -0.24393079079591279 0 0.4477486317760534 -0.26078267557717671 0 0.4372088962240912 -0.25169219704383999 0 0.4477486317760534 -0.26078267557717671 0 0.42854038242645709 -0.26281135800815408 0 0.4372088962240912 -0.25169219704383999 0 0.4477486317760534 -0.26078267557717671 0 0.430823863629894 -0.26453285558412298 0 0.44815314542162782 -0.30273998798419938 0 0.44271266904340639 -0.31513600928105973 0 0.43092107089682352 -0.30573631325696571 0 0.44815314542162782 -0.30273998798419938 0 0.43874415768382158 -0.29310671547163403 0 0.43092107089682352 -0.30573631325696571 0 0.43874415768382158 -0.29310671547163403 0 0.45389453446556111 -0.28192564334160541 0 0.43570592202634773 -0.28205449164250063 0 0.44815314542162782 -0.30273998798419938 0 0.43874415768382158 -0.29310671547163403 0 0.45389453446556111 -0.28192564334160541 0 0.45389453446556111 -0.28192564334160541 0 0.46668010371271101 -0.29937682325086112 0 0.47474596181800061 -0.28621450290334632 0 0.44815314542162782 -0.30273998798419938 0 0.45389453446556111 -0.28192564334160541 0 0.46668010371271101 -0.29937682325086112 0 0.46668010371271101 -0.29937682325086112 0 0.45907432653114449 -0.32014896664993769 0 0.44815314542162782 -0.30273998798419938 0 0.46668010371271101 -0.29937682325086112 0 0.45907432653114449 -0.32014896664993769 0 0.46668010371271101 -0.29937682325086112 0 0.48375110351916628 -0.30725513966339157 0 0.45907432653114449 -0.32014896664993769 0 0.46668010371271101 -0.29937682325086112 0 0.48375110351916628 -0.30725513966339157 0 0.47474596181800061 -0.28621450290334632 0 0.48375110351916628 -0.30725513966339157 0 0.47474596181800061 -0.28621450290334632 0 0.48951500520952212 -0.28458010338455908 0 0.48375110351916628 -0.30725513966339157 0 0.5 -0.29421060517692271 0 0.48951500520952212 -0.28458010338455908 0 0.5 -0.27170772691138367 0 0.5 -0.29421060517692271 0 0.48951500520952212 -0.28458010338455908 0 0.48375110351916628 -0.30725513966339157 0 0.5 -0.29421060517692271 0 0.49999999999999972 -0.31671348344246159 0 0.48375110351916628 -0.30725513966339157 0 0.49999999999999972 -0.31671348344246159 0 0.48658745812515303 -0.32591538654610069 0 0.49999999999999972 -0.31671348344246159 0 0.49107839048707969 -0.33844651150006611 0 0.49999999999999972 -0.31671348344246159 0 0.48658745812515303 -0.32591538654610069 0 0.49107839048707969 -0.33844651150006611 0 0.49999999999999972 -0.31671348344246159 0 0.5 -0.34354646621870782 0 0.49107839048707969 -0.33844651150006611 0 0.48658745812515303 -0.32591538654610069 0 0.49107839048707969 -0.33844651150006611 0 0.48013111160135669 -0.33592777501669763 0 0.48658745812515303 -0.32591538654610069 0 0.48013111160135669 -0.33592777501669763 0 0.47588582758327369 -0.32632043512378739 0 0.48013111160135669 -0.33592777501669763 0 0.46883970942210401 -0.33989811375075968 0 0.47588582758327369 -0.32632043512378739 0 0.48375110351916628 -0.30725513966339157 0 0.48658745812515303 -0.32591538654610069 0 0.47588582758327369 -0.32632043512378739 0 0.48375110351916628 -0.30725513966339157 0 0.47588582758327369 -0.32632043512378739 0 0.45907432653114449 -0.32014896664993769 0 0.5 -0.37037944899495368 0 0.48466784746851571 -0.3739080713738358 0 0.48215678097416009 -0.36017953955767068 0 0.5 -0.34354646621870782 0 0.49107839048707969 -0.33844651150006611 0 0.48215678097416009 -0.36017953955767068 0 0.49107839048707969 -0.33844651150006611 0 0.48013111160135669 -0.33592777501669763 0 0.48215678097416009 -0.36017953955767068 0 0.5 -0.34354646621870782 0 0.5 -0.37037944899495368 0 0.48215678097416009 -0.36017953955767068 0 0.49107839048707969 -0.33844651150006611 0 0.48215678097416009 -0.36017953955767068 0 0.48013111160135669 -0.33592777501669763 0 0.46883970942210401 -0.33989811375075968 0 0.48215678097416009 -0.36017953955767068 0 0.46883970942210401 -0.33989811375075968 0 0.48215678097416009 -0.36017953955767068 0 0.46166172922915721 -0.35810144835948332 0 0.48215678097416009 -0.36017953955767068 0 0.47323517146124039 -0.38191256761527542 0 0.48215678097416009 -0.36017953955767068 0 0.4671179630262795 -0.37324494563770522 0 0.47323517146124039 -0.38191256761527542 0 0.48466784746851571 -0.3739080713738358 0 0.48215678097416009 -0.36017953955767068 0 0.47323517146124039 -0.38191256761527542 0 0.48215678097416009 -0.36017953955767068 0 0.4671179630262795 -0.37324494563770522 0 0.46166172922915721 -0.35810144835948332 0 0.45652460043480969 -0.37267172771365881 0 0.46166172922915721 -0.35810144835948332 0 0.44386277216801179 -0.36169325344809122 0 0.45652460043480969 -0.37267172771365881 0 0.4671179630262795 -0.37324494563770522 0 0.46166172922915721 -0.35810144835948332 0 0.46883970942210401 -0.33989811375075968 0 0.46166172922915721 -0.35810144835948332 0 0.45146854934957792 -0.34092111004901438 0 0.43963091224731599 -0.34751792105314822 0 0.44386277216801179 -0.36169325344809122 0 0.45146854934957792 -0.34092111004901438 0 0.44386277216801179 -0.36169325344809122 0 0.45146854934957792 -0.34092111004901438 0 0.46166172922915721 -0.35810144835948332 0 0.44386277216801179 -0.36169325344809122 0 0.45146854934957792 -0.34092111004901438 0 0.44386277216801179 -0.36169325344809122 0 0.43376943787959182 -0.36708850497004442 0 0.43808065797110041 -0.37748478958974491 0 0.45652460043480969 -0.37267172771365881 0 0.44386277216801179 -0.36169325344809122 0 0.44783900322824399 -0.38008781189722518 0 0.44386277216801179 -0.36169325344809122 0 0.43808065797110041 -0.37748478958974491 0 0.44386277216801179 -0.36169325344809122 0 0.43808065797110041 -0.37748478958974491 0 0.44783900322824399 -0.38008781189722518 0 0.45652460043480969 -0.37267172771365881 0 0.44386277216801179 -0.36169325344809122 0 0.46883970942210401 -0.33989811375075968 0 0.45907432653114449 -0.32014896664993769 0 0.45146854934957792 -0.34092111004901438 0 0.45907432653114449 -0.32014896664993769 0 0.45146854934957792 -0.34092111004901438 0 0.46883970942210401 -0.33989811375075968 0 0.47588582758327369 -0.32632043512378739 0 0.45907432653114449 -0.32014896664993769 0 0.43963091224731599 -0.34751792105314822 0 0.45146854934957792 -0.34092111004901438 0 0.43565299676263758 -0.3352386806192425 0 0.45146854934957792 -0.34092111004901438 0 0.44493724809618768 -0.32603283426431229 0 0.43565299676263758 -0.3352386806192425 0 0.45907432653114449 -0.32014896664993769 0 0.45146854934957792 -0.34092111004901438 0 0.44493724809618768 -0.32603283426431229 0 0.45907432653114449 -0.32014896664993769 0 0.44493724809618768 -0.32603283426431229 0 0.44271266904340639 -0.31513600928105973 0 0.44493724809618768 -0.32603283426431229 0 0.44271266904340639 -0.31513600928105973 0 0.43047755427124879 -0.32102194424988317 0 0.44815314542162782 -0.30273998798419938 0 0.45907432653114449 -0.32014896664993769 0 0.44271266904340639 -0.31513600928105973 0 0.44271266904340639 -0.31513600928105973 0 0.43047755427124879 -0.32102194424988317 0 0.43092107089682352 -0.30573631325696571 0 0.43047755427124879 -0.32102194424988317 0 0.41919911313656122 -0.31385112706466711 0 0.41739686236043672 -0.32199345155319897 0 0.43047755427124879 -0.32102194424988317 0 0.41919911313656122 -0.31385112706466711 0 0.43092107089682352 -0.30573631325696571 0 0.43047755427124879 -0.32102194424988317 0 0.42053718701310799 -0.32957674384091618 0 0.41739686236043672 -0.32199345155319897 0 0.44493724809618768 -0.32603283426431229 0 0.43047755427124879 -0.32102194424988317 0 0.43565299676263758 -0.3352386806192425 0 0.43565299676263758 -0.3352386806192425 0 0.42053718701310799 -0.32957674384091618 0 0.4250793590774925 -0.34540704162396091 0 0.43963091224731599 -0.34751792105314822 0 0.43565299676263758 -0.3352386806192425 0 0.4250793590774925 -0.34540704162396091 0 0.43047755427124879 -0.32102194424988317 0 0.43565299676263758 -0.3352386806192425 0 0.42053718701310799 -0.32957674384091618 0 0.4062959459869725 -0.32912082979983148 0 0.4250793590774925 -0.34540704162396091 0 0.41055923831377589 -0.34398547157316572 0 0.42053718701310799 -0.32957674384091618 0 0.4062959459869725 -0.32912082979983148 0 0.4250793590774925 -0.34540704162396091 0 0.4062959459869725 -0.32912082979983148 0 0.4250793590774925 -0.34540704162396091 0 0.42053718701310799 -0.32957674384091618 0 0.4062959459869725 -0.32912082979983148 0 0.40802480504278882 -0.32457497099322458 0 0.4062959459869725 -0.32912082979983148 0 0.40802480504278882 -0.32457497099322458 0 0.4062959459869725 -0.32912082979983148 0 0.40802480504278882 -0.32457497099322458 0 0.40572459905769331 -0.31910551143285631 0 0.40802480504278882 -0.32457497099322458 0 0.4119015194344513 -0.31818912214386269 0 0.41739686236043672 -0.32199345155319897 0 0.40802480504278882 -0.32457497099322458 0 0.4119015194344513 -0.31818912214386269 0 0.40572459905769331 -0.31910551143285631 0 0.4119015194344513 -0.31818912214386269 0 0.41919911313656122 -0.31385112706466711 0 0.40916221757477672 -0.31142054967536659 0 0.4119015194344513 -0.31818912214386269 0 0.40572459905769331 -0.31910551143285631 0 0.40916221757477672 -0.31142054967536659 0 0.4119015194344513 -0.31818912214386269 0 0.41919911313656122 -0.31385112706466711 0 0.41739686236043672 -0.32199345155319897 0 0.42053718701310799 -0.32957674384091618 0 0.40802480504278882 -0.32457497099322458 0 0.41739686236043672 -0.32199345155319897 0 0.44386277216801179 -0.36169325344809122 0 0.43376943787959182 -0.36708850497004442 0 0.42728564025893462 -0.35958684797927032 0 0.42489657602010461 -0.37065940299189432 0 0.43376943787959182 -0.36708850497004442 0 0.43808065797110041 -0.37748478958974491 0 0.42489657602010461 -0.37065940299189432 0 0.43376943787959182 -0.36708850497004442 0 0.42728564025893462 -0.35958684797927032 0 0.44386277216801179 -0.36169325344809122 0 0.4250793590774925 -0.34540704162396091 0 0.43963091224731599 -0.34751792105314822 0 0.44386277216801179 -0.36169325344809122 0 0.4250793590774925 -0.34540704162396091 0 0.44386277216801179 -0.36169325344809122 0 0.42728564025893462 -0.35958684797927032 0 0.4250793590774925 -0.34540704162396091 0 0.42728564025893462 -0.35958684797927032 0 0.4250793590774925 -0.34540704162396091 0 0.41069622259092692 -0.35617360609135817 0 0.4250793590774925 -0.34540704162396091 0 0.41055923831377589 -0.34398547157316572 0 0.41069622259092692 -0.35617360609135817 0 0.41055923831377589 -0.34398547157316572 0 0.41069622259092692 -0.35617360609135817 0 0.40016542559971202 -0.34524040877751239 0 0.42489657602010461 -0.37065940299189432 0 0.42728564025893462 -0.35958684797927032 0 0.41069622259092692 -0.35617360609135817 0 0.42489657602010461 -0.37065940299189432 0 0.41069622259092692 -0.35617360609135817 0 0.4070765621089808 -0.37107032214525337 0 0.42489657602010461 -0.37065940299189432 0 0.41069622259092692 -0.35617360609135817 0 0.39585190457779329 -0.37201308858561799 0 0.3940349052124521 -0.36135998775519362 0 0.38601585554704992 -0.38244526212700758 0 0.41069622259092692 -0.35617360609135817 0 0.4070765621089808 -0.37107032214525337 0 0.3940349052124521 -0.36135998775519362 0 0.4070765621089808 -0.37107032214525337 0 0.39585190457779329 -0.37201308858561799 0 0.3940349052124521 -0.36135998775519362 0 0.39585190457779329 -0.37201308858561799 0 0.3940349052124521 -0.36135998775519362 0 0.3940349052124521 -0.36135998775519362 0 0.40016542559971202 -0.34524040877751239 0 0.38974443050024338 -0.33620485529262373 0 0.3940349052124521 -0.36135998775519362 0 0.38974443050024338 -0.33620485529262373 0 0.3940349052124521 -0.36135998775519362 0 0.40016542559971202 -0.34524040877751239 0 0.41069622259092692 -0.35617360609135817 0 0.3940349052124521 -0.36135998775519362 0 0.40016542559971202 -0.34524040877751239 0 0.3940349052124521 -0.36135998775519362 0 0.38974443050024338 -0.33620485529262373 0 0.37368731816096312 -0.34897020548070451 0 0.3940349052124521 -0.36135998775519362 0 0.38601585554704992 -0.38244526212700758 0 0.3940349052124521 -0.36135998775519362 0 0.38601585554704992 -0.38244526212700758 0 0.3689120952668708 -0.37284951495870189 0 0.3940349052124521 -0.36135998775519362 0 0.3689120952668708 -0.37284951495870189 0 0.37368731816096312 -0.34897020548070451 0 0.4062959459869725 -0.32912082979983148 0 0.40572459905769331 -0.31910551143285631 0 0.39816778062817881 -0.31191488097197773 0 0.4062959459869725 -0.32912082979983148 0 0.38974443050024338 -0.33620485529262373 0 0.38545395578803499 -0.31104972283005378 0 0.4062959459869725 -0.32912082979983148 0 0.38545395578803499 -0.31104972283005378 0 0.4062959459869725 -0.32912082979983148 0 0.38545395578803499 -0.31104972283005378 0 0.39816778062817881 -0.31191488097197773 0 0.40572459905769331 -0.31910551143285631 0 0.39816778062817881 -0.31191488097197773 0 0.40916221757477672 -0.31142054967536659 0 0.4062959459869725 -0.32912082979983148 0 0.40016542559971202 -0.34524040877751239 0 0.38974443050024338 -0.33620485529262373 0 0.4062959459869725 -0.32912082979983148 0 0.40016542559971202 -0.34524040877751239 0 0.4062959459869725 -0.32912082979983148 0 0.41055923831377589 -0.34398547157316572 0 0.40016542559971202 -0.34524040877751239 0 0.38974443050024338 -0.33620485529262373 0 0.36945761595668469 -0.32738841673247931 0 0.37368731816096312 -0.34897020548070451 0 0.38974443050024338 -0.33620485529262373 0 0.38545395578803499 -0.31104972283005378 0 0.36945761595668469 -0.32738841673247931 0 0.38974443050024338 -0.33620485529262373 0 0.38545395578803499 -0.31104972283005378 0 0.38545395578803499 -0.31104972283005378 0 0.38245755150739558 -0.29348174920317632 0 0.37101427446782781 -0.29852975601036341 0 0.38545395578803499 -0.31104972283005378 0 0.38245755150739558 -0.29348174920317632 0 0.38545395578803499 -0.31104972283005378 0 0.37101427446782781 -0.29852975601036341 0 0.38545395578803499 -0.31104972283005378 0 0.39567659353887108 -0.29306988619604551 0 0.38245755150739558 -0.29348174920317632 0 0.39816778062817881 -0.31191488097197773 0 0.40563314249086863 -0.30155395497769039 0 0.39567659353887108 -0.29306988619604551 0 0.38545395578803499 -0.31104972283005378 0 0.39816778062817881 -0.31191488097197773 0 0.39567659353887108 -0.29306988619604551 0 0.39816778062817881 -0.31191488097197773 0 0.40563314249086863 -0.30155395497769039 0 0.40916221757477672 -0.31142054967536659 0 0.39567659353887108 -0.29306988619604551 0 0.40514250542832608 -0.27022331558021301 0 0.41160024963212011 -0.28933460066763711 0 0.40563314249086863 -0.30155395497769039 0 0.39567659353887108 -0.29306988619604551 0 0.41160024963212011 -0.28933460066763711 0 0.38245755150739558 -0.29348174920317632 0 0.37946114722675722 -0.27591377557629859 0 0.39567659353887108 -0.29306988619604551 0 0.38245755150739558 -0.29348174920317632 0 0.37946114722675722 -0.27591377557629859 0 0.38245755150739558 -0.29348174920317632 0 0.37795999762798671 -0.28395322059410122 0 0.37946114722675722 -0.27591377557629859 0 0.37519981906117678 -0.29055939022370142 0 0.38245755150739558 -0.29348174920317632 0 0.37101427446782781 -0.29852975601036341 0 0.37519981906117678 -0.29055939022370142 0 0.38245755150739558 -0.29348174920317632 0 0.37795999762798671 -0.28395322059410122 0 0.37795999762798671 -0.28395322059410122 0 0.37946114722675722 -0.27591377557629859 0 0.37739853904771847 -0.27637080706343392 0 0.37739853904771847 -0.27637080706343392 0 0.37683953433427181 -0.26882153263446662 0 0.37273728942595791 -0.27740364396778311 0 0.37795999762798671 -0.28395322059410122 0 0.37739853904771847 -0.27637080706343392 0 0.37273728942595791 -0.27740364396778311 0 0.37946114722675722 -0.27591377557629859 0 0.38774772661347989 -0.26664574742688191 0 0.3964002279028962 -0.26984905957103239 0 0.37946114722675722 -0.27591377557629859 0 0.3964002279028962 -0.26984905957103239 0 0.37795999762798671 -0.28395322059410122 0 0.37739853904771847 -0.27637080706343392 0 0.37739853904771847 -0.27637080706343392 0 0.37273728942595791 -0.27740364396778311 0 0.37946114722675722 -0.27591377557629859 0 0.37739853904771847 -0.27637080706343392 0 0.37683953433427181 -0.26882153263446662 0 0.37946114722675722 -0.27591377557629859 0 0.37739853904771847 -0.27637080706343392 0 0.37946114722675722 -0.27591377557629859 0 0.37843581040967561 -0.26746760801825881 0 0.38284686623937531 -0.26497045393317709 0 0.37946114722675722 -0.27591377557629859 0 0.37683953433427181 -0.26882153263446662 0 0.37843581040967561 -0.26746760801825881 0 0.37739853904771847 -0.27637080706343392 0 0.37683953433427181 -0.26882153263446662 0 0.37683953433427181 -0.26882153263446662 0 0.37843581040967561 -0.26746760801825881 0 0.37946114722675722 -0.27591377557629859 0 0.38774772661347989 -0.26664574742688191 0 0.38284686623937531 -0.26497045393317709 0 0.37477580018058132 -0.24095111383496479 0 0.37683953433427181 -0.26882153263446662 0 0.38107906364546162 -0.25934379353391329 0 0.37477580018058132 -0.24095111383496479 0 0.37683953433427181 -0.26882153263446662 0 0.37477580018058132 -0.24095111383496479 0 0.38107906364546162 -0.25934379353391329 0 0.38725375881062551 -0.25185160038302579 0 0.37843581040967561 -0.26746760801825881 0 0.38107906364546162 -0.25934379353391329 0 0.38284686623937531 -0.26497045393317709 0 0.37683953433427181 -0.26882153263446662 0 0.37843581040967561 -0.26746760801825881 0 0.38107906364546162 -0.25934379353391329 0 0.38107906364546162 -0.25934379353391329 0 0.38632261189823958 -0.26200045239958702 0 0.38284686623937531 -0.26497045393317709 0 0.38774772661347989 -0.26664574742688191 0 0.38632261189823958 -0.26200045239958702 0 0.38284686623937531 -0.26497045393317709 0 0.38774772661347989 -0.26664574742688191 0 0.38955528694719099 -0.2630172622662057 0 0.39295554709344072 -0.26445586107842978 0 0.38774772661347989 -0.26664574742688191 0 0.38632261189823958 -0.26200045239958702 0 0.38955528694719099 -0.2630172622662057 0 0.38632261189823958 -0.26200045239958702 0 0.38955528694719099 -0.2630172622662057 0 0.39119526218360401 -0.25896698815992442 0 0.38632261189823958 -0.26200045239958702 0 0.38725375881062551 -0.25185160038302579 0 0.39119526218360401 -0.25896698815992442 0 0.38107906364546162 -0.25934379353391329 0 0.38632261189823958 -0.26200045239958702 0 0.38725375881062551 -0.25185160038302579 0 0.40314688718896508 -0.2619981766022052 0 0.39707581272688741 -0.26613449373937459 0 0.41345304600685079 -0.26440480953867462 0 0.39707581272688741 -0.26613449373937459 0 0.41345304600685079 -0.26440480953867462 0 0.38725375881062551 -0.25185160038302579 0 0.39640803358832022 -0.25154779433757402 0 0.39119526218360401 -0.25896698815992442 0 0.39640803358832022 -0.25154779433757402 0 0.39702034872720737 -0.26014738253762237 0 0.39119526218360401 -0.25896698815992442 0 0.39702034872720737 -0.26014738253762237 0 0.39119526218360401 -0.25896698815992442 0 0.39295554709344072 -0.26445586107842978 0 0.38955528694719099 -0.2630172622662057 0 0.39119526218360401 -0.25896698815992442 0 0.39295554709344072 -0.26445586107842978 0 0.39702034872720737 -0.26014738253762237 0 0.39295554709344072 -0.26445586107842978 0 0.39707581272688741 -0.26613449373937459 0 0.39702034872720737 -0.26014738253762237 0 0.40314688718896508 -0.2619981766022052 0 0.39707581272688741 -0.26613449373937459 0 0.40314688718896508 -0.2619981766022052 0 0.40257909468765629 -0.25704117102420471 0 0.40998094690083942 -0.2590606397541646 0 0.39702034872720737 -0.26014738253762237 0 0.40314688718896508 -0.2619981766022052 0 0.40257909468765629 -0.25704117102420471 0 0.39640803358832022 -0.25154779433757402 0 0.39702034872720737 -0.26014738253762237 0 0.40257909468765629 -0.25704117102420471 0 0.41087794879613182 -0.2494957955088617 0 0.39640803358832022 -0.25154779433757402 0 0.40257909468765629 -0.25704117102420471 0 0.40514250542832608 -0.27022331558021301 0 0.3964002279028962 -0.26984905957103239 0 0.41345304600685079 -0.26440480953867462 0 0.37946114722675722 -0.27591377557629859 0 0.40514250542832608 -0.27022331558021301 0 0.3964002279028962 -0.26984905957103239 0 0.39707581272688741 -0.26613449373937459 0 0.3964002279028962 -0.26984905957103239 0 0.41345304600685079 -0.26440480953867462 0 0.37946114722675722 -0.27591377557629859 0 0.40514250542832608 -0.27022331558021301 0 0.3964002279028962 -0.26984905957103239 0 0.41345304600685079 -0.26440480953867462 0 0.39567659353887108 -0.29306988619604551 0 0.37946114722675722 -0.27591377557629859 0 0.40514250542832608 -0.27022331558021301 0 0.38774772661347989 -0.26664574742688191 0 0.39295554709344072 -0.26445586107842978 0 0.3964002279028962 -0.26984905957103239 0 0.39295554709344072 -0.26445586107842978 0 0.39707581272688741 -0.26613449373937459 0 0.3964002279028962 -0.26984905957103239 0 0.40514250542832608 -0.27022331558021301 0 0.41345304600685079 -0.26440480953867462 0 0.430823863629894 -0.26453285558412298 0 0.40514250542832608 -0.27022331558021301 0 0.430823863629894 -0.26453285558412298 0 0.40514250542832608 -0.27022331558021301 0 0.42166373126508722 -0.27984448092147479 0 0.41160024963212011 -0.28933460066763711 0 0.40514250542832608 -0.27022331558021301 0 0.42166373126508722 -0.27984448092147479 0 0.430823863629894 -0.26453285558412298 0 0.41087794879613182 -0.2494957955088617 0 0.41984775782459283 -0.2623632460968765 0 0.42854038242645709 -0.26281135800815408 0 0.41087794879613182 -0.2494957955088617 0 0.42854038242645709 -0.26281135800815408 0 0.41087794879613182 -0.2494957955088617 0 0.40257909468765629 -0.25704117102420471 0 0.40998094690083942 -0.2590606397541646 0 0.41087794879613182 -0.2494957955088617 0 0.40998094690083942 -0.2590606397541646 0 0.41984775782459283 -0.2623632460968765 0 0.40314688718896508 -0.2619981766022052 0 0.40998094690083942 -0.2590606397541646 0 0.41345304600685079 -0.26440480953867462 0 0.41345304600685079 -0.26440480953867462 0 0.41984775782459283 -0.2623632460968765 0 0.42854038242645709 -0.26281135800815408 0 0.40998094690083942 -0.2590606397541646 0 0.41345304600685079 -0.26440480953867462 0 0.41984775782459283 -0.2623632460968765 0 0.41345304600685079 -0.26440480953867462 0 0.42854038242645709 -0.26281135800815408 0 0.41345304600685079 -0.26440480953867462 0 0.41984775782459283 -0.2623632460968765 0 0.42656562700980838 -0.24831468624349931 0 0.41087794879613182 -0.2494957955088617 0 0.42854038242645709 -0.26281135800815408 0 0.4477486317760534 -0.26078267557717671 0 0.42854038242645709 -0.26281135800815408 0 0.430823863629894 -0.26453285558412298 0 0.41345304600685079 -0.26440480953867462 0 0.42854038242645709 -0.26281135800815408 0 0.430823863629894 -0.26453285558412298 0 0.42854038242645709 -0.26281135800815408 0 0.430823863629894 -0.26453285558412298 0 0.42656562700980838 -0.24831468624349931 0 0.42854038242645709 -0.26281135800815408 0 0.4372088962240912 -0.25169219704383999 0 0.42166373126508722 -0.27984448092147479 0 0.430823863629894 -0.26453285558412298 0 0.43570592202634773 -0.28205449164250063 0 0.42166373126508722 -0.27984448092147479 0 0.43570592202634773 -0.28205449164250063 0 0.42504611560874761 -0.29307714113289868 0 0.43874415768382158 -0.29310671547163403 0 0.43570592202634773 -0.28205449164250063 0 0.42504611560874761 -0.29307714113289868 0 0.43874415768382158 -0.29310671547163403 0 0.42504611560874761 -0.29307714113289868 0 0.43092107089682352 -0.30573631325696571 0 0.41919911313656122 -0.31385112706466711 0 0.43092107089682352 -0.30573631325696571 0 0.41692698488998292 -0.30249561446253759 0 0.42504611560874761 -0.29307714113289868 0 0.43092107089682352 -0.30573631325696571 0 0.41692698488998292 -0.30249561446253759 0 0.41919911313656122 -0.31385112706466711 0 0.41692698488998292 -0.30249561446253759 0 0.40916221757477672 -0.31142054967536659 0 0.40563314249086863 -0.30155395497769039 0 0.41692698488998292 -0.30249561446253759 0 0.40916221757477672 -0.31142054967536659 0 0.40563314249086863 -0.30155395497769039 0 0.41692698488998292 -0.30249561446253759 0 0.41160024963212011 -0.28933460066763711 0 0.42166373126508722 -0.27984448092147479 0 0.42504611560874761 -0.29307714113289868 0 0.41160024963212011 -0.28933460066763711 0 0.42504611560874761 -0.29307714113289868 0 0.41692698488998292 -0.30249561446253759 0 0.41160024963212011 -0.28933460066763711 0 0.5 -0.5 0 0.47532784176218862 -0.47257481327436679 0 0.43264288253940292 -0.48275234633568048 0 0.5 -0.5 0 0.41749257905485199 -0.50000000000000033 0 0.43264288253940292 -0.48275234633568048 0 0.47532784176218862 -0.47257481327436679 0 0.44779318602395363 -0.46550469267136052 0 0.43264288253940292 -0.48275234633568048 0 0.44779318602395363 -0.46550469267136052 0 0.43264288253940292 -0.48275234633568048 0 0.5 -0.5 0 0.47532784176218862 -0.47257481327436679 0 0.49999999999999828 -0.44642064777577001 0 0.47532784176218862 -0.47257481327436679 0 0.47918453573141367 -0.4495963838019249 0 0.46294348950850428 -0.44825703900704061 0 0.47532784176218862 -0.47257481327436679 0 0.49999999999999828 -0.44642064777577001 0 0.47918453573141367 -0.4495963838019249 0 0.49999999999999828 -0.44642064777577001 0 0.47846681165496419 -0.4311330351505217 0 0.49999999999999828 -0.44642064777577001 0 0.47918453573141367 -0.4495963838019249 0 0.47846681165496419 -0.4311330351505217 0 0.47918453573141367 -0.4495963838019249 0 0.46294348950850428 -0.44825703900704061 0 0.47846681165496419 -0.4311330351505217 0 0.46294348950850428 -0.44825703900704061 0 0.44442683605218691 -0.44583817528272968 0 0.45721208074107311 -0.43281318479414382 0 0.46294348950850428 -0.44825703900704061 0 0.44779318602395363 -0.46550469267136052 0 0.47532784176218862 -0.47257481327436679 0 0.46294348950850428 -0.44825703900704061 0 0.44779318602395363 -0.46550469267136052 0 0.44779318602395363 -0.46550469267136052 0 0.44442683605218691 -0.44583817528272968 0 0.43057418754349119 -0.46211781715143319 0 0.46294348950850428 -0.44825703900704061 0 0.44779318602395363 -0.46550469267136052 0 0.44442683605218691 -0.44583817528272968 0 0.44442683605218691 -0.44583817528272968 0 0.44324354583686831 -0.42153379012121539 0 0.45721208074107311 -0.43281318479414382 0 0.44442683605218691 -0.44583817528272968 0 0.44324354583686831 -0.42153379012121539 0 0.42653452723640378 -0.44279137365393179 0 0.44324354583686831 -0.42153379012121539 0 0.45693362330993059 -0.41584542252527262 0 0.45721208074107311 -0.43281318479414382 0 0.45693362330993059 -0.41584542252527262 0 0.4354004349648965 -0.40055780990002432 0 0.44324354583686831 -0.42153379012121539 0 0.45693362330993059 -0.41584542252527262 0 0.4354004349648965 -0.40055780990002432 0 0.45693362330993059 -0.41584542252527262 0 0.46461049463358839 -0.41117161714406408 0 0.47846681165496419 -0.4311330351505217 0 0.45693362330993059 -0.41584542252527262 0 0.46461049463358839 -0.41117161714406408 0 0.45329728287846061 -0.39963099679296588 0 0.46294348950850428 -0.44825703900704061 0 0.45721208074107311 -0.43281318479414382 0 0.47846681165496419 -0.4311330351505217 0 0.45693362330993059 -0.41584542252527262 0 0.45721208074107311 -0.43281318479414382 0 0.47846681165496419 -0.4311330351505217 0 0.45693362330993059 -0.41584542252527262 0 0.47846681165496419 -0.4311330351505217 0 0.49999999999999828 -0.44642064777577001 0 0.47846681165496419 -0.4311330351505217 0 0.5 -0.42181653977348488 0 0.5 -0.42181653977348488 0 0.48394518954555588 -0.41195106762427058 0 0.49999999999999789 -0.3972124317711998 0 0.47846681165496419 -0.4311330351505217 0 0.5 -0.42181653977348488 0 0.48394518954555588 -0.41195106762427058 0 0.46461049463358839 -0.41117161714406408 0 0.47846681165496419 -0.4311330351505217 0 0.48394518954555588 -0.41195106762427058 0 0.46461049463358839 -0.41117161714406408 0 0.48394518954555588 -0.41195106762427058 0 0.47664864143922919 -0.39842171428208217 0 0.47664864143922919 -0.39842171428208217 0 0.47975395238035062 -0.3854291032725421 0 0.46812846895096999 -0.38912968091376021 0 0.47664864143922919 -0.39842171428208217 0 0.49999999999999789 -0.3972124317711998 0 0.48779058149940679 -0.38751051868815611 0 0.48394518954555588 -0.41195106762427058 0 0.47664864143922919 -0.39842171428208217 0 0.49999999999999789 -0.3972124317711998 0 0.47664864143922919 -0.39842171428208217 0 0.49999999999999789 -0.3972124317711998 0 0.5 -0.37037944899495368 0 0.49999999999999789 -0.3972124317711998 0 0.48779058149940679 -0.38751051868815611 0 0.5 -0.37037944899495368 0 0.48466784746851571 -0.3739080713738358 0 0.48779058149940679 -0.38751051868815611 0 0.48466784746851571 -0.3739080713738358 0 0.47975395238035062 -0.3854291032725421 0 0.47323517146124039 -0.38191256761527542 0 0.48466784746851571 -0.3739080713738358 0 0.48779058149940679 -0.38751051868815611 0 0.47975395238035062 -0.3854291032725421 0 0.47664864143922919 -0.39842171428208217 0 0.48779058149940679 -0.38751051868815611 0 0.47975395238035062 -0.3854291032725421 0 0.47975395238035062 -0.3854291032725421 0 0.47323517146124039 -0.38191256761527542 0 0.46812846895096999 -0.38912968091376021 0 0.46918642870160698 -0.38365020197922722 0 0.47323517146124039 -0.38191256761527542 0 0.46812846895096999 -0.38912968091376021 0 0.4671179630262795 -0.37324494563770522 0 0.46918642870160698 -0.38365020197922722 0 0.47323517146124039 -0.38191256761527542 0 0.45652460043480969 -0.37267172771365881 0 0.4671179630262795 -0.37324494563770522 0 0.46918642870160698 -0.38365020197922722 0 0.45652460043480969 -0.37267172771365881 0 0.46918642870160698 -0.38365020197922722 0 0.45652460043480969 -0.37267172771365881 0 0.45606522570456098 -0.38599652494351028 0 0.44783900322824399 -0.38008781189722518 0 0.45652460043480969 -0.37267172771365881 0 0.46918642870160698 -0.38365020197922722 0 0.45606522570456098 -0.38599652494351028 0 0.46918642870160698 -0.38365020197922722 0 0.45606522570456098 -0.38599652494351028 0 0.46812846895096999 -0.38912968091376021 0 0.46461049463358839 -0.41117161714406408 0 0.47664864143922919 -0.39842171428208217 0 0.45329728287846061 -0.39963099679296588 0 0.47664864143922919 -0.39842171428208217 0 0.45329728287846061 -0.39963099679296588 0 0.47664864143922919 -0.39842171428208217 0 0.46812846895096999 -0.38912968091376021 0 0.45329728287846061 -0.39963099679296588 0 0.46461049463358839 -0.41117161714406408 0 0.45329728287846061 -0.39963099679296588 0 0.45606522570456098 -0.38599652494351028 0 0.46812846895096999 -0.38912968091376021 0 0.45329728287846061 -0.39963099679296588 0 0.45693362330993059 -0.41584542252527262 0 0.45329728287846061 -0.39963099679296588 0 0.4354004349648965 -0.40055780990002432 0 0.45329728287846061 -0.39963099679296588 0 0.4354004349648965 -0.40055780990002432 0 0.45329728287846061 -0.39963099679296588 0 0.4390969294492823 -0.3851451998924304 0 0.4354004349648965 -0.40055780990002432 0 0.45329728287846061 -0.39963099679296588 0 0.4390969294492823 -0.3851451998924304 0 0.45606522570456098 -0.38599652494351028 0 0.4390969294492823 -0.3851451998924304 0 0.44783900322824399 -0.38008781189722518 0 0.45606522570456098 -0.38599652494351028 0 0.45329728287846061 -0.39963099679296588 0 0.4390969294492823 -0.3851451998924304 0 0.4390969294492823 -0.3851451998924304 0 0.43808065797110041 -0.37748478958974491 0 0.44783900322824399 -0.38008781189722518 0 0.42782015831496062 -0.38505662608606978 0 0.4354004349648965 -0.40055780990002432 0 0.41188669282555868 -0.38386409155992901 0 0.42489657602010461 -0.37065940299189432 0 0.4390969294492823 -0.3851451998924304 0 0.42782015831496062 -0.38505662608606978 0 0.42489657602010461 -0.37065940299189432 0 0.4390969294492823 -0.3851451998924304 0 0.43808065797110041 -0.37748478958974491 0 0.42489657602010461 -0.37065940299189432 0 0.4390969294492823 -0.3851451998924304 0 0.4390969294492823 -0.3851451998924304 0 0.42782015831496062 -0.38505662608606978 0 0.4354004349648965 -0.40055780990002432 0 0.4354004349648965 -0.40055780990002432 0 0.41188669282555868 -0.38386409155992901 0 0.4354004349648965 -0.40055780990002432 0 0.40669862042327182 -0.40204417319942209 0 0.4354004349648965 -0.40055780990002432 0 0.40669862042327182 -0.40204417319942209 0 0.41188669282555868 -0.38386409155992901 0 0.42489657602010461 -0.37065940299189432 0 0.42782015831496062 -0.38505662608606978 0 0.41188669282555868 -0.38386409155992901 0 0.42489657602010461 -0.37065940299189432 0 0.4070765621089808 -0.37107032214525337 0 0.41188669282555868 -0.38386409155992901 0 0.4070765621089808 -0.37107032214525337 0 0.39585190457779329 -0.37201308858561799 0 0.39886607975096749 -0.38470810625682389 0 0.40669862042327182 -0.40204417319942209 0 0.41188669282555868 -0.38386409155992901 0 0.39886607975096749 -0.38470810625682389 0 0.4070765621089808 -0.37107032214525337 0 0.41188669282555868 -0.38386409155992901 0 0.39886607975096749 -0.38470810625682389 0 0.39585190457779329 -0.37201308858561799 0 0.39886607975096749 -0.38470810625682389 0 0.38601585554704992 -0.38244526212700758 0 0.39886607975096749 -0.38470810625682389 0 0.38601585554704992 -0.38244526212700758 0 0.37799680588164719 -0.40353053649882148 0 0.38601585554704992 -0.38244526212700758 0 0.37799680588164719 -0.40353053649882148 0 0.38601585554704992 -0.38244526212700758 0 0.37799680588164719 -0.40353053649882148 0 0.36816388811638329 -0.39545065246060412 0 0.37799680588164719 -0.40353053649882148 0 0.37635446215448021 -0.40784891206015261 0 0.37799680588164719 -0.40353053649882148 0 0.37505152225636262 -0.40368306209891941 0 0.37635446215448021 -0.40784891206015261 0 0.37799680588164719 -0.40353053649882148 0 0.37505152225636262 -0.40368306209891941 0 0.40669862042327182 -0.40204417319942209 0 0.39886607975096749 -0.38470810625682389 0 0.37799680588164719 -0.40353053649882148 0 0.40669862042327182 -0.40204417319942209 0 0.37799680588164719 -0.40353053649882148 0 0.40669862042327182 -0.40204417319942209 0 0.38553791301154328 -0.41840677215457472 0 0.40567792500840172 -0.4277251834563135 0 0.40669862042327182 -0.40204417319942209 0 0.37799680588164719 -0.40353053649882148 0 0.38553791301154328 -0.41840677215457472 0 0.38553791301154328 -0.41840677215457472 0 0.36905142820508552 -0.42917232846767789 0 0.37241381966677689 -0.417360225696081 0 0.38553791301154328 -0.41840677215457472 0 0.37635446215448021 -0.40784891206015261 0 0.37241381966677689 -0.417360225696081 0 0.37799680588164719 -0.40353053649882148 0 0.38553791301154328 -0.41840677215457472 0 0.37635446215448021 -0.40784891206015261 0 0.38553791301154328 -0.41840677215457472 0 0.38807715457860831 -0.4388905332329941 0 0.36905142820508552 -0.42917232846767789 0 0.38553791301154328 -0.41840677215457472 0 0.40567792500840172 -0.4277251834563135 0 0.38807715457860831 -0.4388905332329941 0 0.40567792500840172 -0.4277251834563135 0 0.42351101069396863 -0.41893046606618117 0 0.42653452723640378 -0.44279137365393179 0 0.4354004349648965 -0.40055780990002432 0 0.40669862042327182 -0.40204417319942209 0 0.42351101069396863 -0.41893046606618117 0 0.40669862042327182 -0.40204417319942209 0 0.40567792500840172 -0.4277251834563135 0 0.42351101069396863 -0.41893046606618117 0 0.44324354583686831 -0.42153379012121539 0 0.4354004349648965 -0.40055780990002432 0 0.42351101069396863 -0.41893046606618117 0 0.44324354583686831 -0.42153379012121539 0 0.42653452723640378 -0.44279137365393179 0 0.44324354583686831 -0.42153379012121539 0 0.42351101069396863 -0.41893046606618117 0 0.42653452723640378 -0.44279137365393179 0 0.44442683605218691 -0.44583817528272968 0 0.42653452723640378 -0.44279137365393179 0 0.43057418754349119 -0.46211781715143319 0 0.42653452723640378 -0.44279137365393179 0 0.43057418754349119 -0.46211781715143319 0 0.40982550863593931 -0.46404895718664829 0 0.42653452723640378 -0.44279137365393179 0 0.40982550863593931 -0.46404895718664829 0 0.42653452723640378 -0.44279137365393179 0 0.40982550863593931 -0.46404895718664829 0 0.4036378289262339 -0.44671034290208689 0 0.40567792500840172 -0.4277251834563135 0 0.42653452723640378 -0.44279137365393179 0 0.4036378289262339 -0.44671034290208689 0 0.40567792500840172 -0.4277251834563135 0 0.4036378289262339 -0.44671034290208689 0 0.38807715457860831 -0.4388905332329941 0 0.4036378289262339 -0.44671034290208689 0 0.38807715457860831 -0.4388905332329941 0 0.38807402917181633 -0.46009566698054732 0 0.38807715457860831 -0.4388905332329941 0 0.3733961412993268 -0.45022493016754961 0 0.36905142820508552 -0.42917232846767789 0 0.38807715457860831 -0.4388905332329941 0 0.38807402917181633 -0.46009566698054732 0 0.3733961412993268 -0.45022493016754961 0 0.38807402917181633 -0.46009566698054732 0 0.36593927904035028 -0.47432204071884282 0 0.3733961412993268 -0.45022493016754961 0 0.40982550863593931 -0.46404895718664829 0 0.4036378289262339 -0.44671034290208689 0 0.38807402917181633 -0.46009566698054732 0 0.40982550863593931 -0.46404895718664829 0 0.39311649003547477 -0.48530654071936469 0 0.40982550863593931 -0.46404895718664829 0 0.38807402917181633 -0.46009566698054732 0 0.39311649003547477 -0.48530654071936469 0 0.38807402917181633 -0.46009566698054732 0 0.39311649003547477 -0.48530654071936469 0 0.36593927904035028 -0.47432204071884282 0 0.37603974257992701 -0.49999999999999978 0 0.39311649003547477 -0.48530654071936469 0 0.36593927904035028 -0.47432204071884282 0 0.37603974257992701 -0.49999999999999978 0 0.39676616081738958 -0.5 0 0.39311649003547477 -0.48530654071936469 0 0.39676616081738958 -0.5 0 0.39311649003547477 -0.48530654071936469 0 0.41749257905485199 -0.50000000000000033 0 0.40982550863593931 -0.46404895718664829 0 0.41749257905485199 -0.50000000000000033 0 0.43264288253940292 -0.48275234633568048 0 0.40982550863593931 -0.46404895718664829 0 0.39311649003547477 -0.48530654071936469 0 0.41749257905485199 -0.50000000000000033 0 0.43057418754349119 -0.46211781715143319 0 0.40982550863593931 -0.46404895718664829 0 0.43264288253940292 -0.48275234633568048 0 0.44779318602395363 -0.46550469267136052 0 0.43057418754349119 -0.46211781715143319 0 0.43264288253940292 -0.48275234633568048 0 0.41749257905485199 -0.50000000000000033 0 0.43264288253940292 -0.48275234633568048 0 0.32215468257820618 -0.5 0 0.33760568703239408 -0.47417818032706111 0 0.31005432530219129 -0.48106067464861729 0 0.33760568703239408 -0.47417818032706111 0 0.3189449745883719 -0.46117016543644002 0 0.31005432530219129 -0.48106067464861729 0 0.32215468257820618 -0.5 0 0.33760568703239408 -0.47417818032706111 0 0.34909721257906662 -0.5 0 0.37603974257992701 -0.49999999999999978 0 0.34909721257906662 -0.5 0 0.36593927904035028 -0.47432204071884282 0 0.37603974257992701 -0.49999999999999978 0 0.36593927904035028 -0.47432204071884282 0 0.33760568703239408 -0.47417818032706111 0 0.34909721257906662 -0.5 0 0.36593927904035028 -0.47432204071884282 0 0.33760568703239408 -0.47417818032706111 0 0.36593927904035028 -0.47432204071884282 0 0.35583881550077368 -0.44864408143768569 0 0.36593927904035028 -0.47432204071884282 0 0.35583881550077368 -0.44864408143768569 0 0.36593927904035028 -0.47432204071884282 0 0.3733961412993268 -0.45022493016754961 0 0.35583881550077368 -0.44864408143768569 0 0.3733961412993268 -0.45022493016754961 0 0.35583881550077368 -0.44864408143768569 0 0.36905142820508552 -0.42917232846767789 0 0.35583881550077368 -0.44864408143768569 0 0.33540415989768779 -0.44905252560006492 0 0.34573835196119679 -0.42296612215652868 0 0.33760568703239408 -0.47417818032706111 0 0.35583881550077368 -0.44864408143768569 0 0.33540415989768779 -0.44905252560006492 0 0.33760568703239408 -0.47417818032706111 0 0.33540415989768779 -0.44905252560006492 0 0.3189449745883719 -0.46117016543644002 0 0.33540415989768779 -0.44905252560006492 0 0.3189449745883719 -0.46117016543644002 0 0.32126124445813709 -0.43429719032362252 0 0.3189449745883719 -0.46117016543644002 0 0.32126124445813709 -0.43429719032362252 0 0.30480654487456732 -0.44641521679941309 0 0.32126124445813709 -0.43429719032362252 0 0.3193156137706864 -0.40941365839269389 0 0.29937418247959258 -0.41817563384508599 0 0.3193156137706864 -0.40941365839269389 0 0.34573835196119679 -0.42296612215652868 0 0.33563788842162012 -0.39728816287537172 0 0.34573835196119679 -0.42296612215652868 0 0.33563788842162012 -0.39728816287537172 0 0.33540415989768779 -0.44905252560006492 0 0.32126124445813709 -0.43429719032362252 0 0.34573835196119679 -0.42296612215652868 0 0.32126124445813709 -0.43429719032362252 0 0.3193156137706864 -0.40941365839269389 0 0.34573835196119679 -0.42296612215652868 0 0.35583881550077368 -0.44864408143768569 0 0.34573835196119679 -0.42296612215652868 0 0.36905142820508552 -0.42917232846767789 0 0.35583881550077368 -0.44864408143768569 0 0.34573835196119679 -0.42296612215652868 0 0.36905142820508552 -0.42917232846767789 0 0.37241381966677689 -0.417360225696081 0 0.36195200988480669 -0.41065981681110758 0 0.36990343230398692 -0.40830781576793279 0 0.37241381966677689 -0.417360225696081 0 0.36195200988480669 -0.41065981681110758 0 0.37635446215448021 -0.40784891206015261 0 0.36990343230398692 -0.40830781576793279 0 0.37241381966677689 -0.417360225696081 0 0.37505152225636262 -0.40368306209891941 0 0.37635446215448021 -0.40784891206015261 0 0.36990343230398692 -0.40830781576793279 0 0.36990343230398692 -0.40830781576793279 0 0.36195200988480669 -0.41065981681110758 0 0.36876771314038492 -0.40452533678464098 0 0.34573835196119679 -0.42296612215652868 0 0.36195200988480669 -0.41065981681110758 0 0.35211107663302149 -0.40015425695529971 0 0.34573835196119679 -0.42296612215652868 0 0.36905142820508552 -0.42917232846767789 0 0.36195200988480669 -0.41065981681110758 0 0.34573835196119679 -0.42296612215652868 0 0.35211107663302149 -0.40015425695529971 0 0.33563788842162012 -0.39728816287537172 0 0.35211107663302149 -0.40015425695529971 0 0.35352794608594401 -0.38791341326287138 0 0.33563788842162012 -0.39728816287537172 0 0.35211107663302149 -0.40015425695529971 0 0.36816388811638329 -0.39545065246060412 0 0.35352794608594401 -0.38791341326287138 0 0.36195200988480669 -0.41065981681110758 0 0.36816388811638329 -0.39545065246060412 0 0.36876771314038492 -0.40452533678464098 0 0.36195200988480669 -0.41065981681110758 0 0.35211107663302149 -0.40015425695529971 0 0.36816388811638329 -0.39545065246060412 0 0.37505152225636262 -0.40368306209891941 0 0.36816388811638329 -0.39545065246060412 0 0.36876771314038492 -0.40452533678464098 0 0.37799680588164719 -0.40353053649882148 0 0.37505152225636262 -0.40368306209891941 0 0.36816388811638329 -0.39545065246060412 0 0.37505152225636262 -0.40368306209891941 0 0.36990343230398692 -0.40830781576793279 0 0.36876771314038492 -0.40452533678464098 0 0.38601585554704992 -0.38244526212700758 0 0.36816388811638329 -0.39545065246060412 0 0.3689120952668708 -0.37284951495870189 0 0.36816388811638329 -0.39545065246060412 0 0.35352794608594401 -0.38791341326287138 0 0.3689120952668708 -0.37284951495870189 0 0.35352794608594401 -0.38791341326287138 0 0.33563788842162012 -0.39728816287537172 0 0.34467783115022588 -0.37252705130409253 0 0.35352794608594401 -0.38791341326287138 0 0.3689120952668708 -0.37284951495870189 0 0.34467783115022588 -0.37252705130409253 0 0.33563788842162012 -0.39728816287537172 0 0.3255374248820434 -0.37161020359421471 0 0.33563788842162012 -0.39728816287537172 0 0.34467783115022588 -0.37252705130409253 0 0.3255374248820434 -0.37161020359421471 0 0.3193156137706864 -0.40941365839269389 0 0.33563788842162012 -0.39728816287537172 0 0.30534853388527528 -0.38930881101125692 0 0.33563788842162012 -0.39728816287537172 0 0.30534853388527528 -0.38930881101125692 0 0.3255374248820434 -0.37161020359421471 0 0.30534853388527528 -0.38930881101125692 0 0.3255374248820434 -0.37161020359421471 0 0.30525369772634148 -0.37164386163485291 0 0.30534853388527528 -0.38930881101125692 0 0.28783989868818821 -0.37644057584389279 0 0.30525369772634148 -0.37164386163485291 0 0.3193156137706864 -0.40941365839269389 0 0.30534853388527528 -0.38930881101125692 0 0.29937418247959258 -0.41817563384508599 0 0.30534853388527528 -0.38930881101125692 0 0.28922044672054198 -0.39637746652331562 0 0.29937418247959258 -0.41817563384508599 0 0.28922044672054198 -0.39637746652331562 0 0.27510086349567708 -0.39798721671617321 0 0.28320928432356041 -0.41012407252970262 0 0.28922044672054198 -0.39637746652331562 0 0.28783989868818821 -0.37644057584389279 0 0.27924907625512951 -0.38731579260330862 0 0.30534853388527528 -0.38930881101125692 0 0.28922044672054198 -0.39637746652331562 0 0.28783989868818821 -0.37644057584389279 0 0.30534853388527528 -0.38930881101125692 0 0.28783989868818821 -0.37644057584389279 0 0.28783989868818821 -0.37644057584389279 0 0.27447250226623809 -0.37821124143188289 0 0.27924907625512951 -0.38731579260330862 0 0.27447250226623809 -0.37821124143188289 0 0.27924907625512951 -0.38731579260330862 0 0.26961167010500181 -0.38756246250127813 0 0.27447250226623809 -0.37821124143188289 0 0.26961167010500181 -0.38756246250127813 0 0.26423397132697279 -0.37890457124200982 0 0.26961167010500181 -0.38756246250127813 0 0.26423397132697279 -0.37890457124200982 0 0.25687819372407023 -0.38903915957053298 0 0.26423397132697279 -0.37890457124200982 0 0.25687819372407023 -0.38903915957053298 0 0.24987622704845311 -0.37613765202982719 0 0.25108303853213881 -0.40002667887407228 0 0.26390234922262928 -0.39930308446362528 0 0.256136481120742 -0.41447562176841068 0 0.25687819372407023 -0.38903915957053298 0 0.25108303853213881 -0.40002667887407228 0 0.24309899287842279 -0.39271330151873202 0 0.25687819372407023 -0.38903915957053298 0 0.25108303853213881 -0.40002667887407228 0 0.26390234922262928 -0.39930308446362528 0 0.26961167010500181 -0.38756246250127813 0 0.25687819372407023 -0.38903915957053298 0 0.26390234922262928 -0.39930308446362528 0 0.26390234922262928 -0.39930308446362528 0 0.27510086349567708 -0.39798721671617321 0 0.2708804648698091 -0.41009655218672442 0 0.26961167010500181 -0.38756246250127813 0 0.26390234922262928 -0.39930308446362528 0 0.27510086349567708 -0.39798721671617321 0 0.28922044672054198 -0.39637746652331562 0 0.27924907625512951 -0.38731579260330862 0 0.27510086349567708 -0.39798721671617321 0 0.27924907625512951 -0.38731579260330862 0 0.26961167010500181 -0.38756246250127813 0 0.27510086349567708 -0.39798721671617321 0 0.27510086349567708 -0.39798721671617321 0 0.2708804648698091 -0.41009655218672442 0 0.28320928432356041 -0.41012407252970262 0 0.2708804648698091 -0.41009655218672442 0 0.256136481120742 -0.41447562176841068 0 0.27433621812851161 -0.42550461519375637 0 0.2708804648698091 -0.41009655218672442 0 0.27433621812851161 -0.42550461519375637 0 0.28320928432356041 -0.41012407252970262 0 0.26390234922262928 -0.39930308446362528 0 0.2708804648698091 -0.41009655218672442 0 0.256136481120742 -0.41447562176841068 0 0.25108303853213881 -0.40002667887407228 0 0.256136481120742 -0.41447562176841068 0 0.24629253832767661 -0.41022035877505542 0 0.256136481120742 -0.41447562176841068 0 0.25513396950241118 -0.43290986753561628 0 0.2453827316299185 -0.42192330194190181 0 0.256136481120742 -0.41447562176841068 0 0.25513396950241118 -0.43290986753561628 0 0.27433621812851161 -0.42550461519375637 0 0.25513396950241118 -0.43290986753561628 0 0.27433621812851161 -0.42550461519375637 0 0.26752346795397081 -0.44788636482661331 0 0.27433621812851161 -0.42550461519375637 0 0.29937418247959258 -0.41817563384508599 0 0.28546596250580908 -0.44246723239800262 0 0.29937418247959258 -0.41817563384508599 0 0.30480654487456732 -0.44641521679941309 0 0.28546596250580908 -0.44246723239800262 0 0.28922044672054198 -0.39637746652331562 0 0.28320928432356041 -0.41012407252970262 0 0.29937418247959258 -0.41817563384508599 0 0.27433621812851161 -0.42550461519375637 0 0.28320928432356041 -0.41012407252970262 0 0.29937418247959258 -0.41817563384508599 0 0.32126124445813709 -0.43429719032362252 0 0.29937418247959258 -0.41817563384508599 0 0.30480654487456732 -0.44641521679941309 0 0.3189449745883719 -0.46117016543644002 0 0.30480654487456732 -0.44641521679941309 0 0.28880919487484108 -0.4658549053918814 0 0.30480654487456732 -0.44641521679941309 0 0.28880919487484108 -0.4658549053918814 0 0.28546596250580908 -0.44246723239800262 0 0.27433621812851161 -0.42550461519375637 0 0.28546596250580908 -0.44246723239800262 0 0.26752346795397081 -0.44788636482661331 0 0.28880919487484108 -0.4658549053918814 0 0.28546596250580908 -0.44246723239800262 0 0.26752346795397081 -0.44788636482661331 0 0.25513396950241118 -0.43290986753561628 0 0.26752346795397081 -0.44788636482661331 0 0.24480843210435321 -0.45079661158300749 0 0.26752346795397081 -0.44788636482661331 0 0.2588368117714554 -0.46700690363883102 0 0.24480843210435321 -0.45079661158300749 0 0.28880919487484108 -0.4658549053918814 0 0.26752346795397081 -0.44788636482661331 0 0.2588368117714554 -0.46700690363883102 0 0.28880919487484108 -0.4658549053918814 0 0.2588368117714554 -0.46700690363883102 0 0.27227655507569209 -0.48076744006000099 0 0.2588368117714554 -0.46700690363883102 0 0.27227655507569209 -0.48076744006000099 0 0.25270961841775552 -0.48460016746525392 0 0.2588368117714554 -0.46700690363883102 0 0.25270961841775552 -0.48460016746525392 0 0.23949561189523169 -0.47426551941090739 0 0.25270961841775552 -0.48460016746525392 0 0.26826962257648529 -0.5 0 0.2413270925756249 -0.5 0 0.27227655507569209 -0.48076744006000099 0 0.25270961841775552 -0.48460016746525392 0 0.26826962257648529 -0.5 0 0.27227655507569209 -0.48076744006000099 0 0.26826962257648529 -0.5 0 0.29521215257734579 -0.5 0 0.28880919487484108 -0.4658549053918814 0 0.27227655507569209 -0.48076744006000099 0 0.29521215257734579 -0.5 0 0.28880919487484108 -0.4658549053918814 0 0.29521215257734579 -0.5 0 0.31005432530219129 -0.48106067464861729 0 0.3189449745883719 -0.46117016543644002 0 0.28880919487484108 -0.4658549053918814 0 0.31005432530219129 -0.48106067464861729 0 0.32215468257820618 -0.5 0 0.29521215257734579 -0.5 0 0.31005432530219129 -0.48106067464861729 0 0.33463237856908817 -0.28956894479377399 0 0.33485830675890288 -0.30442904333306592 0 0.35657459314761941 -0.2860097891906741 0 0.33463237856908817 -0.28956894479377399 0 0.32894302133540282 -0.28710755170783531 0 0.35195887039823659 -0.28200771363307098 0 0.32894302133540282 -0.28710755170783531 0 0.35195887039823659 -0.28200771363307098 0 0.32894302133540282 -0.28710755170783531 0 0.33255663915089151 -0.29722249741805129 0 0.33463237856908817 -0.28956894479377399 0 0.32894302133540282 -0.28710755170783531 0 0.33255663915089151 -0.29722249741805129 0 0.32894302133540282 -0.28710755170783531 0 0.33255663915089151 -0.29722249741805129 0 0.32301709761150521 -0.2972128627914089 0 0.33485830675890288 -0.30442904333306592 0 0.34824447571033601 -0.30253517369681238 0 0.34533870308018377 -0.31598934501886372 0 0.33485830675890288 -0.30442904333306592 0 0.33255663915089151 -0.29722249741805129 0 0.32434770264142349 -0.30499280498860082 0 0.33463237856908817 -0.28956894479377399 0 0.33485830675890288 -0.30442904333306592 0 0.33255663915089151 -0.29722249741805129 0 0.32301709761150521 -0.2972128627914089 0 0.32434770264142349 -0.30499280498860082 0 0.3171485971304504 -0.30589952111326829 0 0.32434770264142349 -0.30499280498860082 0 0.3171485971304504 -0.30589952111326829 0 0.31314202037018413 -0.32284829747545468 0 0.33485830675890288 -0.30442904333306592 0 0.32434770264142349 -0.30499280498860082 0 0.31314202037018413 -0.32284829747545468 0 0.33255663915089151 -0.29722249741805129 0 0.32301709761150521 -0.2972128627914089 0 0.32434770264142349 -0.30499280498860082 0 0.3171485971304504 -0.30589952111326829 0 0.31208952779935789 -0.2908419387292881 0 0.30833746379913463 -0.30503745501229762 0 0.32301709761150521 -0.2972128627914089 0 0.3171485971304504 -0.30589952111326829 0 0.31208952779935789 -0.2908419387292881 0 0.32894302133540282 -0.28710755170783531 0 0.31611371382327402 -0.28007222207304999 0 0.31208952779935789 -0.2908419387292881 0 0.32894302133540282 -0.28710755170783531 0 0.32301709761150521 -0.2972128627914089 0 0.31208952779935789 -0.2908419387292881 0 0.32894302133540282 -0.28710755170783531 0 0.31208952779935789 -0.2908419387292881 0 0.32894302133540282 -0.28710755170783531 0 0.32245882367699719 -0.26895751187574157 0 0.32894302133540282 -0.28710755170783531 0 0.31611371382327402 -0.28007222207304999 0 0.32245882367699719 -0.26895751187574157 0 0.31611371382327402 -0.28007222207304999 0 0.32245882367699719 -0.26895751187574157 0 0.30706455279928557 -0.27339796693147528 0 0.32245882367699719 -0.26895751187574157 0 0.30981211567343969 -0.26250129009931661 0 0.30706455279928557 -0.27339796693147528 0 0.32245882367699719 -0.26895751187574157 0 0.31597462601859122 -0.25080747204364812 0 0.32245882367699719 -0.26895751187574157 0 0.31597462601859122 -0.25080747204364812 0 0.30981211567343969 -0.26250129009931661 0 0.32245882367699719 -0.26895751187574157 0 0.31597462601859122 -0.25080747204364812 0 0.33396674820841349 -0.26640759283836002 0 0.31597462601859122 -0.25080747204364812 0 0.33396674820841349 -0.26640759283836002 0 0.33517615116993849 -0.24743488902137309 0 0.33396674820841349 -0.26640759283836002 0 0.35185333732921159 -0.25428502110151557 0 0.33517615116993849 -0.24743488902137309 0 0.31597462601859122 -0.25080747204364812 0 0.33396674820841349 -0.26640759283836002 0 0.32894302133540282 -0.28710755170783531 0 0.32245882367699719 -0.26895751187574157 0 0.33396674820841349 -0.26640759283836002 0 0.33396674820841349 -0.26640759283836002 0 0.35195887039823659 -0.28200771363307098 0 0.32894302133540282 -0.28710755170783531 0 0.33396674820841349 -0.26640759283836002 0 0.35195887039823659 -0.28200771363307098 0 0.33396674820841349 -0.26640759283836002 0 0.35159414215374007 -0.26901089914998932 0 0.35195887039823659 -0.28200771363307098 0 0.35159414215374007 -0.26901089914998932 0 0.36459381448795669 -0.2792080702757721 0 0.35195887039823659 -0.28200771363307098 0 0.36459381448795669 -0.2792080702757721 0 0.35195887039823659 -0.28200771363307098 0 0.33396674820841349 -0.26640759283836002 0 0.35159414215374007 -0.26901089914998932 0 0.35185333732921159 -0.25428502110151557 0 0.35159414215374007 -0.26901089914998932 0 0.35185333732921159 -0.25428502110151557 0 0.36435388824524378 -0.26651308148643732 0 0.37477580018058132 -0.24095111383496479 0 0.37683953433427181 -0.26882153263446662 0 0.36563983252638571 -0.25462703483095822 0 0.36075586336603621 -0.2426037127049111 0 0.35185333732921159 -0.25428502110151557 0 0.36563983252638571 -0.25462703483095822 0 0.35185333732921159 -0.25428502110151557 0 0.36563983252638571 -0.25462703483095822 0 0.36435388824524378 -0.26651308148643732 0 0.37683953433427181 -0.26882153263446662 0 0.36563983252638571 -0.25462703483095822 0 0.36435388824524378 -0.26651308148643732 0 0.36459381448795669 -0.2792080702757721 0 0.36308990924476459 -0.28048364807874221 0 0.35195887039823659 -0.28200771363307098 0 0.36459381448795669 -0.2792080702757721 0 0.36308990924476459 -0.28048364807874221 0 0.37273728942595791 -0.27740364396778311 0 0.36459381448795669 -0.2792080702757721 0 0.36308990924476459 -0.28048364807874221 0 0.35159414215374007 -0.26901089914998932 0 0.36459381448795669 -0.2792080702757721 0 0.36435388824524378 -0.26651308148643732 0 0.37683953433427181 -0.26882153263446662 0 0.36459381448795669 -0.2792080702757721 0 0.36435388824524378 -0.26651308148643732 0 0.36459381448795669 -0.2792080702757721 0 0.37273728942595791 -0.27740364396778311 0 0.37683953433427181 -0.26882153263446662 0 0.36459381448795669 -0.2792080702757721 0 0.37273728942595791 -0.27740364396778311 0 0.37683953433427181 -0.26882153263446662 0 0.36459381448795669 -0.2792080702757721 0 0.36308990924476459 -0.28048364807874221 0 0.37273728942595791 -0.27740364396778311 0 0.37795999762798671 -0.28395322059410122 0 0.37273728942595791 -0.27740364396778311 0 0.36936745264149701 -0.28627283508716472 0 0.35657459314761941 -0.2860097891906741 0 0.35620629985463748 -0.30371251724464648 0 0.37101427446782781 -0.29852975601036341 0 0.36308990924476459 -0.28048364807874221 0 0.37273728942595791 -0.27740364396778311 0 0.36936745264149701 -0.28627283508716472 0 0.37519981906117678 -0.29055939022370142 0 0.37795999762798671 -0.28395322059410122 0 0.36936745264149701 -0.28627283508716472 0 0.37519981906117678 -0.29055939022370142 0 0.36936745264149701 -0.28627283508716472 0 0.37101427446782781 -0.29852975601036341 0 0.36936745264149701 -0.28627283508716472 0 0.35657459314761941 -0.2860097891906741 0 0.37101427446782781 -0.29852975601036341 0 0.35657459314761941 -0.2860097891906741 0 0.37101427446782781 -0.29852975601036341 0 0.36308990924476459 -0.28048364807874221 0 0.36936745264149701 -0.28627283508716472 0 0.35657459314761941 -0.2860097891906741 0 0.36308990924476459 -0.28048364807874221 0 0.35657459314761941 -0.2860097891906741 0 0.36308990924476459 -0.28048364807874221 0 0.35366972758071469 -0.28349111722646431 0 0.33463237856908817 -0.28956894479377399 0 0.35366972758071469 -0.28349111722646431 0 0.33463237856908817 -0.28956894479377399 0 0.35366972758071469 -0.28349111722646431 0 0.35195887039823659 -0.28200771363307098 0 0.36308990924476459 -0.28048364807874221 0 0.35366972758071469 -0.28349111722646431 0 0.35195887039823659 -0.28200771363307098 0 0.33485830675890288 -0.30442904333306592 0 0.35657459314761941 -0.2860097891906741 0 0.36308990924476459 -0.28048364807874221 0 0.35366972758071469 -0.28349111722646431 0 0.35657459314761941 -0.2860097891906741 0 0.33463237856908817 -0.28956894479377399 0 0.35366972758071469 -0.28349111722646431 0 0.35657459314761941 -0.2860097891906741 0 0.35366972758071469 -0.28349111722646431 0 0.35657459314761941 -0.2860097891906741 0 0.35366972758071469 -0.28349111722646431 0 0.35195887039823659 -0.28200771363307098 0 0.35620629985463748 -0.30371251724464648 0 0.36380134767337091 -0.31365371592763602 0 0.34533870308018377 -0.31598934501886372 0 0.35657459314761941 -0.2860097891906741 0 0.34824447571033601 -0.30253517369681238 0 0.35620629985463748 -0.30371251724464648 0 0.33485830675890288 -0.30442904333306592 0 0.35657459314761941 -0.2860097891906741 0 0.34824447571033601 -0.30253517369681238 0 0.34824447571033601 -0.30253517369681238 0 0.35620629985463748 -0.30371251724464648 0 0.34533870308018377 -0.31598934501886372 0 0.38545395578803499 -0.31104972283005378 0 0.37101427446782781 -0.29852975601036341 0 0.36380134767337091 -0.31365371592763602 0 0.35620629985463748 -0.30371251724464648 0 0.37101427446782781 -0.29852975601036341 0 0.36380134767337091 -0.31365371592763602 0 0.38545395578803499 -0.31104972283005378 0 0.36380134767337091 -0.31365371592763602 0 0.36945761595668469 -0.32738841673247931 0 0.36380134767337091 -0.31365371592763602 0 0.36945761595668469 -0.32738841673247931 0 0.35533723689285712 -0.32525253772940937 0 0.36945761595668469 -0.32738841673247931 0 0.35618710249729552 -0.34088690244721892 0 0.35533723689285712 -0.32525253772940937 0 0.36945761595668469 -0.32738841673247931 0 0.35618710249729552 -0.34088690244721892 0 0.37368731816096312 -0.34897020548070451 0 0.35618710249729552 -0.34088690244721892 0 0.33810128782584858 -0.35072533414536311 0 0.34064131712366241 -0.33181983138849169 0 0.35618710249729552 -0.34088690244721892 0 0.35533723689285712 -0.32525253772940937 0 0.34064131712366241 -0.33181983138849169 0 0.34533870308018377 -0.31598934501886372 0 0.35533723689285712 -0.32525253772940937 0 0.34064131712366241 -0.33181983138849169 0 0.36380134767337091 -0.31365371592763602 0 0.34533870308018377 -0.31598934501886372 0 0.35533723689285712 -0.32525253772940937 0 0.3689120952668708 -0.37284951495870189 0 0.37368731816096312 -0.34897020548070451 0 0.35738528973841999 -0.35772904562383351 0 0.35618710249729552 -0.34088690244721892 0 0.37368731816096312 -0.34897020548070451 0 0.35738528973841999 -0.35772904562383351 0 0.35618710249729552 -0.34088690244721892 0 0.35738528973841999 -0.35772904562383351 0 0.33810128782584858 -0.35072533414536311 0 0.35738528973841999 -0.35772904562383351 0 0.34467783115022588 -0.37252705130409253 0 0.33810128782584858 -0.35072533414536311 0 0.3689120952668708 -0.37284951495870189 0 0.35738528973841999 -0.35772904562383351 0 0.34467783115022588 -0.37252705130409253 0 0.34467783115022588 -0.37252705130409253 0 0.33810128782584858 -0.35072533414536311 0 0.3255374248820434 -0.37161020359421471 0 0.31543696134246668 -0.34593224431305769 0 0.3255374248820434 -0.37161020359421471 0 0.30900602422585888 -0.35865430802761772 0 0.31543696134246668 -0.34593224431305769 0 0.3255374248820434 -0.37161020359421471 0 0.33810128782584858 -0.35072533414536311 0 0.31543696134246668 -0.34593224431305769 0 0.3255374248820434 -0.37161020359421471 0 0.3255374248820434 -0.37161020359421471 0 0.30525369772634148 -0.37164386163485291 0 0.30900602422585888 -0.35865430802761772 0 0.34533870308018377 -0.31598934501886372 0 0.33130220335757699 -0.32186248444176119 0 0.34064131712366241 -0.33181983138849169 0 0.33485830675890288 -0.30442904333306592 0 0.34533870308018377 -0.31598934501886372 0 0.33130220335757699 -0.32186248444176119 0 0.33810128782584858 -0.35072533414536311 0 0.34064131712366241 -0.33181983138849169 0 0.3268430880468266 -0.33457206034663262 0 0.33130220335757699 -0.32186248444176119 0 0.34064131712366241 -0.33181983138849169 0 0.3268430880468266 -0.33457206034663262 0 0.31543696134246668 -0.34593224431305769 0 0.3268430880468266 -0.33457206034663262 0 0.31314202037018413 -0.32284829747545468 0 0.33810128782584858 -0.35072533414536311 0 0.31543696134246668 -0.34593224431305769 0 0.3268430880468266 -0.33457206034663262 0 0.33130220335757699 -0.32186248444176119 0 0.3268430880468266 -0.33457206034663262 0 0.31314202037018413 -0.32284829747545468 0 0.33485830675890288 -0.30442904333306592 0 0.31314202037018413 -0.32284829747545468 0 0.3171485971304504 -0.30589952111326829 0 0.31314202037018413 -0.32284829747545468 0 0.3109911447756647 -0.31350988965823029 0 0.33485830675890288 -0.30442904333306592 0 0.33130220335757699 -0.32186248444176119 0 0.31314202037018413 -0.32284829747545468 0 0.31314202037018413 -0.32284829747545468 0 0.30533649780288991 -0.32025428503190068 0 0.3109911447756647 -0.31350988965823029 0 0.30533649780288991 -0.32025428503190068 0 0.3109911447756647 -0.31350988965823029 0 0.30833746379913463 -0.30503745501229762 0 0.31543696134246668 -0.34593224431305769 0 0.30533649780288991 -0.32025428503190068 0 0.30314188851555429 -0.3464145030398364 0 0.30533649780288991 -0.32025428503190068 0 0.29792146783109758 -0.32077626486014349 0 0.30314188851555429 -0.3464145030398364 0 0.31543696134246668 -0.34593224431305769 0 0.31314202037018413 -0.32284829747545468 0 0.30533649780288991 -0.32025428503190068 0 0.29792146783109758 -0.32077626486014349 0 0.30314188851555429 -0.3464145030398364 0 0.31543696134246668 -0.34593224431305769 0 0.30533649780288991 -0.32025428503190068 0 0.29792146783109758 -0.32077626486014349 0 0.29422135484035322 -0.33366994296298719 0 0.30314188851555429 -0.3464145030398364 0 0.29422135484035322 -0.33366994296298719 0 0.29546103181119637 -0.34185893253319311 0 0.30314188851555429 -0.3464145030398364 0 0.29422135484035322 -0.33366994296298719 0 0.29546103181119637 -0.34185893253319311 0 0.28827175492889229 -0.34275780055790278 0 0.29546103181119637 -0.34185893253319311 0 0.28827175492889229 -0.34275780055790278 0 0.29811044553331972 -0.34650788457159087 0 0.29422135484035322 -0.33366994296298719 0 0.28827175492889229 -0.34275780055790278 0 0.27955848846152698 -0.33666113426449551 0 0.29422135484035322 -0.33366994296298719 0 0.28744860979629389 -0.32474860906702402 0 0.27955848846152698 -0.33666113426449551 0 0.28744860979629389 -0.32474860906702402 0 0.29019889155513462 -0.31620785207956748 0 0.28097437988070417 -0.31138482246715898 0 0.29792146783109758 -0.32077626486014349 0 0.29019889155513462 -0.31620785207956748 0 0.29244758100571983 -0.32385066724243061 0 0.29422135484035322 -0.33366994296298719 0 0.28744860979629389 -0.32474860906702402 0 0.29244758100571983 -0.32385066724243061 0 0.29792146783109758 -0.32077626486014349 0 0.29422135484035322 -0.33366994296298719 0 0.29244758100571983 -0.32385066724243061 0 0.28744860979629389 -0.32474860906702402 0 0.29019889155513462 -0.31620785207956748 0 0.29244758100571983 -0.32385066724243061 0 0.30525369772634148 -0.37164386163485291 0 0.30031449930387721 -0.36082981960256849 0 0.30900602422585888 -0.35865430802761772 0 0.30525369772634148 -0.37164386163485291 0 0.30031449930387721 -0.36082981960256849 0 0.29483415024835152 -0.36747827247447862 0 0.30080593951138668 -0.35381036279877531 0 0.30900602422585888 -0.35865430802761772 0 0.30314188851555429 -0.3464145030398364 0 0.30080593951138668 -0.35381036279877531 0 0.29811044553331972 -0.34650788457159087 0 0.29345683997832372 -0.35664529875226292 0 0.30031449930387721 -0.36082981960256849 0 0.30080593951138668 -0.35381036279877531 0 0.30900602422585888 -0.35865430802761772 0 0.30031449930387721 -0.36082981960256849 0 0.30080593951138668 -0.35381036279877531 0 0.29345683997832372 -0.35664529875226292 0 0.31543696134246668 -0.34593224431305769 0 0.30900602422585888 -0.35865430802761772 0 0.30314188851555429 -0.3464145030398364 0 0.30080593951138668 -0.35381036279877531 0 0.30314188851555429 -0.3464145030398364 0 0.29811044553331972 -0.34650788457159087 0 0.29546103181119637 -0.34185893253319311 0 0.30314188851555429 -0.3464145030398364 0 0.29811044553331972 -0.34650788457159087 0 0.29811044553331972 -0.34650788457159087 0 0.29345683997832372 -0.35664529875226292 0 0.28122462644821988 -0.35688066365974619 0 0.28827175492889229 -0.34275780055790278 0 0.29811044553331972 -0.34650788457159087 0 0.28122462644821988 -0.35688066365974619 0 0.28827175492889229 -0.34275780055790278 0 0.28122462644821988 -0.35688066365974619 0 0.27955848846152698 -0.33666113426449551 0 0.29811044553331972 -0.34650788457159087 0 0.28122462644821988 -0.35688066365974619 0 0.29345683997832372 -0.35664529875226292 0 0.28676543400443838 -0.36101512068260139 0 0.28122462644821988 -0.35688066365974619 0 0.28676543400443838 -0.36101512068260139 0 0.28122462644821988 -0.35688066365974619 0 0.28783989868818821 -0.37644057584389279 0 0.30525369772634148 -0.37164386163485291 0 0.29483415024835152 -0.36747827247447862 0 0.28783989868818821 -0.37644057584389279 0 0.28676543400443838 -0.36101512068260139 0 0.27033126349110148 -0.36357234067652822 0 0.29357505063040601 -0.36145191270551408 0 0.28676543400443838 -0.36101512068260139 0 0.29483415024835152 -0.36747827247447862 0 0.30031449930387721 -0.36082981960256849 0 0.29357505063040601 -0.36145191270551408 0 0.29483415024835152 -0.36747827247447862 0 0.30031449930387721 -0.36082981960256849 0 0.29345683997832372 -0.35664529875226292 0 0.29357505063040601 -0.36145191270551408 0 0.29345683997832372 -0.35664529875226292 0 0.29357505063040601 -0.36145191270551408 0 0.28676543400443838 -0.36101512068260139 0 0.28783989868818821 -0.37644057584389279 0 0.28676543400443838 -0.36101512068260139 0 0.29483415024835152 -0.36747827247447862 0 0.28783989868818821 -0.37644057584389279 0 0.27033126349110148 -0.36357234067652822 0 0.28783989868818821 -0.37644057584389279 0 0.27447250226623809 -0.37821124143188289 0 0.27033126349110148 -0.36357234067652822 0 0.28676543400443838 -0.36101512068260139 0 0.27033126349110148 -0.36357234067652822 0 0.28122462644821988 -0.35688066365974619 0 0.27447250226623809 -0.37821124143188289 0 0.26423397132697279 -0.37890457124200982 0 0.27033126349110148 -0.36357234067652822 0 0.27033126349110148 -0.36357234067652822 0 0.28122462644821988 -0.35688066365974619 0 0.28122462644821988 -0.35688066365974619 0 0.26082083375001269 -0.34165569813656432 0 0.27033126349110148 -0.36357234067652822 0 0.28122462644821988 -0.35688066365974619 0 0.26082083375001269 -0.34165569813656432 0 0.28122462644821988 -0.35688066365974619 0 0.27955848846152698 -0.33666113426449551 0 0.26082083375001269 -0.34165569813656432 0 0.27033126349110148 -0.36357234067652822 0 0.25099839141978419 -0.34936335514031408 0 0.27033126349110148 -0.36357234067652822 0 0.25099839141978419 -0.34936335514031408 0 0.26082083375001269 -0.34165569813656432 0 0.27033126349110148 -0.36357234067652822 0 0.25099839141978419 -0.34936335514031408 0 0.24534349961555019 -0.36253701182870851 0 0.26423397132697279 -0.37890457124200982 0 0.27033126349110148 -0.36357234067652822 0 0.24987622704845311 -0.37613765202982719 0 0.27033126349110148 -0.36357234067652822 0 0.24534349961555019 -0.36253701182870851 0 0.24987622704845311 -0.37613765202982719 0 0.27033126349110148 -0.36357234067652822 0 0.24987622704845311 -0.37613765202982719 0 0.28744860979629389 -0.32474860906702402 0 0.26598899428458778 -0.32103793389256657 0 0.27955848846152698 -0.33666113426449551 0 0.28744860979629389 -0.32474860906702402 0 0.26598899428458778 -0.32103793389256657 0 0.28097437988070417 -0.31138482246715898 0 0.26598899428458778 -0.32103793389256657 0 0.27955848846152698 -0.33666113426449551 0 0.26082083375001269 -0.34165569813656432 0 0.26082083375001269 -0.34165569813656432 0 0.2404170410518052 -0.32643073261338312 0 0.26598899428458778 -0.32103793389256657 0 0.26082083375001269 -0.34165569813656432 0 0.2404170410518052 -0.32643073261338312 0 0.25099839141978419 -0.34936335514031408 0 0.26082083375001269 -0.34165569813656432 0 0.2404170410518052 -0.32643073261338312 0 0.26598899428458778 -0.32103793389256657 0 0.24423538898563429 -0.30587701823941071 0 0.2404170410518052 -0.32643073261338312 0 0.26846821806613752 -0.30050752245993012 0 0.24423538898563429 -0.30587701823941071 0 0.25301376652256202 -0.2892367573709661 0 0.26846821806613752 -0.30050752245993012 0 0.24423538898563429 -0.30587701823941071 0 0.26598899428458778 -0.32103793389256657 0 0.26846821806613752 -0.30050752245993012 0 0.24423538898563429 -0.30587701823941071 0 0.25301376652256202 -0.2892367573709661 0 0.26500420865911251 -0.28331687632378699 0 0.26846821806613752 -0.30050752245993012 0 0.25301376652256202 -0.2892367573709661 0 0.26500420865911251 -0.28331687632378699 0 0.2507153324002197 -0.27704953531328702 0 0.26500420865911251 -0.28331687632378699 0 0.27805302037335089 -0.28584974436810762 0 0.26846821806613752 -0.30050752245993012 0 0.27805302037335089 -0.28584974436810762 0 0.26846821806613752 -0.30050752245993012 0 0.29270104714664102 -0.29513802668045069 0 0.26500420865911251 -0.28331687632378699 0 0.27805302037335089 -0.28584974436810762 0 0.27342558025451552 -0.27498979272208851 0 0.26598899428458778 -0.32103793389256657 0 0.26846821806613752 -0.30050752245993012 0 0.28097437988070417 -0.31138482246715898 0 0.26846821806613752 -0.30050752245993012 0 0.28097437988070417 -0.31138482246715898 0 0.29270104714664102 -0.29513802668045069 0 0.26846821806613752 -0.30050752245993012 0 0.29270104714664102 -0.29513802668045069 0 0.29792146783109758 -0.32077626486014349 0 0.29270104714664102 -0.29513802668045069 0 0.29019889155513462 -0.31620785207956748 0 0.28097437988070417 -0.31138482246715898 0 0.29270104714664102 -0.29513802668045069 0 0.29792146783109758 -0.32077626486014349 0 0.29019889155513462 -0.31620785207956748 0 0.29270104714664102 -0.29513802668045069 0 0.29792146783109758 -0.32077626486014349 0 0.29270104714664102 -0.29513802668045069 0 0.29523603426331357 -0.29457632575074338 0 0.27805302037335089 -0.28584974436810762 0 0.29026987947112831 -0.28319821192468808 0 0.29270104714664102 -0.29513802668045069 0 0.27805302037335089 -0.28584974436810762 0 0.29026987947112831 -0.28319821192468808 0 0.28863308206368682 -0.27515966401439529 0 0.29026987947112831 -0.28319821192468808 0 0.29523603426331357 -0.29457632575074338 0 0.29026987947112831 -0.28319821192468808 0 0.29523603426331357 -0.29457632575074338 0 0.30320790951940702 -0.28313078900162059 0 0.29026987947112831 -0.28319821192468808 0 0.29270104714664102 -0.29513802668045069 0 0.29523603426331357 -0.29457632575074338 0 0.29026987947112831 -0.28319821192468808 0 0.29270104714664102 -0.29513802668045069 0 0.29270104714664102 -0.29513802668045069 0 0.29523603426331357 -0.29457632575074338 0 0.29523603426331357 -0.29457632575074338 0 0.31208952779935789 -0.2908419387292881 0 0.29523603426331357 -0.29457632575074338 0 0.30320790951940702 -0.28313078900162059 0 0.31208952779935789 -0.2908419387292881 0 0.29523603426331357 -0.29457632575074338 0 0.31208952779935789 -0.2908419387292881 0 0.30833746379913463 -0.30503745501229762 0 0.31611371382327402 -0.28007222207304999 0 0.30320790951940702 -0.28313078900162059 0 0.31208952779935789 -0.2908419387292881 0 0.30533649780288991 -0.32025428503190068 0 0.29523603426331357 -0.29457632575074338 0 0.30833746379913463 -0.30503745501229762 0 0.30533649780288991 -0.32025428503190068 0 0.29792146783109758 -0.32077626486014349 0 0.29523603426331357 -0.29457632575074338 0 0.30533649780288991 -0.32025428503190068 0 0.29523603426331357 -0.29457632575074338 0 0.3171485971304504 -0.30589952111326829 0 0.3109911447756647 -0.31350988965823029 0 0.30833746379913463 -0.30503745501229762 0 0.29812220868357159 -0.26533402464574418 0 0.30111904597271899 -0.2536098058489899 0 0.30981211567343969 -0.26250129009931661 0 0.31597462601859122 -0.25080747204364812 0 0.30111904597271899 -0.2536098058489899 0 0.30981211567343969 -0.26250129009931661 0 0.29812220868357159 -0.26533402464574418 0 0.30981211567343969 -0.26250129009931661 0 0.30706455279928557 -0.27339796693147528 0 0.31611371382327402 -0.28007222207304999 0 0.30320790951940702 -0.28313078900162059 0 0.30706455279928557 -0.27339796693147528 0 0.29026987947112831 -0.28319821192468808 0 0.30320790951940702 -0.28313078900162059 0 0.29755036247591721 -0.27602563541609298 0 0.30320790951940702 -0.28313078900162059 0 0.30706455279928557 -0.27339796693147528 0 0.29755036247591721 -0.27602563541609298 0 0.29812220868357159 -0.26533402464574418 0 0.30706455279928557 -0.27339796693147528 0 0.29755036247591721 -0.27602563541609298 0 0.29812220868357159 -0.26533402464574418 0 0.29755036247591721 -0.27602563541609298 0 0.28863308206368682 -0.27515966401439529 0 0.29026987947112831 -0.28319821192468808 0 0.28863308206368682 -0.27515966401439529 0 0.29026987947112831 -0.28319821192468808 0 0.29755036247591721 -0.27602563541609298 0 0.28863308206368682 -0.27515966401439529 0 0.28863308206368682 -0.27515966401439529 0 0.28456511698073272 -0.25518130134833977 0 0.29812220868357159 -0.26533402464574418 0 0.28863308206368682 -0.27515966401439529 0 0.28456511698073272 -0.25518130134833977 0 0.29812220868357159 -0.26533402464574418 0 0.30111904597271899 -0.2536098058489899 0 0.28456511698073272 -0.25518130134833977 0 0.28863308206368682 -0.27515966401439529 0 0.28456511698073272 -0.25518130134833977 0 0.27223885194073971 -0.26265851400849172 0 0.28456511698073272 -0.25518130134833977 0 0.27223885194073971 -0.26265851400849172 0 0.26629969424128969 -0.25192769388052821 0 0.27223885194073971 -0.26265851400849172 0 0.26629969424128969 -0.25192769388052821 0 0.2629172406837702 -0.26740365320709081 0 0.26500420865911251 -0.28331687632378699 0 0.27342558025451552 -0.27498979272208851 0 0.2629172406837702 -0.26740365320709081 0 0.28863308206368682 -0.27515966401439529 0 0.27223885194073971 -0.26265851400849172 0 0.27342558025451552 -0.27498979272208851 0 0.27805302037335089 -0.28584974436810762 0 0.28863308206368682 -0.27515966401439529 0 0.27342558025451552 -0.27498979272208851 0 0.27223885194073971 -0.26265851400849172 0 0.27342558025451552 -0.27498979272208851 0 0.2629172406837702 -0.26740365320709081 0 0.26500420865911251 -0.28331687632378699 0 0.2629172406837702 -0.26740365320709081 0 0.2507153324002197 -0.27704953531328702 0 0.2629172406837702 -0.26740365320709081 0 0.2507153324002197 -0.27704953531328702 0 0.2466218950091964 -0.26012473444713258 0 0.25037283077400019 -0.2416092145933311 0 0.26629969424128969 -0.25192769388052821 0 0.2466218950091964 -0.26012473444713258 0 0.26629969424128969 -0.25192769388052821 0 0.2629172406837702 -0.26740365320709081 0 0.2466218950091964 -0.26012473444713258 0 0.25037283077400019 -0.2416092145933311 0 0.2466218950091964 -0.26012473444713258 0 0.2339549802858914 -0.24933471903745599 0 0.2466218950091964 -0.26012473444713258 0 0.22717476572977791 -0.26325637954660608 0 0.2339549802858914 -0.24933471903745599 0 0.2466218950091964 -0.26012473444713258 0 0.23628574795648369 -0.27498419313581679 0 0.22717476572977791 -0.26325637954660608 0 0.2507153324002197 -0.27704953531328702 0 0.2466218950091964 -0.26012473444713258 0 0.23628574795648369 -0.27498419313581679 0 0.2507153324002197 -0.27704953531328702 0 0.23628574795648369 -0.27498419313581679 0 0.24044913557019401 -0.28723099739492908 0 0.2247339410531527 -0.27667652802353632 0 0.21554844428562811 -0.26491471108287651 0 0.21653111649902579 -0.28712771180040292 0 0.23628574795648369 -0.27498419313581679 0 0.2247339410531527 -0.27667652802353632 0 0.22717476572977791 -0.26325637954660608 0 0.2247339410531527 -0.27667652802353632 0 0.22717476572977791 -0.26325637954660608 0 0.21554844428562811 -0.26491471108287651 0 0.22717476572977791 -0.26325637954660608 0 0.22331750647786899 -0.25281133177650322 0 0.2339549802858914 -0.24933471903745599 0 0.22717476572977791 -0.26325637954660608 0 0.22331750647786899 -0.25281133177650322 0 0.21554844428562811 -0.26491471108287651 0 0.2084475354763706 -0.25511513831035743 0 0.21554844428562811 -0.26491471108287651 0 0.1982966667633215 -0.26354120971092698 0 0.21554844428562811 -0.26491471108287651 0 0.21456577207223029 -0.24270171036535029 0 0.22331750647786899 -0.25281133177650322 0 0.21554844428562811 -0.26491471108287651 0 0.21456577207223029 -0.24270171036535029 0 0.2084475354763706 -0.25511513831035743 0 0.21554844428562811 -0.26491471108287651 0 0.21336353465090491 -0.24693864317134839 0 0.21554844428562811 -0.26491471108287651 0 0.21336353465090491 -0.24693864317134839 0 0.21456577207223029 -0.24270171036535029 0 0.2084475354763706 -0.25511513831035743 0 0.1982966667633215 -0.26354120971092698 0 0.2080714594183444 -0.2424179483002232 0 0.1982966667633215 -0.26354120971092698 0 0.2080714594183444 -0.2424179483002232 0 0.21554844428562811 -0.26491471108287651 0 0.21653111649902579 -0.28712771180040292 0 0.21554844428562811 -0.26491471108287651 0 0.20859607852913339 -0.28093905456482821 0 0.21653111649902579 -0.28712771180040292 0 0.21554844428562811 -0.26491471108287651 0 0.20859607852913339 -0.28093905456482821 0 0.2011380539128553 -0.27767933622792518 0 0.21554844428562811 -0.26491471108287651 0 0.2011380539128553 -0.27767933622792518 0 0.1982966667633215 -0.26354120971092698 0 0.1982966667633215 -0.26354120971092698 0 0.18852187410829821 -0.28466447112163068 0 0.1982966667633215 -0.26354120971092698 0 0.18852187410829821 -0.28466447112163068 0 0.1845366839674035 -0.26640487959885623 0 0.2011380539128553 -0.27767933622792518 0 0.1982966667633215 -0.26354120971092698 0 0.18852187410829821 -0.28466447112163068 0 0.1982966667633215 -0.26354120971092698 0 0.2080714594183444 -0.2424179483002232 0 0.19254414318066221 -0.24961624770678509 0 0.1982966667633215 -0.26354120971092698 0 0.18706352147094041 -0.25756661524031438 0 0.1845366839674035 -0.26640487959885623 0 0.1982966667633215 -0.26354120971092698 0 0.18706352147094041 -0.25756661524031438 0 0.19254414318066221 -0.24961624770678509 0 0.18706352147094041 -0.25756661524031438 0 0.19254414318066221 -0.24961624770678509 0 0.18399505531774341 -0.24981832115951039 0 0.20249447748908611 -0.29813355613580778 0 0.1976485991634879 -0.30796138879627621 0 0.19462594870140809 -0.30164723750547567 0 0.20249447748908611 -0.29813355613580778 0 0.19462594870140809 -0.30164723750547567 0 0.19392418081794471 -0.29575522021664652 0 0.20249447748908611 -0.29813355613580778 0 0.1976485991634879 -0.30796138879627621 0 0.20782414549410869 -0.30817847155873718 0 0.1976485991634879 -0.30796138879627621 0 0.20782414549410869 -0.30817847155873718 0 0.20282381327660201 -0.31505297042611552 0 0.1976485991634879 -0.30796138879627621 0 0.19009702279388629 -0.3064242775921906 0 0.18802618722583669 -0.31833181955932999 0 0.1976485991634879 -0.30796138879627621 0 0.19009702279388629 -0.3064242775921906 0 0.19462594870140809 -0.30164723750547567 0 0.19009702279388629 -0.3064242775921906 0 0.19462594870140809 -0.30164723750547567 0 0.1880606218677118 -0.30022154946313712 0 0.19462594870140809 -0.30164723750547567 0 0.19110113081553529 -0.29631368747161629 0 0.19392418081794471 -0.29575522021664652 0 0.1880606218677118 -0.30022154946313712 0 0.19110113081553529 -0.29631368747161629 0 0.18734834214976739 -0.29514628785519947 0 0.19462594870140809 -0.30164723750547567 0 0.1880606218677118 -0.30022154946313712 0 0.19110113081553529 -0.29631368747161629 0 0.20249447748908611 -0.29813355613580778 0 0.18747516626574931 -0.28692639975368628 0 0.20249447748908611 -0.29813355613580778 0 0.19392418081794471 -0.29575522021664652 0 0.18747516626574931 -0.28692639975368628 0 0.19110113081553529 -0.29631368747161629 0 0.19392418081794471 -0.29575522021664652 0 0.18747516626574931 -0.28692639975368628 0 0.19110113081553529 -0.29631368747161629 0 0.18747516626574931 -0.28692639975368628 0 0.18734834214976739 -0.29514628785519947 0 0.18852187410829821 -0.28466447112163068 0 0.19787122383615691 -0.29172525818392958 0 0.18852187410829821 -0.28466447112163068 0 0.19731262536099689 -0.28481999283041842 0 0.19787122383615691 -0.29172525818392958 0 0.18852187410829821 -0.28466447112163068 0 0.19787122383615691 -0.29172525818392958 0 0.18747516626574931 -0.28692639975368628 0 0.18852187410829821 -0.28466447112163068 0 0.18747516626574931 -0.28692639975368628 0 0.2011380539128553 -0.27767933622792518 0 0.18852187410829821 -0.28466447112163068 0 0.19731262536099689 -0.28481999283041842 0 0.201719349586677 -0.2852109057881882 0 0.19787122383615691 -0.29172525818392958 0 0.206049533411369 -0.28982701925762389 0 0.19731262536099689 -0.28481999283041842 0 0.201719349586677 -0.2852109057881882 0 0.19787122383615691 -0.29172525818392958 0 0.2011380539128553 -0.27767933622792518 0 0.19731262536099689 -0.28481999283041842 0 0.201719349586677 -0.2852109057881882 0 0.20249447748908611 -0.29813355613580778 0 0.19787122383615691 -0.29172525818392958 0 0.18747516626574931 -0.28692639975368628 0 0.20249447748908611 -0.29813355613580778 0 0.19787122383615691 -0.29172525818392958 0 0.206049533411369 -0.28982701925762389 0 0.20249447748908611 -0.29813355613580778 0 0.206049533411369 -0.28982701925762389 0 0.20903552332543929 -0.29406903275804652 0 0.206049533411369 -0.28982701925762389 0 0.20903552332543929 -0.29406903275804652 0 0.21653111649902579 -0.28712771180040292 0 0.20249447748908611 -0.29813355613580778 0 0.20903552332543929 -0.29406903275804652 0 0.2123558614978226 -0.29827812898856709 0 0.20859607852913339 -0.28093905456482821 0 0.206049533411369 -0.28982701925762389 0 0.21653111649902579 -0.28712771180040292 0 0.20859607852913339 -0.28093905456482821 0 0.201719349586677 -0.2852109057881882 0 0.206049533411369 -0.28982701925762389 0 0.20859607852913339 -0.28093905456482821 0 0.2011380539128553 -0.27767933622792518 0 0.201719349586677 -0.2852109057881882 0 0.20903552332543929 -0.29406903275804652 0 0.21653111649902579 -0.28712771180040292 0 0.2123558614978226 -0.29827812898856709 0 0.21653111649902579 -0.28712771180040292 0 0.2175137887124228 -0.30934071251792922 0 0.21653111649902579 -0.28712771180040292 0 0.2123558614978226 -0.29827812898856709 0 0.2175137887124228 -0.30934071251792922 0 0.20249447748908611 -0.29813355613580778 0 0.2123558614978226 -0.29827812898856709 0 0.2175137887124228 -0.30934071251792922 0 0.20249447748908611 -0.29813355613580778 0 0.2175137887124228 -0.30934071251792922 0 0.20782414549410869 -0.30817847155873718 0 0.2176214393273678 -0.31177412129290383 0 0.20282381327660201 -0.31505297042611552 0 0.20249447748908611 -0.29813355613580778 0 0.20782414549410869 -0.30817847155873718 0 0.2175137887124228 -0.30934071251792922 0 0.20782414549410869 -0.30817847155873718 0 0.2175137887124228 -0.30934071251792922 0 0.2176214393273678 -0.31177412129290383 0 0.2175137887124228 -0.30934071251792922 0 0.2176214393273678 -0.31177412129290383 0 0.2175137887124228 -0.30934071251792922 0 0.2176214393273678 -0.31177412129290383 0 0.21999804566891551 -0.31122614102315033 0 0.21999804566891551 -0.31122614102315033 0 0.24423538898563429 -0.30587701823941071 0 0.2175137887124228 -0.30934071251792922 0 0.21999804566891551 -0.31122614102315033 0 0.22812963079484819 -0.29309964455197901 0 0.21999804566891551 -0.31122614102315033 0 0.22812963079484819 -0.29309964455197901 0 0.21999804566891551 -0.31122614102315033 0 0.22812963079484819 -0.29309964455197901 0 0.24423538898563429 -0.30587701823941071 0 0.2176214393273678 -0.31177412129290383 0 0.21999804566891551 -0.31122614102315033 0 0.2175137887124228 -0.30934071251792922 0 0.21999804566891551 -0.31122614102315033 0 0.23628574795648369 -0.27498419313581679 0 0.22812963079484819 -0.29309964455197901 0 0.2247339410531527 -0.27667652802353632 0 0.21653111649902579 -0.28712771180040292 0 0.22812963079484819 -0.29309964455197901 0 0.23628574795648369 -0.27498419313581679 0 0.2247339410531527 -0.27667652802353632 0 0.22812963079484819 -0.29309964455197901 0 0.21653111649902579 -0.28712771180040292 0 0.2175137887124228 -0.30934071251792922 0 0.22812963079484819 -0.29309964455197901 0 0.23628574795648369 -0.27498419313581679 0 0.22812963079484819 -0.29309964455197901 0 0.24044913557019401 -0.28723099739492908 0 0.25301376652256202 -0.2892367573709661 0 0.24044913557019401 -0.28723099739492908 0 0.24423538898563429 -0.30587701823941071 0 0.22812963079484819 -0.29309964455197901 0 0.24044913557019401 -0.28723099739492908 0 0.24423538898563429 -0.30587701823941071 0 0.25301376652256202 -0.2892367573709661 0 0.2507153324002197 -0.27704953531328702 0 0.24044913557019401 -0.28723099739492908 0 0.21999804566891551 -0.31122614102315033 0 0.24423538898563429 -0.30587701823941071 0 0.2404170410518052 -0.32643073261338312 0 0.25099839141978419 -0.34936335514031408 0 0.2316655193484673 -0.33515436960409939 0 0.25099839141978419 -0.34936335514031408 0 0.2404170410518052 -0.32643073261338312 0 0.2316655193484673 -0.33515436960409939 0 0.2404170410518052 -0.32643073261338312 0 0.2316655193484673 -0.33515436960409939 0 0.2247705650129608 -0.32491873692320528 0 0.2316655193484673 -0.33515436960409939 0 0.22208049410379579 -0.34309390150507102 0 0.22867514261462599 -0.34782526071452929 0 0.2316655193484673 -0.33515436960409939 0 0.22208049410379579 -0.34309390150507102 0 0.220555537226792 -0.33578323097752499 0 0.22208049410379579 -0.34309390150507102 0 0.220555537226792 -0.33578323097752499 0 0.21451162402718699 -0.34512658597487872 0 0.220555537226792 -0.33578323097752499 0 0.2247705650129608 -0.32491873692320528 0 0.21820242441149371 -0.32490710899175251 0 0.2316655193484673 -0.33515436960409939 0 0.220555537226792 -0.33578323097752499 0 0.2247705650129608 -0.32491873692320528 0 0.21999804566891551 -0.31122614102315033 0 0.2404170410518052 -0.32643073261338312 0 0.2247705650129608 -0.32491873692320528 0 0.21999804566891551 -0.31122614102315033 0 0.2404170410518052 -0.32643073261338312 0 0.2247705650129608 -0.32491873692320528 0 0.21780935440599439 -0.31602188338433101 0 0.21820242441149371 -0.32490710899175251 0 0.21999804566891551 -0.31122614102315033 0 0.2247705650129608 -0.32491873692320528 0 0.21780935440599439 -0.31602188338433101 0 0.21999804566891551 -0.31122614102315033 0 0.21780935440599439 -0.31602188338433101 0 0.23679608458568241 -0.3713456781615978 0 0.24534349961555019 -0.36253701182870851 0 0.24987622704845311 -0.37613765202982719 0 0.23679608458568241 -0.3713456781615978 0 0.24534349961555019 -0.36253701182870851 0 0.23133102347449649 -0.35950822589080189 0 0.25099839141978419 -0.34936335514031408 0 0.2316655193484673 -0.33515436960409939 0 0.23760271529458479 -0.35087764463569071 0 0.24534349961555019 -0.36253701182870851 0 0.23760271529458479 -0.35087764463569071 0 0.23133102347449649 -0.35950822589080189 0 0.25099839141978419 -0.34936335514031408 0 0.24534349961555019 -0.36253701182870851 0 0.23760271529458479 -0.35087764463569071 0 0.2316655193484673 -0.33515436960409939 0 0.23760271529458479 -0.35087764463569071 0 0.22867514261462599 -0.34782526071452929 0 0.22208049410379579 -0.34309390150507102 0 0.22076837523631451 -0.35267920974236072 0 0.21451162402718699 -0.34512658597487872 0 0.22208049410379579 -0.34309390150507102 0 0.22867514261462599 -0.34782526071452929 0 0.22076837523631451 -0.35267920974236072 0 0.22076837523631451 -0.35267920974236072 0 0.22341137818785181 -0.36337688942730773 0 0.21609027172906259 -0.36087537471117581 0 0.22076837523631451 -0.35267920974236072 0 0.23133102347449649 -0.35950822589080189 0 0.22341137818785181 -0.36337688942730773 0 0.22867514261462599 -0.34782526071452929 0 0.22076837523631451 -0.35267920974236072 0 0.23133102347449649 -0.35950822589080189 0 0.23760271529458479 -0.35087764463569071 0 0.22867514261462599 -0.34782526071452929 0 0.23133102347449649 -0.35950822589080189 0 0.23133102347449649 -0.35950822589080189 0 0.22341137818785181 -0.36337688942730773 0 0.22699371624108439 -0.37103399677892651 0 0.22341137818785181 -0.36337688942730773 0 0.22699371624108439 -0.37103399677892651 0 0.21663927632257499 -0.37152038636996992 0 0.22699371624108439 -0.37103399677892651 0 0.21663927632257499 -0.37152038636996992 0 0.22189277223980711 -0.38054577212349588 0 0.23679608458568241 -0.3713456781615978 0 0.22699371624108439 -0.37103399677892651 0 0.23010576568282681 -0.37607478874810818 0 0.23679608458568241 -0.3713456781615978 0 0.23133102347449649 -0.35950822589080189 0 0.22699371624108439 -0.37103399677892651 0 0.21663927632257499 -0.37152038636996992 0 0.20683644217058031 -0.36558797855932218 0 0.20576161095015591 -0.37595213443190167 0 0.22341137818785181 -0.36337688942730773 0 0.21663927632257499 -0.37152038636996992 0 0.21609027172906259 -0.36087537471117581 0 0.21609027172906259 -0.36087537471117581 0 0.20683644217058031 -0.36558797855932218 0 0.21089823393406021 -0.35324530101306001 0 0.21663927632257499 -0.37152038636996992 0 0.21609027172906259 -0.36087537471117581 0 0.20683644217058031 -0.36558797855932218 0 0.19940837682496099 -0.35689206815154528 0 0.20777431361625601 -0.33831058893907762 0 0.21089823393406021 -0.35324530101306001 0 0.19940837682496099 -0.35689206815154528 0 0.20777431361625601 -0.33831058893907762 0 0.20683644217058031 -0.36558797855932218 0 0.21089823393406021 -0.35324530101306001 0 0.19940837682496099 -0.35689206815154528 0 0.22076837523631451 -0.35267920974236072 0 0.21609027172906259 -0.36087537471117581 0 0.21089823393406021 -0.35324530101306001 0 0.21089823393406021 -0.35324530101306001 0 0.21451162402718699 -0.34512658597487872 0 0.20777431361625601 -0.33831058893907762 0 0.22076837523631451 -0.35267920974236072 0 0.21089823393406021 -0.35324530101306001 0 0.21451162402718699 -0.34512658597487872 0 0.1971616983813648 -0.34495631128618592 0 0.19940837682496099 -0.35689206815154528 0 0.20777431361625601 -0.33831058893907762 0 0.1971616983813648 -0.34495631128618592 0 0.18787137947787569 -0.35180034780069419 0 0.18864170350563411 -0.33720407153827198 0 0.1971616983813648 -0.34495631128618592 0 0.18787137947787569 -0.35180034780069419 0 0.19940837682496099 -0.35689206815154528 0 0.20683644217058031 -0.36558797855932218 0 0.20576161095015591 -0.37595213443190167 0 0.1910424400336663 -0.37547354736401328 0 0.18787137947787569 -0.35180034780069419 0 0.19940837682496099 -0.35689206815154528 0 0.1910424400336663 -0.37547354736401328 0 0.19940837682496099 -0.35689206815154528 0 0.1910424400336663 -0.37547354736401328 0 0.20683644217058031 -0.36558797855932218 0 0.19940837682496099 -0.35689206815154528 0 0.1910424400336663 -0.37547354736401328 0 0.21780935440599439 -0.31602188338433101 0 0.20777431361625601 -0.33831058893907762 0 0.21780935440599439 -0.31602188338433101 0 0.20777431361625601 -0.33831058893907762 0 0.20282381327660201 -0.31505297042611552 0 0.21780935440599439 -0.31602188338433101 0 0.21820242441149371 -0.32490710899175251 0 0.20777431361625601 -0.33831058893907762 0 0.2176214393273678 -0.31177412129290383 0 0.20282381327660201 -0.31505297042611552 0 0.2176214393273678 -0.31177412129290383 0 0.21780935440599439 -0.31602188338433101 0 0.20282381327660201 -0.31505297042611552 0 0.2176214393273678 -0.31177412129290383 0 0.21780935440599439 -0.31602188338433101 0 0.2176214393273678 -0.31177412129290383 0 0.21999804566891551 -0.31122614102315033 0 0.21780935440599439 -0.31602188338433101 0 0.21780935440599439 -0.31602188338433101 0 0.21820242441149371 -0.32490710899175251 0 0.220555537226792 -0.33578323097752499 0 0.21820242441149371 -0.32490710899175251 0 0.20777431361625601 -0.33831058893907762 0 0.220555537226792 -0.33578323097752499 0 0.21451162402718699 -0.34512658597487872 0 0.20777431361625601 -0.33831058893907762 0 0.21451162402718699 -0.34512658597487872 0 0.20777431361625601 -0.33831058893907762 0 0.1971616983813648 -0.34495631128618592 0 0.20777431361625601 -0.33831058893907762 0 0.18864170350563411 -0.33720407153827198 0 0.20777431361625601 -0.33831058893907762 0 0.18802618722583669 -0.31833181955932999 0 0.20777431361625601 -0.33831058893907762 0 0.18864170350563411 -0.33720407153827198 0 0.18802618722583669 -0.31833181955932999 0 0.20777431361625601 -0.33831058893907762 0 0.20282381327660201 -0.31505297042611552 0 0.18802618722583669 -0.31833181955932999 0 0.20282381327660201 -0.31505297042611552 0 0.18802618722583669 -0.31833181955932999 0 0.1976485991634879 -0.30796138879627621 0 0.20282381327660201 -0.31505297042611552 0 0.18802618722583669 -0.31833181955932999 0 0.18802618722583669 -0.31833181955932999 0 0.1791507244663583 -0.32983729973660558 0 0.16791254130802971 -0.3227885891963716 0 0.18802618722583669 -0.31833181955932999 0 0.17151825735526699 -0.31325416760549368 0 0.16791254130802971 -0.3227885891963716 0 0.18802618722583669 -0.31833181955932999 0 0.16791254130802971 -0.3227885891963716 0 0.18864170350563411 -0.33720407153827198 0 0.18802618722583669 -0.31833181955932999 0 0.1791507244663583 -0.32983729973660558 0 0.17202246582593331 -0.34102471865244838 0 0.1791507244663583 -0.32983729973660558 0 0.16791254130802971 -0.3227885891963716 0 0.18787137947787569 -0.35180034780069419 0 0.18864170350563411 -0.33720407153827198 0 0.17202246582593331 -0.34102471865244838 0 0.18864170350563411 -0.33720407153827198 0 0.17202246582593331 -0.34102471865244838 0 0.1791507244663583 -0.32983729973660558 0 0.17202246582593331 -0.34102471865244838 0 0.1546435437787094 -0.34381338892778002 0 0.1557586906108582 -0.32786840018592928 0 0.17202246582593331 -0.34102471865244838 0 0.16791254130802971 -0.3227885891963716 0 0.1557586906108582 -0.32786840018592928 0 0.16791254130802971 -0.3227885891963716 0 0.1557586906108582 -0.32786840018592928 0 0.1602411687519314 -0.31190927739118429 0 0.17151825735526699 -0.31325416760549368 0 0.16791254130802971 -0.3227885891963716 0 0.1602411687519314 -0.31190927739118429 0 0.18787137947787569 -0.35180034780069419 0 0.17662324672053431 -0.35795823269279659 0 0.1910424400336663 -0.37547354736401328 0 0.17662324672053431 -0.35795823269279659 0 0.17035242753357599 -0.36877211446365682 0 0.1910424400336663 -0.37547354736401328 0 0.17035242753357599 -0.36877211446365682 0 0.1910424400336663 -0.37547354736401328 0 0.1737051017910701 -0.38004230502140057 0 0.18787137947787569 -0.35180034780069419 0 0.17202246582593331 -0.34102471865244838 0 0.17662324672053431 -0.35795823269279659 0 0.17202246582593331 -0.34102471865244838 0 0.17662324672053431 -0.35795823269279659 0 0.16265844046108829 -0.35526087104265458 0 0.17202246582593331 -0.34102471865244838 0 0.16265844046108829 -0.35526087104265458 0 0.1546435437787094 -0.34381338892778002 0 0.17662324672053431 -0.35795823269279659 0 0.16265844046108829 -0.35526087104265458 0 0.17035242753357599 -0.36877211446365682 0 0.16265844046108829 -0.35526087104265458 0 0.1569593121701936 -0.36832063090657668 0 0.17035242753357599 -0.36877211446365682 0 0.1569593121701936 -0.36832063090657668 0 0.17035242753357599 -0.36877211446365682 0 0.16307541855137739 -0.37743582412871929 0 0.14536400873927011 -0.3681220756701501 0 0.1426630499740982 -0.35652090160864008 0 0.13524945632583441 -0.37311377610700652 0 0.16265844046108829 -0.35526087104265458 0 0.1569593121701936 -0.36832063090657668 0 0.1426630499740982 -0.35652090160864008 0 0.14536400873927011 -0.3681220756701501 0 0.13524945632583441 -0.37311377610700652 0 0.14973869037300869 -0.38096853745143089 0 0.1569593121701936 -0.36832063090657668 0 0.14536400873927011 -0.3681220756701501 0 0.14973869037300869 -0.38096853745143089 0 0.1569593121701936 -0.36832063090657668 0 0.14536400873927011 -0.3681220756701501 0 0.1426630499740982 -0.35652090160864008 0 0.1546435437787094 -0.34381338892778002 0 0.1426630499740982 -0.35652090160864008 0 0.1424354920479888 -0.33775294740649747 0 0.16265844046108829 -0.35526087104265458 0 0.1546435437787094 -0.34381338892778002 0 0.1426630499740982 -0.35652090160864008 0 0.13449730155472761 -0.34743155680512378 0 0.12784456261830821 -0.36308533366748658 0 0.123981461538115 -0.35128285539313481 0 0.1426630499740982 -0.35652090160864008 0 0.13449730155472761 -0.34743155680512378 0 0.1424354920479888 -0.33775294740649747 0 0.1426630499740982 -0.35652090160864008 0 0.13449730155472761 -0.34743155680512378 0 0.12784456261830821 -0.36308533366748658 0 0.13449730155472761 -0.34743155680512378 0 0.13051916655351839 -0.33696304048325831 0 0.123981461538115 -0.35128285539313481 0 0.1426630499740982 -0.35652090160864008 0 0.12784456261830821 -0.36308533366748658 0 0.13524945632583441 -0.37311377610700652 0 0.12784456261830821 -0.36308533366748658 0 0.13524945632583441 -0.37311377610700652 0 0.12609635470998201 -0.38402791619100712 0 0.14855409589738661 -0.31441038212804873 0 0.1557586906108582 -0.32786840018592928 0 0.1602411687519314 -0.31190927739118429 0 0.1445015266660287 -0.32337949759917511 0 0.14855409589738661 -0.31441038212804873 0 0.13871327718005111 -0.31332369293528212 0 0.1445015266660287 -0.32337949759917511 0 0.14855409589738661 -0.31441038212804873 0 0.1557586906108582 -0.32786840018592928 0 0.1546435437787094 -0.34381338892778002 0 0.1557586906108582 -0.32786840018592928 0 0.1424354920479888 -0.33775294740649747 0 0.1445015266660287 -0.32337949759917511 0 0.1557586906108582 -0.32786840018592928 0 0.1424354920479888 -0.33775294740649747 0 0.1445015266660287 -0.32337949759917511 0 0.1424354920479888 -0.33775294740649747 0 0.13219802669416811 -0.32498852212276208 0 0.1424354920479888 -0.33775294740649747 0 0.13051916655351839 -0.33696304048325831 0 0.13219802669416811 -0.32498852212276208 0 0.13449730155472761 -0.34743155680512378 0 0.1424354920479888 -0.33775294740649747 0 0.13051916655351839 -0.33696304048325831 0 0.13051916655351839 -0.33696304048325831 0 0.13219802669416811 -0.32498852212276208 0 0.12260601330919629 -0.33072698382653798 0 0.1445015266660287 -0.32337949759917511 0 0.13219802669416811 -0.32498852212276208 0 0.13871327718005111 -0.31332369293528212 0 0.13219802669416811 -0.32498852212276208 0 0.1265219532001009 -0.3124330460259736 0 0.1192961391526948 -0.32261879728377291 0 0.13219802669416811 -0.32498852212276208 0 0.13871327718005111 -0.31332369293528212 0 0.1265219532001009 -0.3124330460259736 0 0.1265219532001009 -0.3124330460259736 0 0.1332586495603032 -0.30031372317270688 0 0.1198701537204314 -0.30089140532399938 0 0.1332586495603032 -0.30031372317270688 0 0.1242383748246253 -0.29131174999725179 0 0.1198701537204314 -0.30089140532399938 0 0.13871327718005111 -0.31332369293528212 0 0.1265219532001009 -0.3124330460259736 0 0.1332586495603032 -0.30031372317270688 0 0.13871327718005111 -0.31332369293528212 0 0.1332586495603032 -0.30031372317270688 0 0.147245411062319 -0.30441698656302629 0 0.14855409589738661 -0.31441038212804873 0 0.13871327718005111 -0.31332369293528212 0 0.147245411062319 -0.30441698656302629 0 0.147245411062319 -0.30441698656302629 0 0.15432967412725099 -0.29846298066074151 0 0.14327492933615671 -0.29425024746867751 0 0.1332586495603032 -0.30031372317270688 0 0.147245411062319 -0.30441698656302629 0 0.14327492933615671 -0.29425024746867751 0 0.147245411062319 -0.30441698656302629 0 0.15432967412725099 -0.29846298066074151 0 0.1602411687519314 -0.31190927739118429 0 0.14855409589738661 -0.31441038212804873 0 0.147245411062319 -0.30441698656302629 0 0.1602411687519314 -0.31190927739118429 0 0.15432967412725099 -0.29846298066074151 0 0.1517600770447052 -0.28164214899084639 0 0.14327492933615671 -0.29425024746867751 0 0.1517600770447052 -0.28164214899084639 0 0.14327492933615671 -0.29425024746867751 0 0.13646338677899769 -0.28546266283427663 0 0.1332586495603032 -0.30031372317270688 0 0.14327492933615671 -0.29425024746867751 0 0.13646338677899769 -0.28546266283427663 0 0.1332586495603032 -0.30031372317270688 0 0.13646338677899769 -0.28546266283427663 0 0.1242383748246253 -0.29131174999725179 0 0.13646338677899769 -0.28546266283427663 0 0.1233023238440631 -0.28097148456094378 0 0.1242383748246253 -0.29131174999725179 0 0.1517600770447052 -0.28164214899084639 0 0.13646338677899769 -0.28546266283427663 0 0.1311170075682456 -0.27142576198599933 0 0.1517600770447052 -0.28164214899084639 0 0.1311170075682456 -0.27142576198599933 0 0.1364827709165429 -0.26618641562940759 0 0.13646338677899769 -0.28546266283427663 0 0.1311170075682456 -0.27142576198599933 0 0.1233023238440631 -0.28097148456094378 0 0.1311170075682456 -0.27142576198599933 0 0.1364827709165429 -0.26618641562940759 0 0.1212054647883809 -0.25073068226796852 0 0.1364827709165429 -0.26618641562940759 0 0.13217397618885759 -0.25462043987800831 0 0.1212054647883809 -0.25073068226796852 0 0.1364827709165429 -0.26618641562940759 0 0.1212054647883809 -0.25073068226796852 0 0.1364827709165429 -0.26618641562940759 0 0.13217397618885759 -0.25462043987800831 0 0.14275904560399111 -0.25945725309375861 0 0.13217397618885759 -0.25462043987800831 0 0.1429630926125974 -0.2502577086919005 0 0.14275904560399111 -0.25945725309375861 0 0.1429630926125974 -0.2502577086919005 0 0.16574248336044761 -0.26746108990676593 0 0.1429630926125974 -0.2502577086919005 0 0.15128247879849499 -0.26292486595599002 0 0.16574248336044761 -0.26746108990676593 0 0.1429630926125974 -0.2502577086919005 0 0.16574248336044761 -0.26746108990676593 0 0.16001236861667459 -0.2513654190734112 0 0.1429630926125974 -0.2502577086919005 0 0.14275904560399111 -0.25945725309375861 0 0.15128247879849499 -0.26292486595599002 0 0.1364827709165429 -0.26618641562940759 0 0.14275904560399111 -0.25945725309375861 0 0.15128247879849499 -0.26292486595599002 0 0.1517600770447052 -0.28164214899084639 0 0.1364827709165429 -0.26618641562940759 0 0.15128247879849499 -0.26292486595599002 0 0.1517600770447052 -0.28164214899084639 0 0.15128247879849499 -0.26292486595599002 0 0.15776774232478771 -0.26956647822523339 0 0.1517600770447052 -0.28164214899084639 0 0.1311170075682456 -0.27142576198599933 0 0.1517600770447052 -0.28164214899084639 0 0.1364827709165429 -0.26618641562940759 0 0.1517600770447052 -0.28164214899084639 0 0.16209364730358741 -0.27452888323759039 0 0.16594555478614451 -0.28284233368471318 0 0.1517600770447052 -0.28164214899084639 0 0.16209364730358741 -0.27452888323759039 0 0.15776774232478771 -0.26956647822523339 0 0.16209364730358741 -0.27452888323759039 0 0.15776774232478771 -0.26956647822523339 0 0.16574248336044761 -0.26746108990676593 0 0.15128247879849499 -0.26292486595599002 0 0.15776774232478771 -0.26956647822523339 0 0.16574248336044761 -0.26746108990676593 0 0.16209364730358741 -0.27452888323759039 0 0.16574248336044761 -0.26746108990676593 0 0.16920230535812411 -0.27329149954452342 0 0.16209364730358741 -0.27452888323759039 0 0.16920230535812411 -0.27329149954452342 0 0.16594555478614451 -0.28284233368471318 0 0.16920230535812411 -0.27329149954452342 0 0.1710222018321049 -0.28124575318360368 0 0.16594555478614451 -0.28284233368471318 0 0.16574248336044761 -0.26746108990676593 0 0.16001236861667459 -0.2513654190734112 0 0.16988601458932601 -0.2589500224365659 0 0.16574248336044761 -0.26746108990676593 0 0.16988601458932601 -0.2589500224365659 0 0.17628584543496439 -0.26683535894776161 0 0.16001236861667459 -0.2513654190734112 0 0.16988601458932601 -0.2589500224365659 0 0.16978669848249819 -0.25098739912941831 0 0.1767458594742066 -0.25730285456071711 0 0.17619278994504239 -0.24587918172992959 0 0.18399505531774341 -0.24981832115951039 0 0.16978669848249819 -0.25098739912941831 0 0.1767458594742066 -0.25730285456071711 0 0.17619278994504239 -0.24587918172992959 0 0.16988601458932601 -0.2589500224365659 0 0.16978669848249819 -0.25098739912941831 0 0.1767458594742066 -0.25730285456071711 0 0.16988601458932601 -0.2589500224365659 0 0.1767458594742066 -0.25730285456071711 0 0.17628584543496439 -0.26683535894776161 0 0.1767458594742066 -0.25730285456071711 0 0.17628584543496439 -0.26683535894776161 0 0.1845366839674035 -0.26640487959885623 0 0.1767458594742066 -0.25730285456071711 0 0.18706352147094041 -0.25756661524031438 0 0.1845366839674035 -0.26640487959885623 0 0.1767458594742066 -0.25730285456071711 0 0.18706352147094041 -0.25756661524031438 0 0.18399505531774341 -0.24981832115951039 0 0.18852187410829821 -0.28466447112163068 0 0.17628584543496439 -0.26683535894776161 0 0.1845366839674035 -0.26640487959885623 0 0.18852187410829821 -0.28466447112163068 0 0.16574248336044761 -0.26746108990676593 0 0.18852187410829821 -0.28466447112163068 0 0.16574248336044761 -0.26746108990676593 0 0.17628584543496439 -0.26683535894776161 0 0.16920230535812411 -0.27329149954452342 0 0.18747516626574931 -0.28692639975368628 0 0.17602993407772211 -0.2832030986568283 0 0.18852187410829821 -0.28466447112163068 0 0.16574248336044761 -0.26746108990676593 0 0.16920230535812411 -0.27329149954452342 0 0.16920230535812411 -0.27329149954452342 0 0.18747516626574931 -0.28692639975368628 0 0.16920230535812411 -0.27329149954452342 0 0.1710222018321049 -0.28124575318360368 0 0.17602993407772211 -0.2832030986568283 0 0.18747516626574931 -0.28692639975368628 0 0.1806905449634813 -0.28832929748571318 0 0.17602993407772211 -0.2832030986568283 0 0.18852187410829821 -0.28466447112163068 0 0.16920230535812411 -0.27329149954452342 0 0.18747516626574931 -0.28692639975368628 0 0.18747516626574931 -0.28692639975368628 0 0.1806905449634813 -0.28832929748571318 0 0.18301660310609241 -0.29114958545392738 0 0.17291101310642881 -0.28564608084835003 0 0.17864991096044419 -0.29495009963706692 0 0.16594555478614451 -0.28284233368471318 0 0.1806905449634813 -0.28832929748571318 0 0.17602993407772211 -0.2832030986568283 0 0.17673138357400531 -0.28840876668861409 0 0.17602993407772211 -0.2832030986568283 0 0.17673138357400531 -0.28840876668861409 0 0.17291101310642881 -0.28564608084835003 0 0.1710222018321049 -0.28124575318360368 0 0.17602993407772211 -0.2832030986568283 0 0.17291101310642881 -0.28564608084835003 0 0.17673138357400531 -0.28840876668861409 0 0.17291101310642881 -0.28564608084835003 0 0.17864991096044419 -0.29495009963706692 0 0.17673138357400531 -0.28840876668861409 0 0.17909088347012619 -0.29088019083727579 0 0.17864991096044419 -0.29495009963706692 0 0.1806905449634813 -0.28832929748571318 0 0.17673138357400531 -0.28840876668861409 0 0.17909088347012619 -0.29088019083727579 0 0.17909088347012619 -0.29088019083727579 0 0.17864991096044419 -0.29495009963706692 0 0.18114425154506539 -0.29221912984395187 0 0.18747516626574931 -0.28692639975368628 0 0.18734834214976739 -0.29514628785519947 0 0.1827564496500734 -0.29712351473235832 0 0.18747516626574931 -0.28692639975368628 0 0.18301660310609241 -0.29114958545392738 0 0.1827564496500734 -0.29712351473235832 0 0.18114425154506539 -0.29221912984395187 0 0.18301660310609241 -0.29114958545392738 0 0.1827564496500734 -0.29712351473235832 0 0.17864991096044419 -0.29495009963706692 0 0.18114425154506539 -0.29221912984395187 0 0.1827564496500734 -0.29712351473235832 0 0.18747516626574931 -0.28692639975368628 0 0.1827564496500734 -0.29712351473235832 0 0.1806905449634813 -0.28832929748571318 0 0.18114425154506539 -0.29221912984395187 0 0.18301660310609241 -0.29114958545392738 0 0.1806905449634813 -0.28832929748571318 0 0.17909088347012619 -0.29088019083727579 0 0.18114425154506539 -0.29221912984395187 0 0.18802618722583669 -0.31833181955932999 0 0.18221347423979239 -0.30458962683289892 0 0.1698931321352706 -0.29998698427508858 0 0.1880606218677118 -0.30022154946313712 0 0.18734834214976739 -0.29514628785519947 0 0.1827564496500734 -0.29712351473235832 0 0.19009702279388629 -0.3064242775921906 0 0.1880606218677118 -0.30022154946313712 0 0.18221347423979239 -0.30458962683289892 0 0.18802618722583669 -0.31833181955932999 0 0.17151825735526699 -0.31325416760549368 0 0.1698931321352706 -0.29998698427508858 0 0.1880606218677118 -0.30022154946313712 0 0.18221347423979239 -0.30458962683289892 0 0.1827564496500734 -0.29712351473235832 0 0.18802618722583669 -0.31833181955932999 0 0.1698931321352706 -0.29998698427508858 0 0.17864991096044419 -0.29495009963706692 0 0.1827564496500734 -0.29712351473235832 0 0.17837824174639511 -0.29916255636935318 0 0.18221347423979239 -0.30458962683289892 0 0.1827564496500734 -0.29712351473235832 0 0.17837824174639511 -0.29916255636935318 0 0.19009702279388629 -0.3064242775921906 0 0.18802618722583669 -0.31833181955932999 0 0.18221347423979239 -0.30458962683289892 0 0.18221347423979239 -0.30458962683289892 0 0.17837824174639511 -0.29916255636935318 0 0.1698931321352706 -0.29998698427508858 0 0.17864991096044419 -0.29495009963706692 0 0.17837824174639511 -0.29916255636935318 0 0.1698931321352706 -0.29998698427508858 0 0.17151825735526699 -0.31325416760549368 0 0.1698931321352706 -0.29998698427508858 0 0.1602411687519314 -0.31190927739118429 0 0.15432967412725099 -0.29846298066074151 0 0.1698931321352706 -0.29998698427508858 0 0.1602411687519314 -0.31190927739118429 0 0.1517600770447052 -0.28164214899084639 0 0.17864991096044419 -0.29495009963706692 0 0.1698931321352706 -0.29998698427508858 0 0.1517600770447052 -0.28164214899084639 0 0.1698931321352706 -0.29998698427508858 0 0.15432967412725099 -0.29846298066074151 0 0.1517600770447052 -0.28164214899084639 0 0.1698931321352706 -0.29998698427508858 0 0.1517600770447052 -0.28164214899084639 0 0.17864991096044419 -0.29495009963706692 0 0.1517600770447052 -0.28164214899084639 0 0.17864991096044419 -0.29495009963706692 0 0.16594555478614451 -0.28284233368471318 0 0.1710222018321049 -0.28124575318360368 0 0.17291101310642881 -0.28564608084835003 0 0.16594555478614451 -0.28284233368471318 0 0.21438456257476449 -0.5 0 0.2048745361024723 -0.48472171768082351 0 0.18744203257390391 -0.5 0 0.19122796324104871 -0.48466606029959602 0 0.2048745361024723 -0.48472171768082351 0 0.18744203257390391 -0.5 0 0.19122796324104871 -0.48466606029959602 0 0.20365346230900849 -0.47086657296764728 0 0.1938641377332887 -0.4633108835168005 0 0.19122796324104871 -0.48466606029959602 0 0.20365346230900849 -0.47086657296764728 0 0.2048745361024723 -0.48472171768082351 0 0.21766866328091511 -0.47157360957620892 0 0.2048745361024723 -0.48472171768082351 0 0.22288060450936709 -0.48400008360299168 0 0.20365346230900849 -0.47086657296764728 0 0.21766866328091511 -0.47157360957620892 0 0.2048745361024723 -0.48472171768082351 0 0.21438456257476449 -0.5 0 0.2048745361024723 -0.48472171768082351 0 0.22288060450936709 -0.48400008360299168 0 0.21438456257476449 -0.5 0 0.23633351028628971 -0.48712361601618398 0 0.2413270925756249 -0.5 0 0.21438456257476449 -0.5 0 0.23633351028628971 -0.48712361601618398 0 0.22288060450936709 -0.48400008360299168 0 0.25270961841775552 -0.48460016746525392 0 0.23633351028628971 -0.48712361601618398 0 0.2413270925756249 -0.5 0 0.25270961841775552 -0.48460016746525392 0 0.23633351028628971 -0.48712361601618398 0 0.23949561189523169 -0.47426551941090739 0 0.23949561189523169 -0.47426551941090739 0 0.22288060450936709 -0.48400008360299168 0 0.22545312399173489 -0.46028769725088831 0 0.21766866328091511 -0.47157360957620892 0 0.22288060450936709 -0.48400008360299168 0 0.22545312399173489 -0.46028769725088831 0 0.23633351028628971 -0.48712361601618398 0 0.23949561189523169 -0.47426551941090739 0 0.22288060450936709 -0.48400008360299168 0 0.22288060450936709 -0.48400008360299168 0 0.22545312399173489 -0.46028769725088831 0 0.21766866328091511 -0.47157360957620892 0 0.22545312399173489 -0.46028769725088831 0 0.2186728293425339 -0.44755637628226819 0 0.2588368117714554 -0.46700690363883102 0 0.23949561189523169 -0.47426551941090739 0 0.2409729068143365 -0.46262444708906358 0 0.22545312399173489 -0.46028769725088831 0 0.2409729068143365 -0.46262444708906358 0 0.24480843210435321 -0.45079661158300749 0 0.2588368117714554 -0.46700690363883102 0 0.2409729068143365 -0.46262444708906358 0 0.24480843210435321 -0.45079661158300749 0 0.23949561189523169 -0.47426551941090739 0 0.22545312399173489 -0.46028769725088831 0 0.2409729068143365 -0.46262444708906358 0 0.24480843210435321 -0.45079661158300749 0 0.22802564347410281 -0.43657531089878487 0 0.2418992233321238 -0.43333026798624508 0 0.25513396950241118 -0.43290986753561628 0 0.24480843210435321 -0.45079661158300749 0 0.2418992233321238 -0.43333026798624508 0 0.22545312399173489 -0.46028769725088831 0 0.22802564347410281 -0.43657531089878487 0 0.2186728293425339 -0.44755637628226819 0 0.21246462128442831 -0.43168381348743168 0 0.22802564347410281 -0.43657531089878487 0 0.22545312399173489 -0.46028769725088831 0 0.2186728293425339 -0.44755637628226819 0 0.22802564347410281 -0.43657531089878487 0 0.22545312399173489 -0.46028769725088831 0 0.24480843210435321 -0.45079661158300749 0 0.22802564347410281 -0.43657531089878487 0 0.20442019459899149 -0.44533796874460208 0 0.2186728293425339 -0.44755637628226819 0 0.21246462128442831 -0.43168381348743168 0 0.21766866328091511 -0.47157360957620892 0 0.20442019459899149 -0.44533796874460208 0 0.21766866328091511 -0.47157360957620892 0 0.20442019459899149 -0.44533796874460208 0 0.2186728293425339 -0.44755637628226819 0 0.20365346230900849 -0.47086657296764728 0 0.21766866328091511 -0.47157360957620892 0 0.20442019459899149 -0.44533796874460208 0 0.20365346230900849 -0.47086657296764728 0 0.20442019459899149 -0.44533796874460208 0 0.1938641377332887 -0.4633108835168005 0 0.20442019459899149 -0.44533796874460208 0 0.18484232774876749 -0.43033534366960768 0 0.18590039067086719 -0.44115637567916172 0 0.20442019459899149 -0.44533796874460208 0 0.18923595964957429 -0.45067509688328122 0 0.18590039067086719 -0.44115637567916172 0 0.20442019459899149 -0.44533796874460208 0 0.1938641377332887 -0.4633108835168005 0 0.18923595964957429 -0.45067509688328122 0 0.20442019459899149 -0.44533796874460208 0 0.1911717259170673 -0.41910232791299562 0 0.20473537155931409 -0.42802668409371708 0 0.20442019459899149 -0.44533796874460208 0 0.1911717259170673 -0.41910232791299562 0 0.20442019459899149 -0.44533796874460208 0 0.1911717259170673 -0.41910232791299562 0 0.18484232774876749 -0.43033534366960768 0 0.1911717259170673 -0.41910232791299562 0 0.21088494443676881 -0.41598262622983972 0 0.20473537155931409 -0.42802668409371708 0 0.18851111772050869 -0.41383358608972459 0 0.208966154163157 -0.40126827473642579 0 0.1911717259170673 -0.41910232791299562 0 0.21088494443676881 -0.41598262622983972 0 0.1911717259170673 -0.41910232791299562 0 0.18851111772050869 -0.41383358608972459 0 0.21088494443676881 -0.41598262622983972 0 0.18851111772050869 -0.41383358608972459 0 0.21088494443676881 -0.41598262622983972 0 0.208966154163157 -0.40126827473642579 0 0.1911717259170673 -0.41910232791299562 0 0.18851111772050869 -0.41383358608972459 0 0.21088494443676881 -0.41598262622983972 0 0.22155668588658281 -0.40529615173032069 0 0.208966154163157 -0.40126827473642579 0 0.21088494443676881 -0.41598262622983972 0 0.20473537155931409 -0.42802668409371708 0 0.21246462128442831 -0.43168381348743168 0 0.21088494443676881 -0.41598262622983972 0 0.21246462128442831 -0.43168381348743168 0 0.21959695705502991 -0.42408781639437282 0 0.20442019459899149 -0.44533796874460208 0 0.20473537155931409 -0.42802668409371708 0 0.21246462128442831 -0.43168381348743168 0 0.21246462128442831 -0.43168381348743168 0 0.21959695705502991 -0.42408781639437282 0 0.22802564347410281 -0.43657531089878487 0 0.22802564347410281 -0.43657531089878487 0 0.23614533994983331 -0.4244462479719151 0 0.23059816295646979 -0.4128629245466815 0 0.22802564347410281 -0.43657531089878487 0 0.23059816295646979 -0.4128629245466815 0 0.21959695705502991 -0.42408781639437282 0 0.22802564347410281 -0.43657531089878487 0 0.23059816295646979 -0.4128629245466815 0 0.22802564347410281 -0.43657531089878487 0 0.2418992233321238 -0.43333026798624508 0 0.23614533994983331 -0.4244462479719151 0 0.2418992233321238 -0.43333026798624508 0 0.23614533994983331 -0.4244462479719151 0 0.2453827316299185 -0.42192330194190181 0 0.25513396950241118 -0.43290986753561628 0 0.2418992233321238 -0.43333026798624508 0 0.2453827316299185 -0.42192330194190181 0 0.256136481120742 -0.41447562176841068 0 0.2453827316299185 -0.42192330194190181 0 0.24629253832767661 -0.41022035877505542 0 0.2453827316299185 -0.42192330194190181 0 0.24629253832767661 -0.41022035877505542 0 0.2366098857920339 -0.41191154353144788 0 0.23614533994983331 -0.4244462479719151 0 0.2366098857920339 -0.41191154353144788 0 0.23059816295646979 -0.4128629245466815 0 0.23614533994983331 -0.4244462479719151 0 0.2453827316299185 -0.42192330194190181 0 0.2366098857920339 -0.41191154353144788 0 0.24629253832767661 -0.41022035877505542 0 0.2366098857920339 -0.41191154353144788 0 0.2422505545635501 -0.40276464775944387 0 0.21088494443676881 -0.41598262622983972 0 0.23059816295646979 -0.4128629245466815 0 0.2366098857920339 -0.41191154353144788 0 0.23059816295646979 -0.4128629245466815 0 0.23156745731421779 -0.4039283829592023 0 0.23059816295646979 -0.4128629245466815 0 0.22155668588658281 -0.40529615173032069 0 0.23156745731421779 -0.4039283829592023 0 0.23059816295646979 -0.4128629245466815 0 0.23156745731421779 -0.4039283829592023 0 0.21088494443676881 -0.41598262622983972 0 0.23059816295646979 -0.4128629245466815 0 0.22155668588658281 -0.40529615173032069 0 0.21088494443676881 -0.41598262622983972 0 0.21959695705502991 -0.42408781639437282 0 0.23059816295646979 -0.4128629245466815 0 0.2366098857920339 -0.41191154353144788 0 0.23059816295646979 -0.4128629245466815 0 0.22155668588658281 -0.40529615173032069 0 0.22942119060580499 -0.38870296338312649 0 0.208966154163157 -0.40126827473642579 0 0.22155668588658281 -0.40529615173032069 0 0.23156745731421779 -0.4039283829592023 0 0.22942119060580499 -0.38870296338312649 0 0.22942119060580499 -0.38870296338312649 0 0.208966154163157 -0.40126827473642579 0 0.23156745731421779 -0.4039283829592023 0 0.24309899287842279 -0.39271330151873202 0 0.2422505545635501 -0.40276464775944387 0 0.2366098857920339 -0.41191154353144788 0 0.23156745731421779 -0.4039283829592023 0 0.2422505545635501 -0.40276464775944387 0 0.23156745731421779 -0.4039283829592023 0 0.24309899287842279 -0.39271330151873202 0 0.22942119060580499 -0.38870296338312649 0 0.25108303853213881 -0.40002667887407228 0 0.24629253832767661 -0.41022035877505542 0 0.2422505545635501 -0.40276464775944387 0 0.25108303853213881 -0.40002667887407228 0 0.24309899287842279 -0.39271330151873202 0 0.2422505545635501 -0.40276464775944387 0 0.24987622704845311 -0.37613765202982719 0 0.22942119060580499 -0.38870296338312649 0 0.24309899287842279 -0.39271330151873202 0 0.24987622704845311 -0.37613765202982719 0 0.22942119060580499 -0.38870296338312649 0 0.24987622704845311 -0.37613765202982719 0 0.23474048966473349 -0.38137370792841258 0 0.22942119060580499 -0.38870296338312649 0 0.25687819372407023 -0.38903915957053298 0 0.24309899287842279 -0.39271330151873202 0 0.24987622704845311 -0.37613765202982719 0 0.23679608458568241 -0.3713456781615978 0 0.24987622704845311 -0.37613765202982719 0 0.23474048966473349 -0.38137370792841258 0 0.23474048966473349 -0.38137370792841258 0 0.23010576568282681 -0.37607478874810818 0 0.22189277223980711 -0.38054577212349588 0 0.23474048966473349 -0.38137370792841258 0 0.22189277223980711 -0.38054577212349588 0 0.20961824525516401 -0.3936281247522696 0 0.23474048966473349 -0.38137370792841258 0 0.22942119060580499 -0.38870296338312649 0 0.20961824525516401 -0.3936281247522696 0 0.23679608458568241 -0.3713456781615978 0 0.23474048966473349 -0.38137370792841258 0 0.23010576568282681 -0.37607478874810818 0 0.23474048966473349 -0.38137370792841258 0 0.20961824525516401 -0.3936281247522696 0 0.22699371624108439 -0.37103399677892651 0 0.23010576568282681 -0.37607478874810818 0 0.22189277223980711 -0.38054577212349588 0 0.21663927632257499 -0.37152038636996992 0 0.22189277223980711 -0.38054577212349588 0 0.21119602619295649 -0.38157571206759561 0 0.21663927632257499 -0.37152038636996992 0 0.21119602619295649 -0.38157571206759561 0 0.20576161095015591 -0.37595213443190167 0 0.21119602619295649 -0.38157571206759561 0 0.20576161095015591 -0.37595213443190167 0 0.20229958674085519 -0.38616776423662919 0 0.21119602619295649 -0.38157571206759561 0 0.20961824525516401 -0.3936281247522696 0 0.20229958674085519 -0.38616776423662919 0 0.22189277223980711 -0.38054577212349588 0 0.21119602619295649 -0.38157571206759561 0 0.20961824525516401 -0.3936281247522696 0 0.22942119060580499 -0.38870296338312649 0 0.208966154163157 -0.40126827473642579 0 0.20961824525516401 -0.3936281247522696 0 0.20961824525516401 -0.3936281247522696 0 0.18449600084559339 -0.40588254157612419 0 0.20961824525516401 -0.3936281247522696 0 0.19262774622386039 -0.39991289132556063 0 0.20229958674085519 -0.38616776423662919 0 0.18851111772050869 -0.41383358608972459 0 0.20961824525516401 -0.3936281247522696 0 0.18449600084559339 -0.40588254157612419 0 0.19262774622386039 -0.39991289132556063 0 0.193172237845981 -0.38760648281860499 0 0.20229958674085519 -0.38616776423662919 0 0.20961824525516401 -0.3936281247522696 0 0.19262774622386039 -0.39991289132556063 0 0.18449600084559339 -0.40588254157612419 0 0.18851111772050869 -0.41383358608972459 0 0.208966154163157 -0.40126827473642579 0 0.20961824525516401 -0.3936281247522696 0 0.19262774622386039 -0.39991289132556063 0 0.18963514604776821 -0.39361523539988952 0 0.193172237845981 -0.38760648281860499 0 0.19262774622386039 -0.39991289132556063 0 0.18963514604776821 -0.39361523539988952 0 0.18221634088723479 -0.40136818287387582 0 0.18963514604776821 -0.39361523539988952 0 0.193172237845981 -0.38760648281860499 0 0.18267650324237161 -0.39405502657648112 0 0.193172237845981 -0.38760648281860499 0 0.1910424400336663 -0.37547354736401328 0 0.18267650324237161 -0.39405502657648112 0 0.20576161095015591 -0.37595213443190167 0 0.1910424400336663 -0.37547354736401328 0 0.20229958674085519 -0.38616776423662919 0 0.193172237845981 -0.38760648281860499 0 0.1910424400336663 -0.37547354736401328 0 0.20229958674085519 -0.38616776423662919 0 0.1910424400336663 -0.37547354736401328 0 0.17822948803450961 -0.38676940160015832 0 0.1737051017910701 -0.38004230502140057 0 0.1910424400336663 -0.37547354736401328 0 0.18267650324237161 -0.39405502657648112 0 0.1910424400336663 -0.37547354736401328 0 0.17822948803450961 -0.38676940160015832 0 0.18267650324237161 -0.39405502657648112 0 0.17822948803450961 -0.38676940160015832 0 0.17910183421640119 -0.39520059623836468 0 0.1646215608890387 -0.38907553280053181 0 0.17822948803450961 -0.38676940160015832 0 0.1737051017910701 -0.38004230502140057 0 0.1646215608890387 -0.38907553280053181 0 0.17822948803450961 -0.38676940160015832 0 0.18267650324237161 -0.39405502657648112 0 0.17910183421640119 -0.39520059623836468 0 0.18221634088723479 -0.40136818287387582 0 0.17910183421640119 -0.39520059623836468 0 0.15805845094365739 -0.40474493864538458 0 0.18963514604776821 -0.39361523539988952 0 0.18267650324237161 -0.39405502657648112 0 0.18221634088723479 -0.40136818287387582 0 0.18267650324237161 -0.39405502657648112 0 0.18221634088723479 -0.40136818287387582 0 0.17910183421640119 -0.39520059623836468 0 0.18221634088723479 -0.40136818287387582 0 0.17910183421640119 -0.39520059623836468 0 0.19262774622386039 -0.39991289132556063 0 0.18221634088723479 -0.40136818287387582 0 0.19262774622386039 -0.39991289132556063 0 0.18449600084559339 -0.40588254157612419 0 0.18221634088723479 -0.40136818287387582 0 0.18449600084559339 -0.40588254157612419 0 0.18221634088723479 -0.40136818287387582 0 0.17910183421640119 -0.39520059623836468 0 0.15805845094365739 -0.40474493864538458 0 0.1646215608890387 -0.38907553280053181 0 0.18221634088723479 -0.40136818287387582 0 0.15805845094365739 -0.40474493864538458 0 0.15805845094365739 -0.40474493864538458 0 0.1646215608890387 -0.38907553280053181 0 0.14706277844018539 -0.39464292458295508 0 0.1737051017910701 -0.38004230502140057 0 0.1646215608890387 -0.38907553280053181 0 0.16307541855137739 -0.37743582412871929 0 0.17035242753357599 -0.36877211446365682 0 0.1737051017910701 -0.38004230502140057 0 0.16307541855137739 -0.37743582412871929 0 0.1569593121701936 -0.36832063090657668 0 0.16307541855137739 -0.37743582412871929 0 0.14973869037300869 -0.38096853745143089 0 0.1646215608890387 -0.38907553280053181 0 0.16307541855137739 -0.37743582412871929 0 0.14973869037300869 -0.38096853745143089 0 0.1646215608890387 -0.38907553280053181 0 0.14973869037300869 -0.38096853745143089 0 0.14706277844018539 -0.39464292458295508 0 0.14973869037300869 -0.38096853745143089 0 0.1375772795987745 -0.38493757303029391 0 0.14706277844018539 -0.39464292458295508 0 0.13524945632583441 -0.37311377610700652 0 0.14973869037300869 -0.38096853745143089 0 0.1375772795987745 -0.38493757303029391 0 0.13524945632583441 -0.37311377610700652 0 0.1375772795987745 -0.38493757303029391 0 0.12609635470998201 -0.38402791619100712 0 0.1375772795987745 -0.38493757303029391 0 0.12609635470998201 -0.38402791619100712 0 0.13569313113510631 -0.39589912548093298 0 0.12645644117523869 -0.39722706905544619 0 0.13569313113510631 -0.39589912548093298 0 0.1339005610000801 -0.40812169441689322 0 0.12645644117523869 -0.39722706905544619 0 0.1339005610000801 -0.40812169441689322 0 0.1250254850364893 -0.40936224001308058 0 0.12609635470998201 -0.38402791619100712 0 0.12645644117523869 -0.39722706905544619 0 0.13569313113510631 -0.39589912548093298 0 0.1375772795987745 -0.38493757303029391 0 0.13569313113510631 -0.39589912548093298 0 0.14706277844018539 -0.39464292458295508 0 0.13569313113510631 -0.39589912548093298 0 0.14706277844018539 -0.39464292458295508 0 0.1339005610000801 -0.40812169441689322 0 0.13569313113510631 -0.39589912548093298 0 0.1339005610000801 -0.40812169441689322 0 0.15805845094365739 -0.40474493864538458 0 0.14706277844018539 -0.39464292458295508 0 0.1339005610000801 -0.40812169441689322 0 0.15805845094365739 -0.40474493864538458 0 0.1339005610000801 -0.40812169441689322 0 0.15805845094365739 -0.40474493864538458 0 0.15398562739609989 -0.414436145328195 0 0.14500783119440661 -0.41410657591589572 0 0.15805845094365739 -0.40474493864538458 0 0.14500783119440661 -0.41410657591589572 0 0.1339005610000801 -0.40812169441689322 0 0.15398562739609989 -0.414436145328195 0 0.15088002640467921 -0.42009116626417142 0 0.14500783119440661 -0.41410657591589572 0 0.15088002640467921 -0.42009116626417142 0 0.15979138776423191 -0.42406840149736191 0 0.15636365466176849 -0.41960526040447821 0 0.15398562739609989 -0.414436145328195 0 0.15088002640467921 -0.42009116626417142 0 0.15636365466176849 -0.41960526040447821 0 0.15088002640467921 -0.42009116626417142 0 0.14500783119440661 -0.41410657591589572 0 0.14354831806896931 -0.42663893719234869 0 0.14500783119440661 -0.41410657591589572 0 0.1339005610000801 -0.40812169441689322 0 0.13212255532719441 -0.42024495614079282 0 0.14500783119440661 -0.41410657591589572 0 0.13212255532719441 -0.42024495614079282 0 0.14354831806896931 -0.42663893719234869 0 0.1339005610000801 -0.40812169441689322 0 0.13212255532719441 -0.42024495614079282 0 0.13212255532719441 -0.42024495614079282 0 0.1250254850364893 -0.40936224001308058 0 0.117866085899093 -0.41583132647739651 0 0.13212255532719441 -0.42024495614079282 0 0.1250254850364893 -0.40936224001308058 0 0.1339005610000801 -0.40812169441689322 0 0.13212255532719441 -0.42024495614079282 0 0.1250254850364893 -0.40936224001308058 0 0.1339005610000801 -0.40812169441689322 0 0.1250254850364893 -0.40936224001308058 0 0.13212255532719441 -0.42024495614079282 0 0.14354831806896931 -0.42663893719234869 0 0.1460535583969573 -0.44160689079445481 0 0.13212255532719441 -0.42024495614079282 0 0.128223579302082 -0.44682997076052833 0 0.13212255532719441 -0.42024495614079282 0 0.128223579302082 -0.44682997076052833 0 0.1159996351348133 -0.43474120747525058 0 0.13212255532719441 -0.42024495614079282 0 0.1460535583969573 -0.44160689079445481 0 0.13212255532719441 -0.42024495614079282 0 0.1460535583969573 -0.44160689079445481 0 0.128223579302082 -0.44682997076052833 0 0.15088002640467921 -0.42009116626417142 0 0.14354831806896931 -0.42663893719234869 0 0.15979138776423191 -0.42406840149736191 0 0.14354831806896931 -0.42663893719234869 0 0.15979138776423191 -0.42406840149736191 0 0.14354831806896931 -0.42663893719234869 0 0.15423293294423909 -0.43386412417913311 0 0.1460535583969573 -0.44160689079445481 0 0.14354831806896931 -0.42663893719234869 0 0.15423293294423909 -0.43386412417913311 0 0.15979138776423191 -0.42406840149736191 0 0.15423293294423909 -0.43386412417913311 0 0.16088991666547389 -0.43196094602310392 0 0.16557730454712019 -0.44172028084172121 0 0.1713980071398 -0.42434598792645378 0 0.15979138776423191 -0.42406840149736191 0 0.1760344574594947 -0.42149786580237669 0 0.15423293294423909 -0.43386412417913311 0 0.16088991666547389 -0.43196094602310392 0 0.15979138776423191 -0.42406840149736191 0 0.15979138776423191 -0.42406840149736191 0 0.1760344574594947 -0.42149786580237669 0 0.16626302434537371 -0.43076979168845952 0 0.17509911994716071 -0.43336510097506958 0 0.16557730454712019 -0.44172028084172121 0 0.16088991666547389 -0.43196094602310392 0 0.16626302434537371 -0.43076979168845952 0 0.16557730454712019 -0.44172028084172121 0 0.16626302434537371 -0.43076979168845952 0 0.1713980071398 -0.42434598792645378 0 0.17509911994716071 -0.43336510097506958 0 0.16626302434537371 -0.43076979168845952 0 0.1713980071398 -0.42434598792645378 0 0.15979138776423191 -0.42406840149736191 0 0.16088991666547389 -0.43196094602310392 0 0.16626302434537371 -0.43076979168845952 0 0.15979138776423191 -0.42406840149736191 0 0.15636365466176849 -0.41960526040447821 0 0.16176651730702801 -0.41283252991975622 0 0.17042982775368151 -0.41274390099030239 0 0.18221634088723479 -0.40136818287387582 0 0.15805845094365739 -0.40474493864538458 0 0.17042982775368151 -0.41274390099030239 0 0.15979138776423191 -0.42406840149736191 0 0.15636365466176849 -0.41960526040447821 0 0.17042982775368151 -0.41274390099030239 0 0.15636365466176849 -0.41960526040447821 0 0.17042982775368151 -0.41274390099030239 0 0.15979138776423191 -0.42406840149736191 0 0.17042982775368151 -0.41274390099030239 0 0.1760344574594947 -0.42149786580237669 0 0.15398562739609989 -0.414436145328195 0 0.15636365466176849 -0.41960526040447821 0 0.16176651730702801 -0.41283252991975622 0 0.15805845094365739 -0.40474493864538458 0 0.15398562739609989 -0.414436145328195 0 0.16176651730702801 -0.41283252991975622 0 0.15805845094365739 -0.40474493864538458 0 0.16176651730702801 -0.41283252991975622 0 0.17042982775368151 -0.41274390099030239 0 0.17042982775368151 -0.41274390099030239 0 0.1760344574594947 -0.42149786580237669 0 0.17986785094481991 -0.4134894736146324 0 0.18449600084559339 -0.40588254157612419 0 0.17042982775368151 -0.41274390099030239 0 0.18449600084559339 -0.40588254157612419 0 0.18221634088723479 -0.40136818287387582 0 0.17042982775368151 -0.41274390099030239 0 0.18449600084559339 -0.40588254157612419 0 0.17042982775368151 -0.41274390099030239 0 0.17986785094481991 -0.4134894736146324 0 0.18851111772050869 -0.41383358608972459 0 0.18449600084559339 -0.40588254157612419 0 0.18851111772050869 -0.41383358608972459 0 0.18449600084559339 -0.40588254157612419 0 0.17986785094481991 -0.4134894736146324 0 0.18851111772050869 -0.41383358608972459 0 0.1760344574594947 -0.42149786580237669 0 0.1911717259170673 -0.41910232791299562 0 0.1760344574594947 -0.42149786580237669 0 0.18851111772050869 -0.41383358608972459 0 0.1760344574594947 -0.42149786580237669 0 0.17986785094481991 -0.4134894736146324 0 0.1911717259170673 -0.41910232791299562 0 0.18851111772050869 -0.41383358608972459 0 0.1760344574594947 -0.42149786580237669 0 0.1911717259170673 -0.41910232791299562 0 0.1760344574594947 -0.42149786580237669 0 0.18484232774876749 -0.43033534366960768 0 0.18484232774876749 -0.43033534366960768 0 0.17509911994716071 -0.43336510097506958 0 0.18590039067086719 -0.44115637567916172 0 0.18484232774876749 -0.43033534366960768 0 0.17509911994716071 -0.43336510097506958 0 0.17653319474121221 -0.42750765242104072 0 0.1713980071398 -0.42434598792645378 0 0.17509911994716071 -0.43336510097506958 0 0.17653319474121221 -0.42750765242104072 0 0.1760344574594947 -0.42149786580237669 0 0.18484232774876749 -0.43033534366960768 0 0.17653319474121221 -0.42750765242104072 0 0.1713980071398 -0.42434598792645378 0 0.1760344574594947 -0.42149786580237669 0 0.17653319474121221 -0.42750765242104072 0 0.1713980071398 -0.42434598792645378 0 0.1760344574594947 -0.42149786580237669 0 0.17791556380287959 -0.4455361086535346 0 0.17376504419967539 -0.46076368888843938 0 0.16557730454712019 -0.44172028084172121 0 0.17509911994716071 -0.43336510097506958 0 0.17791556380287959 -0.4455361086535346 0 0.18590039067086719 -0.44115637567916172 0 0.17509911994716071 -0.43336510097506958 0 0.17791556380287959 -0.4455361086535346 0 0.16557730454712019 -0.44172028084172121 0 0.18923595964957429 -0.45067509688328122 0 0.17791556380287959 -0.4455361086535346 0 0.18590039067086719 -0.44115637567916172 0 0.18923595964957429 -0.45067509688328122 0 0.17791556380287959 -0.4455361086535346 0 0.17376504419967539 -0.46076368888843938 0 0.1938641377332887 -0.4633108835168005 0 0.18923595964957429 -0.45067509688328122 0 0.17376504419967539 -0.46076368888843938 0 0.1938641377332887 -0.4633108835168005 0 0.17376504419967539 -0.46076368888843938 0 0.17718182015316611 -0.48165544175840053 0 0.17376504419967539 -0.46076368888843938 0 0.15550290350416551 -0.45157236434768988 0 0.1539044029471725 -0.46809795184702829 0 0.17376504419967539 -0.46076368888843938 0 0.16557730454712019 -0.44172028084172121 0 0.15550290350416551 -0.45157236434768988 0 0.15423293294423909 -0.43386412417913311 0 0.16557730454712019 -0.44172028084172121 0 0.15550290350416551 -0.45157236434768988 0 0.15423293294423909 -0.43386412417913311 0 0.15550290350416551 -0.45157236434768988 0 0.1460535583969573 -0.44160689079445481 0 0.15550290350416551 -0.45157236434768988 0 0.1460535583969573 -0.44160689079445481 0 0.14153074802588431 -0.45654190970348868 0 0.1460535583969573 -0.44160689079445481 0 0.128223579302082 -0.44682997076052833 0 0.14153074802588431 -0.45654190970348868 0 0.128223579302082 -0.44682997076052833 0 0.12432460327697011 -0.47341498538026422 0 0.128223579302082 -0.44682997076052833 0 0.14153074802588431 -0.45654190970348868 0 0.12432460327697011 -0.47341498538026422 0 0.1539044029471725 -0.46809795184702829 0 0.14153074802588431 -0.45654190970348868 0 0.12432460327697011 -0.47341498538026422 0 0.15550290350416551 -0.45157236434768988 0 0.1539044029471725 -0.46809795184702829 0 0.14153074802588431 -0.45654190970348868 0 0.1539044029471725 -0.46809795184702829 0 0.15048103374274721 -0.48484579871078243 0 0.12432460327697011 -0.47341498538026422 0 0.1404625649124509 -0.5 0 0.15048103374274721 -0.48484579871078243 0 0.12432460327697011 -0.47341498538026422 0 0.1404625649124509 -0.5 0 0.12042562725185831 -0.49999999999999989 0 0.12432460327697011 -0.47341498538026422 0 0.1404625649124509 -0.5 0 0.15048103374274721 -0.48484579871078243 0 0.16049950257304349 -0.50000000000000033 0 0.16049950257304349 -0.50000000000000033 0 0.17718182015316611 -0.48165544175840053 0 0.15048103374274721 -0.48484579871078243 0 0.16049950257304349 -0.50000000000000033 0 0.17718182015316611 -0.48165544175840053 0 0.17376504419967539 -0.46076368888843938 0 0.1539044029471725 -0.46809795184702829 0 0.17718182015316611 -0.48165544175840053 0 0.1539044029471725 -0.46809795184702829 0 0.15048103374274721 -0.48484579871078243 0 0.17718182015316611 -0.48165544175840053 0 0.1938641377332887 -0.4633108835168005 0 0.17718182015316611 -0.48165544175840053 0 0.19122796324104871 -0.48466606029959602 0 0.1938641377332887 -0.4633108835168005 0 0.17718182015316611 -0.48165544175840053 0 0.16049950257304349 -0.50000000000000033 0 0.17718182015316611 -0.48165544175840053 0 0.18744203257390391 -0.5 0 0.19122796324104871 -0.48466606029959602 0 0.17718182015316611 -0.48165544175840053 0 0.18744203257390391 -0.5 0 0.072018957471098571 -0.48629524479662273 0 0.069142552082564368 -0.5 0 0.082735946582200875 -0.4892045976485363 0 0.072018957471098571 -0.48629524479662273 0 0.079568506083734697 -0.4785915255016745 0 0.082735946582200875 -0.4892045976485363 0 0.072018957471098571 -0.48629524479662273 0 0.062670741706174135 -0.48944359682069549 0 0.064881374578912687 -0.4815757870058418 0 0.072018957471098571 -0.48629524479662273 0 0.069142552082564368 -0.5 0 0.062670741706174135 -0.48944359682069549 0 0.073180054077148754 -0.46968413697177741 0 0.079568506083734697 -0.4785915255016745 0 0.081395248040860374 -0.46160025678040811 0 0.067447632246636219 -0.45716428258124142 0 0.05849497948899289 -0.47642287528831911 0 0.061758178687080389 -0.47580514524370598 0 0.072018957471098571 -0.48629524479662273 0 0.064881374578912687 -0.4815757870058418 0 0.070673492561877091 -0.4782128222507579 0 0.064881374578912687 -0.4815757870058418 0 0.066280053791524171 -0.47680462027284459 0 0.061758178687080389 -0.47580514524370598 0 0.064881374578912687 -0.4815757870058418 0 0.066280053791524171 -0.47680462027284459 0 0.070673492561877091 -0.4782128222507579 0 0.066280053791524171 -0.47680462027284459 0 0.067807169338226503 -0.47162472659107291 0 0.061758178687080389 -0.47580514524370598 0 0.066280053791524171 -0.47680462027284459 0 0.067807169338226503 -0.47162472659107291 0 0.070673492561877091 -0.4782128222507579 0 0.067807169338226503 -0.47162472659107291 0 0.073180054077148754 -0.46968413697177741 0 0.070673492561877091 -0.4782128222507579 0 0.073180054077148754 -0.46968413697177741 0 0.070673492561877091 -0.4782128222507579 0 0.079568506083734697 -0.4785915255016745 0 0.072018957471098571 -0.48629524479662273 0 0.070673492561877091 -0.4782128222507579 0 0.079568506083734697 -0.4785915255016745 0 0.096876661376123455 -0.48080012839020431 0 0.081395248040860374 -0.46160025678040811 0 0.096876661376123455 -0.48080012839020431 0 0.095349939854524335 -0.46404107218864848 0 0.081395248040860374 -0.46160025678040811 0 0.079568506083734697 -0.4785915255016745 0 0.082735946582200875 -0.4892045976485363 0 0.096876661376123455 -0.48080012839020431 0 0.079568506083734697 -0.4785915255016745 0 0.096876661376123455 -0.48080012839020431 0 0.081395248040860374 -0.46160025678040811 0 0.090750313396975479 -0.5 0 0.082735946582200875 -0.4892045976485363 0 0.096876661376123455 -0.48080012839020431 0 0.069142552082564368 -0.5 0 0.090750313396975479 -0.5 0 0.082735946582200875 -0.4892045976485363 0 0.1123580747113867 -0.50000000000000033 0 0.1124728586670535 -0.48406595427175642 0 0.096876661376123455 -0.48080012839020431 0 0.090750313396975479 -0.5 0 0.1123580747113867 -0.50000000000000033 0 0.096876661376123455 -0.48080012839020431 0 0.1123580747113867 -0.50000000000000033 0 0.096876661376123455 -0.48080012839020431 0 0.1123580747113867 -0.50000000000000033 0 0.12042562725185831 -0.49999999999999989 0 0.1124728586670535 -0.48406595427175642 0 0.12042562725185831 -0.49999999999999989 0 0.1124728586670535 -0.48406595427175642 0 0.12432460327697011 -0.47341498538026422 0 0.12042562725185831 -0.49999999999999989 0 0.12432460327697011 -0.47341498538026422 0 0.1124728586670535 -0.48406595427175642 0 0.12432460327697011 -0.47341498538026422 0 0.1082250197838846 -0.46311527911574241 0 0.096876661376123455 -0.48080012839020431 0 0.095349939854524335 -0.46404107218864848 0 0.1082250197838846 -0.46311527911574241 0 0.1124728586670535 -0.48406595427175642 0 0.096876661376123455 -0.48080012839020431 0 0.1082250197838846 -0.46311527911574241 0 0.095349939854524335 -0.46404107218864848 0 0.1082250197838846 -0.46311527911574241 0 0.094902830217228867 -0.45064862446823939 0 0.128223579302082 -0.44682997076052833 0 0.12432460327697011 -0.47341498538026422 0 0.1082250197838846 -0.46311527911574241 0 0.128223579302082 -0.44682997076052833 0 0.1069391861142964 -0.44299064961396012 0 0.1159996351348133 -0.43474120747525058 0 0.128223579302082 -0.44682997076052833 0 0.1082250197838846 -0.46311527911574241 0 0.1069391861142964 -0.44299064961396012 0 0.1082250197838846 -0.46311527911574241 0 0.1069391861142964 -0.44299064961396012 0 0.094902830217228867 -0.45064862446823939 0 0.1069391861142964 -0.44299064961396012 0 0.091812697424993442 -0.4386357446441016 0 0.098414951810672224 -0.43233268446502993 0 0.1069391861142964 -0.44299064961396012 0 0.094902830217228867 -0.45064862446823939 0 0.091812697424993442 -0.4386357446441016 0 0.094902830217228867 -0.45064862446823939 0 0.091812697424993442 -0.4386357446441016 0 0.082434724511159588 -0.44537142502386151 0 0.094902830217228867 -0.45064862446823939 0 0.082434724511159588 -0.44537142502386151 0 0.081395248040860374 -0.46160025678040811 0 0.091812697424993442 -0.4386357446441016 0 0.082434724511159588 -0.44537142502386151 0 0.078149012167117934 -0.43357211405594609 0 0.095349939854524335 -0.46404107218864848 0 0.094902830217228867 -0.45064862446823939 0 0.081395248040860374 -0.46160025678040811 0 0.067447632246636219 -0.45716428258124142 0 0.065913834705597293 -0.44240038517061198 0 0.057068655694905858 -0.46015288389510001 0 0.067447632246636219 -0.45716428258124142 0 0.05849497948899289 -0.47642287528831911 0 0.067807169338226503 -0.47162472659107291 0 0.067447632246636219 -0.45716428258124142 0 0.061758178687080389 -0.47580514524370598 0 0.081395248040860374 -0.46160025678040811 0 0.067447632246636219 -0.45716428258124142 0 0.065913834705597293 -0.44240038517061198 0 0.073180054077148754 -0.46968413697177741 0 0.081395248040860374 -0.46160025678040811 0 0.067447632246636219 -0.45716428258124142 0 0.067807169338226503 -0.47162472659107291 0 0.073180054077148754 -0.46968413697177741 0 0.067447632246636219 -0.45716428258124142 0 0.081395248040860374 -0.46160025678040811 0 0.065913834705597293 -0.44240038517061198 0 0.082434724511159588 -0.44537142502386151 0 0.081395248040860374 -0.46160025678040811 0 0.065913834705597293 -0.44240038517061198 0 0.082434724511159588 -0.44537142502386151 0 0.065913834705597293 -0.44240038517061198 0 0.078149012167117934 -0.43357211405594609 0 0.065921365320016911 -0.4273577277455588 0 0.073982485551444349 -0.42005290588181732 0 0.078149012167117934 -0.43357211405594609 0 0.065913834705597293 -0.44240038517061198 0 0.065921365320016911 -0.4273577277455588 0 0.078149012167117934 -0.43357211405594609 0 0.073982485551444349 -0.42005290588181732 0 0.069775570718114244 -0.40426700169235308 0 0.060774245729122177 -0.41691050055794487 0 0.065921365320016911 -0.4273577277455588 0 0.073982485551444349 -0.42005290588181732 0 0.060774245729122177 -0.41691050055794487 0 0.073982485551444349 -0.42005290588181732 0 0.086447448161059384 -0.41120764722282821 0 0.069775570718114244 -0.40426700169235308 0 0.073982485551444349 -0.42005290588181732 0 0.086447448161059384 -0.41120764722282821 0 0.088692331433278357 -0.42535053834926723 0 0.086447448161059384 -0.41120764722282821 0 0.093827427438274241 -0.41775801958915132 0 0.099702730965631758 -0.41290181884877419 0 0.086447448161059384 -0.41120764722282821 0 0.088692331433278357 -0.42535053834926723 0 0.093827427438274241 -0.41775801958915132 0 0.088692331433278357 -0.42535053834926723 0 0.097645949564215143 -0.42435504664253748 0 0.093827427438274241 -0.41775801958915132 0 0.073982485551444349 -0.42005290588181732 0 0.088692331433278357 -0.42535053834926723 0 0.078149012167117934 -0.43357211405594609 0 0.091812697424993442 -0.4386357446441016 0 0.088692331433278357 -0.42535053834926723 0 0.078149012167117934 -0.43357211405594609 0 0.091812697424993442 -0.4386357446441016 0 0.088692331433278357 -0.42535053834926723 0 0.098414951810672224 -0.43233268446502993 0 0.098414951810672224 -0.43233268446502993 0 0.097645949564215143 -0.42435504664253748 0 0.1061961683754654 -0.43004895598907111 0 0.088692331433278357 -0.42535053834926723 0 0.098414951810672224 -0.43233268446502993 0 0.097645949564215143 -0.42435504664253748 0 0.1061961683754654 -0.43004895598907111 0 0.11152958735588871 -0.42539382439527612 0 0.1045809803654715 -0.42051706085107571 0 0.097645949564215143 -0.42435504664253748 0 0.1061961683754654 -0.43004895598907111 0 0.1045809803654715 -0.42051706085107571 0 0.1069391861142964 -0.44299064961396012 0 0.098414951810672224 -0.43233268446502993 0 0.1061961683754654 -0.43004895598907111 0 0.1061961683754654 -0.43004895598907111 0 0.1159996351348133 -0.43474120747525058 0 0.11152958735588871 -0.42539382439527612 0 0.13212255532719441 -0.42024495614079282 0 0.1159996351348133 -0.43474120747525058 0 0.11851153239627241 -0.42275952171654291 0 0.1069391861142964 -0.44299064961396012 0 0.1061961683754654 -0.43004895598907111 0 0.1159996351348133 -0.43474120747525058 0 0.1159996351348133 -0.43474120747525058 0 0.11152958735588871 -0.42539382439527612 0 0.11851153239627241 -0.42275952171654291 0 0.11152958735588871 -0.42539382439527612 0 0.11851153239627241 -0.42275952171654291 0 0.1123596205074209 -0.41890237594444008 0 0.1250254850364893 -0.40936224001308058 0 0.117866085899093 -0.41583132647739651 0 0.1096180349996463 -0.41151587164058129 0 0.1250254850364893 -0.40936224001308058 0 0.1096180349996463 -0.41151587164058129 0 0.13212255532719441 -0.42024495614079282 0 0.11851153239627241 -0.42275952171654291 0 0.117866085899093 -0.41583132647739651 0 0.117866085899093 -0.41583132647739651 0 0.1123596205074209 -0.41890237594444008 0 0.1096180349996463 -0.41151587164058129 0 0.11851153239627241 -0.42275952171654291 0 0.117866085899093 -0.41583132647739651 0 0.1123596205074209 -0.41890237594444008 0 0.11152958735588871 -0.42539382439527612 0 0.1123596205074209 -0.41890237594444008 0 0.1045809803654715 -0.42051706085107571 0 0.1123596205074209 -0.41890237594444008 0 0.1096180349996463 -0.41151587164058129 0 0.1065506547415149 -0.41613106226330793 0 0.1096180349996463 -0.41151587164058129 0 0.1065506547415149 -0.41613106226330793 0 0.099702730965631758 -0.41290181884877419 0 0.1096180349996463 -0.41151587164058129 0 0.099702730965631758 -0.41290181884877419 0 0.1096180349996463 -0.41151587164058129 0 0.099702730965631758 -0.41290181884877419 0 0.1041447551606165 -0.40305668800175581 0 0.1123596205074209 -0.41890237594444008 0 0.1065506547415149 -0.41613106226330793 0 0.1045809803654715 -0.42051706085107571 0 0.1065506547415149 -0.41613106226330793 0 0.1045809803654715 -0.42051706085107571 0 0.099702730965631758 -0.41290181884877419 0 0.1045809803654715 -0.42051706085107571 0 0.093827427438274241 -0.41775801958915132 0 0.099702730965631758 -0.41290181884877419 0 0.097645949564215143 -0.42435504664253748 0 0.1045809803654715 -0.42051706085107571 0 0.093827427438274241 -0.41775801958915132 0 0.086447448161059384 -0.41120764722282821 0 0.099702730965631758 -0.41290181884877419 0 0.095691580682652475 -0.39908469234235189 0 0.095691580682652475 -0.39908469234235189 0 0.1041447551606165 -0.40305668800175581 0 0.1115666739945345 -0.38872436917531578 0 0.099702730965631758 -0.41290181884877419 0 0.095691580682652475 -0.39908469234235189 0 0.1041447551606165 -0.40305668800175581 0 0.1096180349996463 -0.41151587164058129 0 0.1041447551606165 -0.40305668800175581 0 0.1115666739945345 -0.38872436917531578 0 0.1250254850364893 -0.40936224001308058 0 0.1115666739945345 -0.38872436917531578 0 0.1096180349996463 -0.41151587164058129 0 0.1115666739945345 -0.38872436917531578 0 0.1250254850364893 -0.40936224001308058 0 0.1096180349996463 -0.41151587164058129 0 0.1115666739945345 -0.38872436917531578 0 0.12645644117523869 -0.39722706905544619 0 0.1250254850364893 -0.40936224001308058 0 0.1115666739945345 -0.38872436917531578 0 0.12609635470998201 -0.38402791619100712 0 0.1115666739945345 -0.38872436917531578 0 0.113745377556003 -0.36324200547299851 0 0.1115666739945345 -0.38872436917531578 0 0.113745377556003 -0.36324200547299851 0 0.12609635470998201 -0.38402791619100712 0 0.12645644117523869 -0.39722706905544619 0 0.1115666739945345 -0.38872436917531578 0 0.1115666739945345 -0.38872436917531578 0 0.096372132326470572 -0.36542491223168638 0 0.1115666739945345 -0.38872436917531578 0 0.089853218628298884 -0.38394717958202601 0 0.096372132326470572 -0.36542491223168638 0 0.095691580682652475 -0.39908469234235189 0 0.1115666739945345 -0.38872436917531578 0 0.089853218628298884 -0.38394717958202601 0 0.089853218628298884 -0.38394717958202601 0 0.082924844884061683 -0.39714926844771359 0 0.072939106935086151 -0.38728773006234168 0 0.089853218628298884 -0.38394717958202601 0 0.072939106935086151 -0.38728773006234168 0 0.07582030708563034 -0.37256671738353597 0 0.095691580682652475 -0.39908469234235189 0 0.089853218628298884 -0.38394717958202601 0 0.082924844884061683 -0.39714926844771359 0 0.086447448161059384 -0.41120764722282821 0 0.082924844884061683 -0.39714926844771359 0 0.069775570718114244 -0.40426700169235308 0 0.086447448161059384 -0.41120764722282821 0 0.095691580682652475 -0.39908469234235189 0 0.082924844884061683 -0.39714926844771359 0 0.069775570718114244 -0.40426700169235308 0 0.072939106935086151 -0.38728773006234168 0 0.058313699768321348 -0.39007371912844929 0 0.082924844884061683 -0.39714926844771359 0 0.069775570718114244 -0.40426700169235308 0 0.072939106935086151 -0.38728773006234168 0 0.072939106935086151 -0.38728773006234168 0 0.05933500968155693 -0.37671477575793533 0 0.058313699768321348 -0.39007371912844929 0 0.072939106935086151 -0.38728773006234168 0 0.05933500968155693 -0.37671477575793533 0 0.07582030708563034 -0.37256671738353597 0 0.05933500968155693 -0.37671477575793533 0 0.043300396670470892 -0.38581293046691678 0 0.039079294002052851 -0.37065651216905859 0 0.05933500968155693 -0.37671477575793533 0 0.058313699768321348 -0.39007371912844929 0 0.043300396670470892 -0.38581293046691678 0 0.058313699768321348 -0.39007371912844929 0 0.0466875803122518 -0.39705513158652528 0 0.054373060569327003 -0.40663711634463268 0 0.069775570718114244 -0.40426700169235308 0 0.058313699768321348 -0.39007371912844929 0 0.054373060569327003 -0.40663711634463268 0 0.058313699768321348 -0.39007371912844929 0 0.054373060569327003 -0.40663711634463268 0 0.0466875803122518 -0.39705513158652528 0 0.042121557959679479 -0.40689397827368962 0 0.054373060569327003 -0.40663711634463268 0 0.058313699768321348 -0.39007371912844929 0 0.0466875803122518 -0.39705513158652528 0 0.043300396670470892 -0.38581293046691678 0 0.0466875803122518 -0.39705513158652528 0 0.032645317368698572 -0.39721328630736241 0 0.043300396670470892 -0.38581293046691678 0 0.0466875803122518 -0.39705513158652528 0 0.032645317368698572 -0.39721328630736241 0 0.042121557959679479 -0.40689397827368962 0 0.032645317368698572 -0.39721328630736241 0 0.043300396670470892 -0.38581293046691678 0 0.025542853711361019 -0.38384675294920401 0 0.043300396670470892 -0.38581293046691678 0 0.025542853711361019 -0.38384675294920401 0 0.039079294002052851 -0.37065651216905859 0 0.025542853711361019 -0.38384675294920401 0 0.009690974369139977 -0.39295199195252922 0 0.016784443680880379 -0.36713146693108112 0 -0.0064694903547723136 -0.38059021958606692 0 0.009690974369139977 -0.39295199195252922 0 0.016784443680880379 -0.36713146693108112 0 0.032645317368698572 -0.39721328630736241 0 0.009690974369139977 -0.39295199195252922 0 0.030062121183744069 -0.41560348860952728 0 0.032645317368698572 -0.39721328630736241 0 0.025542853711361019 -0.38384675294920401 0 0.009690974369139977 -0.39295199195252922 0 0.009690974369139977 -0.39295199195252922 0 0.030062121183744069 -0.41560348860952728 0 0.01224976062295041 -0.42183763890738629 0 -0.0080625817845775948 -0.40608726553411861 0 0.009690974369139977 -0.39295199195252922 0 0.01224976062295041 -0.42183763890738629 0 0.009690974369139977 -0.39295199195252922 0 0.01224976062295041 -0.42183763890738629 0 0.01224976062295041 -0.42183763890738629 0 0.01480854687676085 -0.45072328586224342 0 0.030062121183744069 -0.41560348860952728 0 0.01224976062295041 -0.42183763890738629 0 0.028535899264767479 -0.43733174884408438 0 0.01224976062295041 -0.42183763890738629 0 0.028535899264767479 -0.43733174884408438 0 0.01480854687676085 -0.45072328586224342 0 0.030062121183744069 -0.41560348860952728 0 0.028535899264767479 -0.43733174884408438 0 0.039909128579099777 -0.42893709763038412 0 0.039909128579099777 -0.42893709763038412 0 0.050432421370333713 -0.42320051356081623 0 0.04400553312424714 -0.45021417746364167 0 0.039909128579099777 -0.42893709763038412 0 0.046509667952406512 -0.41833555967385072 0 0.050432421370333713 -0.42320051356081623 0 0.032645317368698572 -0.39721328630736241 0 0.030062121183744069 -0.41560348860952728 0 0.042121557959679479 -0.40689397827368962 0 0.030062121183744069 -0.41560348860952728 0 0.039909128579099777 -0.42893709763038412 0 0.046509667952406512 -0.41833555967385072 0 0.030062121183744069 -0.41560348860952728 0 0.042121557959679479 -0.40689397827368962 0 0.046509667952406512 -0.41833555967385072 0 0.054373060569327003 -0.40663711634463268 0 0.050432421370333713 -0.42320051356081623 0 0.046509667952406512 -0.41833555967385072 0 0.054373060569327003 -0.40663711634463268 0 0.050432421370333713 -0.42320051356081623 0 0.054373060569327003 -0.40663711634463268 0 0.060774245729122177 -0.41691050055794487 0 0.050432421370333713 -0.42320051356081623 0 0.046509667952406512 -0.41833555967385072 0 0.050432421370333713 -0.42320051356081623 0 0.042121557959679479 -0.40689397827368962 0 0.046509667952406512 -0.41833555967385072 0 0.054373060569327003 -0.40663711634463268 0 0.069775570718114244 -0.40426700169235308 0 0.054373060569327003 -0.40663711634463268 0 0.060774245729122177 -0.41691050055794487 0 0.050432421370333713 -0.42320051356081623 0 0.04400553312424714 -0.45021417746364167 0 0.065913834705597293 -0.44240038517061198 0 0.050432421370333713 -0.42320051356081623 0 0.065913834705597293 -0.44240038517061198 0 0.065921365320016911 -0.4273577277455588 0 0.050432421370333713 -0.42320051356081623 0 0.065921365320016911 -0.4273577277455588 0 0.060774245729122177 -0.41691050055794487 0 0.050432421370333713 -0.42320051356081623 0 0.065913834705597293 -0.44240038517061198 0 0.050432421370333713 -0.42320051356081623 0 0.04400553312424714 -0.45021417746364167 0 0.065913834705597293 -0.44240038517061198 0 0.057068655694905858 -0.46015288389510001 0 0.04400553312424714 -0.45021417746364167 0 0.057068655694905858 -0.46015288389510001 0 0.048043393468649283 -0.46676160836513853 0 0.04400553312424714 -0.45021417746364167 0 0.067447632246636219 -0.45716428258124142 0 0.057068655694905858 -0.46015288389510001 0 0.05849497948899289 -0.47642287528831911 0 0.057068655694905858 -0.46015288389510001 0 0.048043393468649283 -0.46676160836513853 0 0.052635520687858477 -0.47072247146996382 0 0.04400553312424714 -0.45021417746364167 0 0.037578644878161642 -0.47722784136646751 0 0.048043393468649283 -0.46676160836513853 0 0.04400553312424714 -0.45021417746364167 0 0.037578644878161642 -0.47722784136646751 0 0.04400553312424714 -0.45021417746364167 0 0.030366658319331299 -0.45781827645911538 0 0.037578644878161642 -0.47722784136646751 0 0.028535899264767479 -0.43733174884408438 0 0.039909128579099777 -0.42893709763038412 0 0.04400553312424714 -0.45021417746364167 0 0.028535899264767479 -0.43733174884408438 0 0.04400553312424714 -0.45021417746364167 0 0.030366658319331299 -0.45781827645911538 0 0.028535899264767479 -0.43733174884408438 0 0.01480854687676085 -0.45072328586224342 0 0.030366658319331299 -0.45781827645911538 0 -0.008216644178786571 -0.4466179140804285 0 0.01224976062295041 -0.42183763890738629 0 0.01480854687676085 -0.45072328586224342 0 0.01480854687676085 -0.45072328586224342 0 0.017367333130571299 -0.47960893281710049 0 0.0084119176919832291 -0.471974008478943 0 -0.0021957942935651631 -0.46571035637089769 0 0.01480854687676085 -0.45072328586224342 0 0.0084119176919832291 -0.471974008478943 0 -0.008216644178786571 -0.4466179140804285 0 -0.0021957942935651631 -0.46571035637089769 0 0.01480854687676085 -0.45072328586224342 0 0.01480854687676085 -0.45072328586224342 0 0.017367333130571299 -0.47960893281710049 0 0.01480854687676085 -0.45072328586224342 0 0.030366658319331299 -0.45781827645911538 0 0.0269046674527194 -0.47359432875914009 0 0.01480854687676085 -0.45072328586224342 0 0.0269046674527194 -0.47359432875914009 0 0.017367333130571299 -0.47960893281710049 0 0.017367333130571299 -0.47960893281710049 0 0.012735562036971701 -0.48508522326900949 0 0.035615270762982369 -0.48075404927866472 0 0.012735562036971701 -0.48508522326900949 0 0.035615270762982369 -0.48075404927866472 0 0.0269046674527194 -0.47359432875914009 0 0.017367333130571299 -0.47960893281710049 0 0.035615270762982369 -0.48075404927866472 0 0.017367333130571299 -0.47960893281710049 0 0.0084119176919832291 -0.471974008478943 0 0.012735562036971701 -0.48508522326900949 0 -0.00065605929082254884 -0.47874224407546379 0 0.0084119176919832291 -0.471974008478943 0 0.012735562036971701 -0.48508522326900949 0 -0.0021957942935651631 -0.46571035637089769 0 -0.00065605929082254884 -0.47874224407546379 0 0.0084119176919832291 -0.471974008478943 0 -0.010144146689038991 -0.48941639725935437 0 -0.00065605929082254884 -0.47874224407546379 0 0.012735562036971701 -0.48508522326900949 0 -0.010144146689038991 -0.48941639725935437 0 0.012735562036971701 -0.48508522326900949 0 -0.011489863113854141 -0.5 0 0.012735562036971701 -0.48508522326900949 0 0.01802246382714956 -0.5 0 0.01802246382714956 -0.5 0 0.025329369399590369 -0.48901546815995378 0 0.047534790768153173 -0.50000000000000044 0 0.012735562036971701 -0.48508522326900949 0 0.025329369399590369 -0.48901546815995378 0 0.035615270762982369 -0.48075404927866472 0 0.012735562036971701 -0.48508522326900949 0 0.01802246382714956 -0.5 0 0.025329369399590369 -0.48901546815995378 0 0.025329369399590369 -0.48901546815995378 0 0.035615270762982369 -0.48075404927866472 0 0.047534790768153173 -0.50000000000000044 0 0.030366658319331299 -0.45781827645911538 0 0.0269046674527194 -0.47359432875914009 0 0.037578644878161642 -0.47722784136646751 0 0.0269046674527194 -0.47359432875914009 0 0.037578644878161642 -0.47722784136646751 0 0.035615270762982369 -0.48075404927866472 0 0.048043393468649283 -0.46676160836513853 0 0.037578644878161642 -0.47722784136646751 0 0.046296380844488463 -0.47463440362945558 0 0.035615270762982369 -0.48075404927866472 0 0.046296380844488463 -0.47463440362945558 0 0.049693011087844949 -0.4756354888466594 0 0.037578644878161642 -0.47722784136646751 0 0.035615270762982369 -0.48075404927866472 0 0.046296380844488463 -0.47463440362945558 0 0.057068655694905858 -0.46015288389510001 0 0.052635520687858477 -0.47072247146996382 0 0.05849497948899289 -0.47642287528831911 0 0.035615270762982369 -0.48075404927866472 0 0.049693011087844949 -0.4756354888466594 0 0.05849497948899289 -0.47642287528831911 0 0.035615270762982369 -0.48075404927866472 0 0.05849497948899289 -0.47642287528831911 0 0.048043393468649283 -0.46676160836513853 0 0.046296380844488463 -0.47463440362945558 0 0.052635520687858477 -0.47072247146996382 0 0.049693011087844949 -0.4756354888466594 0 0.052635520687858477 -0.47072247146996382 0 0.05849497948899289 -0.47642287528831911 0 0.046296380844488463 -0.47463440362945558 0 0.049693011087844949 -0.4756354888466594 0 0.052635520687858477 -0.47072247146996382 0 0.05849497948899289 -0.47642287528831911 0 0.061758178687080389 -0.47580514524370598 0 0.062670741706174135 -0.48944359682069549 0 0.064881374578912687 -0.4815757870058418 0 0.05849497948899289 -0.47642287528831911 0 0.064881374578912687 -0.4815757870058418 0 0.05849497948899289 -0.47642287528831911 0 0.061758178687080389 -0.47580514524370598 0 0.069142552082564368 -0.5 0 0.062670741706174135 -0.48944359682069549 0 0.047534790768153173 -0.50000000000000044 0 0.05849497948899289 -0.47642287528831911 0 0.047534790768153173 -0.50000000000000044 0 0.035615270762982369 -0.48075404927866472 0 0.05849497948899289 -0.47642287528831911 0 0.047534790768153173 -0.50000000000000044 0 0.062670741706174135 -0.48944359682069549 0 0.05849497948899289 -0.47642287528831911 0 0.047534790768153173 -0.50000000000000044 0 0.089727975817252392 -0.29646224842349211 0 0.069967983226982527 -0.30495776272600778 0 0.075483032258224086 -0.28815868119130272 0 0.089727975817252392 -0.29646224842349211 0 0.088503230311337153 -0.27716835087377989 0 0.101883582619993 -0.28460947857741209 0 0.089727975817252392 -0.29646224842349211 0 0.075483032258224086 -0.28815868119130272 0 0.088503230311337153 -0.27716835087377989 0 0.089727975817252392 -0.29646224842349211 0 0.086214248119208581 -0.31193359067875348 0 0.069967983226982527 -0.30495776272600778 0 0.089727975817252392 -0.29646224842349211 0 0.086214248119208581 -0.31193359067875348 0 0.10049372866807189 -0.31082656242210721 0 0.069967983226982527 -0.30495776272600778 0 0.075483032258224086 -0.28815868119130272 0 0.059449054433483903 -0.28956707473318272 0 0.075483032258224086 -0.28815868119130272 0 0.0646939085167762 -0.2722383315448984 0 0.059449054433483903 -0.28956707473318272 0 0.0646939085167762 -0.2722383315448984 0 0.077350866508299074 -0.27549126298099152 0 0.080723294946858856 -0.26439968831398508 0 0.075483032258224086 -0.28815868119130272 0 0.0646939085167762 -0.2722383315448984 0 0.077350866508299074 -0.27549126298099152 0 0.0646939085167762 -0.2722383315448984 0 0.070005134957367529 -0.25889031236374099 0 0.080723294946858856 -0.26439968831398508 0 0.070005134957367529 -0.25889031236374099 0 0.061490933840310687 -0.25382890142296882 0 0.070069103552599196 -0.24823964670048029 0 0.0646939085167762 -0.2722383315448984 0 0.070005134957367529 -0.25889031236374099 0 0.060614126731859473 -0.2624009925450973 0 0.070005134957367529 -0.25889031236374099 0 0.061490933840310687 -0.25382890142296882 0 0.060614126731859473 -0.2624009925450973 0 0.070005134957367529 -0.25889031236374099 0 0.080071368274292315 -0.25145738896057979 0 0.080723294946858856 -0.26439968831398508 0 0.070005134957367529 -0.25889031236374099 0 0.080071368274292315 -0.25145738896057979 0 0.070069103552599196 -0.24823964670048029 0 0.080071368274292315 -0.25145738896057979 0 0.080723294946858856 -0.26439968831398508 0 0.090706365013478091 -0.25245448435890872 0 0.080723294946858856 -0.26439968831398508 0 0.090706365013478091 -0.25245448435890872 0 0.095060577752172304 -0.26241188567384149 0 0.075483032258224086 -0.28815868119130272 0 0.077350866508299074 -0.27549126298099152 0 0.088503230311337153 -0.27716835087377989 0 0.077350866508299074 -0.27549126298099152 0 0.080723294946858856 -0.26439968831398508 0 0.088503230311337153 -0.27716835087377989 0 0.080723294946858856 -0.26439968831398508 0 0.088503230311337153 -0.27716835087377989 0 0.095060577752172304 -0.26241188567384149 0 0.088503230311337153 -0.27716835087377989 0 0.1016952336099234 -0.27235330725820578 0 0.101883582619993 -0.28460947857741209 0 0.088503230311337153 -0.27716835087377989 0 0.1016952336099234 -0.27235330725820578 0 0.095060577752172304 -0.26241188567384149 0 0.1016952336099234 -0.27235330725820578 0 0.1104739380917857 -0.2612093749811526 0 0.1125548392743288 -0.27636744618484282 0 0.1016952336099234 -0.27235330725820578 0 0.1125548392743288 -0.27636744618484282 0 0.101883582619993 -0.28460947857741209 0 0.090706365013478091 -0.25245448435890872 0 0.099550463170151926 -0.25262580003909579 0 0.095060577752172304 -0.26241188567384149 0 0.1016952336099234 -0.27235330725820578 0 0.095060577752172304 -0.26241188567384149 0 0.1104739380917857 -0.2612093749811526 0 0.099550463170151926 -0.25262580003909579 0 0.095060577752172304 -0.26241188567384149 0 0.1104739380917857 -0.2612093749811526 0 0.099550463170151926 -0.25262580003909579 0 0.1104739380917857 -0.2612093749811526 0 0.1078238037173969 -0.24832262031645649 0 0.1311170075682456 -0.27142576198599933 0 0.1104739380917857 -0.2612093749811526 0 0.1212054647883809 -0.25073068226796852 0 0.1104739380917857 -0.2612093749811526 0 0.1212054647883809 -0.25073068226796852 0 0.1078238037173969 -0.24832262031645649 0 0.1311170075682456 -0.27142576198599933 0 0.1104739380917857 -0.2612093749811526 0 0.1311170075682456 -0.27142576198599933 0 0.1104739380917857 -0.2612093749811526 0 0.1193620271946058 -0.27249351692823448 0 0.1104739380917857 -0.2612093749811526 0 0.1125548392743288 -0.27636744618484282 0 0.1193620271946058 -0.27249351692823448 0 0.1125548392743288 -0.27636744618484282 0 0.1193620271946058 -0.27249351692823448 0 0.1233023238440631 -0.28097148456094378 0 0.1311170075682456 -0.27142576198599933 0 0.1193620271946058 -0.27249351692823448 0 0.1233023238440631 -0.28097148456094378 0 0.1233023238440631 -0.28097148456094378 0 0.1242383748246253 -0.29131174999725179 0 0.1141297936923768 -0.28878453930630188 0 0.1242383748246253 -0.29131174999725179 0 0.1141297936923768 -0.28878453930630188 0 0.1198701537204314 -0.30089140532399938 0 0.1141297936923768 -0.28878453930630188 0 0.10622170970645189 -0.29895353846799488 0 0.1198701537204314 -0.30089140532399938 0 0.1125548392743288 -0.27636744618484282 0 0.1233023238440631 -0.28097148456094378 0 0.1141297936923768 -0.28878453930630188 0 0.1125548392743288 -0.27636744618484282 0 0.1141297936923768 -0.28878453930630188 0 0.101883582619993 -0.28460947857741209 0 0.089727975817252392 -0.29646224842349211 0 0.101883582619993 -0.28460947857741209 0 0.10622170970645189 -0.29895353846799488 0 0.1141297936923768 -0.28878453930630188 0 0.101883582619993 -0.28460947857741209 0 0.10622170970645189 -0.29895353846799488 0 0.089727975817252392 -0.29646224842349211 0 0.10049372866807189 -0.31082656242210721 0 0.10622170970645189 -0.29895353846799488 0 0.10049372866807189 -0.31082656242210721 0 0.10622170970645189 -0.29895353846799488 0 0.1134387524627216 -0.31086840579325631 0 0.10622170970645189 -0.29895353846799488 0 0.1134387524627216 -0.31086840579325631 0 0.1198701537204314 -0.30089140532399938 0 0.1265219532001009 -0.3124330460259736 0 0.1134387524627216 -0.31086840579325631 0 0.1198701537204314 -0.30089140532399938 0 0.1265219532001009 -0.3124330460259736 0 0.1134387524627216 -0.31086840579325631 0 0.1192961391526948 -0.32261879728377291 0 0.1134387524627216 -0.31086840579325631 0 0.1192961391526948 -0.32261879728377291 0 0.1082288303285789 -0.31948708523568958 0 0.1192961391526948 -0.32261879728377291 0 0.1093748658769356 -0.32997486192450581 0 0.1082288303285789 -0.31948708523568958 0 0.1192961391526948 -0.32261879728377291 0 0.1168506625355451 -0.3296807312869221 0 0.1093748658769356 -0.32997486192450581 0 0.1192961391526948 -0.32261879728377291 0 0.12260601330919629 -0.33072698382653798 0 0.1168506625355451 -0.3296807312869221 0 0.13219802669416811 -0.32498852212276208 0 0.1192961391526948 -0.32261879728377291 0 0.12260601330919629 -0.33072698382653798 0 0.13051916655351839 -0.33696304048325831 0 0.12260601330919629 -0.33072698382653798 0 0.1159240811174677 -0.33775964177068091 0 0.12260601330919629 -0.33072698382653798 0 0.1159240811174677 -0.33775964177068091 0 0.1161256318033537 -0.33540228211287182 0 0.12260601330919629 -0.33072698382653798 0 0.1168506625355451 -0.3296807312869221 0 0.1161256318033537 -0.33540228211287182 0 0.13051916655351839 -0.33696304048325831 0 0.1159240811174677 -0.33775964177068091 0 0.13051916655351839 -0.33696304048325831 0 0.1159240811174677 -0.33775964177068091 0 0.123981461538115 -0.35128285539313481 0 0.1159240811174677 -0.33775964177068091 0 0.1161256318033537 -0.33540228211287182 0 0.1168506625355451 -0.3296807312869221 0 0.1161256318033537 -0.33540228211287182 0 0.1093748658769356 -0.32997486192450581 0 0.1159240811174677 -0.33775964177068091 0 0.1161256318033537 -0.33540228211287182 0 0.1093748658769356 -0.32997486192450581 0 0.1159240811174677 -0.33775964177068091 0 0.092335912071574502 -0.33904708650077298 0 0.1159240811174677 -0.33775964177068091 0 0.1093748658769356 -0.32997486192450581 0 0.092335912071574502 -0.33904708650077298 0 0.1093748658769356 -0.32997486192450581 0 0.096347407600029022 -0.32440529872184809 0 0.092335912071574502 -0.33904708650077298 0 0.1159240811174677 -0.33775964177068091 0 0.10211321446004019 -0.35101158716873732 0 0.092335912071574502 -0.33904708650077298 0 0.086214248119208581 -0.31193359067875348 0 0.10049372866807189 -0.31082656242210721 0 0.096347407600029022 -0.32440529872184809 0 0.10049372866807189 -0.31082656242210721 0 0.1134387524627216 -0.31086840579325631 0 0.1082288303285789 -0.31948708523568958 0 0.10049372866807189 -0.31082656242210721 0 0.096347407600029022 -0.32440529872184809 0 0.1082288303285789 -0.31948708523568958 0 0.1093748658769356 -0.32997486192450581 0 0.096347407600029022 -0.32440529872184809 0 0.1082288303285789 -0.31948708523568958 0 0.12784456261830821 -0.36308533366748658 0 0.12609635470998201 -0.38402791619100712 0 0.113745377556003 -0.36324200547299851 0 0.1159240811174677 -0.33775964177068091 0 0.113745377556003 -0.36324200547299851 0 0.123981461538115 -0.35128285539313481 0 0.1159240811174677 -0.33775964177068091 0 0.113745377556003 -0.36324200547299851 0 0.1159240811174677 -0.33775964177068091 0 0.113745377556003 -0.36324200547299851 0 0.10211321446004019 -0.35101158716873732 0 0.12784456261830821 -0.36308533366748658 0 0.113745377556003 -0.36324200547299851 0 0.123981461538115 -0.35128285539313481 0 0.1115666739945345 -0.38872436917531578 0 0.113745377556003 -0.36324200547299851 0 0.096372132326470572 -0.36542491223168638 0 0.113745377556003 -0.36324200547299851 0 0.10211321446004019 -0.35101158716873732 0 0.096372132326470572 -0.36542491223168638 0 0.089853218628298884 -0.38394717958202601 0 0.096372132326470572 -0.36542491223168638 0 0.07582030708563034 -0.37256671738353597 0 0.096372132326470572 -0.36542491223168638 0 0.082110249222110576 -0.35466523699539548 0 0.07582030708563034 -0.37256671738353597 0 0.10211321446004019 -0.35101158716873732 0 0.096372132326470572 -0.36542491223168638 0 0.082110249222110576 -0.35466523699539548 0 0.082110249222110576 -0.35466523699539548 0 0.092335912071574502 -0.33904708650077298 0 0.068747743025681235 -0.34033453123086538 0 0.10211321446004019 -0.35101158716873732 0 0.082110249222110576 -0.35466523699539548 0 0.092335912071574502 -0.33904708650077298 0 0.082110249222110576 -0.35466523699539548 0 0.068747743025681235 -0.34033453123086538 0 0.057272186363266697 -0.35960658745677498 0 0.082110249222110576 -0.35466523699539548 0 0.07582030708563034 -0.37256671738353597 0 0.057272186363266697 -0.35960658745677498 0 0.05933500968155693 -0.37671477575793533 0 0.07582030708563034 -0.37256671738353597 0 0.057272186363266697 -0.35960658745677498 0 0.086214248119208581 -0.31193359067875348 0 0.096347407600029022 -0.32440529872184809 0 0.078030795921920637 -0.32434601069550512 0 0.092335912071574502 -0.33904708650077298 0 0.068747743025681235 -0.34033453123086538 0 0.078030795921920637 -0.32434601069550512 0 0.092335912071574502 -0.33904708650077298 0 0.068747743025681235 -0.34033453123086538 0 0.096347407600029022 -0.32440529872184809 0 0.092335912071574502 -0.33904708650077298 0 0.078030795921920637 -0.32434601069550512 0 0.068747743025681235 -0.34033453123086538 0 0.078030795921920637 -0.32434601069550512 0 0.053863538987460123 -0.3232816795844588 0 0.069967983226982527 -0.30495776272600778 0 0.078030795921920637 -0.32434601069550512 0 0.053863538987460123 -0.3232816795844588 0 0.086214248119208581 -0.31193359067875348 0 0.069967983226982527 -0.30495776272600778 0 0.078030795921920637 -0.32434601069550512 0 0.068747743025681235 -0.34033453123086538 0 0.045159573979787898 -0.34162197596095778 0 0.068747743025681235 -0.34033453123086538 0 0.053863538987460123 -0.3232816795844588 0 0.045159573979787898 -0.34162197596095778 0 0.053863538987460123 -0.3232816795844588 0 0.034832013842728909 -0.33032259781876938 0 0.045159573979787898 -0.34162197596095778 0 0.034832013842728909 -0.33032259781876938 0 0.045159573979787898 -0.34162197596095778 0 0.02157140493389462 -0.34290942069105018 0 0.045159573979787898 -0.34162197596095778 0 0.02157140493389462 -0.34290942069105018 0 0.053863538987460123 -0.3232816795844588 0 0.034832013842728909 -0.33032259781876938 0 0.03621734991660093 -0.31670946998547028 0 0.053863538987460123 -0.3232816795844588 0 0.03621734991660093 -0.31670946998547028 0 0.048768037075517537 -0.30442990221103089 0 0.05933500968155693 -0.37671477575793533 0 0.057272186363266697 -0.35960658745677498 0 0.039079294002052851 -0.37065651216905859 0 0.068747743025681235 -0.34033453123086538 0 0.045159573979787898 -0.34162197596095778 0 0.057272186363266697 -0.35960658745677498 0 0.045159573979787898 -0.34162197596095778 0 0.034512899630155462 -0.3545258348651717 0 0.02157140493389462 -0.34290942069105018 0 0.045159573979787898 -0.34162197596095778 0 0.057272186363266697 -0.35960658745677498 0 0.034512899630155462 -0.3545258348651717 0 0.057272186363266697 -0.35960658745677498 0 0.034512899630155462 -0.3545258348651717 0 0.039079294002052851 -0.37065651216905859 0 0.025542853711361019 -0.38384675294920401 0 0.039079294002052851 -0.37065651216905859 0 0.016784443680880379 -0.36713146693108112 0 0.034512899630155462 -0.3545258348651717 0 0.039079294002052851 -0.37065651216905859 0 0.016784443680880379 -0.36713146693108112 0 0.034512899630155462 -0.3545258348651717 0 0.016784443680880379 -0.36713146693108112 0 0.02157140493389462 -0.34290942069105018 0 -0.0043130761299947744 -0.35643483176966217 0 0.016784443680880379 -0.36713146693108112 0 0.02157140493389462 -0.34290942069105018 0 -0.0038616663111063101 -0.33241552487502413 0 -0.0043130761299947744 -0.35643483176966217 0 0.02157140493389462 -0.34290942069105018 0 -0.0043130761299947744 -0.35643483176966217 0 -0.0064694903547723136 -0.38059021958606692 0 0.016784443680880379 -0.36713146693108112 0 0.03621734991660093 -0.31670946998547028 0 0.020048637459846991 -0.32439583124448262 0 0.029165048793799431 -0.30349547286963757 0 0.034832013842728909 -0.33032259781876938 0 0.03621734991660093 -0.31670946998547028 0 0.020048637459846991 -0.32439583124448262 0 0.020048637459846991 -0.32439583124448262 0 0.0094652366165251054 -0.31053241408104548 0 0.029165048793799431 -0.30349547286963757 0 0.034832013842728909 -0.33032259781876938 0 0.020048637459846991 -0.32439583124448262 0 0.02157140493389462 -0.34290942069105018 0 -0.0038616663111063101 -0.33241552487502413 0 0.020048637459846991 -0.32439583124448262 0 0.02157140493389462 -0.34290942069105018 0 -0.0038616663111063101 -0.33241552487502413 0 0.020048637459846991 -0.32439583124448262 0 0.0094652366165251054 -0.31053241408104548 0 -0.01007927323019326 -0.3103345258507364 0 0.0094652366165251054 -0.31053241408104548 0 0.0017563221397047381 -0.2997067901486577 0 0.0094652366165251054 -0.31053241408104548 0 0.0017563221397047381 -0.2997067901486577 0 0.017453688627786131 -0.29322190620108468 0 0.0017563221397047381 -0.2997067901486577 0 0.0066437179820165657 -0.2861171845936395 0 0.017453688627786131 -0.29322190620108468 0 -0.0080748459131490501 -0.2914060437848453 0 0.0017563221397047381 -0.2997067901486577 0 0.0066437179820165657 -0.2861171845936395 0 0.0066437179820165657 -0.2861171845936395 0 0.017453688627786131 -0.29322190620108468 0 0.01908241754038794 -0.28073467218482329 0 0.017453688627786131 -0.29322190620108468 0 0.029398966714908509 -0.28692964748338379 0 0.029165048793799431 -0.30349547286963757 0 0.017453688627786131 -0.29322190620108468 0 0.029398966714908509 -0.28692964748338379 0 0.01908241754038794 -0.28073467218482329 0 0.0094652366165251054 -0.31053241408104548 0 0.017453688627786131 -0.29322190620108468 0 0.029165048793799431 -0.30349547286963757 0 0.03621734991660093 -0.31670946998547028 0 0.029165048793799431 -0.30349547286963757 0 0.048768037075517537 -0.30442990221103089 0 0.029165048793799431 -0.30349547286963757 0 0.043029943860180789 -0.28970337243015992 0 0.048768037075517537 -0.30442990221103089 0 0.029398966714908509 -0.28692964748338379 0 0.029165048793799431 -0.30349547286963757 0 0.043029943860180789 -0.28970337243015992 0 0.029398966714908509 -0.28692964748338379 0 0.043029943860180789 -0.28970337243015992 0 0.038396769586432553 -0.27977596087564799 0 0.043029943860180789 -0.28970337243015992 0 0.051749435803858171 -0.27840569125857739 0 0.038396769586432553 -0.27977596087564799 0 0.043029943860180789 -0.28970337243015992 0 0.059449054433483903 -0.28956707473318272 0 0.051749435803858171 -0.27840569125857739 0 0.043029943860180789 -0.28970337243015992 0 0.059449054433483903 -0.28956707473318272 0 0.048768037075517537 -0.30442990221103089 0 0.069967983226982527 -0.30495776272600778 0 0.059449054433483903 -0.28956707473318272 0 0.048768037075517537 -0.30442990221103089 0 0.069967983226982527 -0.30495776272600778 0 0.053863538987460123 -0.3232816795844588 0 0.048768037075517537 -0.30442990221103089 0 0.053380735395516472 -0.25867595766617779 0 0.04428054005230446 -0.26275141268032309 0 0.045372505498807933 -0.25408090721008542 0 0.053380735395516472 -0.25867595766617779 0 0.053158010572478251 -0.26777612517812432 0 0.04428054005230446 -0.26275141268032309 0 0.053380735395516472 -0.25867595766617779 0 0.045372505498807933 -0.25408090721008542 0 0.05268811686830014 -0.24901610311096159 0 0.053380735395516472 -0.25867595766617779 0 0.061490933840310687 -0.25382890142296882 0 0.05268811686830014 -0.24901610311096159 0 0.053380735395516472 -0.25867595766617779 0 0.060614126731859473 -0.2624009925450973 0 0.053158010572478251 -0.26777612517812432 0 0.053380735395516472 -0.25867595766617779 0 0.061490933840310687 -0.25382890142296882 0 0.060614126731859473 -0.2624009925450973 0 0.0646939085167762 -0.2722383315448984 0 0.060614126731859473 -0.2624009925450973 0 0.053158010572478251 -0.26777612517812432 0 0.0646939085167762 -0.2722383315448984 0 0.059449054433483903 -0.28956707473318272 0 0.051749435803858171 -0.27840569125857739 0 0.0646939085167762 -0.2722383315448984 0 0.051749435803858171 -0.27840569125857739 0 0.053158010572478251 -0.26777612517812432 0 0.053158010572478251 -0.26777612517812432 0 0.044229316934554799 -0.27218436537367241 0 0.04428054005230446 -0.26275141268032309 0 0.051749435803858171 -0.27840569125857739 0 0.053158010572478251 -0.26777612517812432 0 0.044229316934554799 -0.27218436537367241 0 0.044229316934554799 -0.27218436537367241 0 0.031885251388666561 -0.26470215361104171 0 0.04428054005230446 -0.26275141268032309 0 0.051749435803858171 -0.27840569125857739 0 0.044229316934554799 -0.27218436537367241 0 0.038396769586432553 -0.27977596087564799 0 0.044229316934554799 -0.27218436537367241 0 0.038396769586432553 -0.27977596087564799 0 0.029696712261103771 -0.27487286106778819 0 0.029398966714908509 -0.28692964748338379 0 0.038396769586432553 -0.27977596087564799 0 0.029696712261103771 -0.27487286106778819 0 0.044229316934554799 -0.27218436537367241 0 0.031885251388666561 -0.26470215361104171 0 0.029696712261103771 -0.27487286106778819 0 0.037315510146954597 -0.25849363249326118 0 0.031885251388666561 -0.26470215361104171 0 0.04428054005230446 -0.26275141268032309 0 0.037315510146954597 -0.25849363249326118 0 0.031885251388666561 -0.26470215361104171 0 0.03069464768829987 -0.25176037071845259 0 0.037315510146954597 -0.25849363249326118 0 0.04428054005230446 -0.26275141268032309 0 0.045372505498807933 -0.25408090721008542 0 0.045372505498807933 -0.25408090721008542 0 0.03069464768829987 -0.25176037071845259 0 0.042588116356466379 -0.2448823624008481 0 0.037315510146954597 -0.25849363249326118 0 0.045372505498807933 -0.25408090721008542 0 0.03069464768829987 -0.25176037071845259 0 0.031885251388666561 -0.26470215361104171 0 0.021199614426200629 -0.26114166245967918 0 0.019908913466960752 -0.27058631964059482 0 0.031885251388666561 -0.26470215361104171 0 0.03069464768829987 -0.25176037071845259 0 0.021199614426200629 -0.26114166245967918 0 0.03069464768829987 -0.25176037071845259 0 0.021199614426200629 -0.26114166245967918 0 0.016145176335298529 -0.25210595968411048 0 0.029398966714908509 -0.28692964748338379 0 0.029696712261103771 -0.27487286106778819 0 0.01908241754038794 -0.28073467218482329 0 0.031885251388666561 -0.26470215361104171 0 0.029696712261103771 -0.27487286106778819 0 0.019908913466960752 -0.27058631964059482 0 0.019908913466960752 -0.27058631964059482 0 0.01908241754038794 -0.28073467218482329 0 0.01128192931255503 -0.27464126756021451 0 0.029696712261103771 -0.27487286106778819 0 0.019908913466960752 -0.27058631964059482 0 0.01908241754038794 -0.28073467218482329 0 -0.01145854626600548 -0.26602311564559261 0 0.01128192931255503 -0.27464126756021451 0 0.0057158633005241696 -0.26337829885565528 0 0.0066437179820165657 -0.2861171845936395 0 0.01908241754038794 -0.28073467218482329 0 0.01128192931255503 -0.27464126756021451 0 0.019908913466960752 -0.27058631964059482 0 0.01128192931255503 -0.27464126756021451 0 0.0057158633005241696 -0.26337829885565528 0 -0.002848760243290064 -0.27761611820401882 0 0.0066437179820165657 -0.2861171845936395 0 0.01128192931255503 -0.27464126756021451 0 0.016145176335298529 -0.25210595968411048 0 0.0057158633005241696 -0.26337829885565528 0 0.0054759062840018038 -0.25064707341720888 0 0.021199614426200629 -0.26114166245967918 0 0.019908913466960752 -0.27058631964059482 0 0.0057158633005241696 -0.26337829885565528 0 0.021199614426200629 -0.26114166245967918 0 0.016145176335298529 -0.25210595968411048 0 0.0057158633005241696 -0.26337829885565528 0 -0.0009620894167222515 -0.25496392916579452 0 0.0057158633005241696 -0.26337829885565528 0 0.0054759062840018038 -0.25064707341720888 0 -0.0009620894167222515 -0.25496392916579452 0 -0.0029313858115674811 -0.24854412401401971 0 0.0054759062840018038 -0.25064707341720888 0 0.0054759062840018038 -0.25064707341720888 0 0.0026199421412959989 -0.2430643023623929 0 0.011589873569895199 -0.24127835128668559 0 -0.0029313858115674811 -0.24854412401401971 0 0.0054759062840018038 -0.25064707341720888 0 0.0026199421412959989 -0.2430643023623929 0 0.016145176335298529 -0.25210595968411048 0 0.0054759062840018038 -0.25064707341720888 0 0.011589873569895199 -0.24127835128668559 0 0.011589873569895199 -0.24127835128668559 0 0.010668172172219499 -0.2272828987723072 0 0.020574075722817331 -0.2351284197632682 0 0.0026199421412959989 -0.2430643023623929 0 0.011589873569895199 -0.24127835128668559 0 0.0017465435191736189 -0.23378549097037141 0 -0.00080535468136348092 -0.21995366459000901 0 0.010668172172219499 -0.2272828987723072 0 0.01016515501406726 -0.20926501301563591 0 -0.00080535468136348092 -0.21995366459000901 0 0.0017465435191736189 -0.23378549097037141 0 0.010668172172219499 -0.2272828987723072 0 0.010668172172219499 -0.2272828987723072 0 0.02170661161633574 -0.22145314359659171 0 0.01016515501406726 -0.20926501301563591 0 0.011589873569895199 -0.24127835128668559 0 0.0017465435191736189 -0.23378549097037141 0 0.010668172172219499 -0.2272828987723072 0 0.010668172172219499 -0.2272828987723072 0 0.02170661161633574 -0.22145314359659171 0 0.020574075722817331 -0.2351284197632682 0 0.02170661161633574 -0.22145314359659171 0 0.02866695829179056 -0.22960637228307629 0 0.036392787169896093 -0.22322562645731159 0 0.02170661161633574 -0.22145314359659171 0 0.02866695829179056 -0.22960637228307629 0 0.020574075722817331 -0.2351284197632682 0 0.02866695829179056 -0.22960637228307629 0 0.020574075722817331 -0.2351284197632682 0 0.032071787069821417 -0.24054619649286721 0 0.022195152742869501 -0.2444300013669817 0 0.020574075722817331 -0.2351284197632682 0 0.032071787069821417 -0.24054619649286721 0 0.03069464768829987 -0.25176037071845259 0 0.022195152742869501 -0.2444300013669817 0 0.032071787069821417 -0.24054619649286721 0 0.03069464768829987 -0.25176037071845259 0 0.016145176335298529 -0.25210595968411048 0 0.022195152742869501 -0.2444300013669817 0 0.016145176335298529 -0.25210595968411048 0 0.011589873569895199 -0.24127835128668559 0 0.022195152742869501 -0.2444300013669817 0 0.011589873569895199 -0.24127835128668559 0 0.022195152742869501 -0.2444300013669817 0 0.020574075722817331 -0.2351284197632682 0 -0.003739977245034012 -0.19168309442994089 0 0.010514116253606281 -0.1925853606064957 0 0.01016515501406726 -0.20926501301563591 0 0.010514116253606281 -0.1925853606064957 0 0.01016515501406726 -0.20926501301563591 0 0.018596641755985681 -0.20049862993462389 0 0.02170661161633574 -0.22145314359659171 0 0.01016515501406726 -0.20926501301563591 0 0.028304225500431591 -0.20785134554231141 0 0.01016515501406726 -0.20926501301563591 0 0.028304225500431591 -0.20785134554231141 0 0.018596641755985681 -0.20049862993462389 0 0.02170661161633574 -0.22145314359659171 0 0.028304225500431591 -0.20785134554231141 0 0.036392787169896093 -0.22322562645731159 0 0.028304225500431591 -0.20785134554231141 0 0.018596641755985681 -0.20049862993462389 0 0.02540307025583758 -0.19229280057405279 0 0.010514116253606281 -0.1925853606064957 0 0.018596641755985681 -0.20049862993462389 0 0.02540307025583758 -0.19229280057405279 0 0.010514116253606281 -0.1925853606064957 0 0.02540307025583758 -0.19229280057405279 0 0.015764016274472759 -0.1812646672695073 0 0.02540307025583758 -0.19229280057405279 0 0.041440672425083092 -0.19607701236864419 0 0.030421272951226121 -0.1778391783376792 0 0.028304225500431591 -0.20785134554231141 0 0.02540307025583758 -0.19229280057405279 0 0.041440672425083092 -0.19607701236864419 0 0.041440672425083092 -0.19607701236864419 0 0.042310424588804782 -0.2140630995529598 0 0.055497750511994078 -0.2086068857692274 0 0.028304225500431591 -0.20785134554231141 0 0.041440672425083092 -0.19607701236864419 0 0.042310424588804782 -0.2140630995529598 0 0.028304225500431591 -0.20785134554231141 0 0.042310424588804782 -0.2140630995529598 0 0.036392787169896093 -0.22322562645731159 0 0.042310424588804782 -0.2140630995529598 0 0.055497750511994078 -0.2086068857692274 0 0.052955454276687589 -0.2198291654371925 0 0.062338921595789062 -0.21792006704763969 0 0.055497750511994078 -0.2086068857692274 0 0.052955454276687589 -0.2198291654371925 0 0.062338921595789062 -0.21792006704763969 0 0.055497750511994078 -0.2086068857692274 0 0.067863046951983474 -0.20503048868511209 0 0.055497750511994078 -0.2086068857692274 0 0.056257937900538298 -0.19577788601322099 0 0.067863046951983474 -0.20503048868511209 0 0.041440672425083092 -0.19607701236864419 0 0.056257937900538298 -0.19577788601322099 0 0.051449240160577621 -0.1762857105508405 0 0.041440672425083092 -0.19607701236864419 0 0.055497750511994078 -0.2086068857692274 0 0.056257937900538298 -0.19577788601322099 0 0.040491861427302538 -0.2355872617630255 0 0.042588116356466379 -0.2448823624008481 0 0.052307832003780613 -0.23884346229351339 0 0.040491861427302538 -0.2355872617630255 0 0.045866106706223042 -0.22907627795895011 0 0.052307832003780613 -0.23884346229351339 0 0.03069464768829987 -0.25176037071845259 0 0.042588116356466379 -0.2448823624008481 0 0.032071787069821417 -0.24054619649286721 0 0.040491861427302538 -0.2355872617630255 0 0.042588116356466379 -0.2448823624008481 0 0.032071787069821417 -0.24054619649286721 0 0.02866695829179056 -0.22960637228307629 0 0.040491861427302538 -0.2355872617630255 0 0.032071787069821417 -0.24054619649286721 0 0.02866695829179056 -0.22960637228307629 0 0.040491861427302538 -0.2355872617630255 0 0.036392787169896093 -0.22322562645731159 0 0.042310424588804782 -0.2140630995529598 0 0.036392787169896093 -0.22322562645731159 0 0.045866106706223042 -0.22907627795895011 0 0.040491861427302538 -0.2355872617630255 0 0.036392787169896093 -0.22322562645731159 0 0.045866106706223042 -0.22907627795895011 0 0.045866106706223042 -0.22907627795895011 0 0.058764067980626958 -0.22947949685718549 0 0.052307832003780613 -0.23884346229351339 0 0.045866106706223042 -0.22907627795895011 0 0.052955454276687589 -0.2198291654371925 0 0.058764067980626958 -0.22947949685718549 0 0.042310424588804782 -0.2140630995529598 0 0.045866106706223042 -0.22907627795895011 0 0.052955454276687589 -0.2198291654371925 0 0.062338921595789062 -0.21792006704763969 0 0.058764067980626958 -0.22947949685718549 0 0.065719467571416057 -0.22489822263154319 0 0.062338921595789062 -0.21792006704763969 0 0.052955454276687589 -0.2198291654371925 0 0.058764067980626958 -0.22947949685718549 0 0.058764067980626958 -0.22947949685718549 0 0.062159259289524899 -0.2368834247622158 0 0.052307832003780613 -0.23884346229351339 0 0.062159259289524899 -0.2368834247622158 0 0.052307832003780613 -0.23884346229351339 0 0.061229972926465738 -0.2445427902389527 0 0.045372505498807933 -0.25408090721008542 0 0.042588116356466379 -0.2448823624008481 0 0.05268811686830014 -0.24901610311096159 0 0.042588116356466379 -0.2448823624008481 0 0.052307832003780613 -0.23884346229351339 0 0.05268811686830014 -0.24901610311096159 0 0.061490933840310687 -0.25382890142296882 0 0.05268811686830014 -0.24901610311096159 0 0.061229972926465738 -0.2445427902389527 0 0.052307832003780613 -0.23884346229351339 0 0.05268811686830014 -0.24901610311096159 0 0.061229972926465738 -0.2445427902389527 0 0.061490933840310687 -0.25382890142296882 0 0.061229972926465738 -0.2445427902389527 0 0.070069103552599196 -0.24823964670048029 0 0.061229972926465738 -0.2445427902389527 0 0.070069103552599196 -0.24823964670048029 0 0.069856411684105391 -0.23913895996007839 0 0.062159259289524899 -0.2368834247622158 0 0.061229972926465738 -0.2445427902389527 0 0.069856411684105391 -0.23913895996007839 0 0.062159259289524899 -0.2368834247622158 0 0.069856411684105391 -0.23913895996007839 0 0.067142239376285745 -0.23139328163069281 0 0.069856411684105391 -0.23913895996007839 0 0.077788170153509889 -0.24196191377257101 0 0.076767606518392539 -0.23187249677345001 0 0.080071368274292315 -0.25145738896057979 0 0.070069103552599196 -0.24823964670048029 0 0.077788170153509889 -0.24196191377257101 0 0.070069103552599196 -0.24823964670048029 0 0.069856411684105391 -0.23913895996007839 0 0.077788170153509889 -0.24196191377257101 0 0.080071368274292315 -0.25145738896057979 0 0.090706365013478091 -0.25245448435890872 0 0.085906732882507178 -0.24385162082211831 0 0.080071368274292315 -0.25145738896057979 0 0.077788170153509889 -0.24196191377257101 0 0.085906732882507178 -0.24385162082211831 0 0.077788170153509889 -0.24196191377257101 0 0.085906732882507178 -0.24385162082211831 0 0.083256636250354649 -0.23616880796388259 0 0.077788170153509889 -0.24196191377257101 0 0.083256636250354649 -0.23616880796388259 0 0.076767606518392539 -0.23187249677345001 0 0.085906732882507178 -0.24385162082211831 0 0.089657973372422345 -0.23730775202069579 0 0.094006026236525903 -0.2441335510050745 0 0.085906732882507178 -0.24385162082211831 0 0.083256636250354649 -0.23616880796388259 0 0.089657973372422345 -0.23730775202069579 0 0.083256636250354649 -0.23616880796388259 0 0.089657973372422345 -0.23730775202069579 0 0.089763789457938253 -0.2306791647953326 0 0.089657973372422345 -0.23730775202069579 0 0.089763789457938253 -0.2306791647953326 0 0.096012267649498176 -0.23702186761809721 0 0.089657973372422345 -0.23730775202069579 0 0.094006026236525903 -0.2441335510050745 0 0.096012267649498176 -0.23702186761809721 0 0.090706365013478091 -0.25245448435890872 0 0.085906732882507178 -0.24385162082211831 0 0.094006026236525903 -0.2441335510050745 0 0.086446736705125371 -0.22420087797706609 0 0.091303359373345411 -0.22339335178318359 0 0.089763789457938253 -0.2306791647953326 0 0.086446736705125371 -0.22420087797706609 0 0.091303359373345411 -0.22339335178318359 0 0.086853981468707001 -0.2185547472363609 0 0.091303359373345411 -0.22339335178318359 0 0.086853981468707001 -0.2185547472363609 0 0.09077468002378962 -0.21857675351640271 0 0.091303359373345411 -0.22339335178318359 0 0.09077468002378962 -0.21857675351640271 0 0.094530837428433365 -0.22086489816084981 0 0.091303359373345411 -0.22339335178318359 0 0.089763789457938253 -0.2306791647953326 0 0.098670227838192195 -0.22970514568366851 0 0.086446736705125371 -0.22420087797706609 0 0.089763789457938253 -0.2306791647953326 0 0.083020570332336119 -0.22791650227557511 0 0.083256636250354649 -0.23616880796388259 0 0.083020570332336119 -0.22791650227557511 0 0.076767606518392539 -0.23187249677345001 0 0.083256636250354649 -0.23616880796388259 0 0.089763789457938253 -0.2306791647953326 0 0.083020570332336119 -0.22791650227557511 0 0.083020570332336119 -0.22791650227557511 0 0.077930889523722374 -0.22519622511208121 0 0.076767606518392539 -0.23187249677345001 0 0.083020570332336119 -0.22791650227557511 0 0.081291982893300085 -0.22046062379487821 0 0.077930889523722374 -0.22519622511208121 0 0.086446736705125371 -0.22420087797706609 0 0.083020570332336119 -0.22791650227557511 0 0.081291982893300085 -0.22046062379487821 0 0.086446736705125371 -0.22420087797706609 0 0.081291982893300085 -0.22046062379487821 0 0.086853981468707001 -0.2185547472363609 0 0.081291982893300085 -0.22046062379487821 0 0.077930889523722374 -0.22519622511208121 0 0.073706539318973169 -0.21796036257100029 0 0.072234091795087663 -0.22574485878751241 0 0.065719467571416057 -0.22489822263154319 0 0.073706539318973169 -0.21796036257100029 0 0.077930889523722374 -0.22519622511208121 0 0.072234091795087663 -0.22574485878751241 0 0.073706539318973169 -0.21796036257100029 0 0.069856411684105391 -0.23913895996007839 0 0.076767606518392539 -0.23187249677345001 0 0.067142239376285745 -0.23139328163069281 0 0.072234091795087663 -0.22574485878751241 0 0.076767606518392539 -0.23187249677345001 0 0.067142239376285745 -0.23139328163069281 0 0.077930889523722374 -0.22519622511208121 0 0.072234091795087663 -0.22574485878751241 0 0.076767606518392539 -0.23187249677345001 0 0.058764067980626958 -0.22947949685718549 0 0.062159259289524899 -0.2368834247622158 0 0.067142239376285745 -0.23139328163069281 0 0.058764067980626958 -0.22947949685718549 0 0.067142239376285745 -0.23139328163069281 0 0.065719467571416057 -0.22489822263154319 0 0.072234091795087663 -0.22574485878751241 0 0.067142239376285745 -0.23139328163069281 0 0.065719467571416057 -0.22489822263154319 0 0.062338921595789062 -0.21792006704763969 0 0.065719467571416057 -0.22489822263154319 0 0.073706539318973169 -0.21796036257100029 0 0.062338921595789062 -0.21792006704763969 0 0.067863046951983474 -0.20503048868511209 0 0.073706539318973169 -0.21796036257100029 0 0.067863046951983474 -0.20503048868511209 0 0.073706539318973169 -0.21796036257100029 0 0.079094442607528917 -0.20913243433380641 0 0.067863046951983474 -0.20503048868511209 0 0.081482512553192915 -0.1953056794767786 0 0.079094442607528917 -0.20913243433380641 0 0.056257937900538298 -0.19577788601322099 0 0.067863046951983474 -0.20503048868511209 0 0.066040058368007956 -0.18964665730407451 0 0.067863046951983474 -0.20503048868511209 0 0.066040058368007956 -0.18964665730407451 0 0.081482512553192915 -0.1953056794767786 0 0.081482512553192915 -0.1953056794767786 0 0.095454742848087734 -0.19451486061966669 0 0.093505174579280592 -0.1731787749771625 0 0.081482512553192915 -0.1953056794767786 0 0.08833530696517819 -0.21036332105093219 0 0.095454742848087734 -0.19451486061966669 0 0.08833530696517819 -0.21036332105093219 0 0.097404311116896569 -0.21585094626217091 0 0.095454742848087734 -0.19451486061966669 0 0.081291982893300085 -0.22046062379487821 0 0.073706539318973169 -0.21796036257100029 0 0.082946926161669862 -0.2149195339015407 0 0.082946926161669862 -0.2149195339015407 0 0.079094442607528917 -0.20913243433380641 0 0.08833530696517819 -0.21036332105093219 0 0.073706539318973169 -0.21796036257100029 0 0.082946926161669862 -0.2149195339015407 0 0.079094442607528917 -0.20913243433380641 0 0.081291982893300085 -0.22046062379487821 0 0.082946926161669862 -0.2149195339015407 0 0.086853981468707001 -0.2185547472363609 0 0.081482512553192915 -0.1953056794767786 0 0.079094442607528917 -0.20913243433380641 0 0.08833530696517819 -0.21036332105093219 0 0.082946926161669862 -0.2149195339015407 0 0.08833530696517819 -0.21036332105093219 0 0.086853981468707001 -0.2185547472363609 0 0.08833530696517819 -0.21036332105093219 0 0.086853981468707001 -0.2185547472363609 0 0.09077468002378962 -0.21857675351640271 0 0.08833530696517819 -0.21036332105093219 0 0.09077468002378962 -0.21857675351640271 0 0.092213447725184278 -0.21529843562297729 0 0.08833530696517819 -0.21036332105093219 0 0.092213447725184278 -0.21529843562297729 0 0.097404311116896569 -0.21585094626217091 0 0.09077468002378962 -0.21857675351640271 0 0.094501608789943028 -0.21679829355882299 0 0.094530837428433365 -0.22086489816084981 0 0.09077468002378962 -0.21857675351640271 0 0.092213447725184278 -0.21529843562297729 0 0.094501608789943028 -0.21679829355882299 0 0.094501608789943028 -0.21679829355882299 0 0.097404311116896569 -0.21585094626217091 0 0.094530837428433365 -0.22086489816084981 0 0.092213447725184278 -0.21529843562297729 0 0.094501608789943028 -0.21679829355882299 0 0.097404311116896569 -0.21585094626217091 0 0.097404311116896569 -0.21585094626217091 0 0.095454742848087734 -0.19451486061966669 0 0.097404311116896569 -0.21585094626217091 0 0.1059898830346106 -0.20430933332548051 0 0.095454742848087734 -0.19451486061966669 0 0.097404311116896569 -0.21585094626217091 0 0.1089347031997706 -0.21297733173581901 0 0.1146171121197104 -0.21980430615730401 0 0.097404311116896569 -0.21585094626217091 0 0.1059898830346106 -0.20430933332548051 0 0.1089347031997706 -0.21297733173581901 0 0.095454742848087734 -0.19451486061966669 0 0.1128143282819509 -0.19216489626002589 0 0.10772522460311169 -0.17968171223372481 0 0.1059898830346106 -0.20430933332548051 0 0.095454742848087734 -0.19451486061966669 0 0.1128143282819509 -0.19216489626002589 0 0.1128143282819509 -0.19216489626002589 0 0.1237689835273371 -0.19605207676116951 0 0.1178461100078927 -0.20838697738218431 0 0.1059898830346106 -0.20430933332548051 0 0.1128143282819509 -0.19216489626002589 0 0.1178461100078927 -0.20838697738218431 0 0.1128143282819509 -0.19216489626002589 0 0.1237689835273371 -0.19605207676116951 0 0.1232013989280239 -0.1819146573535104 0 0.1089347031997706 -0.21297733173581901 0 0.1178461100078927 -0.20838697738218431 0 0.1146171121197104 -0.21980430615730401 0 0.1059898830346106 -0.20430933332548051 0 0.1089347031997706 -0.21297733173581901 0 0.1178461100078927 -0.20838697738218431 0 0.1178461100078927 -0.20838697738218431 0 0.1146171121197104 -0.21980430615730401 0 0.12895394136930069 -0.22163642029703709 0 0.1146171121197104 -0.21980430615730401 0 0.12018370186474731 -0.23305432747703519 0 0.12895394136930069 -0.22163642029703709 0 0.097404311116896569 -0.21585094626217091 0 0.1146171121197104 -0.21980430615730401 0 0.12018370186474731 -0.23305432747703519 0 0.1212054647883809 -0.25073068226796852 0 0.12018370186474731 -0.23305432747703519 0 0.1059281586602189 -0.23527494890652931 0 0.13217397618885759 -0.25462043987800831 0 0.1212054647883809 -0.25073068226796852 0 0.12018370186474731 -0.23305432747703519 0 0.1212054647883809 -0.25073068226796852 0 0.1059281586602189 -0.23527494890652931 0 0.1078238037173969 -0.24832262031645649 0 0.1212054647883809 -0.25073068226796852 0 0.1059281586602189 -0.23527494890652931 0 0.099550463170151926 -0.25262580003909579 0 0.1078238037173969 -0.24832262031645649 0 0.10103467245524091 -0.24298905409433241 0 0.1059281586602189 -0.23527494890652931 0 0.1078238037173969 -0.24832262031645649 0 0.10103467245524091 -0.24298905409433241 0 0.099550463170151926 -0.25262580003909579 0 0.10103467245524091 -0.24298905409433241 0 0.094006026236525903 -0.2441335510050745 0 0.090706365013478091 -0.25245448435890872 0 0.099550463170151926 -0.25262580003909579 0 0.094006026236525903 -0.2441335510050745 0 0.1059281586602189 -0.23527494890652931 0 0.10103467245524091 -0.24298905409433241 0 0.096012267649498176 -0.23702186761809721 0 0.10103467245524091 -0.24298905409433241 0 0.094006026236525903 -0.2441335510050745 0 0.096012267649498176 -0.23702186761809721 0 0.1059281586602189 -0.23527494890652931 0 0.096012267649498176 -0.23702186761809721 0 0.098670227838192195 -0.22970514568366851 0 0.089763789457938253 -0.2306791647953326 0 0.096012267649498176 -0.23702186761809721 0 0.098670227838192195 -0.22970514568366851 0 0.097404311116896569 -0.21585094626217091 0 0.12018370186474731 -0.23305432747703519 0 0.097404311116896569 -0.21585094626217091 0 0.12018370186474731 -0.23305432747703519 0 0.1059281586602189 -0.23527494890652931 0 0.097404311116896569 -0.21585094626217091 0 0.1059281586602189 -0.23527494890652931 0 0.098670227838192195 -0.22970514568366851 0 0.091303359373345411 -0.22339335178318359 0 0.098670227838192195 -0.22970514568366851 0 0.094530837428433365 -0.22086489816084981 0 0.097404311116896569 -0.21585094626217091 0 0.098670227838192195 -0.22970514568366851 0 0.094530837428433365 -0.22086489816084981 0 0.097404311116896569 -0.21585094626217091 0 0.098670227838192195 -0.22970514568366851 0 0.1071373084330472 -0.14482826815459701 0 0.1035248479174861 -0.15311019857333261 0 0.098760878024456711 -0.14050656481393209 0 0.1071373084330472 -0.14482826815459701 0 0.1035248479174861 -0.15311019857333261 0 0.1121477659277255 -0.1503271840913511 0 0.1035248479174861 -0.15311019857333261 0 0.098760878024456711 -0.14050656481393209 0 0.091560400862706559 -0.15189516094014111 0 0.098760878024456711 -0.14050656481393209 0 0.099399694252258627 -0.1328638184600745 0 0.089615627146132512 -0.13061154690311971 0 0.099399694252258627 -0.1328638184600745 0 0.099525338641528904 -0.12611341339503321 0 0.089615627146132512 -0.13061154690311971 0 0.099525338641528904 -0.12611341339503321 0 0.1096969331969164 -0.13422374872821319 0 0.1121708616464093 -0.1216807098986791 0 0.099399694252258627 -0.1328638184600745 0 0.099525338641528904 -0.12611341339503321 0 0.1096969331969164 -0.13422374872821319 0 0.098760878024456711 -0.14050656481393209 0 0.099399694252258627 -0.1328638184600745 0 0.1096969331969164 -0.13422374872821319 0 0.1071373084330472 -0.14482826815459701 0 0.098760878024456711 -0.14050656481393209 0 0.1096969331969164 -0.13422374872821319 0 0.1096969331969164 -0.13422374872821319 0 0.1155243526086871 -0.14484298486410191 0 0.12532898621889721 -0.13663811256420449 0 0.1096969331969164 -0.13422374872821319 0 0.11997683785091839 -0.1276371159963853 0 0.12532898621889721 -0.13663811256420449 0 0.1096969331969164 -0.13422374872821319 0 0.11997683785091839 -0.1276371159963853 0 0.1121708616464093 -0.1216807098986791 0 0.1217036921304827 -0.1482443959076799 0 0.1155243526086871 -0.14484298486410191 0 0.12532898621889721 -0.13663811256420449 0 0.1217036921304827 -0.1482443959076799 0 0.1155243526086871 -0.14484298486410191 0 0.1179114041550178 -0.15136128022523329 0 0.1071373084330472 -0.14482826815459701 0 0.1155243526086871 -0.14484298486410191 0 0.1121477659277255 -0.1503271840913511 0 0.1071373084330472 -0.14482826815459701 0 0.1096969331969164 -0.13422374872821319 0 0.1155243526086871 -0.14484298486410191 0 0.1035248479174861 -0.15311019857333261 0 0.1121477659277255 -0.1503271840913511 0 0.1169082366172023 -0.15609331882735419 0 0.1155243526086871 -0.14484298486410191 0 0.1121477659277255 -0.1503271840913511 0 0.1179114041550178 -0.15136128022523329 0 0.1121477659277255 -0.1503271840913511 0 0.1169082366172023 -0.15609331882735419 0 0.1179114041550178 -0.15136128022523329 0 0.1169082366172023 -0.15609331882735419 0 0.1179114041550178 -0.15136128022523329 0 0.12324902196630889 -0.15465793599018671 0 0.1217036921304827 -0.1482443959076799 0 0.1179114041550178 -0.15136128022523329 0 0.12324902196630889 -0.15465793599018671 0 0.1217036921304827 -0.1482443959076799 0 0.12324902196630889 -0.15465793599018671 0 0.12831016946945831 -0.1492440347933528 0 0.1035248479174861 -0.15311019857333261 0 0.12443417021765769 -0.1709717485187108 0 0.1227471198665283 -0.15880086614903269 0 0.12098675462827781 -0.16200852072179159 0 0.1290045142054978 -0.1612372837293575 0 0.1035248479174861 -0.15311019857333261 0 0.12443417021765769 -0.1709717485187108 0 0.12083528946942131 -0.1711597280255607 0 0.1035248479174861 -0.15311019857333261 0 0.12098675462827781 -0.16200852072179159 0 0.12443417021765769 -0.1709717485187108 0 0.1035248479174861 -0.15311019857333261 0 0.1169082366172023 -0.15609331882735419 0 0.12098675462827781 -0.16200852072179159 0 0.1169082366172023 -0.15609331882735419 0 0.1227471198665283 -0.15880086614903269 0 0.12098675462827781 -0.16200852072179159 0 0.1169082366172023 -0.15609331882735419 0 0.12324902196630889 -0.15465793599018671 0 0.1227471198665283 -0.15880086614903269 0 0.12098675462827781 -0.16200852072179159 0 0.12443417021765769 -0.1709717485187108 0 0.12715697753007521 -0.16591248018761531 0 0.1128143282819509 -0.19216489626002589 0 0.1232013989280239 -0.1819146573535104 0 0.1157139550245927 -0.18029465614444529 0 0.12083528946942131 -0.1711597280255607 0 0.1232013989280239 -0.1819146573535104 0 0.1157139550245927 -0.18029465614444529 0 0.12443417021765769 -0.1709717485187108 0 0.12083528946942131 -0.1711597280255607 0 0.1232013989280239 -0.1819146573535104 0 0.12083528946942131 -0.1711597280255607 0 0.1157139550245927 -0.18029465614444529 0 0.10772522460311169 -0.17968171223372481 0 0.1128143282819509 -0.19216489626002589 0 0.1157139550245927 -0.18029465614444529 0 0.10772522460311169 -0.17968171223372481 0 0.095454742848087734 -0.19451486061966669 0 0.10772522460311169 -0.17968171223372481 0 0.093505174579280592 -0.1731787749771625 0 0.12083528946942131 -0.1711597280255607 0 0.093505174579280592 -0.1731787749771625 0 0.095454742848087734 -0.19451486061966669 0 0.093505174579280592 -0.1731787749771625 0 0.12083528946942131 -0.1711597280255607 0 0.10772522460311169 -0.17968171223372481 0 0.093505174579280592 -0.1731787749771625 0 0.1035248479174861 -0.15311019857333261 0 0.093505174579280592 -0.1731787749771625 0 0.091560400862706559 -0.15189516094014111 0 0.1035248479174861 -0.15311019857333261 0 0.12083528946942131 -0.1711597280255607 0 0.093505174579280592 -0.1731787749771625 0 0.078133883947979807 -0.15717501910519549 0 0.093505174579280592 -0.1731787749771625 0 0.091560400862706559 -0.15189516094014111 0 0.078133883947979807 -0.15717501910519549 0 0.093505174579280592 -0.1731787749771625 0 0.072477207369929117 -0.17473224276400179 0 0.093505174579280592 -0.1731787749771625 0 0.091560400862706559 -0.15189516094014111 0 0.081482512553192915 -0.1953056794767786 0 0.093505174579280592 -0.1731787749771625 0 0.072477207369929117 -0.17473224276400179 0 0.093505174579280592 -0.1731787749771625 0 0.072477207369929117 -0.17473224276400179 0 0.066040058368007956 -0.18964665730407451 0 0.072477207369929117 -0.17473224276400179 0 0.051449240160577621 -0.1762857105508405 0 0.066040058368007956 -0.18964665730407451 0 0.081482512553192915 -0.1953056794767786 0 0.072477207369929117 -0.17473224276400179 0 0.078133883947979807 -0.15717501910519549 0 0.072477207369929117 -0.17473224276400179 0 0.063878974636528515 -0.16401540189567099 0 0.072477207369929117 -0.17473224276400179 0 0.063878974636528515 -0.16401540189567099 0 0.051449240160577621 -0.1762857105508405 0 0.078133883947979807 -0.15717501910519549 0 0.063878974636528515 -0.16401540189567099 0 0.06522271263887458 -0.15305574504012881 0 0.06522271263887458 -0.15305574504012881 0 0.069316279952888193 -0.14186668388360371 0 0.075278834721760557 -0.14616760919767161 0 0.06522271263887458 -0.15305574504012881 0 0.069316279952888193 -0.14186668388360371 0 0.05757515479497001 -0.1486962131740798 0 0.069316279952888193 -0.14186668388360371 0 0.075278834721760557 -0.14616760919767161 0 0.079765110473415279 -0.13788087003968491 0 0.078133883947979807 -0.15717501910519549 0 0.06522271263887458 -0.15305574504012881 0 0.075278834721760557 -0.14616760919767161 0 0.098760878024456711 -0.14050656481393209 0 0.091560400862706559 -0.15189516094014111 0 0.089615627146132512 -0.13061154690311971 0 0.078133883947979807 -0.15717501910519549 0 0.083611330147541921 -0.14459745320402559 0 0.091560400862706559 -0.15189516094014111 0 0.091560400862706559 -0.15189516094014111 0 0.089615627146132512 -0.13061154690311971 0 0.078133883947979807 -0.15717501910519549 0 0.075278834721760557 -0.14616760919767161 0 0.083611330147541921 -0.14459745320402559 0 0.083611330147541921 -0.14459745320402559 0 0.091560400862706559 -0.15189516094014111 0 0.089615627146132512 -0.13061154690311971 0 0.075278834721760557 -0.14616760919767161 0 0.083611330147541921 -0.14459745320402559 0 0.079765110473415279 -0.13788087003968491 0 0.099525338641528904 -0.12611341339503321 0 0.089615627146132512 -0.13061154690311971 0 0.081894058627025895 -0.12584863130967919 0 0.083611330147541921 -0.14459745320402559 0 0.089615627146132512 -0.13061154690311971 0 0.079765110473415279 -0.13788087003968491 0 0.089615627146132512 -0.13061154690311971 0 0.079765110473415279 -0.13788087003968491 0 0.081894058627025895 -0.12584863130967919 0 0.081894058627025895 -0.12584863130967919 0 0.065576399090336079 -0.13067912082877309 0 0.057907204523981459 -0.13951585418161591 0 0.081894058627025895 -0.12584863130967919 0 0.057907204523981459 -0.13951585418161591 0 0.069316279952888193 -0.14186668388360371 0 0.081894058627025895 -0.12584863130967919 0 0.057907204523981459 -0.13951585418161591 0 0.081894058627025895 -0.12584863130967919 0 0.068207364780656948 -0.12563827965844471 0 0.065576399090336079 -0.13067912082877309 0 0.069316279952888193 -0.14186668388360371 0 0.079765110473415279 -0.13788087003968491 0 0.081894058627025895 -0.12584863130967919 0 0.068207364780656948 -0.12563827965844471 0 0.065576399090336079 -0.13067912082877309 0 0.054296968429680029 -0.13171371816535249 0 0.054296968429680029 -0.13171371816535249 0 0.057907204523981459 -0.13951585418161591 0 0.034849001543539322 -0.1503583031021323 0 0.054296968429680029 -0.13171371816535249 0 0.045553716665441668 -0.12681104972785159 0 0.052448498866582129 -0.1166826243517366 0 0.065576399090336079 -0.13067912082877309 0 0.054296968429680029 -0.13171371816535249 0 0.057907204523981459 -0.13951585418161591 0 0.069316279952888193 -0.14186668388360371 0 0.057907204523981459 -0.13951585418161591 0 0.05757515479497001 -0.1486962131740798 0 0.06522271263887458 -0.15305574504012881 0 0.05757515479497001 -0.1486962131740798 0 0.052111829065281459 -0.15882829201818821 0 0.046808539919221563 -0.15014413002933799 0 0.052111829065281459 -0.15882829201818821 0 0.043031393960321331 -0.1571354857308308 0 0.05757515479497001 -0.1486962131740798 0 0.046808539919221563 -0.15014413002933799 0 0.052111829065281459 -0.15882829201818821 0 0.057907204523981459 -0.13951585418161591 0 0.05757515479497001 -0.1486962131740798 0 0.046808539919221563 -0.15014413002933799 0 0.057907204523981459 -0.13951585418161591 0 0.046808539919221563 -0.15014413002933799 0 0.033920350420936912 -0.1531830770535528 0 0.057907204523981459 -0.13951585418161591 0 0.034849001543539322 -0.1503583031021323 0 0.033920350420936912 -0.1531830770535528 0 0.054296968429680029 -0.13171371816535249 0 0.034849001543539322 -0.1503583031021323 0 0.038558521200612962 -0.14006542407622449 0 0.054296968429680029 -0.13171371816535249 0 0.034849001543539322 -0.1503583031021323 0 0.057907204523981459 -0.13951585418161591 0 0.033920350420936912 -0.1531830770535528 0 0.046808539919221563 -0.15014413002933799 0 0.040219483271594643 -0.15466785876887121 0 0.033920350420936912 -0.1531830770535528 0 0.046808539919221563 -0.15014413002933799 0 0.040219483271594643 -0.15466785876887121 0 0.043031393960321331 -0.1571354857308308 0 0.040219483271594643 -0.15466785876887121 0 0.033920350420936912 -0.1531830770535528 0 0.037117648785898759 -0.15820874226176301 0 0.034849001543539322 -0.1503583031021323 0 0.031672068294339203 -0.14528428076340441 0 0.030051573782975471 -0.15027594372919439 0 0.034849001543539322 -0.1503583031021323 0 0.033920350420936912 -0.1531830770535528 0 0.030051573782975471 -0.15027594372919439 0 0.034849001543539322 -0.1503583031021323 0 0.031672068294339203 -0.14528428076340441 0 0.038558521200612962 -0.14006542407622449 0 0.031672068294339203 -0.14528428076340441 0 0.038558521200612962 -0.14006542407622449 0 0.030566093298411881 -0.13865773310914861 0 0.054296968429680029 -0.13171371816535249 0 0.038558521200612962 -0.14006542407622449 0 0.040644455285911409 -0.1338393175667463 0 0.038558521200612962 -0.14006542407622449 0 0.040644455285911409 -0.1338393175667463 0 0.030566093298411881 -0.13865773310914861 0 0.034824944079593127 -0.12500853882757099 0 0.040644455285911409 -0.1338393175667463 0 0.030566093298411881 -0.13865773310914861 0 0.034824944079593127 -0.12500853882757099 0 0.045553716665441668 -0.12681104972785159 0 0.040644455285911409 -0.1338393175667463 0 0.054296968429680029 -0.13171371816535249 0 0.045553716665441668 -0.12681104972785159 0 0.040644455285911409 -0.1338393175667463 0 0.072477207369929117 -0.17473224276400179 0 0.051449240160577621 -0.1762857105508405 0 0.056257937900538298 -0.19577788601322099 0 0.066040058368007956 -0.18964665730407451 0 0.051449240160577621 -0.1762857105508405 0 0.063878974636528515 -0.16401540189567099 0 0.051449240160577621 -0.1762857105508405 0 0.052111829065281459 -0.15882829201818821 0 0.051449240160577621 -0.1762857105508405 0 0.052111829065281459 -0.15882829201818821 0 0.040502396519655252 -0.1663673850483231 0 0.063878974636528515 -0.16401540189567099 0 0.06522271263887458 -0.15305574504012881 0 0.052111829065281459 -0.15882829201818821 0 0.043031393960321331 -0.1571354857308308 0 0.037117648785898759 -0.15820874226176301 0 0.040502396519655252 -0.1663673850483231 0 0.052111829065281459 -0.15882829201818821 0 0.043031393960321331 -0.1571354857308308 0 0.040502396519655252 -0.1663673850483231 0 0.040219483271594643 -0.15466785876887121 0 0.043031393960321331 -0.1571354857308308 0 0.037117648785898759 -0.15820874226176301 0 0.033920350420936912 -0.1531830770535528 0 0.033509818979212957 -0.15868168045615499 0 0.027465449436243041 -0.1628752445715565 0 0.037117648785898759 -0.15820874226176301 0 0.034071859908748191 -0.1623715567021686 0 0.040502396519655252 -0.1663673850483231 0 0.033920350420936912 -0.1531830770535528 0 0.037117648785898759 -0.15820874226176301 0 0.033509818979212957 -0.15868168045615499 0 0.037117648785898759 -0.15820874226176301 0 0.033509818979212957 -0.15868168045615499 0 0.034071859908748191 -0.1623715567021686 0 0.033509818979212957 -0.15868168045615499 0 0.034071859908748191 -0.1623715567021686 0 0.027465449436243041 -0.1628752445715565 0 0.031586668938662611 -0.1691709391612749 0 0.040502396519655252 -0.1663673850483231 0 0.030421272951226121 -0.1778391783376792 0 0.034071859908748191 -0.1623715567021686 0 0.031586668938662611 -0.1691709391612749 0 0.040502396519655252 -0.1663673850483231 0 0.051449240160577621 -0.1762857105508405 0 0.040502396519655252 -0.1663673850483231 0 0.030421272951226121 -0.1778391783376792 0 0.041440672425083092 -0.19607701236864419 0 0.051449240160577621 -0.1762857105508405 0 0.030421272951226121 -0.1778391783376792 0 0.051449240160577621 -0.1762857105508405 0 0.030421272951226121 -0.1778391783376792 0 0.02540307025583758 -0.19229280057405279 0 0.015764016274472759 -0.1812646672695073 0 0.030421272951226121 -0.1778391783376792 0 0.031586668938662611 -0.1691709391612749 0 0.030421272951226121 -0.1778391783376792 0 0.021575687727073561 -0.1734893605992324 0 0.015764016274472759 -0.1812646672695073 0 0.021575687727073561 -0.1734893605992324 0 0.012676990919703311 -0.16924925594887871 0 0.015764016274472759 -0.1812646672695073 0 0.030421272951226121 -0.1778391783376792 0 0.021575687727073561 -0.1734893605992324 0 0.033920350420936912 -0.1531830770535528 0 0.009933496317892726 -0.16685029992549011 0 0.02294500892830088 -0.1542832107784407 0 0.033920350420936912 -0.1531830770535528 0 0.027465449436243041 -0.1628752445715565 0 0.009933496317892726 -0.16685029992549011 0 0.019596439448784399 -0.16744493330375371 0 0.027465449436243041 -0.1628752445715565 0 0.009933496317892726 -0.16685029992549011 0 0.033920350420936912 -0.1531830770535528 0 0.009933496317892726 -0.16685029992549011 0 0.021575687727073561 -0.1734893605992324 0 0.019596439448784399 -0.16744493330375371 0 0.012676990919703311 -0.16924925594887871 0 0.021575687727073561 -0.1734893605992324 0 0.019596439448784399 -0.16744493330375371 0 0.025540403417393751 -0.1677775419388785 0 0.031586668938662611 -0.1691709391612749 0 0.021575687727073561 -0.1734893605992324 0 0.025540403417393751 -0.1677775419388785 0 0.019596439448784399 -0.16744493330375371 0 0.025540403417393751 -0.1677775419388785 0 0.027465449436243041 -0.1628752445715565 0 0.034071859908748191 -0.1623715567021686 0 0.031586668938662611 -0.1691709391612749 0 0.027465449436243041 -0.1628752445715565 0 0.031586668938662611 -0.1691709391612749 0 0.025540403417393751 -0.1677775419388785 0 0.027465449436243041 -0.1628752445715565 0 0.009933496317892726 -0.16685029992549011 0 0.01648447247354291 -0.15404273338364399 0 0.02294500892830088 -0.1542832107784407 0 0.009933496317892726 -0.16685029992549011 0 0.01648447247354291 -0.15404273338364399 0 0.0068311679390763679 -0.1533437069849535 0 0.019596439448784399 -0.16744493330375371 0 0.009933496317892726 -0.16685029992549011 0 0.012676990919703311 -0.16924925594887871 0 0.009933496317892726 -0.16685029992549011 0 0.012676990919703311 -0.16924925594887871 0 0.0034571977838801569 -0.17702496179755631 0 0.009933496317892726 -0.16685029992549011 0 0.012676990919703311 -0.16924925594887871 0 -0.0085976242789068957 -0.177408956520272 0 0.009933496317892726 -0.16685029992549011 0 -0.0085976242789068957 -0.177408956520272 0 0.009933496317892726 -0.16685029992549011 0 0.0034571977838801569 -0.17702496179755631 0 0.015764016274472759 -0.1812646672695073 0 0.012676990919703311 -0.16924925594887871 0 0.0034571977838801569 -0.17702496179755631 0 -0.003739977245034012 -0.19168309442994089 0 0.010514116253606281 -0.1925853606064957 0 0.0034571977838801569 -0.17702496179755631 0 0.010514116253606281 -0.1925853606064957 0 0.015764016274472759 -0.1812646672695073 0 0.0034571977838801569 -0.17702496179755631 0 0.02166725362828328 -0.1398342401410575 0 0.019282665512654749 -0.1297026577714144 0 0.01241268948209219 -0.14437852502616319 0 0.034824944079593127 -0.12500853882757099 0 0.019282665512654749 -0.1297026577714144 0 0.030566093298411881 -0.13865773310914861 0 0.02166725362828328 -0.1398342401410575 0 0.019282665512654749 -0.1297026577714144 0 0.030566093298411881 -0.13865773310914861 0 0.031672068294339203 -0.14528428076340441 0 0.030566093298411881 -0.13865773310914861 0 0.024335151646156381 -0.14706399980032239 0 0.02166725362828328 -0.1398342401410575 0 0.030566093298411881 -0.13865773310914861 0 0.024335151646156381 -0.14706399980032239 0 0.031672068294339203 -0.14528428076340441 0 0.024335151646156381 -0.14706399980032239 0 0.030051573782975471 -0.15027594372919439 0 0.033920350420936912 -0.1531830770535528 0 0.030051573782975471 -0.15027594372919439 0 0.02294500892830088 -0.1542832107784407 0 0.024335151646156381 -0.14706399980032239 0 0.030051573782975471 -0.15027594372919439 0 0.02294500892830088 -0.1542832107784407 0 0.024335151646156381 -0.14706399980032239 0 0.01648447247354291 -0.15404273338364399 0 0.01241268948209219 -0.14437852502616319 0 0.024335151646156381 -0.14706399980032239 0 0.01648447247354291 -0.15404273338364399 0 0.02294500892830088 -0.1542832107784407 0 0.02166725362828328 -0.1398342401410575 0 0.024335151646156381 -0.14706399980032239 0 0.01241268948209219 -0.14437852502616319 0 -0.011505986517222349 -0.14810326960451681 0 0.01241268948209219 -0.14437852502616319 0 0.0068311679390763679 -0.1533437069849535 0 -0.011505986517222349 -0.14810326960451681 0 0.009933496317892726 -0.16685029992549011 0 0.0068311679390763679 -0.1533437069849535 0 -0.011505986517222349 -0.14810326960451681 0 0.01241268948209219 -0.14437852502616319 0 0.0027021066240326768 -0.1317064378292063 0 0.01648447247354291 -0.15404273338364399 0 0.01241268948209219 -0.14437852502616319 0 0.0068311679390763679 -0.1533437069849535 0 0.019282665512654749 -0.1297026577714144 0 0.01241268948209219 -0.14437852502616319 0 0.0027021066240326768 -0.1317064378292063 0 0.019282665512654749 -0.1297026577714144 0 0.0027021066240326768 -0.1317064378292063 0 0.005085065621477718 -0.1151057880332567 0 0.019282665512654749 -0.1297026577714144 0 0.005085065621477718 -0.1151057880332567 0 0.024129304522527751 -0.1089818526354679 0 0.034824944079593127 -0.12500853882757099 0 0.019282665512654749 -0.1297026577714144 0 0.024129304522527751 -0.1089818526354679 0 0.024129304522527751 -0.1089818526354679 0 0.01380815825635252 -0.094132232187142617 0 0.031293966725895003 -0.08518965294817829 0 -0.00044729776891663488 -0.1011528385718463 0 0.005085065621477718 -0.1151057880332567 0 0.01380815825635252 -0.094132232187142617 0 0.005085065621477718 -0.1151057880332567 0 0.024129304522527751 -0.1089818526354679 0 0.01380815825635252 -0.094132232187142617 0 0.01380815825635252 -0.094132232187142617 0 0.0042106568376920582 -0.081118225430045127 0 0.020039989671696231 -0.071989185162356889 0 -0.00044729776891663488 -0.1011528385718463 0 0.01380815825635252 -0.094132232187142617 0 0.0042106568376920582 -0.081118225430045127 0 0.0042106568376920582 -0.081118225430045127 0 0.0052181775422467033 -0.064346337314722044 0 0.020039989671696231 -0.071989185162356889 0 -0.0043762627118289626 -0.071729097412358583 0 0.0042106568376920582 -0.081118225430045127 0 0.0052181775422467033 -0.064346337314722044 0 0.0052181775422467033 -0.064346337314722044 0 0.020039989671696231 -0.071989185162356889 0 0.0052181775422467033 -0.064346337314722044 0 0.020039989671696231 -0.071989185162356889 0 0.017880224012190679 -0.058506375123621113 0 0.020039989671696231 -0.071989185162356889 0 0.017880224012190679 -0.058506375123621113 0 0.035073137211611732 -0.060365082031122411 0 0.020039989671696231 -0.071989185162356889 0 0.031293966725895003 -0.08518965294817829 0 0.035073137211611732 -0.060365082031122411 0 0.01380815825635252 -0.094132232187142617 0 0.020039989671696231 -0.071989185162356889 0 0.031293966725895003 -0.08518965294817829 0 0.031293966725895003 -0.08518965294817829 0 0.050629459546369923 -0.074776417317023003 0 0.042727201812981508 -0.099892478072297022 0 0.050629459546369923 -0.074776417317023003 0 0.042727201812981508 -0.099892478072297022 0 0.031293966725895003 -0.08518965294817829 0 0.050629459546369923 -0.074776417317023003 0 0.035073137211611732 -0.060365082031122411 0 0.050629459546369923 -0.074776417317023003 0 0.058531717279758283 -0.049660356561749108 0 0.072219385832792832 -0.066659644627356851 0 0.050629459546369923 -0.074776417317023003 0 0.042727201812981508 -0.099892478072297022 0 0.069701838591585213 -0.089386546866783212 0 0.059655618646742382 -0.10475769562984739 0 0.052448498866582129 -0.1166826243517366 0 0.042727201812981508 -0.099892478072297022 0 0.059655618646742382 -0.10475769562984739 0 0.042727201812981508 -0.099892478072297022 0 0.069701838591585213 -0.089386546866783212 0 0.054296968429680029 -0.13171371816535249 0 0.052448498866582129 -0.1166826243517366 0 0.073744935315820714 -0.1130691332285727 0 0.059655618646742382 -0.10475769562984739 0 0.052448498866582129 -0.1166826243517366 0 0.073744935315820714 -0.1130691332285727 0 0.034824944079593127 -0.12500853882757099 0 0.045553716665441668 -0.12681104972785159 0 0.052448498866582129 -0.1166826243517366 0 0.034824944079593127 -0.12500853882757099 0 0.052448498866582129 -0.1166826243517366 0 0.042727201812981508 -0.099892478072297022 0 0.034824944079593127 -0.12500853882757099 0 0.024129304522527751 -0.1089818526354679 0 0.042727201812981508 -0.099892478072297022 0 0.034824944079593127 -0.12500853882757099 0 0.042727201812981508 -0.099892478072297022 0 0.024129304522527751 -0.1089818526354679 0 0.031293966725895003 -0.08518965294817829 0 0.042727201812981508 -0.099892478072297022 0 0.034885408484197772 0.0062912350017927032 0 0.01265631079038235 -0.01012693536007268 0 0.042517259973231587 -0.011683923625132649 0 -0.00118246574067416 -0.01324232368796026 0 0.0012074066645448821 -0.00065723147797176382 0 0.01265631079038235 -0.01012693536007268 0 0.01265631079038235 -0.01012693536007268 0 0.02406773205363014 -0.026959444655171291 0 0.0015263381015913891 -0.033415212413580753 0 0.01265631079038235 -0.01012693536007268 0 0.0015263381015913891 -0.033415212413580753 0 -0.00118246574067416 -0.01324232368796026 0 0.01265631079038235 -0.01012693536007268 0 0.0015263381015913891 -0.033415212413580753 0 0.01265631079038235 -0.01012693536007268 0 0.02406773205363014 -0.026959444655171291 0 0.042517259973231587 -0.011683923625132649 0 0.02406773205363014 -0.026959444655171291 0 0.021771409900077709 -0.044354063799483319 0 0.04186734150286768 -0.035217088077587062 0 0.02406773205363014 -0.026959444655171291 0 0.021771409900077709 -0.044354063799483319 0 0.0015263381015913891 -0.033415212413580753 0 0.021771409900077709 -0.044354063799483319 0 0.0015263381015913891 -0.033415212413580753 0 0.007298405735321048 -0.051477207310420908 0 -0.0096036345872028556 -0.056703489467087059 0 0.0052181775422467033 -0.064346337314722044 0 0.007298405735321048 -0.051477207310420908 0 0.0052181775422467033 -0.064346337314722044 0 0.007298405735321048 -0.051477207310420908 0 0.017880224012190679 -0.058506375123621113 0 0.021771409900077709 -0.044354063799483319 0 0.017880224012190679 -0.058506375123621113 0 0.035073137211611732 -0.060365082031122411 0 0.021771409900077709 -0.044354063799483319 0 0.007298405735321048 -0.051477207310420908 0 0.017880224012190679 -0.058506375123621113 0 0.035073137211611732 -0.060365082031122411 0 0.058531717279758283 -0.049660356561749108 0 0.04186734150286768 -0.035217088077587062 0 0.050629459546369923 -0.074776417317023003 0 0.058531717279758283 -0.049660356561749108 0 0.050629459546369923 -0.074776417317023003 0 0.035073137211611732 -0.060365082031122411 0 0.058531717279758283 -0.049660356561749108 0 0.058531717279758283 -0.049660356561749108 0 0.066433975013146629 -0.02454429580647528 0 0.058531717279758283 -0.049660356561749108 0 0.04186734150286768 -0.035217088077587062 0 0.066433975013146629 -0.02454429580647528 0 0.021771409900077709 -0.044354063799483319 0 0.035073137211611732 -0.060365082031122411 0 0.04186734150286768 -0.035217088077587062 0 0.02406773205363014 -0.026959444655171291 0 0.04186734150286768 -0.035217088077587062 0 0.042517259973231587 -0.011683923625132649 0 0.04186734150286768 -0.035217088077587062 0 0.042517259973231587 -0.011683923625132649 0 0.066433975013146629 -0.02454429580647528 0 0.052968053050369737 0.0090809173488315582 0 0.042517259973231587 -0.011683923625132649 0 0.067492943165135169 -0.0019794682467893379 0 0.042517259973231587 -0.011683923625132649 0 0.067492943165135169 -0.0019794682467893379 0 0.066433975013146629 -0.02454429580647528 0 0.087040675587819916 -0.0096101539263870796 0 0.066433975013146629 -0.02454429580647528 0 0.098032226742104309 -0.02831505409649597 0 0.083930998993742512 0.0059737405228527038 0 0.087040675587819916 -0.0096101539263870796 0 0.067492943165135169 -0.0019794682467893379 0 0.083930998993742512 0.0059737405228527038 0 0.098495163759696414 0.0029673617968291321 0 0.087040675587819916 -0.0096101539263870796 0 0.087040675587819916 -0.0096101539263870796 0 0.067492943165135169 -0.0019794682467893379 0 0.066433975013146629 -0.02454429580647528 0 0.066433975013146629 -0.02454429580647528 0 0.080663194565618018 -0.042742664855397232 0 0.098032226742104309 -0.02831505409649597 0 0.080663194565618018 -0.042742664855397232 0 0.099119978598511321 -0.045144617550746849 0 0.098032226742104309 -0.02831505409649597 0 0.058531717279758283 -0.049660356561749108 0 0.066433975013146629 -0.02454429580647528 0 0.080663194565618018 -0.042742664855397232 0 0.058531717279758283 -0.049660356561749108 0 0.080663194565618018 -0.042742664855397232 0 0.072219385832792832 -0.066659644627356851 0 0.080663194565618018 -0.042742664855397232 0 0.091985945990252393 -0.059557823171565508 0 0.072219385832792832 -0.066659644627356851 0 0.080663194565618018 -0.042742664855397232 0 0.091985945990252393 -0.059557823171565508 0 0.099119978598511321 -0.045144617550746849 0 0.091985945990252393 -0.059557823171565508 0 0.109385226414503 -0.056941989317685793 0 0.099119978598511321 -0.045144617550746849 0 0.109385226414503 -0.056941989317685793 0 0.1174221699598199 -0.069046986946925279 0 0.12664898879935529 -0.055605769639440771 0 0.109385226414503 -0.056941989317685793 0 0.1155332992800789 -0.038165556312589707 0 0.12664898879935529 -0.055605769639440771 0 0.1155332992800789 -0.038165556312589707 0 0.12954193793015309 -0.041748568408345607 0 0.12664898879935529 -0.055605769639440771 0 0.1155332992800789 -0.038165556312589707 0 0.1294320674019063 -0.023146095115484211 0 0.12954193793015309 -0.041748568408345607 0 0.109385226414503 -0.056941989317685793 0 0.1155332992800789 -0.038165556312589707 0 0.099119978598511321 -0.045144617550746849 0 0.1155332992800789 -0.038165556312589707 0 0.099119978598511321 -0.045144617550746849 0 0.098032226742104309 -0.02831505409649597 0 0.1155332992800789 -0.038165556312589707 0 0.098032226742104309 -0.02831505409649597 0 0.1112777463759113 -0.012222875866518469 0 0.087040675587819916 -0.0096101539263870796 0 0.098032226742104309 -0.02831505409649597 0 0.1112777463759113 -0.012222875866518469 0 0.1155332992800789 -0.038165556312589707 0 0.1112777463759113 -0.012222875866518469 0 0.1294320674019063 -0.023146095115484211 0 0.1158546052028349 0.0064685721448778594 0 0.13464870039648349 0.00080453217212592717 0 0.1112777463759113 -0.012222875866518469 0 0.098495163759696414 0.0029673617968291321 0 0.087040675587819916 -0.0096101539263870796 0 0.1112777463759113 -0.012222875866518469 0 0.1158546052028349 0.0064685721448778594 0 0.098495163759696414 0.0029673617968291321 0 0.1112777463759113 -0.012222875866518469 0 0.093192902201961414 -0.094424548291792879 0 0.088899626305776192 -0.1113374325741409 0 0.073744935315820714 -0.1130691332285727 0 0.093192902201961414 -0.094424548291792879 0 0.073744935315820714 -0.1130691332285727 0 0.069701838591585213 -0.089386546866783212 0 0.093192902201961414 -0.094424548291792879 0 0.073744935315820714 -0.1130691332285727 0 0.081894058627025895 -0.12584863130967919 0 0.088899626305776192 -0.1113374325741409 0 0.09397493983509804 -0.11322330148444169 0 0.081894058627025895 -0.12584863130967919 0 0.079920122843727764 -0.11786127252462281 0 0.075141871126288284 -0.1211898929860986 0 0.081894058627025895 -0.12584863130967919 0 0.088899626305776192 -0.1113374325741409 0 0.079920122843727764 -0.11786127252462281 0 0.088899626305776192 -0.1113374325741409 0 0.079920122843727764 -0.11786127252462281 0 0.073744935315820714 -0.1130691332285727 0 0.068207364780656948 -0.12563827965844471 0 0.054296968429680029 -0.13171371816535249 0 0.073744935315820714 -0.1130691332285727 0 0.054296968429680029 -0.13171371816535249 0 0.073744935315820714 -0.1130691332285727 0 0.068207364780656948 -0.12563827965844471 0 0.073744935315820714 -0.1130691332285727 0 0.075141871126288284 -0.1211898929860986 0 0.079920122843727764 -0.11786127252462281 0 0.073744935315820714 -0.1130691332285727 0 0.075141871126288284 -0.1211898929860986 0 0.081894058627025895 -0.12584863130967919 0 0.068207364780656948 -0.12563827965844471 0 0.075141871126288284 -0.1211898929860986 0 0.059655618646742382 -0.10475769562984739 0 0.073744935315820714 -0.1130691332285727 0 0.069701838591585213 -0.089386546866783212 0 0.050629459546369923 -0.074776417317023003 0 0.069701838591585213 -0.089386546866783212 0 0.072219385832792832 -0.066659644627356851 0 0.069701838591585213 -0.089386546866783212 0 0.072219385832792832 -0.066659644627356851 0 0.089711563165187497 -0.078251462936863553 0 0.091985945990252393 -0.059557823171565508 0 0.072219385832792832 -0.066659644627356851 0 0.089711563165187497 -0.078251462936863553 0 0.093192902201961414 -0.094424548291792879 0 0.069701838591585213 -0.089386546866783212 0 0.089711563165187497 -0.078251462936863553 0 0.093192902201961414 -0.094424548291792879 0 0.089711563165187497 -0.078251462936863553 0 0.1048667032735431 -0.089595599910983495 0 0.089711563165187497 -0.078251462936863553 0 0.1048667032735431 -0.089595599910983495 0 0.1056935618466131 -0.072691272791708894 0 0.1048667032735431 -0.089595599910983495 0 0.1056935618466131 -0.072691272791708894 0 0.11564058922802831 -0.08068930143821873 0 0.091985945990252393 -0.059557823171565508 0 0.089711563165187497 -0.078251462936863553 0 0.1056935618466131 -0.072691272791708894 0 0.091985945990252393 -0.059557823171565508 0 0.109385226414503 -0.056941989317685793 0 0.1056935618466131 -0.072691272791708894 0 0.1174221699598199 -0.069046986946925279 0 0.12840026197867099 -0.078951386265116219 0 0.12664898879935529 -0.055605769639440771 0 0.109385226414503 -0.056941989317685793 0 0.1056935618466131 -0.072691272791708894 0 0.1174221699598199 -0.069046986946925279 0 0.1056935618466131 -0.072691272791708894 0 0.1174221699598199 -0.069046986946925279 0 0.11564058922802831 -0.08068930143821873 0 0.1174221699598199 -0.069046986946925279 0 0.11564058922802831 -0.08068930143821873 0 0.12840026197867099 -0.078951386265116219 0 0.1048667032735431 -0.089595599910983495 0 0.11564058922802831 -0.08068930143821873 0 0.1191358060176364 -0.092450830711447801 0 0.1191358060176364 -0.092450830711447801 0 0.12840026197867099 -0.078951386265116219 0 0.11564058922802831 -0.08068930143821873 0 0.1191358060176364 -0.092450830711447801 0 0.12840026197867099 -0.078951386265116219 0 0.1058809127300703 -0.11218140843774239 0 0.12023297736745781 -0.1110263554770618 0 0.12986776683311119 -0.098514185565799078 0 0.1058809127300703 -0.11218140843774239 0 0.12986776683311119 -0.098514185565799078 0 0.1048667032735431 -0.089595599910983495 0 0.1191358060176364 -0.092450830711447801 0 0.10987135005660249 -0.1059502751577799 0 0.10987135005660249 -0.1059502751577799 0 0.1058809127300703 -0.11218140843774239 0 0.12986776683311119 -0.098514185565799078 0 0.1191358060176364 -0.092450830711447801 0 0.10987135005660249 -0.1059502751577799 0 0.12986776683311119 -0.098514185565799078 0 0.1191358060176364 -0.092450830711447801 0 0.10987135005660249 -0.1059502751577799 0 0.093192902201961414 -0.094424548291792879 0 0.088899626305776192 -0.1113374325741409 0 0.099225161677519755 -0.1035257336162041 0 0.1048667032735431 -0.089595599910983495 0 0.10987135005660249 -0.1059502751577799 0 0.099225161677519755 -0.1035257336162041 0 0.10987135005660249 -0.1059502751577799 0 0.099225161677519755 -0.1035257336162041 0 0.1058809127300703 -0.11218140843774239 0 0.088899626305776192 -0.1113374325741409 0 0.099225161677519755 -0.1035257336162041 0 0.09397493983509804 -0.11322330148444169 0 0.093192902201961414 -0.094424548291792879 0 0.1048667032735431 -0.089595599910983495 0 0.099225161677519755 -0.1035257336162041 0 0.081894058627025895 -0.12584863130967919 0 0.1058809127300703 -0.11218140843774239 0 0.099525338641528904 -0.12611341339503321 0 0.081894058627025895 -0.12584863130967919 0 0.1058809127300703 -0.11218140843774239 0 0.081894058627025895 -0.12584863130967919 0 0.09397493983509804 -0.11322330148444169 0 0.1058809127300703 -0.11218140843774239 0 0.099225161677519755 -0.1035257336162041 0 0.09397493983509804 -0.11322330148444169 0 0.1058809127300703 -0.11218140843774239 0 0.099525338641528904 -0.12611341339503321 0 0.1058809127300703 -0.11218140843774239 0 0.1121708616464093 -0.1216807098986791 0 0.1058809127300703 -0.11218140843774239 0 0.1121708616464093 -0.1216807098986791 0 0.12023297736745781 -0.1110263554770618 0 0.11997683785091839 -0.1276371159963853 0 0.121067612134044 -0.1214532534018402 0 0.13188977167139071 -0.12546883223523481 0 0.12023297736745781 -0.1110263554770618 0 0.121067612134044 -0.1214532534018402 0 0.13188977167139071 -0.12546883223523481 0 0.11997683785091839 -0.1276371159963853 0 0.1121708616464093 -0.1216807098986791 0 0.121067612134044 -0.1214532534018402 0 0.1121708616464093 -0.1216807098986791 0 0.12023297736745781 -0.1110263554770618 0 0.121067612134044 -0.1214532534018402 0 0.12023297736745781 -0.1110263554770618 0 0.12986776683311119 -0.098514185565799078 0 0.13188977167139071 -0.12546883223523481 0 0.12986776683311119 -0.098514185565799078 0 0.13188977167139071 -0.12546883223523481 0 0.14925441928633251 -0.10969288085116551 0 0.13995942417209239 -0.1034127274713456 0 0.13188977167139071 -0.12546883223523481 0 0.14724036225017881 -0.1245170930860646 0 0.14925441928633251 -0.10969288085116551 0 0.13188977167139071 -0.12546883223523481 0 0.14925441928633251 -0.10969288085116551 0 0.15485465026004211 -0.11932571079310079 0 0.15999890680388329 -0.1096406796162286 0 0.14724036225017881 -0.1245170930860646 0 0.15485465026004211 -0.11932571079310079 0 0.15557261582888751 -0.13003178131142151 0 0.14724036225017881 -0.1245170930860646 0 0.14925441928633251 -0.10969288085116551 0 0.15485465026004211 -0.11932571079310079 0 0.14925441928633251 -0.10969288085116551 0 0.14348993397904131 -0.092765062884646393 0 0.1620153957752187 -0.097165399419701551 0 0.14348993397904131 -0.092765062884646393 0 0.1620153957752187 -0.097165399419701551 0 0.14925441928633251 -0.10969288085116551 0 0.13995942417209239 -0.1034127274713456 0 0.14348993397904131 -0.092765062884646393 0 0.13995942417209239 -0.1034127274713456 0 0.12986776683311119 -0.098514185565799078 0 0.13188977167139071 -0.12546883223523481 0 0.13995942417209239 -0.1034127274713456 0 0.12986776683311119 -0.098514185565799078 0 0.14348993397904131 -0.092765062884646393 0 0.12986776683311119 -0.098514185565799078 0 0.12840026197867099 -0.078951386265116219 0 0.1428482005174804 -0.076716741777837147 0 0.1191358060176364 -0.092450830711447801 0 0.12986776683311119 -0.098514185565799078 0 0.12840026197867099 -0.078951386265116219 0 0.12986776683311119 -0.098514185565799078 0 0.12840026197867099 -0.078951386265116219 0 0.12840026197867099 -0.078951386265116219 0 0.12664898879935529 -0.055605769639440771 0 0.12840026197867099 -0.078951386265116219 0 0.12664898879935529 -0.055605769639440771 0 0.14464694777039611 -0.055277979731059648 0 0.12840026197867099 -0.078951386265116219 0 0.1428482005174804 -0.076716741777837147 0 0.14464694777039611 -0.055277979731059648 0 0.12840026197867099 -0.078951386265116219 0 0.14464694777039611 -0.055277979731059648 0 0.1428482005174804 -0.076716741777837147 0 0.15680899227989839 -0.06637062400294011 0 0.14464694777039611 -0.055277979731059648 0 0.1428482005174804 -0.076716741777837147 0 0.15451703372532541 -0.084469533324270707 0 0.15680899227989839 -0.06637062400294011 0 0.12986776683311119 -0.098514185565799078 0 0.15451703372532541 -0.084469533324270707 0 0.12986776683311119 -0.098514185565799078 0 0.14348993397904131 -0.092765062884646393 0 0.15451703372532541 -0.084469533324270707 0 0.14348993397904131 -0.092765062884646393 0 0.15451703372532541 -0.084469533324270707 0 0.1620153957752187 -0.097165399419701551 0 0.12986776683311119 -0.098514185565799078 0 0.1428482005174804 -0.076716741777837147 0 0.15451703372532541 -0.084469533324270707 0 0.15451703372532541 -0.084469533324270707 0 0.1674193516126988 -0.088794767656503876 0 0.1620153957752187 -0.097165399419701551 0 0.15451703372532541 -0.084469533324270707 0 0.1674193516126988 -0.088794767656503876 0 0.16389165652408541 -0.076485311925560115 0 0.1674193516126988 -0.088794767656503876 0 0.16389165652408541 -0.076485311925560115 0 0.17613181446746839 -0.084287857658230353 0 0.15451703372532541 -0.084469533324270707 0 0.15680899227989839 -0.06637062400294011 0 0.16389165652408541 -0.076485311925560115 0 0.16389165652408541 -0.076485311925560115 0 0.1717227713635387 -0.067009979361705274 0 0.17613181446746839 -0.084287857658230353 0 0.15680899227989839 -0.06637062400294011 0 0.16389165652408541 -0.076485311925560115 0 0.1717227713635387 -0.067009979361705274 0 0.15680899227989839 -0.06637062400294011 0 0.1717227713635387 -0.067009979361705274 0 0.1652446184022294 -0.054500080927008407 0 0.1717227713635387 -0.067009979361705274 0 0.17613181446746839 -0.084287857658230353 0 0.1717227713635387 -0.067009979361705274 0 0.18346211879182289 -0.064955309332027283 0 0.18137547142311691 -0.085525622921553163 0 0.18346211879182289 -0.064955309332027283 0 0.18137547142311691 -0.085525622921553163 0 0.1952329782378138 -0.068464889048657496 0 0.1717227713635387 -0.067009979361705274 0 0.18137547142311691 -0.085525622921553163 0 0.1717227713635387 -0.067009979361705274 0 0.18346211879182289 -0.064955309332027283 0 0.1746283364613696 -0.057560297553190053 0 0.18137547142311691 -0.085525622921553163 0 0.17613181446746839 -0.084287857658230353 0 0.18054085757139629 -0.1015657359547559 0 0.17613181446746839 -0.084287857658230353 0 0.18054085757139629 -0.1015657359547559 0 0.1674193516126988 -0.088794767656503876 0 0.17613181446746839 -0.084287857658230353 0 0.18054085757139629 -0.1015657359547559 0 0.1717227713635387 -0.067009979361705274 0 0.18137547142311691 -0.085525622921553163 0 0.17613181446746839 -0.084287857658230353 0 0.18137547142311691 -0.085525622921553163 0 0.19100769245097829 -0.1040519139747048 0 0.18137547142311691 -0.085525622921553163 0 0.18054085757139629 -0.1015657359547559 0 0.19100769245097829 -0.1040519139747048 0 0.18054085757139629 -0.1015657359547559 0 0.1749190978293893 -0.1165979942053425 0 0.16884250162088479 -0.1080310140379921 0 0.18054085757139629 -0.1015657359547559 0 0.19100769245097829 -0.1040519139747048 0 0.18054085757139629 -0.1015657359547559 0 0.1862357176231304 -0.1238823921021804 0 0.1749190978293893 -0.1165979942053425 0 0.18054085757139629 -0.1015657359547559 0 0.1862357176231304 -0.1238823921021804 0 0.19100769245097829 -0.1040519139747048 0 0.18054085757139629 -0.1015657359547559 0 0.1862357176231304 -0.1238823921021804 0 0.1862357176231304 -0.1238823921021804 0 0.1749190978293893 -0.1165979942053425 0 0.17324983187337631 -0.13165498831909611 0 0.1749190978293893 -0.1165979942053425 0 0.16471491079178111 -0.1205264202314431 0 0.16884250162088479 -0.1080310140379921 0 0.16471491079178111 -0.1205264202314431 0 0.15999890680388329 -0.1096406796162286 0 0.16884250162088479 -0.1080310140379921 0 0.1749190978293893 -0.1165979942053425 0 0.16471491079178111 -0.1205264202314431 0 0.17324983187337631 -0.13165498831909611 0 0.15485465026004211 -0.11932571079310079 0 0.16471491079178111 -0.1205264202314431 0 0.15557261582888751 -0.13003178131142151 0 0.15485465026004211 -0.11932571079310079 0 0.16471491079178111 -0.1205264202314431 0 0.15999890680388329 -0.1096406796162286 0 0.18054085757139629 -0.1015657359547559 0 0.1620153957752187 -0.097165399419701551 0 0.1674193516126988 -0.088794767656503876 0 0.18054085757139629 -0.1015657359547559 0 0.1620153957752187 -0.097165399419701551 0 0.14925441928633251 -0.10969288085116551 0 0.15999890680388329 -0.1096406796162286 0 0.1620153957752187 -0.097165399419701551 0 0.15999890680388329 -0.1096406796162286 0 0.1620153957752187 -0.097165399419701551 0 0.16884250162088479 -0.1080310140379921 0 0.18054085757139629 -0.1015657359547559 0 0.1620153957752187 -0.097165399419701551 0 0.16884250162088479 -0.1080310140379921 0 0.13464870039648349 0.00080453217212592717 0 0.15480995508657039 -0.001084596553268768 0 0.14892696920713289 -0.018041582065753459 0 0.13464870039648349 0.00080453217212592717 0 0.1294320674019063 -0.023146095115484211 0 0.14892696920713289 -0.018041582065753459 0 0.13464870039648349 0.00080453217212592717 0 0.1112777463759113 -0.012222875866518469 0 0.1294320674019063 -0.023146095115484211 0 0.1294320674019063 -0.023146095115484211 0 0.14892696920713289 -0.018041582065753459 0 0.14270131340979469 -0.036531096068384838 0 0.14892696920713289 -0.018041582065753459 0 0.14270131340979469 -0.036531096068384838 0 0.16089363356212191 -0.031604573197003549 0 0.14270131340979469 -0.036531096068384838 0 0.14464694777039611 -0.055277979731059648 0 0.16089363356212191 -0.031604573197003549 0 0.14464694777039611 -0.055277979731059648 0 0.15561449558007559 -0.051164132387281437 0 0.16089363356212191 -0.031604573197003549 0 0.14464694777039611 -0.055277979731059648 0 0.16089363356212191 -0.031604573197003549 0 0.14270131340979469 -0.036531096068384838 0 0.12954193793015309 -0.041748568408345607 0 0.14464694777039611 -0.055277979731059648 0 0.1294320674019063 -0.023146095115484211 0 0.14270131340979469 -0.036531096068384838 0 0.12954193793015309 -0.041748568408345607 0 0.12954193793015309 -0.041748568408345607 0 0.12664898879935529 -0.055605769639440771 0 0.14464694777039611 -0.055277979731059648 0 0.15680899227989839 -0.06637062400294011 0 0.14464694777039611 -0.055277979731059648 0 0.15561449558007559 -0.051164132387281437 0 0.15680899227989839 -0.06637062400294011 0 0.15561449558007559 -0.051164132387281437 0 0.1652446184022294 -0.054500080927008407 0 0.15561449558007559 -0.051164132387281437 0 0.1652446184022294 -0.054500080927008407 0 0.1617942405007988 -0.043199732881276223 0 0.1652446184022294 -0.054500080927008407 0 0.1746283364613696 -0.057560297553190053 0 0.1617942405007988 -0.043199732881276223 0 0.1717227713635387 -0.067009979361705274 0 0.1652446184022294 -0.054500080927008407 0 0.1717227713635387 -0.067009979361705274 0 0.1652446184022294 -0.054500080927008407 0 0.1746283364613696 -0.057560297553190053 0 0.1746283364613696 -0.057560297553190053 0 0.1828119860636557 -0.050363577362968731 0 0.1617942405007988 -0.043199732881276223 0 0.18346211879182289 -0.064955309332027283 0 0.1746283364613696 -0.057560297553190053 0 0.1828119860636557 -0.050363577362968731 0 0.18346211879182289 -0.064955309332027283 0 0.1828119860636557 -0.050363577362968731 0 0.19188844298534441 -0.056659859735039647 0 0.1617942405007988 -0.043199732881276223 0 0.18853740735089011 -0.033706188378118708 0 0.1828119860636557 -0.050363577362968731 0 0.1617942405007988 -0.043199732881276223 0 0.18853740735089011 -0.033706188378118708 0 0.15561449558007559 -0.051164132387281437 0 0.16089363356212191 -0.031604573197003549 0 0.1617942405007988 -0.043199732881276223 0 0.16089363356212191 -0.031604573197003549 0 0.1617942405007988 -0.043199732881276223 0 0.18853740735089011 -0.033706188378118708 0 0.16089363356212191 -0.031604573197003549 0 0.17714031935384769 -0.0079311666629475405 0 0.14892696920713289 -0.018041582065753459 0 0.16089363356212191 -0.031604573197003549 0 0.17714031935384769 -0.0079311666629475405 0 0.16089363356212191 -0.031604573197003549 0 0.17714031935384769 -0.0079311666629475405 0 0.18853740735089011 -0.033706188378118708 0 0.1657030786406338 0.0084270166623369204 0 0.15480995508657039 -0.001084596553268768 0 0.17714031935384769 -0.0079311666629475405 0 0.15480995508657039 -0.001084596553268768 0 0.14892696920713289 -0.018041582065753459 0 0.17714031935384769 -0.0079311666629475405 0 0.21351355446813719 -0.0021103410187178909 0 0.2110126965438916 -0.012672932103663791 0 0.2228246624943325 -0.0092295053444410857 0 0.2110126965438916 -0.012672932103663791 0 0.21911622703360889 -0.015650702578479541 0 0.2228246624943325 -0.0092295053444410857 0 0.21351355446813719 -0.0021103410187178909 0 0.2110126965438916 -0.012672932103663791 0 0.19836939172364151 -0.01016904411482358 0 0.1998105265397013 0.00335350757378736 0 0.21351355446813719 -0.0021103410187178909 0 0.19836939172364151 -0.01016904411482358 0 0.1998105265397013 0.00335350757378736 0 0.17714031935384769 -0.0079311666629475405 0 0.19836939172364151 -0.01016904411482358 0 0.17714031935384769 -0.0079311666629475405 0 0.19836939172364151 -0.01016904411482358 0 0.18853740735089011 -0.033706188378118708 0 0.2110126965438916 -0.012672932103663791 0 0.19836939172364151 -0.01016904411482358 0 0.18853740735089011 -0.033706188378118708 0 0.21528057420098159 -0.024212643874961401 0 0.18853740735089011 -0.033706188378118708 0 0.2110126965438916 -0.012672932103663791 0 0.21528057420098159 -0.024212643874961401 0 0.18853740735089011 -0.033706188378118708 0 0.21528057420098159 -0.024212643874961401 0 0.20886364623554921 -0.031523512657201581 0 0.18853740735089011 -0.033706188378118708 0 0.2110126965438916 -0.012672932103663791 0 0.21528057420098159 -0.024212643874961401 0 0.21911622703360889 -0.015650702578479541 0 0.21528057420098159 -0.024212643874961401 0 0.2158000993154765 -0.027276596113623111 0 0.21360323626451261 -0.02858374534336202 0 0.21528057420098159 -0.024212643874961401 0 0.2158000993154765 -0.027276596113623111 0 0.21995729679401421 -0.029331280632926501 0 0.2158000993154765 -0.027276596113623111 0 0.21503400689837671 -0.030930810510401429 0 0.21995729679401421 -0.029331280632926501 0 0.2158000993154765 -0.027276596113623111 0 0.21503400689837671 -0.030930810510401429 0 0.21360323626451261 -0.02858374534336202 0 0.21528057420098159 -0.024212643874961401 0 0.21360323626451261 -0.02858374534336202 0 0.20886364623554921 -0.031523512657201581 0 0.21503400689837671 -0.030930810510401429 0 0.21360323626451261 -0.02858374534336202 0 0.20886364623554921 -0.031523512657201581 0 0.2128060919330283 -0.035124071741943173 0 0.2180191377477218 -0.035203133534298187 0 0.2167024847658664 -0.043974661413588162 0 0.21503400689837671 -0.030930810510401429 0 0.2128060919330283 -0.035124071741943173 0 0.20886364623554921 -0.031523512657201581 0 0.21503400689837671 -0.030930810510401429 0 0.2128060919330283 -0.035124071741943173 0 0.2180191377477218 -0.035203133534298187 0 0.21503400689837671 -0.030930810510401429 0 0.2180191377477218 -0.035203133534298187 0 0.21995729679401421 -0.029331280632926501 0 0.2167024847658664 -0.043974661413588162 0 0.20890374551960481 -0.040729144831228678 0 0.20897987019450001 -0.050060865146210963 0 0.2128060919330283 -0.035124071741943173 0 0.2167024847658664 -0.043974661413588162 0 0.20890374551960481 -0.040729144831228678 0 0.20890374551960481 -0.040729144831228678 0 0.19655169947710091 -0.043788383486002072 0 0.20897987019450001 -0.050060865146210963 0 0.2128060919330283 -0.035124071741943173 0 0.20890374551960481 -0.040729144831228678 0 0.20886364623554921 -0.031523512657201581 0 0.20890374551960481 -0.040729144831228678 0 0.20886364623554921 -0.031523512657201581 0 0.19655169947710091 -0.043788383486002072 0 0.1828119860636557 -0.050363577362968731 0 0.18853740735089011 -0.033706188378118708 0 0.19655169947710091 -0.043788383486002072 0 0.20886364623554921 -0.031523512657201581 0 0.18853740735089011 -0.033706188378118708 0 0.19655169947710091 -0.043788383486002072 0 0.19655169947710091 -0.043788383486002072 0 0.20138343235632811 -0.055727139445542639 0 0.20897987019450001 -0.050060865146210963 0 0.19655169947710091 -0.043788383486002072 0 0.19188844298534441 -0.056659859735039647 0 0.20138343235632811 -0.055727139445542639 0 0.1828119860636557 -0.050363577362968731 0 0.19655169947710091 -0.043788383486002072 0 0.19188844298534441 -0.056659859735039647 0 0.19188844298534441 -0.056659859735039647 0 0.20138343235632811 -0.055727139445542639 0 0.1952329782378138 -0.068464889048657496 0 0.20138343235632811 -0.055727139445542639 0 0.22670270369963491 -0.067064047377793826 0 0.20138343235632811 -0.055727139445542639 0 0.21577564808412511 -0.056666161138016313 0 0.22670270369963491 -0.067064047377793826 0 0.20138343235632811 -0.055727139445542639 0 0.20897987019450001 -0.050060865146210963 0 0.21577564808412511 -0.056666161138016313 0 0.2167024847658664 -0.043974661413588162 0 0.20897987019450001 -0.050060865146210963 0 0.21577564808412511 -0.056666161138016313 0 0.21577564808412511 -0.056666161138016313 0 0.23694359709532001 -0.061394592404840097 0 0.22670270369963491 -0.067064047377793826 0 0.21577564808412511 -0.056666161138016313 0 0.22648325856373289 -0.049317463857355977 0 0.23694359709532001 -0.061394592404840097 0 0.21577564808412511 -0.056666161138016313 0 0.23694359709532001 -0.061394592404840097 0 0.2167024847658664 -0.043974661413588162 0 0.21577564808412511 -0.056666161138016313 0 0.22648325856373289 -0.049317463857355977 0 0.22648325856373289 -0.049317463857355977 0 0.23694359709532001 -0.061394592404840097 0 0.23716366819637241 -0.046229271507985323 0 0.25811154610651499 -0.066123023671663908 0 0.23694359709532001 -0.061394592404840097 0 0.24870160087168189 -0.052882304334001928 0 0.23694359709532001 -0.061394592404840097 0 0.24870160087168189 -0.052882304334001928 0 0.23716366819637241 -0.046229271507985323 0 0.24870160087168189 -0.052882304334001928 0 0.23716366819637241 -0.046229271507985323 0 0.24731406762381819 -0.035960341631652723 0 0.23716366819637241 -0.046229271507985323 0 0.24731406762381819 -0.035960341631652723 0 0.23342582712955959 -0.033308149953783547 0 0.23342582712955959 -0.033308149953783547 0 0.2258308946769807 -0.038322632822349968 0 0.22548915127375299 -0.027513718828695861 0 0.22648325856373289 -0.049317463857355977 0 0.23716366819637241 -0.046229271507985323 0 0.2258308946769807 -0.038322632822349968 0 0.23716366819637241 -0.046229271507985323 0 0.23342582712955959 -0.033308149953783547 0 0.2258308946769807 -0.038322632822349968 0 0.2180191377477218 -0.035203133534298187 0 0.2167024847658664 -0.043974661413588162 0 0.2258308946769807 -0.038322632822349968 0 0.2167024847658664 -0.043974661413588162 0 0.22648325856373289 -0.049317463857355977 0 0.2258308946769807 -0.038322632822349968 0 0.2180191377477218 -0.035203133534298187 0 0.2258308946769807 -0.038322632822349968 0 0.21995729679401421 -0.029331280632926501 0 0.2258308946769807 -0.038322632822349968 0 0.22548915127375299 -0.027513718828695861 0 0.21995729679401421 -0.029331280632926501 0 0.21528057420098159 -0.024212643874961401 0 0.2313313538768734 -0.018514784978234038 0 0.22829619310998309 -0.01520182636873813 0 0.21528057420098159 -0.024212643874961401 0 0.2313313538768734 -0.018514784978234038 0 0.21528057420098159 -0.024212643874961401 0 0.22548915127375299 -0.027513718828695861 0 0.2313313538768734 -0.018514784978234038 0 0.21528057420098159 -0.024212643874961401 0 0.22548915127375299 -0.027513718828695861 0 0.21995729679401421 -0.029331280632926501 0 0.21528057420098159 -0.024212643874961401 0 0.22829619310998309 -0.01520182636873813 0 0.21528057420098159 -0.024212643874961401 0 0.21911622703360889 -0.015650702578479541 0 0.22829619310998309 -0.01520182636873813 0 0.2313313538768734 -0.018514784978234038 0 0.22829619310998309 -0.01520182636873813 0 0.23342582712955959 -0.033308149953783547 0 0.22548915127375299 -0.027513718828695861 0 0.2313313538768734 -0.018514784978234038 0 0.25508119948702751 -0.010083838205662381 0 0.2313313538768734 -0.018514784978234038 0 0.2482857443068576 -0.021714794414400052 0 0.24731406762381819 -0.035960341631652723 0 0.2313313538768734 -0.018514784978234038 0 0.2482857443068576 -0.021714794414400052 0 0.24731406762381819 -0.035960341631652723 0 0.23342582712955959 -0.033308149953783547 0 0.2313313538768734 -0.018514784978234038 0 0.24731406762381819 -0.035960341631652723 0 0.2313313538768734 -0.018514784978234038 0 0.25508119948702751 -0.010083838205662381 0 0.2313313538768734 -0.018514784978234038 0 0.24138147174972829 -0.0061427828714447699 0 0.25508119948702751 -0.010083838205662381 0 0.2313313538768734 -0.018514784978234038 0 0.24138147174972829 -0.0061427828714447699 0 0.22829619310998309 -0.01520182636873813 0 0.25446675038947358 0.0029162606258486688 0 0.2541426920980116 -0.0036136263454906951 0 0.24138147174972829 -0.0061427828714447699 0 0.25446675038947358 0.0029162606258486688 0 0.24138147174972829 -0.0061427828714447699 0 0.22999165343287109 0.0038227322559807589 0 0.24138147174972829 -0.0061427828714447699 0 0.23189167676904729 -0.0064153040848911828 0 0.22999165343287109 0.0038227322559807589 0 0.23189167676904729 -0.0064153040848911828 0 0.2228246624943325 -0.0092295053444410857 0 0.22999165343287109 0.0038227322559807589 0 0.21351355446813719 -0.0021103410187178909 0 0.2228246624943325 -0.0092295053444410857 0 0.23189167676904729 -0.0064153040848911828 0 0.22829619310998309 -0.01520182636873813 0 0.2228246624943325 -0.0092295053444410857 0 0.2313313538768734 -0.018514784978234038 0 0.24138147174972829 -0.0061427828714447699 0 0.22829619310998309 -0.01520182636873813 0 0.24138147174972829 -0.0061427828714447699 0 0.23189167676904729 -0.0064153040848911828 0 0.22829619310998309 -0.01520182636873813 0 0.21911622703360889 -0.015650702578479541 0 0.22829619310998309 -0.01520182636873813 0 0.2228246624943325 -0.0092295053444410857 0 0.22829619310998309 -0.01520182636873813 0 0.2228246624943325 -0.0092295053444410857 0 0.2084634723971549 -0.097930235578601213 0 0.21737999015654699 -0.1103161024944793 0 0.2275791846540145 -0.10054182369239011 0 0.21737999015654699 -0.1103161024944793 0 0.19100769245097829 -0.1040519139747048 0 0.2084634723971549 -0.097930235578601213 0 0.21140608144591419 -0.084503356370523836 0 0.2275791846540145 -0.10054182369239011 0 0.2084634723971549 -0.097930235578601213 0 0.21737999015654699 -0.1103161024944793 0 0.19100769245097829 -0.1040519139747048 0 0.21737999015654699 -0.1103161024944793 0 0.21277072480774051 -0.1248863227998855 0 0.20025029595199689 -0.1218288277367077 0 0.21737999015654699 -0.1103161024944793 0 0.21277072480774051 -0.1248863227998855 0 0.2239597136694004 -0.1277946194696456 0 0.1862357176231304 -0.1238823921021804 0 0.20025029595199689 -0.1218288277367077 0 0.19100769245097829 -0.1040519139747048 0 0.21737999015654699 -0.1103161024944793 0 0.20025029595199689 -0.1218288277367077 0 0.19100769245097829 -0.1040519139747048 0 0.20025029595199689 -0.1218288277367077 0 0.19100769245097829 -0.1040519139747048 0 0.2084634723971549 -0.097930235578601213 0 0.19100769245097829 -0.1040519139747048 0 0.19624682445825681 -0.08914472739044943 0 0.18137547142311691 -0.085525622921553163 0 0.19100769245097829 -0.1040519139747048 0 0.19624682445825681 -0.08914472739044943 0 0.19624682445825681 -0.08914472739044943 0 0.1952329782378138 -0.068464889048657496 0 0.21140608144591419 -0.084503356370523836 0 0.18137547142311691 -0.085525622921553163 0 0.19624682445825681 -0.08914472739044943 0 0.1952329782378138 -0.068464889048657496 0 0.20138343235632811 -0.055727139445542639 0 0.1952329782378138 -0.068464889048657496 0 0.21149591893834541 -0.070957707586151192 0 0.18346211879182289 -0.064955309332027283 0 0.19188844298534441 -0.056659859735039647 0 0.1952329782378138 -0.068464889048657496 0 0.1952329782378138 -0.068464889048657496 0 0.21140608144591419 -0.084503356370523836 0 0.20138343235632811 -0.055727139445542639 0 0.21149591893834541 -0.070957707586151192 0 0.22670270369963491 -0.067064047377793826 0 0.1952329782378138 -0.068464889048657496 0 0.21149591893834541 -0.070957707586151192 0 0.21140608144591419 -0.084503356370523836 0 0.2084634723971549 -0.097930235578601213 0 0.19624682445825681 -0.08914472739044943 0 0.21140608144591419 -0.084503356370523836 0 0.21149591893834541 -0.070957707586151192 0 0.21140608144591419 -0.084503356370523836 0 0.2227543989520358 -0.079029105688238177 0 0.21140608144591419 -0.084503356370523836 0 0.2275791846540145 -0.10054182369239011 0 0.2227543989520358 -0.079029105688238177 0 0.23449163343577681 -0.083610487294907485 0 0.2275791846540145 -0.10054182369239011 0 0.21140608144591419 -0.084503356370523836 0 0.2227543989520358 -0.079029105688238177 0 0.2275791846540145 -0.10054182369239011 0 0.2227543989520358 -0.079029105688238177 0 0.22670270369963491 -0.067064047377793826 0 0.23449163343577681 -0.083610487294907485 0 0.21149591893834541 -0.070957707586151192 0 0.2227543989520358 -0.079029105688238177 0 0.22670270369963491 -0.067064047377793826 0 0.25202197504294188 -0.078400955310045109 0 0.25811154610651499 -0.066123023671663908 0 0.23694359709532001 -0.061394592404840097 0 0.25202197504294188 -0.078400955310045109 0 0.22670270369963491 -0.067064047377793826 0 0.25202197504294188 -0.078400955310045109 0 0.22670270369963491 -0.067064047377793826 0 0.23449163343577681 -0.083610487294907485 0 0.25202197504294188 -0.078400955310045109 0 0.23694359709532001 -0.061394592404840097 0 0.22670270369963491 -0.067064047377793826 0 0.25811154610651499 -0.066123023671663908 0 0.23694359709532001 -0.061394592404840097 0 0.25202197504294188 -0.078400955310045109 0 0.23449163343577681 -0.083610487294907485 0 0.24624903761231479 -0.086847438891893419 0 0.23449163343577681 -0.083610487294907485 0 0.24292322406264641 -0.096552741650977186 0 0.2275791846540145 -0.10054182369239011 0 0.23449163343577681 -0.083610487294907485 0 0.24624903761231479 -0.086847438891893419 0 0.24292322406264641 -0.096552741650977186 0 0.25304747237378489 -0.090741332181114118 0 0.24624903761231479 -0.086847438891893419 0 0.24292322406264641 -0.096552741650977186 0 0.2275791846540145 -0.10054182369239011 0 0.24375228786211539 -0.116580291014256 0 0.24292322406264641 -0.096552741650977186 0 0.2275791846540145 -0.10054182369239011 0 0.24375228786211539 -0.116580291014256 0 0.25771864553297669 -0.099620140202181948 0 0.24292322406264641 -0.096552741650977186 0 0.24375228786211539 -0.116580291014256 0 0.21737999015654699 -0.1103161024944793 0 0.2275791846540145 -0.10054182369239011 0 0.24375228786211539 -0.116580291014256 0 0.21737999015654699 -0.1103161024944793 0 0.24375228786211539 -0.116580291014256 0 0.2239597136694004 -0.1277946194696456 0 0.21737999015654699 -0.1103161024944793 0 0.24375228786211539 -0.116580291014256 0 0.24375228786211539 -0.116580291014256 0 0.235054631712311 -0.13955626642273861 0 0.24955680073527009 -0.143898101237383 0 0.235054631712311 -0.13955626642273861 0 0.24955680073527009 -0.143898101237383 0 0.23627457688356679 -0.15840319400941011 0 0.25449645062408999 -0.16331052089379791 0 0.24955680073527009 -0.143898101237383 0 0.23627457688356679 -0.15840319400941011 0 0.235054631712311 -0.13955626642273861 0 0.22199130801810529 -0.1478171468904442 0 0.23627457688356679 -0.15840319400941011 0 0.24375228786211539 -0.116580291014256 0 0.235054631712311 -0.13955626642273861 0 0.2239597136694004 -0.1277946194696456 0 0.235054631712311 -0.13955626642273861 0 0.22199130801810529 -0.1478171468904442 0 0.2239597136694004 -0.1277946194696456 0 0.20025029595199689 -0.1218288277367077 0 0.20949289945301761 -0.1396057414987095 0 0.22199130801810529 -0.1478171468904442 0 0.2239597136694004 -0.1277946194696456 0 0.20949289945301761 -0.1396057414987095 0 0.21277072480774051 -0.1248863227998855 0 0.20025029595199689 -0.1218288277367077 0 0.20949289945301761 -0.1396057414987095 0 0.21277072480774051 -0.1248863227998855 0 0.2239597136694004 -0.1277946194696456 0 0.20949289945301761 -0.1396057414987095 0 0.22199130801810529 -0.1478171468904442 0 0.20949289945301761 -0.1396057414987095 0 0.2069794531536403 -0.1537888919124783 0 0.20949289945301761 -0.1396057414987095 0 0.2069794531536403 -0.1537888919124783 0 0.1919305776748628 -0.1461990482496055 0 0.2069794531536403 -0.1537888919124783 0 0.1919305776748628 -0.1461990482496055 0 0.19225769977326759 -0.16432491474026781 0 0.1862357176231304 -0.1238823921021804 0 0.1919305776748628 -0.1461990482496055 0 0.19714487019074359 -0.1333469628700395 0 0.20025029595199689 -0.1218288277367077 0 0.20949289945301761 -0.1396057414987095 0 0.19714487019074359 -0.1333469628700395 0 0.20949289945301761 -0.1396057414987095 0 0.1919305776748628 -0.1461990482496055 0 0.19714487019074359 -0.1333469628700395 0 0.1862357176231304 -0.1238823921021804 0 0.1919305776748628 -0.1461990482496055 0 0.1862357176231304 -0.1238823921021804 0 0.20025029595199689 -0.1218288277367077 0 0.19714487019074359 -0.1333469628700395 0 0.19629081049063871 -0.1815365299480412 0 0.19225769977326759 -0.16432491474026781 0 0.17982600751226671 -0.1762593337595659 0 0.19629081049063871 -0.1815365299480412 0 0.19225769977326759 -0.16432491474026781 0 0.22018657323669569 -0.16775416802968299 0 0.2069794531536403 -0.1537888919124783 0 0.19225769977326759 -0.16432491474026781 0 0.22018657323669569 -0.16775416802968299 0 0.22199130801810529 -0.1478171468904442 0 0.2069794531536403 -0.1537888919124783 0 0.22018657323669569 -0.16775416802968299 0 0.19629081049063871 -0.1815365299480412 0 0.22018657323669569 -0.16775416802968299 0 0.21237941264848451 -0.18810475376770611 0 0.22018657323669569 -0.16775416802968299 0 0.23934418379307471 -0.18436482883247621 0 0.22018657323669569 -0.16775416802968299 0 0.23934418379307471 -0.18436482883247621 0 0.21237941264848451 -0.18810475376770611 0 0.22018657323669569 -0.16775416802968299 0 0.23627457688356679 -0.15840319400941011 0 0.23934418379307471 -0.18436482883247621 0 0.22199130801810529 -0.1478171468904442 0 0.22018657323669569 -0.16775416802968299 0 0.23627457688356679 -0.15840319400941011 0 0.25449645062408999 -0.16331052089379791 0 0.23627457688356679 -0.15840319400941011 0 0.23934418379307471 -0.18436482883247621 0 0.25850179434945381 -0.20097548963526929 0 0.23934418379307471 -0.18436482883247621 0 0.25850179434945381 -0.20097548963526929 0 0.23934418379307471 -0.18436482883247621 0 0.23907695871134879 -0.21289681242661959 0 0.23907695871134879 -0.21289681242661959 0 0.22308479462261119 -0.20217133576560289 0 0.21722062693650279 -0.2226466586169516 0 0.23934418379307471 -0.18436482883247621 0 0.22308479462261119 -0.20217133576560289 0 0.21237941264848451 -0.18810475376770611 0 0.23934418379307471 -0.18436482883247621 0 0.23907695871134879 -0.21289681242661959 0 0.22308479462261119 -0.20217133576560289 0 0.25037283077400019 -0.2416092145933311 0 0.23239962387573149 -0.2337287944253621 0 0.2339549802858914 -0.24933471903745599 0 0.25658827463044448 -0.2222138965281123 0 0.23907695871134879 -0.21289681242661959 0 0.2446094219978813 -0.2276121794933563 0 0.25037283077400019 -0.2416092145933311 0 0.2446094219978813 -0.2276121794933563 0 0.23239962387573149 -0.2337287944253621 0 0.23907695871134879 -0.21289681242661959 0 0.2446094219978813 -0.2276121794933563 0 0.23239962387573149 -0.2337287944253621 0 0.23907695871134879 -0.21289681242661959 0 0.23239962387573149 -0.2337287944253621 0 0.21722062693650279 -0.2226466586169516 0 0.23239962387573149 -0.2337287944253621 0 0.2194561222393229 -0.23682627783696539 0 0.21722062693650279 -0.2226466586169516 0 0.23239962387573149 -0.2337287944253621 0 0.22502312889380549 -0.2426362774769398 0 0.2339549802858914 -0.24933471903745599 0 0.2194561222393229 -0.23682627783696539 0 0.22502312889380549 -0.2426362774769398 0 0.21456577207223029 -0.24270171036535029 0 0.23239962387573149 -0.2337287944253621 0 0.2194561222393229 -0.23682627783696539 0 0.22502312889380549 -0.2426362774769398 0 0.22331750647786899 -0.25281133177650322 0 0.22502312889380549 -0.2426362774769398 0 0.21456577207223029 -0.24270171036535029 0 0.22331750647786899 -0.25281133177650322 0 0.22502312889380549 -0.2426362774769398 0 0.2339549802858914 -0.24933471903745599 0 0.2084475354763706 -0.25511513831035743 0 0.2080714594183444 -0.2424179483002232 0 0.21336353465090491 -0.24693864317134839 0 0.2080714594183444 -0.2424179483002232 0 0.21336353465090491 -0.24693864317134839 0 0.2080714594183444 -0.2424179483002232 0 0.21336353465090491 -0.24693864317134839 0 0.21456577207223029 -0.24270171036535029 0 0.2194561222393229 -0.23682627783696539 0 0.2080714594183444 -0.2424179483002232 0 0.21456577207223029 -0.24270171036535029 0 0.21722062693650279 -0.2226466586169516 0 0.20244123733496699 -0.2260211367091485 0 0.19848523837712481 -0.2136299623964425 0 0.2080714594183444 -0.2424179483002232 0 0.21722062693650279 -0.2226466586169516 0 0.2194561222393229 -0.23682627783696539 0 0.2080714594183444 -0.2424179483002232 0 0.21722062693650279 -0.2226466586169516 0 0.2080714594183444 -0.2424179483002232 0 0.21722062693650279 -0.2226466586169516 0 0.20244123733496699 -0.2260211367091485 0 0.2080714594183444 -0.2424179483002232 0 0.18716213711817259 -0.22455639835484539 0 0.2080714594183444 -0.2424179483002232 0 0.20244123733496699 -0.2260211367091485 0 0.18716213711817259 -0.22455639835484539 0 0.20244123733496699 -0.2260211367091485 0 0.19848523837712481 -0.2136299623964425 0 0.18716213711817259 -0.22455639835484539 0 0.2080714594183444 -0.2424179483002232 0 0.19254414318066221 -0.24961624770678509 0 0.1866817818972302 -0.23981118877977231 0 0.2080714594183444 -0.2424179483002232 0 0.1866817818972302 -0.23981118877977231 0 0.18716213711817259 -0.22455639835484539 0 0.19254414318066221 -0.24961624770678509 0 0.18399505531774341 -0.24981832115951039 0 0.1866817818972302 -0.23981118877977231 0 0.21237941264848451 -0.18810475376770611 0 0.20793523744788639 -0.20366419955677639 0 0.19447652973028121 -0.19759128756789451 0 0.22308479462261119 -0.20217133576560289 0 0.21237941264848451 -0.18810475376770611 0 0.20793523744788639 -0.20366419955677639 0 0.22308479462261119 -0.20217133576560289 0 0.21722062693650279 -0.2226466586169516 0 0.20793523744788639 -0.20366419955677639 0 0.21722062693650279 -0.2226466586169516 0 0.20793523744788639 -0.20366419955677639 0 0.19848523837712481 -0.2136299623964425 0 0.19848523837712481 -0.2136299623964425 0 0.19447652973028121 -0.19759128756789451 0 0.1831457957419608 -0.2071674304332729 0 0.20793523744788639 -0.20366419955677639 0 0.19848523837712481 -0.2136299623964425 0 0.19447652973028121 -0.19759128756789451 0 0.19848523837712481 -0.2136299623964425 0 0.1831457957419608 -0.2071674304332729 0 0.18716213711817259 -0.22455639835484539 0 0.19629081049063871 -0.1815365299480412 0 0.19447652973028121 -0.19759128756789451 0 0.1840061663436266 -0.1900566622106199 0 0.19629081049063871 -0.1815365299480412 0 0.21237941264848451 -0.18810475376770611 0 0.19447652973028121 -0.19759128756789451 0 0.19447652973028121 -0.19759128756789451 0 0.1840061663436266 -0.1900566622106199 0 0.1831457957419608 -0.2071674304332729 0 0.1840061663436266 -0.1900566622106199 0 0.1831457957419608 -0.2071674304332729 0 0.16486725365112659 -0.18785963188663279 0 0.1831457957419608 -0.2071674304332729 0 0.16486725365112659 -0.18785963188663279 0 0.1831457957419608 -0.2071674304332729 0 0.16625281481800089 -0.2066948484094672 0 0.18716213711817259 -0.22455639835484539 0 0.16625281481800089 -0.2066948484094672 0 0.18716213711817259 -0.22455639835484539 0 0.16625281481800089 -0.2066948484094672 0 0.18716213711817259 -0.22455639835484539 0 0.16937657335138201 -0.22198425569814831 0 0.16625281481800089 -0.2066948484094672 0 0.15661990237239229 -0.21733625041789439 0 0.14909823278687431 -0.20687378182447139 0 0.16625281481800089 -0.2066948484094672 0 0.15661990237239229 -0.21733625041789439 0 0.16937657335138201 -0.22198425569814831 0 0.1831457957419608 -0.2071674304332729 0 0.16625281481800089 -0.2066948484094672 0 0.16486725365112659 -0.18785963188663279 0 0.16625281481800089 -0.2066948484094672 0 0.16486725365112659 -0.18785963188663279 0 0.14534349251782941 -0.188833298464089 0 0.17619278994504239 -0.24587918172992959 0 0.18399505531774341 -0.24981832115951039 0 0.1866817818972302 -0.23981118877977231 0 0.17619278994504239 -0.24587918172992959 0 0.17450151464944069 -0.23276490516368609 0 0.16609645978724119 -0.24143951784646769 0 0.17619278994504239 -0.24587918172992959 0 0.1866817818972302 -0.23981118877977231 0 0.17450151464944069 -0.23276490516368609 0 0.17450151464944069 -0.23276490516368609 0 0.18716213711817259 -0.22455639835484539 0 0.16937657335138201 -0.22198425569814831 0 0.1866817818972302 -0.23981118877977231 0 0.17450151464944069 -0.23276490516368609 0 0.18716213711817259 -0.22455639835484539 0 0.15661990237239229 -0.21733625041789439 0 0.1623464977989032 -0.22856887614484861 0 0.15090654410468329 -0.22688320449844629 0 0.15661990237239229 -0.21733625041789439 0 0.16937657335138201 -0.22198425569814831 0 0.1623464977989032 -0.22856887614484861 0 0.17450151464944069 -0.23276490516368609 0 0.1623464977989032 -0.22856887614484861 0 0.16609645978724119 -0.24143951784646769 0 0.17450151464944069 -0.23276490516368609 0 0.16937657335138201 -0.22198425569814831 0 0.1623464977989032 -0.22856887614484861 0 0.1623464977989032 -0.22856887614484861 0 0.16609645978724119 -0.24143951784646769 0 0.1528270009437688 -0.23836283418195289 0 0.16001236861667459 -0.2513654190734112 0 0.16609645978724119 -0.24143951784646769 0 0.1528270009437688 -0.23836283418195289 0 0.16978669848249819 -0.25098739912941831 0 0.17619278994504239 -0.24587918172992959 0 0.16609645978724119 -0.24143951784646769 0 0.16001236861667459 -0.2513654190734112 0 0.16978669848249819 -0.25098739912941831 0 0.16609645978724119 -0.24143951784646769 0 0.1429630926125974 -0.2502577086919005 0 0.16001236861667459 -0.2513654190734112 0 0.1528270009437688 -0.23836283418195289 0 0.1429630926125974 -0.2502577086919005 0 0.1528270009437688 -0.23836283418195289 0 0.13988621804673579 -0.23152362256679451 0 0.1528270009437688 -0.23836283418195289 0 0.15090654410468329 -0.22688320449844629 0 0.13988621804673579 -0.23152362256679451 0 0.1623464977989032 -0.22856887614484861 0 0.1528270009437688 -0.23836283418195289 0 0.15090654410468329 -0.22688320449844629 0 0.15661990237239229 -0.21733625041789439 0 0.15090654410468329 -0.22688320449844629 0 0.1428531013616163 -0.21862443918074129 0 0.15090654410468329 -0.22688320449844629 0 0.13988621804673579 -0.23152362256679451 0 0.1428531013616163 -0.21862443918074129 0 0.12018370186474731 -0.23305432747703519 0 0.12895394136930069 -0.22163642029703709 0 0.13988621804673579 -0.23152362256679451 0 0.12895394136930069 -0.22163642029703709 0 0.13988621804673579 -0.23152362256679451 0 0.1428531013616163 -0.21862443918074129 0 0.1429630926125974 -0.2502577086919005 0 0.12018370186474731 -0.23305432747703519 0 0.1429630926125974 -0.2502577086919005 0 0.12018370186474731 -0.23305432747703519 0 0.13988621804673579 -0.23152362256679451 0 0.13217397618885759 -0.25462043987800831 0 0.1429630926125974 -0.2502577086919005 0 0.12018370186474731 -0.23305432747703519 0 0.16625281481800089 -0.2066948484094672 0 0.14534349251782941 -0.188833298464089 0 0.16625281481800089 -0.2066948484094672 0 0.14534349251782941 -0.188833298464089 0 0.14909823278687431 -0.20687378182447139 0 0.14534349251782941 -0.188833298464089 0 0.14909823278687431 -0.20687378182447139 0 0.1346280568372662 -0.20359450925845249 0 0.15661990237239229 -0.21733625041789439 0 0.14909823278687431 -0.20687378182447139 0 0.1428531013616163 -0.21862443918074129 0 0.14909823278687431 -0.20687378182447139 0 0.1428531013616163 -0.21862443918074129 0 0.1346280568372662 -0.20359450925845249 0 0.1178461100078927 -0.20838697738218431 0 0.12895394136930069 -0.22163642029703709 0 0.1346280568372662 -0.20359450925845249 0 0.12895394136930069 -0.22163642029703709 0 0.1428531013616163 -0.21862443918074129 0 0.1346280568372662 -0.20359450925845249 0 0.14534349251782941 -0.188833298464089 0 0.1346280568372662 -0.20359450925845249 0 0.13128332926409281 -0.18787359724935929 0 0.1237689835273371 -0.19605207676116951 0 0.1178461100078927 -0.20838697738218431 0 0.1346280568372662 -0.20359450925845249 0 0.1237689835273371 -0.19605207676116951 0 0.1346280568372662 -0.20359450925845249 0 0.13128332926409281 -0.18787359724935929 0 0.1237689835273371 -0.19605207676116951 0 0.1232013989280239 -0.1819146573535104 0 0.13128332926409281 -0.18787359724935929 0 0.12443417021765769 -0.1709717485187108 0 0.14534349251782941 -0.188833298464089 0 0.12443417021765769 -0.1709717485187108 0 0.1232013989280239 -0.1819146573535104 0 0.13128332926409281 -0.18787359724935929 0 0.12443417021765769 -0.1709717485187108 0 0.14534349251782941 -0.188833298464089 0 0.13128332926409281 -0.18787359724935929 0 0.12443417021765769 -0.1709717485187108 0 0.14534349251782941 -0.188833298464089 0 0.13540865390058859 -0.1688207667960602 0 0.14534349251782941 -0.188833298464089 0 0.14658871156029241 -0.16855183333999291 0 0.13540865390058859 -0.1688207667960602 0 0.16486725365112659 -0.18785963188663279 0 0.14658871156029241 -0.16855183333999291 0 0.16486725365112659 -0.18785963188663279 0 0.14534349251782941 -0.188833298464089 0 0.14658871156029241 -0.16855183333999291 0 0.14658871156029241 -0.16855183333999291 0 0.13391177650968769 -0.15242347890466901 0 0.14971917460686079 -0.1530450482394467 0 0.14658871156029241 -0.16855183333999291 0 0.14971917460686079 -0.1530450482394467 0 0.16192904395431579 -0.15800089119817939 0 0.14658871156029241 -0.16855183333999291 0 0.13391177650968769 -0.15242347890466901 0 0.12831016946945831 -0.1492440347933528 0 0.14658871156029241 -0.16855183333999291 0 0.12831016946945831 -0.1492440347933528 0 0.14658871156029241 -0.16855183333999291 0 0.13540865390058859 -0.1688207667960602 0 0.1290045142054978 -0.1612372837293575 0 0.14658871156029241 -0.16855183333999291 0 0.1290045142054978 -0.1612372837293575 0 0.12831016946945831 -0.1492440347933528 0 0.13540865390058859 -0.1688207667960602 0 0.12715697753007521 -0.16591248018761531 0 0.1290045142054978 -0.1612372837293575 0 0.12443417021765769 -0.1709717485187108 0 0.13540865390058859 -0.1688207667960602 0 0.12715697753007521 -0.16591248018761531 0 0.12098675462827781 -0.16200852072179159 0 0.12715697753007521 -0.16591248018761531 0 0.1290045142054978 -0.1612372837293575 0 0.12324902196630889 -0.15465793599018671 0 0.1227471198665283 -0.15880086614903269 0 0.1290045142054978 -0.1612372837293575 0 0.13391177650968769 -0.15242347890466901 0 0.12831016946945831 -0.1492440347933528 0 0.12532898621889721 -0.13663811256420449 0 0.12324902196630889 -0.15465793599018671 0 0.1290045142054978 -0.1612372837293575 0 0.12831016946945831 -0.1492440347933528 0 0.1217036921304827 -0.1482443959076799 0 0.12831016946945831 -0.1492440347933528 0 0.12532898621889721 -0.13663811256420449 0 0.13391177650968769 -0.15242347890466901 0 0.13188977167139071 -0.12546883223523481 0 0.13391177650968769 -0.15242347890466901 0 0.13188977167139071 -0.12546883223523481 0 0.1446303542042412 -0.1380662602394005 0 0.13391177650968769 -0.15242347890466901 0 0.13188977167139071 -0.12546883223523481 0 0.12532898621889721 -0.13663811256420449 0 0.11997683785091839 -0.1276371159963853 0 0.13188977167139071 -0.12546883223523481 0 0.12532898621889721 -0.13663811256420449 0 0.1446303542042412 -0.1380662602394005 0 0.15557261582888751 -0.13003178131142151 0 0.1621281360659286 -0.14191921566573409 0 0.14724036225017881 -0.1245170930860646 0 0.13188977167139071 -0.12546883223523481 0 0.1446303542042412 -0.1380662602394005 0 0.14724036225017881 -0.1245170930860646 0 0.1446303542042412 -0.1380662602394005 0 0.15557261582888751 -0.13003178131142151 0 0.13391177650968769 -0.15242347890466901 0 0.1446303542042412 -0.1380662602394005 0 0.14971917460686079 -0.1530450482394467 0 0.1446303542042412 -0.1380662602394005 0 0.14971917460686079 -0.1530450482394467 0 0.1621281360659286 -0.14191921566573409 0 0.1621281360659286 -0.14191921566573409 0 0.17324983187337631 -0.13165498831909611 0 0.17651024624945799 -0.1485415537171802 0 0.14971917460686079 -0.1530450482394467 0 0.1621281360659286 -0.14191921566573409 0 0.16192904395431579 -0.15800089119817939 0 0.1621281360659286 -0.14191921566573409 0 0.17651024624945799 -0.1485415537171802 0 0.16192904395431579 -0.15800089119817939 0 0.16471491079178111 -0.1205264202314431 0 0.15557261582888751 -0.13003178131142151 0 0.1639163736399934 -0.1310331013819237 0 0.15557261582888751 -0.13003178131142151 0 0.1621281360659286 -0.14191921566573409 0 0.1639163736399934 -0.1310331013819237 0 0.1621281360659286 -0.14191921566573409 0 0.1639163736399934 -0.1310331013819237 0 0.17324983187337631 -0.13165498831909611 0 0.16471491079178111 -0.1205264202314431 0 0.1639163736399934 -0.1310331013819237 0 0.17324983187337631 -0.13165498831909611 0 0.1862357176231304 -0.1238823921021804 0 0.1919305776748628 -0.1461990482496055 0 0.17324983187337631 -0.13165498831909611 0 0.1919305776748628 -0.1461990482496055 0 0.17324983187337631 -0.13165498831909611 0 0.17651024624945799 -0.1485415537171802 0 0.1919305776748628 -0.1461990482496055 0 0.19225769977326759 -0.16432491474026781 0 0.17651024624945799 -0.1485415537171802 0 0.19225769977326759 -0.16432491474026781 0 0.17526083145963689 -0.16308053239281189 0 0.17982600751226671 -0.1762593337595659 0 0.19225769977326759 -0.16432491474026781 0 0.17651024624945799 -0.1485415537171802 0 0.17526083145963689 -0.16308053239281189 0 0.17526083145963689 -0.16308053239281189 0 0.17982600751226671 -0.1762593337595659 0 0.16627328335530381 -0.17069773137902189 0 0.1840061663436266 -0.1900566622106199 0 0.16486725365112659 -0.18785963188663279 0 0.17982600751226671 -0.1762593337595659 0 0.19629081049063871 -0.1815365299480412 0 0.1840061663436266 -0.1900566622106199 0 0.17982600751226671 -0.1762593337595659 0 0.16486725365112659 -0.18785963188663279 0 0.14658871156029241 -0.16855183333999291 0 0.16627328335530381 -0.17069773137902189 0 0.16486725365112659 -0.18785963188663279 0 0.17982600751226671 -0.1762593337595659 0 0.16627328335530381 -0.17069773137902189 0 0.14658871156029241 -0.16855183333999291 0 0.16192904395431579 -0.15800089119817939 0 0.16627328335530381 -0.17069773137902189 0 0.17526083145963689 -0.16308053239281189 0 0.16192904395431579 -0.15800089119817939 0 0.16627328335530381 -0.17069773137902189 0 0.17651024624945799 -0.1485415537171802 0 0.17526083145963689 -0.16308053239281189 0 0.16192904395431579 -0.15800089119817939 0 
</DataArray>
</Points>
<Cells>
<DataArray type="UInt32" Name="connectivity" format="ascii">
0 1 2 3 4 5 6 7 8 9 10 11 12 13 14 15 16 17 18 19 20 21 22 23 24 25 26 27 28 29 30 31 32 33 34 35 36 37 38 39 40 41 42 43 44 45 46 47 48 49 50 51 52 53 54 55 56 57 58 59 60 61 62 63 64 65 66 67 68 69 70 71 72 73 74 75 76 77 78 79 80 81 82 83 84 85 86 87 88 89 90 91 92 93 94 95 96 97 98 99 100 101 102 103 104 105 106 107 108 109 110 111 112 113 114 115 116 117 118 119 120 121 122 123 124 125 126 127 128 129 130 131 132 133 134 135 136 137 138 139 140 141 142 143 144 145 146 147 148 149 150 151 152 153 154 155 156 157 158 159 160 161 162 163 164 165 166 167 168 169 170 171 172 173 174 175 176 177 178 179 180 181 182 183 184 185 186 187 188 189 190 191 192 193 194 195 196 197 198 199 200 201 202 203 204 205 206 207 208 209 210 211 212 213 214 215 216 217 218 219 220 221 222 223 224 225 226 227 228 229 230 231 232 233 234 235 236 237 238 239 240 241 242 243 244 245 246 247 248 249 250 251 252 253 254 255 256 257 258 259 260 261 262 263 264 265 266 267 268 269 270 271 272 273 274 275 276 277 278 279 280 281 282 283 284 285 286 287 288 289 290 291 292 293 294 295 296 297 298 299 300 301 302 303 304 305 306 307 308 309 310 311 312 313 314 315 316 317 318 319 320 321 322 323 324 325 326 327 328 329 330 331 332 333 334 335 336 337 338 339 340 341 342 343 344 345 346 347 348 349 350 351 352 353 354 355 356 357 358 359 360 361 362 363 364 365 366 367 368 369 370 371 372 373 374 375 376 377 378 379 380 381 382 383 384 385 386 387 388 389 390 391 392 393 394 395 396 397 398 399 400 401 402 403 404 405 406 407 408 409 410 411 412 413 414 415 416 417 418 419 420 421 422 423 424 425 426 427 428 429 430 431 432 433 434 435 436 437 438 439 440 441 442 443 444 445 446 447 448 449 450 451 452 453 454 455 456 457 458 459 460 461 462 463 464 465 466 467 468 469 470 471 472 473 474 475 476 477 478 479 480 481 482 483 484 485 486 487 488 489 490 491 492 493 494 495 496 497 498 499 500 501 502 503 504 505 506 507 508 509 510 511 512 513 514 515 516 517 518 519 520 521 522 523 524 525 526 527 528 529 530 531 532 533 534 535 536 537 538 539 540 541 542 543 544 545 546 547 548 549 550 551 552 553 554 555 556 557 558 559 560 561 562 563 564 565 566 567 568 569 570 571 572 573 574 575 576 577 578 579 580 581 582 583 584 585 586 587 588 589 590 591 592 593 594 595 596 597 598 599 600 601 602 603 604 605 606 607 608 609 610 611 612 613 614 615 616 617 618 619 620 621 622 623 624 625 626 627 628 629 630 631 632 633 634 635 636 637 638 639 640 641 642 643 644 645 646 647 648 649 650 651 652 653 654 655 656 657 658 659 660 661 662 663 664 665 666 667 668 669 670 671 672 673 674 675 676 677 678 679 680 681 682 683 684 685 686 687 688 689 690 691 692 693 694 695 696 697 698 699 700 701 702 703 704 705 706 707 708 709 710 711 712 713 714 715 716 717 718 719 720 721 722 723 724 725 726 727 728 729 730 731 732 733 734 735 736 737 738 739 740 741 742 743 744 745 746 747 748 749 750 751 752 753 754 755 756 757 758 759 760 761 762 763 764 765 766 767 768 769 770 771 772 773 774 775 776 777 778 779 780 781 782 783 784 785 786 787 788 789 790 791 792 793 794 795 796 797 798 799 800 801 802 803 804 805 806 807 808 809 810 811 812 813 814 815 816 817 818 819 820 821 822 823 824 825 826 827 828 829 830 831 832 833 834 835 836 837 838 839 840 841 842 843 844 845 846 847 848 849 850 851 852 853 854 855 856 857 858 859 860 861 862 863 864 865 866 867 868 869 870 871 872 873 874 875 876 877 878 879 880 881 882 883 884 885 886 887 888 889 890 891 892 893 894 895 896 897 898 899 900 901 902 903 904 905 906 907 908 909 910 911 912 913 914 915 916 917 918 919 920 921 922 923 924 925 926 927 928 929 930 931 932 933 934 935 936 937 938 939 940 941 942 943 944 945 946 947 948 949 950 951 952 953 954 955 956 957 958 959 960 961 962 963 964 965 966 967 968 969 970 971 972 973 974 975 976 977 978 979 980 981 982 983 984 985 986 987 988 989 990 991 992 993 994 995 996 997 998 999 1000 1001 1002 1003 1004 1005 1006 1007 1008 1009 1010 1011 1012 1013 1014 1015 1016 1017 1018 1019 1020 1021 1022 1023 1024 1025 1026 1027 1028 1029 1030 1031 1032 1033 1034 1035 1036 1037 1038 1039 1040 1041 1042 1043 1044 1045 1046 1047 1048 1049 1050 1051 1052 1053 1054 1055 1056 1057 1058 1059 1060 1061 1062 1063 1064 1065 1066 1067 1068 1069 1070 1071 1072 1073 1074 1075 1076 1077 1078 1079 1080 1081 1082 1083 1084 1085 1086 1087 1088 1089 1090 1091 1092 1093 1094 1095 1096 1097 1098 1099 1100 1101 1102 1103 1104 1105 1106 1107 1108 1109 1110 1111 1112 1113 1114 1115 1116 1117 1118 1119 1120 1121 1122 1123 1124 1125 1126 1127 1128 1129 1130 1131 1132 1133 1134 1135 1136 1137 1138 1139 1140 1141 1142 1143 1144 1145 1146 1147 1148 1149 1150 1151 1152 1153 1154 1155 1156 1157 1158 1159 1160 1161 1162 1163 1164 1165 1166 1167 1168 1169 1170 1171 1172 1173 1174 1175 1176 1177 1178 1179 1180 1181 1182 1183 1184 1185 1186 1187 1188 1189 1190 1191 1192 1193 1194 1195 1196 1197 1198 1199 1200 1201 1202 1203 1204 1205 1206 1207 1208 1209 1210 1211 1212 1213 1214 1215 1216 1217 1218 1219 1220 1221 1222 1223 1224 1225 1226 1227 1228 1229 1230 1231 1232 1233 1234 1235 1236 1237 1238 1239 1240 1241 1242 1243 1244 1245 1246 1247 1248 1249 1250 1251 1252 1253 1254 1255 1256 1257 1258 1259 1260 1261 1262 1263 1264 1265 1266 1267 1268 1269 1270 1271 1272 1273 1274 1275 1276 1277 1278 1279 1280 1281 1282 1283 1284 1285 1286 1287 1288 1289 1290 1291 1292 1293 1294 1295 1296 1297 1298 1299 1300 1301 1302 1303 1304 1305 1306 1307 1308 1309 1310 1311 1312 1313 1314 1315 1316 1317 1318 1319 1320 1321 1322 1323 1324 1325 1326 1327 1328 1329 1330 1331 1332 1333 1334 1335 1336 1337 1338 1339 1340 1341 1342 1343 1344 1345 1346 1347 1348 1349 1350 1351 1352 1353 1354 1355 1356 1357 1358 1359 1360 1361 1362 1363 1364 1365 1366 1367 1368 1369 1370 1371 1372 1373 1374 1375 1376 1377 1378 1379 1380 1381 1382 1383 1384 1385 1386 1387 1388 1389 1390 1391 1392 1393 1394 1395 1396 1397 1398 1399 1400 1401 1402 1403 1404 1405 1406 1407 1408 1409 1410 1411 1412 1413 1414 1415 1416 1417 1418 1419 1420 1421 1422 1423 1424 1425 1426 1427 1428 1429 1430 1431 1432 1433 1434 1435 1436 1437 1438 1439 1440 1441 1442 1443 1444 1445 1446 1447 1448 1449 1450 1451 1452 1453 1454 1455 1456 1457 1458 1459 1460 1461 1462 1463 1464 1465 1466 1467 1468 1469 1470 1471 1472 1473 1474 1475 1476 1477 1478 1479 1480 1481 1482 1483 1484 1485 1486 1487 1488 1489 1490 1491 1492 1493 1494 1495 1496 1497 1498 1499 1500 1501 1502 1503 1504 1505 1506 1507 1508 1509 1510 1511 1512 1513 1514 1515 1516 1517 1518 1519 1520 1521 1522 1523 1524 1525 1526 1527 1528 1529 1530 1531 1532 1533 1534 1535 1536 1537 1538 1539 1540 1541 1542 1543 1544 1545 1546 1547 1548 1549 1550 1551 1552 1553 1554 1555 1556 1557 1558 1559 1560 1561 1562 1563 1564 1565 1566 1567 1568 1569 1570 1571 1572 1573 1574 1575 1576 1577 1578 1579 1580 1581 1582 1583 1584 1585 1586 1587 1588 1589 1590 1591 1592 1593 1594 1595 1596 1597 1598 1599 1600 1601 1602 1603 1604 1605 1606 1607 1608 1609 1610 1611 1612 1613 1614 1615 1616 1617 1618 1619 1620 1621 1622 1623 1624 1625 1626 1627 1628 1629 1630 1631 1632 1633 1634 1635 1636 1637 1638 1639 1640 1641 1642 1643 1644 1645 1646 1647 1648 1649 1650 1651 1652 1653 1654 1655 1656 1657 1658 1659 1660 1661 1662 1663 1664 1665 1666 1667 1668 1669 1670 1671 1672 1673 1674 1675 1676 1677 1678 1679 1680 1681 1682 1683 1684 1685 1686 1687 1688 1689 1690 1691 1692 1693 1694 1695 1696 1697 1698 1699 1700 1701 1702 1703 1704 1705 1706 1707 1708 1709 1710 1711 1712 1713 1714 1715 1716 1717 1718 1719 1720 1721 1722 1723 1724 1725 1726 1727 1728 1729 1730 1731 1732 1733 1734 1735 1736 1737 1738 1739 1740 1741 1742 1743 1744 1745 1746 1747 1748 1749 1750 1751 1752 1753 1754 1755 1756 1757 1758 1759 1760 1761 1762 1763 1764 1765 1766 1767 1768 1769 1770 1771 1772 1773 1774 1775 1776 1777 1778 1779 1780 1781 1782 1783 1784 1785 1786 1787 1788 1789 1790 1791 1792 1793 1794 1795 1796 1797 1798 1799 1800 1801 1802 1803 1804 1805 1806 1807 1808 1809 1810 1811 1812 1813 1814 1815 1816 1817 1818 1819 1820 1821 1822 1823 1824 1825 1826 1827 1828 1829 1830 1831 1832 1833 1834 1835 1836 1837 1838 1839 1840 1841 1842 1843 1844 1845 1846 1847 1848 1849 1850 1851 1852 1853 1854 1855 1856 1857 1858 1859 1860 1861 1862 1863 1864 1865 1866 1867 1868 1869 1870 1871 1872 1873 1874 1875 1876 1877 1878 1879 1880 1881 1882 1883 1884 1885 1886 1887 1888 1889 1890 1891 1892 1893 1894 1895 1896 1897 1898 1899 1900 1901 1902 1903 1904 1905 1906 1907 1908 1909 1910 1911 1912 1913 1914 1915 1916 1917 1918 1919 1920 1921 1922 1923 1924 1925 1926 1927 1928 1929 1930 1931 1932 1933 1934 1935 1936 1937 1938 1939 1940 1941 1942 1943 1944 1945 1946 1947 1948 1949 1950 1951 1952 1953 1954 1955 1956 1957 1958 1959 1960 1961 1962 1963 1964 1965 1966 1967 1968 1969 1970 1971 1972 1973 1974 1975 1976 1977 1978 1979 1980 1981 1982 1983 1984 1985 1986 1987 1988 1989 1990 1991 1992 1993 1994 1995 1996 1997 1998 1999 2000 2001 2002 2003 2004 2005 2006 2007 2008 2009 2010 2011 2012 2013 2014 2015 2016 2017 2018 2019 2020 2021 2022 2023 2024 2025 2026 2027 2028 2029 2030 2031 2032 2033 2034 2035 2036 2037 2038 2039 2040 2041 2042 2043 2044 2045 2046 2047 2048 2049 2050 2051 2052 2053 2054 2055 2056 2057 2058 2059 2060 2061 2062 2063 2064 2065 2066 2067 2068 2069 2070 2071 2072 2073 2074 2075 2076 2077 2078 2079 2080 2081 2082 2083 2084 2085 2086 2087 2088 2089 2090 2091 2092 2093 2094 2095 2096 2097 2098 2099 2100 2101 2102 2103 2104 2105 2106 2107 2108 2109 2110 2111 2112 2113 2114 2115 2116 2117 2118 2119 2120 2121 2122 2123 2124 2125 2126 2127 2128 2129 2130 2131 2132 2133 2134 2135 2136 2137 2138 2139 2140 2141 2142 2143 2144 2145 2146 2147 2148 2149 2150 2151 2152 2153 2154 2155 2156 2157 2158 2159 2160 2161 2162 2163 2164 2165 2166 2167 2168 2169 2170 2171 2172 2173 2174 2175 2176 2177 2178 2179 2180 2181 2182 2183 2184 2185 2186 2187 2188 2189 2190 2191 2192 2193 2194 2195 2196 2197 2198 2199 2200 2201 2202 2203 2204 2205 2206 2207 2208 2209 2210 2211 2212 2213 2214 2215 2216 2217 2218 2219 2220 2221 2222 2223 2224 2225 2226 2227 2228 2229 2230 2231 2232 2233 2234 2235 2236 2237 2238 2239 2240 2241 2242 2243 2244 2245 2246 2247 2248 2249 2250 2251 2252 2253 2254 2255 2256 2257 2258 2259 2260 2261 2262 2263 2264 2265 2266 2267 2268 2269 2270 2271 2272 2273 2274 2275 2276 2277 2278 2279 2280 2281 2282 2283 2284 2285 2286 2287 2288 2289 2290 2291 2292 2293 2294 2295 2296 2297 2298 2299 2300 2301 2302 2303 2304 2305 2306 2307 2308 2309 2310 2311 2312 2313 2314 2315 2316 2317 2318 2319 2320 2321 2322 2323 2324 2325 2326 2327 2328 2329 2330 2331 2332 2333 2334 2335 2336 2337 2338 2339 2340 2341 2342 2343 2344 2345 2346 2347 2348 2349 2350 2351 2352 2353 2354 2355 2356 2357 2358 2359 2360 2361 2362 2363 2364 2365 2366 2367 2368 2369 2370 2371 2372 2373 2374 2375 2376 2377 2378 2379 2380 2381 2382 2383 2384 2385 2386 2387 2388 2389 2390 2391 2392 2393 2394 2395 2396 2397 2398 2399 2400 2401 2402 2403 2404 2405 2406 2407 2408 2409 2410 2411 2412 2413 2414 2415 2416 2417 2418 2419 2420 2421 2422 2423 2424 2425 2426 2427 2428 2429 2430 2431 2432 2433 2434 2435 2436 2437 2438 2439 2440 2441 2442 2443 2444 2445 2446 2447 2448 2449 2450 2451 2452 2453 2454 2455 2456 2457 2458 2459 2460 2461 2462 2463 2464 2465 2466 2467 2468 2469 2470 2471 2472 2473 2474 2475 2476 2477 2478 2479 2480 2481 2482 2483 2484 2485 2486 2487 2488 2489 2490 2491 2492 2493 2494 2495 2496 2497 2498 2499 2500 2501 2502 2503 2504 2505 2506 2507 2508 2509 2510 2511 2512 2513 2514 2515 2516 2517 2518 2519 2520 2521 2522 2523 2524 2525 2526 2527 2528 2529 2530 2531 2532 2533 2534 2535 2536 2537 2538 2539 2540 2541 2542 2543 2544 2545 2546 2547 2548 2549 2550 2551 2552 2553 2554 2555 2556 2557 2558 2559 2560 2561 2562 2563 2564 2565 2566 2567 2568 2569 2570 2571 2572 2573 2574 2575 2576 2577 2578 2579 2580 2581 2582 2583 2584 2585 2586 2587 2588 2589 2590 2591 2592 2593 2594 2595 2596 2597 2598 2599 2600 2601 2602 2603 2604 2605 2606 2607 2608 2609 2610 2611 2612 2613 2614 2615 2616 2617 2618 2619 2620 2621 2622 2623 2624 2625 2626 2627 2628 2629 2630 2631 2632 2633 2634 2635 2636 2637 2638 2639 2640 2641 2642 2643 2644 2645 2646 2647 2648 2649 2650 2651 2652 2653 2654 2655 2656 2657 2658 2659 2660 2661 2662 2663 2664 2665 2666 2667 2668 2669 2670 2671 2672 2673 2674 2675 2676 2677 2678 2679 2680 2681 2682 2683 2684 2685 2686 2687 2688 2689 2690 2691 2692 2693 2694 2695 2696 2697 2698 2699 2700 2701 2702 2703 2704 2705 2706 2707 2708 2709 2710 2711 2712 2713 2714 2715 2716 2717 2718 2719 2720 2721 2722 2723 2724 2725 2726 2727 2728 2729 2730 2731 2732 2733 2734 2735 2736 2737 2738 2739 2740 2741 2742 2743 2744 2745 2746 2747 2748 2749 2750 2751 2752 2753 2754 2755 2756 2757 2758 2759 2760 2761 2762 2763 2764 2765 2766 2767 2768 2769 2770 2771 2772 2773 2774 2775 2776 2777 2778 2779 2780 2781 2782 2783 2784 2785 2786 2787 2788 2789 2790 2791 2792 2793 2794 2795 2796 2797 2798 2799 2800 2801 2802 2803 2804 2805 2806 2807 2808 2809 2810 2811 2812 2813 2814 2815 2816 2817 2818 2819 2820 2821 2822 2823 2824 2825 2826 2827 2828 2829 2830 2831 2832 2833 2834 2835 2836 2837 2838 2839 2840 2841 2842 2843 2844 2845 2846 2847 2848 2849 2850 2851 2852 2853 2854 2855 2856 2857 2858 2859 2860 2861 2862 2863 2864 2865 2866 2867 2868 2869 2870 2871 2872 2873 2874 2875 2876 2877 2878 2879 2880 2881 2882 2883 2884 2885 2886 2887 2888 2889 2890 2891 2892 2893 2894 2895 2896 2897 2898 2899 2900 2901 2902 2903 2904 2905 2906 2907 2908 2909 2910 2911 2912 2913 2914 2915 2916 2917 2918 2919 2920 2921 2922 2923 2924 2925 2926 2927 2928 2929 2930 2931 2932 2933 2934 2935 2936 2937 2938 2939 2940 2941 2942 2943 2944 2945 2946 2947 2948 2949 2950 2951 2952 2953 2954 2955 2956 2957 2958 2959 2960 2961 2962 2963 2964 2965 2966 2967 2968 2969 2970 2971 2972 2973 2974 2975 2976 2977 2978 2979 2980 2981 2982 2983 2984 2985 2986 2987 2988 2989 2990 2991 2992 2993 2994 2995 2996 2997 2998 2999 3000 3001 3002 3003 3004 3005 3006 3007 3008 3009 3010 3011 3012 3013 3014 3015 3016 3017 3018 3019 3020 3021 3022 3023 3024 3025 3026 3027 3028 3029 3030 3031 3032 3033 3034 3035 3036 3037 3038 3039 3040 3041 3042 3043 3044 3045 3046 3047 3048 3049 3050 3051 3052 3053 3054 3055 3056 3057 3058 3059 3060 3061 3062 3063 3064 3065 3066 3067 3068 3069 3070 3071 3072 3073 3074 3075 3076 3077 3078 3079 3080 3081 3082 3083 3084 3085 3086 3087 3088 3089 3090 3091 3092 3093 3094 3095 3096 3097 3098 3099 3100 3101 3102 3103 3104 3105 3106 3107 3108 3109 3110 3111 3112 3113 3114 3115 3116 3117 3118 3119 3120 3121 3122 3123 3124 3125 3126 3127 3128 3129 3130 3131 3132 3133 3134 3135 3136 3137 3138 3139 3140 3141 3142 3143 3144 3145 3146 3147 3148 3149 3150 3151 3152 3153 3154 3155 3156 3157 3158 3159 3160 3161 3162 3163 3164 3165 3166 3167 3168 3169 3170 3171 3172 3173 3174 3175 3176 3177 3178 3179 3180 3181 3182 3183 3184 3185 3186 3187 3188 3189 3190 3191 3192 3193 3194 3195 3196 3197 3198 3199 3200 3201 3202 3203 3204 3205 3206 3207 3208 3209 3210 3211 3212 3213 3214 3215 3216 3217 3218 3219 3220 3221 3222 3223 3224 3225 3226 3227 3228 3229 3230 3231 3232 3233 3234 3235 3236 3237 3238 3239 3240 3241 3242 3243 3244 3245 3246 3247 3248 3249 3250 3251 3252 3253 3254 3255 3256 3257 3258 3259 3260 3261 3262 3263 3264 3265 3266 3267 3268 3269 3270 3271 3272 3273 3274 3275 3276 3277 3278 3279 3280 3281 3282 3283 3284 3285 3286 3287 3288 3289 3290 3291 3292 3293 3294 3295 3296 3297 3298 3299 3300 3301 3302 3303 3304 3305 3306 3307 3308 3309 3310 3311 3312 3313 3314 3315 3316 3317 3318 3319 3320 3321 3322 3323 3324 3325 3326 3327 3328 3329 3330 3331 3332 3333 3334 3335 3336 3337 3338 3339 3340 3341 3342 3343 3344 3345 3346 3347 3348 3349 3350 3351 3352 3353 3354 3355 3356 3357 3358 3359 3360 3361 3362 3363 3364 3365 3366 3367 3368 3369 3370 3371 3372 3373 3374 3375 3376 3377 3378 3379 3380 3381 3382 3383 3384 3385 3386 3387 3388 3389 3390 3391 3392 3393 3394 3395 3396 3397 3398 3399 3400 3401 3402 3403 3404 3405 3406 3407 3408 3409 3410 3411 3412 3413 3414 3415 3416 3417 3418 3419 3420 3421 3422 3423 3424 3425 3426 3427 3428 3429 3430 3431 3432 3433 3434 3435 3436 3437 3438 3439 3440 3441 3442 3443 3444 3445 3446 3447 3448 3449 3450 3451 3452 3453 3454 3455 3456 3457 3458 3459 3460 3461 3462 3463 3464 3465 3466 3467 3468 3469 3470 3471 3472 3473 3474 3475 3476 3477 3478 3479 3480 3481 3482 3483 3484 3485 3486 3487 3488 3489 3490 3491 3492 3493 3494 3495 3496 3497 3498 3499 3500 3501 3502 3503 3504 3505 3506 3507 3508 3509 3510 3511 3512 3513 3514 3515 3516 3517 3518 3519 3520 3521 3522 3523 3524 3525 3526 3527 3528 3529 3530 3531 3532 3533 3534 3535 3536 3537 3538 3539 3540 3541 3542 3543 3544 3545 3546 3547 3548 3549 3550 3551 3552 3553 3554 3555 3556 3557 3558 3559 3560 3561 3562 3563 3564 3565 3566 3567 3568 3569 3570 3571 3572 3573 3574 3575 3576 3577 3578 3579 3580 3581 3582 3583 3584 3585 3586 3587 3588 3589 3590 3591 3592 3593 3594 3595 3596 3597 3598 3599 3600 3601 3602 3603 3604 3605 3606 3607 3608 3609 3610 3611 3612 3613 3614 3615 3616 3617 3618 3619 3620 3621 3622 3623 3624 3625 3626 3627 3628 3629 3630 3631 3632 3633 3634 3635 3636 3637 3638 3639 3640 3641 3642 3643 3644 3645 3646 3647 3648 3649 3650 3651 3652 3653 3654 3655 3656 3657 3658 3659 3660 3661 3662 3663 3664 3665 3666 3667 3668 3669 3670 3671 3672 3673 3674 3675 3676 3677 3678 3679 3680 3681 3682 3683 3684 3685 3686 3687 3688 3689 3690 3691 3692 3693 3694 3695 3696 3697 3698 3699 3700 3701 3702 3703 3704 3705 3706 3707 3708 3709 3710 3711 3712 3713 3714 3715 3716 3717 3718 3719 3720 3721 3722 3723 3724 3725 3726 3727 3728 3729 3730 3731 3732 3733 3734 3735 3736 3737 3738 3739 3740 3741 3742 3743 3744 3745 3746 3747 3748 3749 3750 3751 3752 3753 3754 3755 3756 3757 3758 3759 3760 3761 3762 3763 3764 3765 3766 3767 3768 3769 3770 3771 3772 3773 3774 3775 3776 3777 3778 3779 3780 3781 3782 3783 3784 3785 3786 3787 3788 3789 3790 3791 3792 3793 3794 3795 3796 3797 3798 3799 3800 3801 3802 3803 3804 3805 3806 3807 3808 3809 3810 3811 3812 3813 3814 3815 3816 3817 3818 3819 3820 3821 3822 3823 3824 3825 3826 3827 3828 3829 3830 3831 3832 3833 3834 3835 3836 3837 3838 3839 3840 3841 3842 3843 3844 3845 3846 3847 3848 3849 3850 3851 3852 3853 3854 3855 3856 3857 3858 3859 3860 3861 3862 3863 3864 3865 3866 3867 3868 3869 3870 3871 3872 3873 3874 3875 3876 3877 3878 3879 3880 3881 3882 3883 3884 3885 3886 3887 3888 3889 3890 3891 3892 3893 3894 3895 3896 3897 3898 3899 3900 3901 3902 3903 3904 3905 3906 3907 3908 3909 3910 3911 3912 3913 3914 3915 3916 3917 3918 3919 3920 3921 3922 3923 3924 3925 3926 3927 3928 3929 3930 3931 3932 3933 3934 3935 3936 3937 3938 3939 3940 3941 3942 3943 3944 3945 3946 3947 3948 3949 3950 3951 3952 3953 3954 3955 3956 3957 3958 3959 3960 3961 3962 3963 3964 3965 3966 3967 3968 3969 3970 3971 3972 3973 3974 3975 3976 3977 3978 3979 3980 3981 3982 3983 3984 3985 3986 3987 3988 3989 3990 3991 3992 3993 3994 3995 3996 3997 3998 3999 4000 4001 4002 4003 4004 4005 4006 4007 4008 4009 4010 4011 4012 4013 4014 4015 4016 4017 4018 4019 4020 4021 4022 4023 4024 4025 4026 4027 4028 4029 4030 4031 4032 4033 4034 4035 4036 4037 4038 4039 4040 4041 4042 4043 4044 4045 4046 4047 4048 4049 4050 4051 4052 4053 4054 4055 4056 4057 4058 4059 4060 4061 4062 4063 4064 4065 4066 4067 4068 4069 4070 4071 4072 4073 4074 4075 4076 4077 4078 4079 4080 4081 4082 4083 4084 4085 4086 4087 4088 4089 4090 4091 4092 4093 4094 4095 4096 4097 4098 4099 4100 4101 4102 4103 4104 4105 4106 4107 4108 4109 4110 4111 4112 4113 4114 4115 4116 4117 4118 4119 4120 4121 4122 4123 4124 4125 4126 4127 4128 4129 4130 4131 4132 4133 4134 4135 4136 4137 4138 4139 4140 4141 4142 4143 4144 4145 4146 4147 4148 4149 4150 4151 4152 4153 4154 4155 4156 4157 4158 4159 4160 4161 4162 4163 4164 4165 4166 4167 4168 4169 4170 4171 4172 4173 4174 4175 4176 4177 4178 4179 4180 4181 4182 4183 4184 4185 4186 4187 4188 4189 4190 4191 4192 4193 4194 4195 4196 4197 4198 4199 4200 4201 4202 4203 4204 4205 4206 4207 4208 4209 4210 4211 4212 4213 4214 4215 4216 4217 4218 4219 4220 4221 4222 4223 4224 4225 4226 4227 4228 4229 4230 4231 4232 4233 4234 4235 4236 4237 4238 4239 4240 4241 4242 4243 4244 4245 4246 4247 4248 4249 4250 4251 4252 4253 4254 4255 4256 4257 4258 4259 4260 4261 4262 4263 4264 4265 4266 4267 4268 4269 4270 4271 4272 4273 4274 4275 4276 4277 4278 4279 4280 4281 4282 4283 4284 4285 4286 4287 4288 4289 4290 4291 4292 4293 4294 4295 4296 4297 4298 4299 4300 4301 4302 4303 4304 4305 4306 4307 4308 4309 4310 4311 4312 4313 4314 4315 4316 4317 4318 4319 4320 4321 4322 4323 4324 4325 4326 4327 4328 4329 4330 4331 4332 4333 4334 4335 4336 4337 4338 4339 4340 4341 4342 4343 4344 4345 4346 4347 4348 4349 4350 4351 4352 4353 4354 4355 4356 4357 4358 4359 4360 4361 4362 4363 4364 4365 4366 4367 4368 4369 4370 4371 4372 4373 4374 4375 4376 4377 4378 4379 4380 4381 4382 4383 4384 4385 4386 4387 4388 4389 4390 4391 4392 4393 4394 4395 4396 4397 4398 4399 4400 4401 4402 4403 4404 4405 4406 4407 4408 4409 4410 4411 4412 4413 4414 4415 4416 4417 4418 4419 4420 4421 4422 4423 4424 4425 4426 4427 4428 4429 4430 4431 4432 4433 4434 4435 4436 4437 4438 4439 4440 4441 4442 4443 4444 4445 4446 4447 4448 4449 4450 4451 4452 4453 4454 4455 4456 4457 4458 4459 4460 4461 4462 4463 4464 4465 4466 4467 4468 4469 4470 4471 4472 4473 4474 4475 4476 4477 4478 4479 4480 4481 4482 4483 4484 4485 4486 4487 4488 4489 4490 4491 4492 4493 4494 4495 4496 4497 4498 4499 4500 4501 4502 4503 4504 4505 4506 4507 4508 4509 4510 4511 4512 4513 4514 4515 4516 4517 4518 4519 4520 4521 4522 4523 4524 4525 4526 4527 4528 4529 4530 4531 4532 4533 4534 4535 4536 4537 4538 4539 4540 4541 4542 4543 4544 4545 4546 4547 4548 4549 4550 4551 4552 4553 4554 4555 4556 4557 4558 4559 4560 4561 4562 4563 4564 4565 4566 4567 4568 4569 4570 4571 4572 4573 4574 4575 4576 4577 4578 4579 4580 4581 4582 4583 4584 4585 4586 4587 4588 4589 4590 4591 4592 4593 4594 4595 4596 4597 4598 4599 4600 4601 4602 4603 4604 4605 4606 4607 4608 4609 4610 4611 4612 4613 4614 4615 4616 4617 4618 4619 4620 4621 4622 4623 4624 4625 4626 4627 4628 4629 4630 4631 4632 4633 4634 4635 4636 4637 4638 4639 4640 4641 4642 4643 4644 4645 4646 4647 4648 4649 4650 4651 4652 4653 4654 4655 4656 4657 4658 4659 4660 4661 4662 4663 4664 4665 4666 4667 4668 4669 4670 4671 4672 4673 4674 4675 4676 4677 4678 4679 4680 4681 4682 4683 4684 4685 4686 4687 4688 4689 4690 4691 4692 4693 4694 4695 4696 4697 4698 4699 4700 4701 4702 4703 4704 4705 4706 4707 4708 4709 4710 4711 4712 4713 4714 4715 4716 4717 4718 4719 4720 4721 4722 4723 4724 4725 4726 4727 4728 4729 4730 4731 4732 4733 4734 4735 4736 4737 4738 4739 4740 4741 4742 4743 4744 4745 4746 4747 4748 4749 4750 4751 4752 4753 4754 4755 4756 4757 4758 4759 4760 4761 4762 4763 4764 4765 4766 4767 4768 4769 4770 4771 4772 4773 4774 4775 4776 4777 4778 4779 4780 4781 4782 4783 4784 4785 4786 4787 4788 4789 4790 4791 4792 4793 4794 4795 4796 4797 4798 4799 4800 4801 4802 4803 4804 4805 4806 4807 4808 4809 4810 4811 4812 4813 4814 4815 4816 4817 4818 4819 4820 4821 4822 4823 4824 4825 4826 4827 4828 4829 4830 4831 4832 4833 4834 4835 4836 4837 4838 4839 4840 4841 4842 4843 4844 4845 4846 4847 4848 4849 4850 4851 4852 4853 4854 4855 4856 4857 4858 4859 4860 4861 4862 4863 4864 4865 4866 4867 4868 4869 4870 4871 4872 4873 4874 4875 4876 4877 4878 4879 4880 4881 4882 4883 4884 4885 4886 4887 4888 4889 4890 4891 4892 4893 4894 4895 4896 4897 4898 4899 4900 4901 4902 4903 4904 4905 4906 4907 4908 4909 4910 4911 4912 4913 4914 4915 4916 4917 4918 4919 4920 4921 4922 4923 4924 4925 4926 4927 4928 4929 4930 4931 4932 4933 4934 4935 4936 4937 4938 4939 4940 4941 4942 4943 4944 4945 4946 4947 4948 4949 4950 4951 4952 4953 4954 4955 4956 4957 4958 4959 4960 4961 4962 4963 4964 4965 4966 4967 4968 4969 4970 4971 4972 4973 4974 4975 4976 4977 4978 4979 4980 4981 4982 4983 4984 4985 4986 4987 4988 4989 4990 4991 4992 4993 4994 4995 4996 4997 4998 4999 5000 5001 5002 5003 5004 5005 5006 5007 5008 5009 5010 5011 5012 5013 5014 5015 5016 5017 5018 5019 5020 5021 5022 5023 5024 5025 5026 5027 5028 5029 5030 5031 5032 5033 5034 5035 5036 5037 5038 5039 5040 5041 5042 5043 5044 5045 5046 5047 5048 5049 5050 5051 5052 5053 5054 5055 5056 5057 5058 5059 5060 5061 5062 5063 5064 5065 5066 5067 5068 5069 5070 5071 5072 5073 5074 5075 5076 5077 5078 5079 5080 5081 5082 5083 5084 5085 5086 5087 5088 5089 5090 5091 5092 5093 5094 5095 5096 5097 5098 5099 5100 5101 5102 5103 5104 5105 5106 5107 5108 5109 5110 5111 5112 5113 5114 5115 5116 5117 5118 5119 5120 5121 5122 5123 5124 5125 5126 5127 5128 5129 5130 5131 5132 5133 5134 5135 5136 5137 5138 5139 5140 5141 5142 5143 5144 5145 5146 5147 5148 5149 5150 5151 5152 5153 5154 5155 5156 5157 5158 5159 5160 5161 5162 5163 5164 5165 5166 5167 5168 5169 5170 5171 5172 5173 5174 5175 5176 5177 5178 5179 5180 5181 5182 5183 5184 5185 5186 5187 5188 5189 5190 5191 5192 5193 5194 5195 5196 5197 5198 5199 5200 5201 5202 5203 5204 5205 5206 5207 5208 5209 5210 5211 5212 5213 5214 5215 5216 5217 5218 5219 5220 5221 5222 5223 5224 5225 5226 5227 5228 5229 5230 5231 5232 5233 5234 5235 5236 5237 5238 5239 5240 5241 5242 5243 5244 5245 5246 5247 5248 5249 5250 5251 5252 5253 5254 5255 5256 5257 5258 5259 5260 5261 5262 5263 5264 5265 5266 5267 5268 5269 5270 5271 5272 5273 5274 5275 5276 5277 5278 5279 5280 5281 5282 5283 5284 5285 5286 5287 5288 5289 5290 5291 5292 5293 5294 5295 5296 5297 5298 5299 5300 5301 5302 5303 5304 5305 5306 5307 5308 5309 5310 5311 5312 5313 5314 5315 5316 5317 5318 5319 5320 5321 5322 5323 5324 5325 5326 5327 5328 5329 5330 5331 5332 5333 5334 5335 5336 5337 5338 5339 5340 5341 5342 5343 5344 5345 5346 5347 5348 5349 5350 5351 5352 5353 5354 5355 5356 5357 5358 5359 5360 5361 5362 5363 5364 5365 5366 5367 5368 5369 5370 5371 5372 5373 5374 5375 5376 5377 5378 5379 5380 5381 5382 5383 5384 5385 5386 5387 5388 5389 5390 5391 5392 5393 5394 5395 5396 5397 5398 5399 5400 5401 5402 5403 5404 5405 5406 5407 5408 5409 5410 5411 5412 5413 5414 5415 5416 5417 5418 5419 5420 5421 5422 5423 5424 5425 5426 5427 5428 5429 5430 5431 5432 5433 5434 5435 5436 5437 5438 5439 5440 5441 5442 5443 5444 5445 5446 5447 5448 5449 5450 5451 5452 5453 5454 5455 5456 5457 5458 5459 5460 5461 5462 5463 5464 5465 5466 5467 5468 5469 5470 5471 5472 5473 5474 5475 5476 5477 5478 5479 5480 5481 5482 5483 5484 5485 5486 5487 5488 5489 5490 5491 5492 5493 5494 5495 5496 5497 5498 5499 5500 5501 5502 5503 5504 5505 5506 5507 5508 5509 5510 5511 5512 5513 5514 5515 5516 5517 5518 5519 5520 5521 5522 5523 5524 5525 5526 5527 5528 5529 5530 5531 5532 5533 5534 5535 5536 5537 5538 5539 5540 5541 5542 5543 5544 5545 5546 5547 5548 5549 5550 5551 5552 5553 5554 5555 5556 5557 5558 5559 5560 5561 5562 5563 5564 5565 5566 5567 5568 5569 5570 5571 5572 5573 5574 5575 5576 5577 5578 5579 5580 5581 5582 5583 5584 5585 5586 5587 5588 5589 5590 5591 5592 5593 5594 5595 5596 5597 5598 5599 5600 5601 5602 5603 5604 5605 5606 5607 5608 5609 5610 5611 5612 5613 5614 5615 5616 5617 5618 5619 5620 5621 5622 5623 5624 5625 5626 5627 5628 5629 5630 5631 5632 5633 5634 5635 5636 5637 5638 5639 5640 5641 5642 5643 5644 5645 5646 5647 5648 5649 5650 5651 5652 5653 5654 5655 5656 5657 5658 5659 5660 5661 5662 5663 5664 5665 5666 5667 5668 5669 5670 5671 5672 5673 5674 5675 5676 5677 5678 5679 5680 5681 5682 5683 5684 5685 5686 5687 5688 5689 5690 5691 5692 5693 5694 5695 5696 5697 5698 5699 5700 5701 5702 5703 5704 5705 5706 5707 5708 5709 5710 5711 5712 5713 5714 5715 5716 5717 5718 5719 5720 5721 5722 5723 5724 5725 5726 5727 5728 5729 5730 5731 5732 5733 5734 5735 5736 5737 5738 5739 5740 5741 5742 5743 5744 5745 5746 5747 5748 5749 5750 5751 5752 5753 5754 5755 5756 5757 5758 5759 5760 5761 5762 5763 5764 5765 5766 5767 5768 5769 5770 5771 5772 5773 5774 5775 5776 5777 5778 5779 5780 5781 5782 5783 5784 5785 5786 5787 5788 5789 5790 5791 5792 5793 5794 5795 5796 5797 5798 5799 5800 5801 5802 5803 5804 5805 5806 5807 5808 5809 5810 5811 5812 5813 5814 5815 5816 5817 5818 5819 5820 5821 5822 5823 5824 5825 5826 5827 5828 5829 5830 5831 5832 5833 5834 5835 5836 5837 5838 5839 5840 5841 5842 5843 5844 5845 5846 5847 5848 5849 5850 5851 5852 5853 5854 5855 5856 5857 5858 5859 5860 5861 5862 5863 5864 5865 5866 5867 5868 5869 5870 5871 5872 5873 5874 5875 5876 5877 5878 5879 5880 5881 5882 5883 5884 5885 5886 5887 5888 5889 5890 5891 5892 5893 5894 5895 5896 5897 5898 5899 5900 5901 5902 5903 5904 5905 5906 5907 5908 5909 5910 5911 5912 5913 5914 5915 5916 5917 5918 5919 5920 5921 5922 5923 5924 5925 5926 5927 5928 5929 5930 5931 5932 5933 5934 5935 5936 5937 5938 5939 5940 5941 5942 5943 5944 5945 5946 5947 5948 5949 5950 5951 5952 5953 5954 5955 5956 5957 5958 5959 5960 5961 5962 5963 5964 5965 5966 5967 5968 5969 5970 5971 5972 5973 5974 5975 5976 5977 5978 5979 5980 5981 5982 5983 5984 5985 5986 5987 5988 5989 5990 5991 5992 5993 5994 5995 5996 5997 5998 5999 6000 6001 6002 6003 6004 6005 6006 6007 6008 6009 6010 6011 6012 6013 6014 6015 6016 6017 6018 6019 6020 6021 6022 6023 6024 6025 6026 6027 6028 6029 6030 6031 6032 6033 6034 6035 6036 6037 6038 6039 6040 6041 6042 6043 6044 6045 6046 6047 6048 6049 6050 6051 6052 6053 6054 6055 6056 6057 6058 6059 6060 6061 6062 6063 6064 6065 6066 6067 6068 6069 6070 6071 6072 6073 6074 6075 6076 6077 6078 6079 6080 6081 6082 6083 6084 6085 6086 6087 6088 6089 6090 6091 6092 6093 6094 6095 6096 6097 6098 6099 6100 6101 6102 6103 6104 6105 6106 6107 6108 6109 6110 6111 6112 6113 6114 6115 6116 6117 6118 6119 6120 6121 6122 6123 6124 6125 6126 6127 6128 6129 6130 6131 6132 6133 6134 6135 6136 6137 6138 6139 6140 6141 6142 6143 6144 6145 6146 6147 6148 6149 6150 6151 6152 6153 6154 6155 6156 6157 6158 6159 6160 6161 6162 6163 6164 6165 6166 6167 6168 6169 6170 6171 6172 6173 6174 6175 6176 6177 6178 6179 6180 6181 6182 6183 6184 6185 6186 6187 6188 6189 6190 6191 6192 6193 6194 6195 6196 6197 6198 6199 6200 6201 6202 6203 6204 6205 6206 6207 6208 6209 6210 6211 6212 6213 6214 6215 6216 6217 6218 6219 6220 6221 6222 6223 6224 6225 6226 6227 6228 6229 6230 6231 6232 6233 6234 6235 6236 6237 6238 6239 6240 6241 6242 6243 6244 6245 6246 6247 6248 6249 6250 6251 6252 6253 6254 6255 6256 6257 6258 6259 6260 6261 6262 6263 6264 6265 6266 6267 6268 6269 6270 6271 6272 6273 6274 6275 6276 6277 6278 6279 6280 6281 6282 6283 6284 6285 6286 6287 6288 6289 6290 6291 6292 6293 6294 6295 6296 6297 6298 6299 6300 6301 6302 6303 6304 6305 6306 6307 6308 6309 6310 6311 6312 6313 6314 6315 6316 6317 6318 6319 6320 6321 6322 6323 6324 6325 6326 6327 6328 6329 6330 6331 6332 6333 6334 6335 6336 6337 6338 6339 6340 6341 6342 6343 6344 6345 6346 6347 6348 6349 6350 6351 6352 6353 6354 6355 6356 6357 6358 6359 6360 6361 6362 6363 6364 6365 6366 6367 6368 6369 6370 6371 6372 6373 6374 6375 6376 6377 6378 6379 6380 6381 6382 6383 6384 6385 6386 6387 6388 6389 6390 6391 6392 6393 6394 6395 6396 6397 6398 6399 6400 6401 6402 6403 6404 6405 6406 6407 6408 6409 6410 6411 6412 6413 6414 6415 6416 6417 6418 6419 6420 6421 6422 6423 6424 6425 6426 6427 6428 6429 6430 6431 6432 6433 6434 6435 6436 6437 6438 6439 6440 6441 6442 6443 6444 6445 6446 6447 6448 6449 6450 6451 6452 6453 6454 6455 6456 6457 6458 6459 6460 6461 6462 6463 6464 6465 6466 6467 6468 6469 6470 6471 6472 6473 6474 6475 6476 6477 6478 6479 6480 6481 6482 6483 6484 6485 6486 6487 6488 6489 6490 6491 6492 6493 6494 6495 6496 6497 6498 6499 6500 6501 6502 6503 6504 6505 6506 6507 6508 6509 6510 6511 6512 6513 6514 6515 6516 6517 6518 6519 6520 6521 6522 6523 6524 6525 6526 6527 6528 6529 6530 6531 6532 6533 6534 6535 6536 6537 6538 6539 6540 6541 6542 6543 6544 6545 6546 6547 6548 6549 6550 6551 6552 6553 6554 6555 6556 6557 6558 6559 6560 6561 6562 6563 6564 6565 6566 6567 6568 6569 6570 6571 6572 6573 6574 6575 6576 6577 6578 6579 6580 6581 6582 6583 6584 6585 6586 6587 6588 6589 6590 6591 6592 6593 6594 6595 6596 6597 6598 6599 6600 6601 6602 6603 6604 6605 6606 6607 6608 6609 6610 6611 6612 6613 6614 6615 6616 6617 6618 6619 6620 6621 6622 6623 6624 6625 6626 6627 6628 6629 6630 6631 6632 6633 6634 6635 6636 6637 6638 6639 6640 6641 6642 6643 6644 6645 6646 6647 6648 6649 6650 6651 6652 6653 6654 6655 6656 6657 6658 6659 6660 6661 6662 6663 6664 6665 6666 6667 6668 6669 6670 6671 6672 6673 6674 6675 6676 6677 6678 6679 6680 6681 6682 6683 6684 6685 6686 6687 6688 6689 6690 6691 6692 6693 6694 6695 6696 6697 6698 6699 6700 6701 6702 6703 6704 6705 6706 6707 6708 6709 6710 6711 6712 6713 6714 6715 6716 6717 6718 6719 6720 6721 6722 6723 6724 6725 6726 6727 6728 6729 6730 6731 6732 6733 6734 6735 6736 6737 6738 6739 6740 6741 6742 6743 6744 6745 6746 6747 6748 6749 6750 6751 6752 6753 6754 6755 6756 6757 6758 6759 6760 6761 6762 6763 6764 6765 6766 6767 6768 6769 6770 6771 6772 6773 6774 6775 6776 6777 6778 6779 6780 6781 6782 6783 6784 6785 6786 6787 6788 6789 6790 6791 6792 6793 6794 6795 6796 6797 6798 6799 6800 6801 6802 6803 6804 6805 6806 6807 6808 6809 6810 6811 6812 6813 6814 6815 6816 6817 6818 6819 6820 6821 6822 6823 6824 6825 6826 6827 6828 6829 6830 6831 6832 6833 6834 6835 6836 6837 6838 6839 6840 6841 6842 6843 6844 6845 6846 6847 6848 6849 6850 6851 6852 6853 6854 6855 6856 6857 6858 6859 6860 6861 6862 6863 6864 6865 6866 6867 6868 6869 6870 6871 6872 6873 6874 6875 6876 6877 6878 6879 6880 6881 6882 6883 6884 6885 6886 6887 6888 6889 6890 6891 6892 6893 6894 6895 6896 6897 6898 6899 6900 6901 6902 6903 6904 6905 6906 6907 6908 6909 6910 6911 6912 6913 6914 6915 6916 6917 6918 6919 6920 6921 6922 6923 6924 6925 6926 6927 6928 6929 6930 6931 6932 6933 6934 6935 6936 6937 6938 6939 6940 6941 6942 6943 6944 6945 6946 6947 6948 6949 6950 6951 6952 6953 6954 6955 6956 6957 6958 6959 6960 6961 6962 6963 6964 6965 6966 6967 6968 6969 6970 6971 6972 6973 6974 6975 6976 6977 6978 6979 6980 6981 6982 6983 6984 6985 6986 6987 6988 6989 6990 6991 6992 6993 6994 6995 6996 6997 6998 6999 7000 7001 7002 7003 7004 7005 7006 7007 7008 7009 7010 7011 7012 7013 7014 7015 7016 7017 7018 7019 7020 7021 7022 7023 7024 7025 7026 7027 7028 7029 7030 7031 7032 7033 7034 7035 7036 7037 7038 7039 7040 7041 7042 7043 7044 7045 7046 7047 7048 7049 7050 7051 7052 7053 7054 7055 7056 7057 7058 7059 7060 7061 7062 7063 7064 7065 7066 7067 7068 7069 7070 7071 7072 7073 7074 7075 7076 7077 7078 7079 7080 7081 7082 7083 7084 7085 7086 7087 7088 7089 7090 7091 7092 7093 7094 7095 7096 7097 7098 7099 7100 7101 7102 7103 7104 7105 7106 7107 7108 7109 7110 7111 7112 7113 7114 7115 7116 7117 7118 7119 7120 7121 7122 7123 7124 7125 7126 7127 7128 7129 7130 7131 7132 7133 7134 7135 7136 7137 7138 7139 7140 7141 7142 7143 7144 7145 7146 7147 7148 7149 7150 7151 7152 7153 7154 7155 7156 7157 7158 7159 7160 7161 7162 7163 7164 7165 7166 7167 7168 7169 7170 7171 7172 7173 7174 7175 7176 7177 7178 7179 7180 7181 7182 7183 7184 7185 7186 7187 7188 7189 7190 7191 7192 7193 7194 7195 7196 7197 7198 7199 7200 7201 7202 7203 7204 7205 7206 7207 7208 7209 7210 7211 7212 7213 7214 7215 7216 7217 7218 7219 7220 7221 7222 7223 7224 7225 7226 7227 7228 7229 7230 7231 7232 7233 7234 7235 7236 7237 7238 7239 7240 7241 7242 7243 7244 7245 7246 7247 7248 7249 7250 7251 7252 7253 7254 7255 7256 7257 7258 7259 7260 7261 7262 7263 7264 7265 7266 7267 7268 7269 7270 7271 7272 7273 7274 7275 7276 7277 7278 7279 7280 7281 7282 7283 7284 7285 7286 7287 7288 7289 7290 7291 7292 7293 7294 7295 7296 7297 7298 7299 7300 7301 7302 7303 7304 7305 7306 7307 7308 7309 7310 7311 7312 7313 7314 7315 7316 7317 7318 7319 7320 7321 7322 7323 7324 7325 7326 7327 7328 7329 7330 7331 7332 7333 7334 7335 7336 7337 7338 7339 7340 7341 7342 7343 7344 7345 7346 7347 7348 7349 7350 7351 7352 7353 7354 7355 7356 7357 7358 7359 7360 7361 7362 7363 7364 7365 7366 7367 7368 7369 7370 7371 7372 7373 7374 7375 7376 7377 7378 7379 7380 7381 7382 7383 7384 7385 7386 7387 7388 7389 7390 7391 7392 7393 7394 7395 7396 7397 7398 7399 7400 7401 7402 7403 7404 7405 7406 7407 7408 7409 7410 7411 7412 7413 7414 7415 7416 7417 7418 7419 7420 7421 7422 7423 7424 7425 7426 7427 7428 7429 7430 7431 7432 7433 7434 7435 7436 7437 7438 7439 7440 7441 7442 7443 7444 7445 7446 7447 7448 7449 7450 7451 7452 7453 7454 7455 7456 7457 7458 7459 7460 7461 7462 7463 7464 7465 7466 7467 7468 7469 7470 7471 7472 7473 7474 7475 7476 7477 7478 7479 7480 7481 7482 7483 7484 7485 7486 7487 7488 7489 7490 7491 7492 7493 7494 7495 7496 7497 7498 7499 7500 7501 7502 7503 7504 7505 7506 7507 7508 7509 7510 7511 7512 7513 7514 7515 7516 7517 7518 7519 7520 7521 7522 7523 7524 7525 7526 7527 7528 7529 7530 7531 7532 7533 7534 7535 7536 7537 7538 7539 7540 7541 7542 7543 7544 7545 7546 7547 7548 7549 7550 7551 7552 7553 7554 7555 7556 7557 7558 7559 7560 7561 7562 7563 7564 7565 7566 7567 7568 7569 7570 7571 7572 7573 7574 7575 7576 7577 7578 7579 7580 7581 7582 7583 7584 7585 7586 7587 7588 7589 7590 7591 7592 7593 7594 7595 7596 7597 7598 7599 7600 7601 7602 7603 7604 7605 7606 7607 7608 7609 7610 7611 7612 7613 7614 7615 7616 7617 7618 7619 7620 7621 7622 7623 7624 7625 7626 7627 7628 7629 7630 7631 7632 7633 7634 7635 7636 7637 7638 7639 7640 7641 7642 7643 7644 7645 7646 7647 7648 7649 7650 7651 7652 7653 7654 7655 7656 7657 7658 7659 7660 7661 7662 7663 7664 7665 7666 7667 7668 7669 7670 7671 7672 7673 7674 7675 7676 7677 7678 7679 7680 7681 7682 7683 7684 7685 7686 7687 7688 7689 7690 7691 7692 7693 7694 7695 7696 7697 7698 7699 7700 7701 7702 7703 7704 7705 7706 7707 7708 7709 7710 7711 7712 7713 7714 7715 7716 7717 7718 7719 7720 7721 7722 7723 7724 7725 7726 7727 7728 7729 7730 7731 7732 7733 7734 7735 7736 7737 7738 7739 7740 7741 7742 7743 7744 7745 7746 7747 7748 7749 7750 7751 7752 7753 7754 7755 7756 7757 7758 7759 7760 7761 7762 7763 7764 7765 7766 7767 7768 7769 7770 7771 7772 7773 7774 7775 7776 7777 7778 7779 7780 7781 7782 7783 7784 7785 7786 7787 7788 7789 7790 7791 7792 7793 7794 7795 7796 7797 7798 7799 7800 7801 7802 7803 7804 7805 7806 7807 7808 7809 7810 7811 7812 7813 7814 7815 7816 7817 7818 7819 7820 7821 7822 7823 7824 7825 7826 7827 7828 7829 7830 7831 7832 7833 7834 7835 7836 7837 7838 7839 7840 7841 7842 7843 7844 7845 7846 7847 7848 7849 7850 7851 7852 7853 7854 7855 7856 7857 7858 7859 7860 7861 7862 7863 7864 7865 7866 7867 7868 7869 7870 7871 7872 7873 7874 7875 7876 7877 7878 7879 7880 7881 7882 7883 7884 7885 7886 7887 7888 7889 7890 7891 7892 7893 7894 7895 7896 7897 7898 7899 7900 7901 7902 7903 7904 7905 7906 7907 7908 7909 7910 7911 7912 7913 7914 7915 7916 7917 7918 7919 7920 7921 7922 7923 7924 7925 7926 7927 7928 7929 7930 7931 7932 7933 7934 7935 7936 7937 7938 7939 7940 7941 7942 7943 7944 7945 7946 7947 7948 7949 7950 7951 7952 7953 7954 7955 7956 7957 7958 7959 7960 7961 7962 7963 7964 7965 7966 7967 7968 7969 7970 7971 7972 7973 7974 7975 7976 7977 7978 7979 7980 7981 7982 7983 7984 7985 7986 7987 7988 7989 7990 7991 7992 7993 7994 7995 7996 7997 7998 7999 8000 8001 8002 8003 8004 8005 8006 8007 8008 8009 8010 8011 8012 8013 8014 8015 8016 8017 8018 8019 8020 8021 8022 8023 8024 8025 8026 8027 8028 8029 8030 8031 8032 8033 8034 8035 8036 8037 8038 8039 8040 8041 8042 8043 8044 8045 8046 8047 8048 8049 8050 8051 8052 8053 8054 8055 8056 8057 8058 8059 8060 8061 8062 8063 8064 8065 8066 8067 8068 8069 8070 8071 8072 8073 8074 8075 8076 8077 8078 8079 8080 8081 8082 8083 8084 8085 8086 8087 8088 8089 8090 8091 8092 8093 8094 8095 8096 8097 8098 8099 8100 8101 8102 8103 8104 8105 8106 8107 8108 8109 8110 8111 8112 8113 8114 8115 8116 8117 8118 8119 8120 8121 8122 8123 8124 8125 8126 8127 8128 8129 8130 8131 8132 8133 8134 8135 8136 8137 8138 8139 8140 8141 8142 8143 8144 8145 8146 8147 8148 8149 8150 8151 8152 8153 8154 8155 8156 8157 8158 8159 8160 8161 8162 8163 8164 8165 8166 8167 8168 8169 8170 8171 8172 8173 8174 8175 8176 8177 8178 8179 8180 8181 8182 8183 8184 8185 8186 8187 8188 8189 8190 8191 8192 8193 8194 8195 8196 8197 8198 8199 8200 8201 8202 8203 8204 8205 8206 8207 8208 8209 8210 8211 8212 8213 8214 8215 8216 8217 8218 8219 8220 8221 8222 8223 8224 8225 8226 8227 8228 8229 8230 8231 8232 8233 8234 8235 8236 8237 8238 8239 8240 8241 8242 8243 8244 8245 8246 8247 8248 8249 8250 8251 8252 8253 8254 8255 8256 8257 8258 8259 8260 8261 8262 8263 8264 8265 8266 8267 8268 8269 8270 8271 8272 8273 8274 8275 8276 8277 8278 8279 8280 8281 8282 8283 8284 8285 8286 8287 8288 8289 8290 8291 8292 8293 8294 8295 8296 8297 8298 8299 8300 8301 8302 8303 8304 8305 8306 8307 8308 8309 8310 8311 8312 8313 8314 8315 8316 8317 8318 8319 8320 8321 8322 8323 8324 8325 8326 8327 8328 8329 8330 8331 8332 8333 8334 8335 8336 8337 8338 8339 8340 8341 8342 8343 8344 8345 8346 8347 8348 8349 8350 8351 8352 8353 8354 8355 8356 8357 8358 8359 8360 8361 8362 8363 8364 8365 8366 8367 8368 8369 8370 8371 8372 8373 8374 8375 8376 8377 8378 8379 8380 8381 8382 8383 8384 8385 8386 8387 8388 8389 8390 8391 8392 8393 8394 8395 8396 8397 8398 8399 8400 8401 8402 8403 8404 8405 8406 8407 8408 8409 8410 8411 8412 8413 8414 8415 8416 8417 8418 8419 8420 8421 8422 8423 8424 8425 8426 8427 8428 8429 8430 8431 8432 8433 8434 8435 8436 8437 8438 8439 8440 8441 8442 8443 8444 8445 8446 8447 8448 8449 8450 8451 8452 8453 8454 8455 8456 8457 8458 8459 8460 8461 8462 8463 8464 8465 8466 8467 8468 8469 8470 8471 8472 8473 8474 8475 8476 8477 8478 8479 8480 8481 8482 8483 8484 8485 8486 8487 8488 8489 8490 8491 8492 8493 8494 8495 8496 8497 8498 8499 8500 8501 8502 8503 8504 8505 8506 8507 8508 8509 8510 8511 8512 8513 8514 8515 8516 8517 8518 8519 8520 8521 8522 8523 8524 8525 8526 8527 8528 8529 8530 8531 8532 8533 8534 8535 8536 8537 8538 8539 8540 8541 8542 8543 8544 8545 8546 8547 8548 8549 8550 8551 8552 8553 8554 8555 8556 8557 8558 8559 8560 8561 8562 8563 8564 8565 8566 8567 8568 8569 8570 8571 8572 8573 8574 8575 8576 8577 8578 8579 8580 8581 8582 8583 8584 8585 8586 8587 8588 8589 8590 8591 8592 8593 8594 8595 8596 8597 8598 8599 8600 8601 8602 8603 8604 8605 8606 8607 8608 8609 8610 8611 8612 8613 8614 8615 8616 8617 8618 8619 8620 8621 8622 8623 8624 8625 8626 8627 8628 8629 8630 8631 8632 8633 8634 8635 8636 8637 8638 8639 8640 8641 8642 8643 8644 8645 8646 8647 8648 8649 8650 8651 8652 8653 8654 8655 8656 8657 8658 8659 8660 8661 8662 8663 8664 8665 8666 8667 8668 8669 8670 8671 8672 8673 8674 8675 8676 8677 8678 8679 8680 8681 8682 8683 8684 8685 8686 8687 8688 8689 8690 8691 8692 8693 8694 8695 8696 8697 8698 8699 8700 8701 8702 8703 8704 8705 8706 8707 8708 8709 8710 8711 8712 8713 8714 8715 8716 8717 8718 8719 8720 8721 8722 8723 8724 8725 8726 8727 8728 8729 8730 8731 8732 8733 8734 8735 8736 8737 8738 8739 8740 8741 8742 8743 8744 8745 8746 8747 8748 8749 8750 8751 8752 8753 8754 8755 8756 8757 8758 8759 8760 8761 8762 8763 8764 8765 8766 8767 8768 8769 8770 8771 8772 8773 8774 8775 8776 8777 8778 8779 8780 8781 8782 8783 8784 8785 8786 8787 8788 8789 8790 8791 8792 8793 8794 8795 8796 8797 8798 8799 8800 8801 8802 8803 8804 8805 8806 8807 8808 8809 8810 8811 8812 8813 8814 8815 8816 8817 8818 8819 8820 8821 8822 8823 8824 8825 8826 8827 8828 8829 8830 8831 8832 8833 8834 8835 8836 8837 8838 8839 8840 8841 8842 8843 8844 8845 8846 8847 8848 8849 8850 8851 8852 8853 8854 8855 8856 8857 8858 8859 8860 8861 8862 8863 8864 8865 8866 8867 8868 8869 8870 8871 8872 8873 8874 8875 8876 8877 8878 8879 8880 8881 8882 8883 8884 8885 8886 8887 8888 8889 8890 8891 8892 8893 8894 8895 8896 8897 8898 8899 8900 8901 8902 8903 8904 8905 8906 8907 8908 8909 8910 8911 8912 8913 8914 8915 8916 8917 8918 8919 8920 8921 8922 8923 8924 8925 8926 8927 8928 8929 8930 8931 8932 8933 8934 8935 8936 8937 8938 8939 8940 8941 8942 8943 8944 8945 8946 8947 8948 8949 8950 8951 8952 8953 8954 8955 8956 8957 8958 8959 8960 8961 8962 8963 8964 8965 8966 8967 8968 8969 8970 8971 8972 8973 8974 8975 8976 8977 8978 8979 8980 8981 8982 8983 8984 8985 8986 8987 8988 8989 8990 8991 8992 8993 8994 8995 8996 8997 8998 8999 9000 9001 9002 9003 9004 9005 9006 9007 9008 9009 9010 9011 9012 9013 9014 9015 9016 9017 9018 9019 9020 9021 9022 9023 9024 9025 9026 9027 9028 9029 9030 9031 9032 9033 9034 9035 9036 9037 9038 9039 9040 9041 9042 9043 9044 9045 9046 9047 9048 9049 9050 9051 9052 9053 9054 9055 9056 9057 9058 9059 9060 9061 9062 9063 9064 9065 9066 9067 9068 9069 9070 9071 9072 9073 9074 9075 9076 9077 9078 9079 9080 9081 9082 9083 9084 9085 9086 9087 9088 9089 9090 9091 9092 9093 9094 9095 9096 9097 9098 9099 9100 9101 9102 9103 9104 9105 9106 9107 9108 9109 9110 9111 9112 9113 9114 9115 9116 9117 9118 9119 9120 9121 9122 9123 9124 9125 9126 9127 9128 9129 9130 9131 9132 9133 9134 9135 9136 9137 9138 9139 9140 9141 9142 9143 9144 9145 9146 9147 9148 9149 9150 9151 9152 9153 9154 9155 9156 9157 9158 9159 9160 9161 9162 9163 9164 9165 9166 9167 9168 9169 9170 9171 9172 9173 9174 9175 9176 9177 9178 9179 9180 9181 9182 9183 9184 9185 9186 9187 9188 9189 9190 9191 9192 9193 9194 9195 9196 9197 9198 9199 9200 9201 9202 9203 9204 9205 9206 9207 9208 9209 9210 9211 9212 9213 9214 9215 9216 9217 9218 9219 9220 9221 9222 9223 9224 9225 9226 9227 9228 9229 9230 9231 9232 9233 9234 9235 9236 9237 9238 9239 9240 9241 9242 9243 9244 9245 9246 9247 9248 9249 9250 9251 9252 9253 9254 9255 9256 9257 9258 9259 9260 9261 9262 9263 9264 9265 9266 9267 9268 9269 9270 9271 9272 9273 9274 9275 9276 9277 9278 9279 9280 9281 9282 9283 9284 9285 9286 9287 9288 9289 9290 9291 9292 9293 9294 9295 9296 9297 9298 9299 9300 9301 9302 9303 9304 9305 9306 9307 9308 9309 9310 9311 9312 9313 9314 9315 9316 9317 9318 9319 9320 9321 9322 9323 9324 9325 9326 9327 9328 9329 9330 9331 9332 9333 9334 9335 9336 9337 9338 9339 9340 9341 9342 9343 9344 9345 9346 9347 9348 9349 9350 9351 9352 9353 9354 9355 9356 9357 9358 9359 9360 9361 9362 9363 9364 9365 9366 9367 9368 9369 9370 9371 9372 9373 9374 9375 9376 9377 9378 9379 9380 9381 9382 9383 9384 9385 9386 9387 9388 9389 9390 9391 9392 9393 9394 9395 9396 9397 9398 9399 9400 9401 9402 9403 9404 9405 9406 9407 9408 9409 9410 9411 9412 9413 9414 9415 9416 9417 9418 9419 9420 9421 9422 9423 9424 9425 9426 9427 9428 9429 9430 9431 9432 9433 9434 9435 9436 9437 9438 9439 9440 9441 9442 9443 9444 9445 9446 9447 9448 9449 9450 9451 9452 9453 9454 9455 9456 9457 9458 9459 9460 9461 9462 9463 9464 9465 9466 9467 9468 9469 9470 9471 9472 9473 9474 9475 9476 9477 9478 9479 9480 9481 9482 9483 9484 9485 9486 9487 9488 9489 9490 9491 9492 9493 9494 9495 9496 9497 9498 9499 9500 9501 9502 9503 9504 9505 9506 9507 9508 9509 9510 9511 9512 9513 9514 9515 9516 9517 9518 9519 9520 9521 9522 9523 9524 9525 9526 9527 9528 9529 9530 9531 9532 9533 9534 9535 9536 9537 9538 9539 9540 9541 9542 9543 9544 9545 9546 9547 9548 9549 9550 9551 9552 9553 9554 9555 9556 9557 9558 9559 9560 9561 9562 9563 9564 9565 9566 9567 9568 9569 9570 9571 9572 9573 9574 9575 9576 9577 9578 9579 9580 9581 9582 9583 9584 9585 9586 9587 9588 9589 9590 9591 9592 9593 9594 9595 9596 9597 9598 9599 9600 9601 9602 9603 9604 9605 9606 9607 9608 9609 9610 9611 9612 9613 9614 9615 9616 9617 9618 9619 9620 9621 9622 9623 9624 9625 9626 9627 9628 9629 9630 9631 9632 9633 9634 9635 9636 9637 9638 9639 9640 9641 9642 9643 9644 9645 9646 9647 9648 9649 9650 9651 9652 9653 9654 9655 9656 9657 9658 9659 9660 9661 9662 9663 9664 9665 9666 9667 9668 9669 9670 9671 9672 9673 9674 9675 9676 9677 9678 9679 9680 9681 9682 9683 9684 9685 9686 9687 9688 9689 9690 9691 9692 9693 9694 9695 9696 9697 9698 9699 9700 9701 9702 9703 9704 9705 9706 9707 9708 9709 9710 9711 9712 9713 9714 9715 9716 9717 9718 9719 9720 9721 9722 9723 9724 9725 9726 9727 9728 9729 9730 9731 9732 9733 9734 9735 9736 9737 9738 9739 9740 9741 9742 9743 9744 9745 9746 9747 9748 9749 9750 9751 9752 9753 9754 9755 9756 9757 9758 9759 9760 9761 9762 9763 9764 9765 9766 9767 9768 9769 9770 9771 9772 9773 9774 9775 9776 9777 9778 9779 9780 9781 9782 9783 9784 9785 9786 9787 9788 9789 9790 9791 9792 9793 9794 9795 9796 9797 9798 9799 9800 9801 9802 9803 9804 9805 9806 9807 9808 9809 9810 9811 9812 9813 9814 9815 9816 9817 9818 9819 9820 9821 9822 9823 9824 9825 9826 9827 9828 9829 9830 9831 9832 9833 9834 9835 9836 9837 9838 9839 9840 9841 9842 9843 9844 9845 9846 9847 9848 9849 9850 9851 9852 9853 9854 9855 9856 9857 9858 9859 9860 9861 9862 9863 9864 9865 9866 9867 9868 9869 9870 9871 9872 9873 9874 9875 9876 9877 9878 9879 9880 9881 9882 9883 9884 9885 9886 9887 9888 9889 9890 9891 9892 9893 9894 9895 9896 9897 9898 9899 9900 9901 9902 9903 9904 9905 9906 9907 9908 9909 9910 9911 9912 9913 9914 9915 9916 9917 9918 9919 9920 9921 9922 9923 9924 9925 9926 9927 9928 9929 9930 9931 9932 9933 9934 9935 9936 9937 9938 9939 9940 9941 9942 9943 9944 9945 9946 9947 9948 9949 9950 9951 9952 9953 9954 9955 9956 9957 9958 9959 9960 9961 9962 9963 9964 9965 9966 9967 9968 9969 9970 9971 9972 9973 9974 9975 9976 9977 9978 9979 9980 9981 9982 9983 9984 9985 9986 9987 9988 9989 9990 9991 9992 9993 9994 9995 9996 9997 9998 9999 10000 10001 10002 10003 10004 10005 10006 10007 10008 10009 10010 10011 10012 10013 10014 10015 10016 10017 10018 10019 10020 10021 10022 10023 10024 10025 10026 10027 10028 10029 10030 10031 10032 10033 10034 10035 10036 10037 10038 10039 10040 10041 10042 10043 10044 10045 10046 10047 10048 10049 10050 10051 10052 10053 10054 10055 10056 10057 10058 10059 10060 10061 10062 10063 10064 10065 10066 10067 10068 10069 10070 10071 10072 10073 10074 10075 10076 10077 10078 10079 10080 10081 10082 10083 10084 10085 10086 10087 10088 10089 10090 10091 10092 10093 10094 10095 10096 10097 10098 10099 10100 10101 10102 10103 10104 10105 10106 10107 10108 10109 10110 10111 10112 10113 10114 10115 10116 10117 10118 10119 10120 10121 10122 10123 10124 10125 10126 10127 10128 10129 10130 10131 10132 10133 10134 10135 10136 10137 10138 10139 10140 10141 10142 10143 10144 10145 10146 10147 10148 10149 10150 10151 10152 10153 10154 10155 10156 10157 10158 10159 10160 10161 10162 10163 10164 10165 10166 10167 10168 10169 10170 10171 10172 10173 10174 10175 10176 10177 10178 10179 10180 10181 10182 10183 10184 10185 10186 10187 10188 10189 10190 10191 10192 10193 10194 10195 10196 10197 10198 10199 10200 10201 10202 10203 10204 10205 10206 10207 10208 10209 10210 10211 10212 10213 10214 10215 10216 10217 10218 10219 10220 10221 10222 10223 10224 10225 10226 10227 10228 10229 10230 10231 10232 10233 10234 10235 10236 10237 10238 10239 10240 10241 10242 10243 10244 10245 10246 10247 10248 10249 10250 10251 10252 10253 10254 10255 10256 10257 10258 10259 10260 10261 10262 10263 10264 10265 10266 10267 10268 10269 10270 10271 10272 10273 10274 10275 10276 10277 10278 10279 10280 10281 10282 10283 10284 10285 10286 10287 10288 10289 10290 10291 10292 10293 10294 10295 10296 10297 10298 10299 10300 10301 10302 10303 10304 10305 10306 10307 10308 10309 10310 10311 10312 10313 10314 10315 10316 10317 10318 10319 10320 10321 10322 10323 10324 10325 10326 10327 10328 10329 10330 10331 10332 10333 10334 10335 10336 10337 10338 10339 10340 10341 10342 10343 10344 10345 10346 10347 10348 10349 10350 10351 10352 10353 10354 10355 10356 10357 10358 10359 10360 10361 10362 10363 10364 10365 10366 10367 10368 10369 10370 10371 10372 10373 10374 10375 10376 10377 10378 10379 10380 10381 10382 10383 10384 10385 10386 10387 10388 10389 10390 10391 10392 10393 10394 10395 10396 10397 10398 10399 10400 10401 10402 10403 10404 10405 10406 10407 10408 10409 10410 10411 10412 10413 10414 10415 10416 10417 10418 10419 10420 10421 10422 10423 10424 10425 10426 10427 10428 10429 10430 10431 10432 10433 10434 10435 10436 10437 10438 10439 10440 10441 10442 10443 10444 10445 10446 10447 10448 10449 10450 10451 10452 10453 10454 10455 10456 10457 10458 10459 10460 10461 10462 10463 10464 10465 10466 10467 10468 10469 10470 10471 10472 10473 10474 10475 10476 10477 10478 10479 10480 10481 10482 10483 10484 10485 10486 10487 10488 10489 10490 10491 10492 10493 10494 10495 10496 10497 10498 10499 10500 10501 10502 10503 10504 10505 10506 10507 10508 10509 10510 10511 10512 10513 10514 10515 10516 10517 10518 10519 10520 10521 10522 10523 10524 10525 10526 10527 10528 10529 10530 10531 10532 10533 10534 10535 10536 10537 10538 10539 10540 10541 10542 10543 10544 10545 10546 10547 10548 10549 10550 10551 10552 10553 10554 10555 10556 10557 10558 10559 10560 10561 10562 10563 10564 10565 10566 10567 10568 10569 10570 10571 10572 10573 10574 10575 10576 10577 10578 10579 10580 10581 10582 10583 10584 10585 10586 10587 10588 10589 10590 10591 10592 10593 10594 10595 10596 10597 10598 10599 10600 10601 10602 10603 10604 10605 10606 10607 10608 10609 10610 10611 10612 10613 10614 10615 10616 10617 10618 10619 10620 10621 10622 10623 10624 10625 10626 10627 10628 10629 10630 10631 10632 10633 10634 10635 10636 10637 10638 10639 10640 10641 10642 10643 10644 10645 10646 10647 10648 10649 10650 10651 10652 10653 10654 10655 10656 10657 10658 10659 10660 10661 10662 10663 10664 10665 10666 10667 10668 10669 10670 10671 10672 10673 10674 10675 10676 10677 10678 10679 10680 10681 10682 10683 10684 10685 10686 10687 10688 10689 10690 10691 10692 10693 10694 10695 10696 10697 10698 10699 10700 10701 10702 10703 10704 10705 10706 10707 10708 10709 10710 10711 10712 10713 10714 10715 10716 10717 10718 10719 10720 10721 10722 10723 10724 10725 10726 10727 10728 10729 10730 10731 10732 10733 10734 10735 10736 10737 10738 10739 10740 10741 10742 10743 10744 10745 10746 10747 10748 10749 10750 10751 10752 10753 10754 10755 10756 10757 10758 10759 10760 10761 10762 10763 10764 10765 10766 10767 10768 10769 10770 10771 10772 10773 10774 10775 10776 10777 10778 10779 10780 10781 10782 10783 10784 10785 10786 10787 10788 10789 10790 10791 10792 10793 10794 10795 10796 10797 10798 10799 10800 10801 10802 10803 10804 10805 10806 10807 10808 10809 10810 10811 10812 10813 10814 10815 10816 10817 10818 10819 10820 10821 10822 10823 10824 10825 10826 10827 10828 10829 10830 10831 10832 10833 10834 10835 10836 10837 10838 10839 10840 10841 10842 10843 10844 10845 10846 10847 10848 10849 10850 10851 10852 10853 10854 10855 10856 10857 10858 10859 10860 10861 10862 10863 10864 10865 10866 10867 10868 10869 10870 10871 10872 10873 10874 10875 10876 10877 10878 10879 10880 10881 10882 10883 10884 10885 10886 10887 10888 10889 10890 10891 10892 10893 10894 10895 10896 10897 10898 10899 10900 10901 10902 10903 10904 10905 10906 10907 10908 10909 10910 10911 10912 10913 10914 10915 10916 10917 10918 10919 10920 10921 10922 10923 10924 10925 10926 10927 10928 10929 10930 10931 10932 10933 10934 10935 10936 10937 10938 10939 10940 10941 10942 10943 10944 10945 10946 10947 10948 10949 10950 10951 10952 10953 10954 10955 10956 10957 10958 10959 10960 10961 10962 10963 10964 10965 10966 10967 10968 10969 10970 10971 10972 10973 10974 10975 10976 10977 10978 10979 10980 10981 10982 10983 10984 10985 10986 10987 10988 10989 10990 10991 10992 10993 10994 10995 10996 10997 10998 10999 11000 11001 11002 11003 11004 11005 11006 11007 11008 11009 11010 11011 11012 11013 11014 11015 11016 11017 11018 11019 11020 11021 11022 11023 11024 11025 11026 11027 11028 11029 11030 11031 11032 11033 11034 11035 11036 11037 11038 11039 11040 11041 11042 11043 11044 11045 11046 11047 11048 11049 11050 11051 11052 11053 11054 11055 11056 11057 11058 11059 11060 11061 11062 11063 11064 11065 11066 11067 11068 11069 11070 11071 11072 11073 11074 11075 11076 11077 11078 11079 11080 11081 11082 11083 11084 11085 11086 11087 11088 11089 11090 11091 11092 11093 11094 11095 11096 11097 11098 11099 11100 11101 11102 11103 11104 11105 11106 11107 11108 11109 11110 11111 11112 11113 11114 11115 11116 11117 11118 11119 11120 11121 11122 11123 11124 11125 11126 11127 11128 11129 11130 11131 11132 11133 11134 11135 11136 11137 11138 11139 11140 11141 11142 11143 11144 11145 11146 11147 11148 11149 11150 11151 11152 11153 11154 11155 11156 11157 11158 11159 11160 11161 11162 11163 11164 11165 11166 11167 11168 11169 11170 11171 11172 11173 11174 11175 11176 11177 11178 11179 11180 11181 11182 11183 11184 11185 11186 11187 11188 11189 11190 11191 11192 11193 11194 11195 11196 11197 11198 11199 11200 11201 11202 11203 11204 11205 11206 11207 11208 11209 11210 11211 11212 11213 11214 11215 11216 11217 11218 11219 11220 11221 11222 11223 11224 11225 11226 11227 11228 11229 11230 11231 11232 11233 11234 11235 11236 11237 11238 11239 11240 11241 11242 11243 11244 11245 11246 11247 11248 11249 11250 11251 11252 11253 11254 11255 11256 11257 11258 11259 11260 11261 11262 11263 11264 11265 11266 11267 11268 11269 11270 11271 11272 11273 11274 11275 11276 11277 11278 11279 11280 11281 11282 11283 11284 11285 11286 11287 11288 11289 11290 11291 11292 11293 11294 11295 11296 11297 11298 11299 11300 11301 11302 11303 11304 11305 11306 11307 11308 11309 11310 11311 11312 11313 11314 11315 11316 11317 11318 11319 11320 11321 11322 11323 11324 11325 11326 11327 11328 11329 11330 11331 11332 11333 11334 11335 11336 11337 11338 11339 11340 11341 11342 11343 11344 11345 11346 11347 11348 11349 11350 11351 11352 11353 11354 11355 11356 11357 11358 11359 11360 11361 11362 11363 11364 11365 11366 11367 11368 11369 11370 11371 11372 11373 11374 11375 11376 11377 11378 11379 11380 11381 11382 11383 11384 11385 11386 11387 11388 11389 11390 11391 11392 11393 11394 11395 11396 11397 11398 11399 11400 11401 11402 11403 11404 11405 11406 11407 11408 11409 11410 11411 11412 11413 11414 11415 11416 11417 11418 11419 11420 11421 11422 11423 11424 11425 11426 11427 11428 11429 11430 11431 11432 11433 11434 11435 11436 11437 11438 11439 11440 11441 11442 11443 11444 11445 11446 11447 11448 11449 11450 11451 11452 11453 11454 11455 11456 11457 11458 11459 11460 11461 11462 11463 11464 11465 11466 11467 11468 11469 11470 11471 11472 11473 11474 11475 11476 11477 11478 11479 11480 11481 11482 11483 11484 11485 11486 11487 11488 11489 11490 11491 11492 11493 11494 11495 11496 11497 11498 11499 11500 11501 11502 11503 11504 11505 11506 11507 11508 11509 11510 11511 11512 11513 11514 11515 11516 11517 11518 11519 11520 11521 11522 11523 11524 11525 11526 11527 11528 11529 11530 11531 11532 11533 11534 11535 11536 11537 11538 11539 11540 11541 11542 11543 11544 11545 11546 11547 11548 11549 11550 11551 11552 11553 11554 11555 11556 11557 11558 11559 11560 11561 11562 11563 11564 11565 11566 11567 11568 11569 11570 11571 11572 11573 11574 11575 11576 11577 11578 11579 11580 11581 11582 11583 11584 11585 11586 11587 11588 11589 11590 11591 11592 11593 11594 11595 11596 11597 11598 11599 11600 11601 11602 11603 11604 11605 11606 11607 11608 11609 11610 11611 11612 11613 11614 11615 11616 11617 11618 11619 11620 11621 11622 11623 11624 11625 11626 11627 11628 11629 11630 11631 11632 11633 11634 11635 11636 11637 11638 11639 11640 11641 11642 11643 11644 11645 11646 11647 11648 11649 11650 11651 11652 11653 11654 11655 11656 11657 11658 11659 11660 11661 11662 11663 11664 11665 11666 11667 11668 11669 11670 11671 11672 11673 11674 11675 11676 11677 11678 11679 11680 11681 11682 11683 11684 11685 11686 11687 11688 11689 11690 11691 11692 11693 11694 11695 11696 11697 11698 11699 11700 11701 11702 11703 11704 11705 11706 11707 11708 11709 11710 11711 11712 11713 11714 11715 11716 11717 11718 11719 11720 11721 11722 11723 11724 11725 11726 11727 11728 11729 11730 11731 11732 11733 11734 11735 11736 11737 11738 11739 11740 11741 11742 11743 11744 11745 11746 11747 11748 11749 11750 11751 11752 11753 11754 11755 11756 11757 11758 11759 11760 11761 11762 11763 11764 11765 11766 11767 11768 11769 11770 11771 11772 11773 11774 11775 11776 11777 11778 11779 11780 11781 11782 11783 11784 11785 11786 11787 11788 11789 11790 11791 11792 11793 11794 11795 11796 11797 11798 11799 11800 11801 11802 11803 11804 11805 11806 11807 11808 11809 11810 11811 11812 11813 11814 11815 11816 11817 11818 11819 11820 11821 11822 11823 11824 11825 11826 11827 11828 11829 11830 11831 11832 11833 11834 11835 11836 11837 11838 11839 11840 11841 11842 11843 11844 11845 11846 11847 11848 11849 11850 11851 11852 11853 11854 11855 11856 11857 11858 11859 11860 11861 11862 11863 11864 11865 11866 11867 11868 11869 11870 11871 11872 11873 11874 11875 11876 11877 11878 11879 11880 11881 11882 11883 11884 11885 11886 11887 11888 11889 11890 11891 11892 11893 11894 11895 11896 11897 11898 11899 11900 11901 11902 11903 11904 11905 11906 11907 11908 11909 11910 11911 11912 11913 11914 11915 11916 11917 11918 11919 11920 11921 11922 11923 11924 11925 11926 11927 11928 11929 11930 11931 11932 11933 11934 11935 11936 11937 11938 11939 11940 11941 11942 11943 11944 11945 11946 11947 11948 11949 11950 11951 11952 11953 11954 11955 11956 11957 11958 11959 11960 11961 11962 11963 11964 11965 11966 11967 11968 11969 11970 11971 11972 11973 11974 11975 11976 11977 11978 11979 11980 11981 11982 11983 11984 11985 11986 11987 11988 11989 11990 11991 11992 11993 11994 11995 11996 11997 11998 11999 12000 12001 12002 12003 12004 12005 12006 12007 12008 12009 12010 12011 12012 12013 12014 12015 12016 12017 12018 12019 12020 12021 12022 12023 12024 12025 12026 12027 12028 12029 12030 12031 12032 12033 12034 12035 12036 12037 12038 12039 12040 12041 12042 12043 12044 12045 12046 12047 12048 12049 12050 12051 12052 12053 12054 12055 12056 12057 12058 12059 12060 12061 12062 12063 12064 12065 12066 12067 12068 12069 12070 12071 12072 12073 12074 12075 12076 12077 12078 12079 12080 12081 12082 12083 12084 12085 12086 12087 12088 12089 12090 12091 12092 12093 12094 12095 12096 12097 12098 12099 12100 12101 12102 12103 12104 12105 12106 12107 12108 12109 12110 12111 12112 12113 12114 12115 12116 12117 12118 12119 12120 12121 12122 12123 12124 12125 12126 12127 12128 12129 12130 12131 12132 12133 12134 12135 12136 12137 12138 12139 12140 12141 12142 12143 12144 12145 12146 12147 12148 12149 12150 12151 12152 12153 12154 12155 12156 12157 12158 12159 12160 12161 12162 12163 12164 12165 12166 12167 12168 12169 12170 12171 12172 12173 12174 12175 12176 12177 12178 12179 12180 12181 12182 12183 12184 12185 12186 12187 12188 12189 12190 12191 12192 12193 12194 12195 12196 12197 12198 12199 12200 12201 12202 12203 12204 12205 12206 12207 12208 12209 12210 12211 12212 12213 12214 12215 12216 12217 12218 12219 12220 12221 12222 12223 12224 12225 12226 12227 12228 12229 12230 12231 12232 12233 12234 12235 12236 12237 12238 12239 12240 12241 12242 12243 12244 12245 12246 12247 12248 12249 12250 12251 12252 12253 12254 12255 12256 12257 12258 12259 12260 12261 12262 12263 12264 12265 12266 12267 12268 12269 12270 12271 12272 12273 12274 12275 12276 12277 12278 12279 12280 12281 12282 12283 12284 12285 12286 12287 12288 12289 12290 12291 12292 12293 12294 12295 12296 12297 12298 12299 12300 12301 12302 12303 12304 12305 12306 12307 12308 12309 12310 12311 12312 12313 12314 12315 12316 12317 12318 12319 12320 12321 12322 12323 12324 12325 12326 12327 12328 12329 12330 12331 12332 12333 12334 12335 12336 12337 12338 12339 12340 12341 12342 12343 12344 12345 12346 12347 12348 12349 12350 12351 12352 12353 12354 12355 12356 12357 12358 12359 12360 12361 12362 12363 12364 12365 12366 12367 12368 12369 12370 12371 12372 12373 12374 12375 12376 12377 12378 12379 12380 12381 12382 12383 12384 12385 12386 12387 12388 12389 12390 12391 12392 12393 12394 12395 12396 12397 12398 12399 12400 12401 12402 12403 12404 12405 12406 12407 12408 12409 12410 12411 12412 12413 12414 12415 12416 12417 12418 12419 12420 12421 12422 12423 12424 12425 12426 12427 12428 12429 12430 12431 12432 12433 12434 12435 12436 12437 12438 12439 12440 12441 12442 12443 12444 12445 12446 12447 12448 12449 12450 12451 12452 12453 12454 12455 12456 12457 12458 12459 12460 12461 12462 12463 12464 12465 12466 12467 12468 12469 12470 12471 12472 12473 12474 12475 12476 12477 12478 12479 12480 12481 12482 12483 12484 12485 12486 12487 12488 12489 12490 12491 12492 12493 12494 12495 12496 12497 12498 12499 12500 12501 12502 12503 12504 12505 12506 12507 12508 12509 12510 12511 12512 12513 12514 12515 12516 12517 12518 12519 12520 12521 12522 12523 12524 12525 12526 12527 12528 12529 12530 12531 12532 12533 12534 12535 12536 12537 12538 12539 12540 12541 12542 12543 12544 12545 12546 12547 12548 12549 12550 12551 12552 12553 12554 12555 12556 12557 12558 12559 12560 12561 12562 12563 12564 12565 12566 12567 12568 12569 12570 12571 12572 12573 12574 12575 12576 12577 12578 12579 12580 12581 12582 12583 12584 12585 12586 12587 12588 12589 12590 12591 12592 12593 12594 12595 12596 12597 12598 12599 12600 12601 12602 12603 12604 12605 12606 12607 12608 12609 12610 12611 12612 12613 12614 12615 12616 12617 12618 12619 12620 12621 12622 12623 12624 12625 12626 12627 12628 12629 12630 12631 12632 12633 12634 12635 12636 12637 12638 12639 12640 12641 12642 12643 12644 12645 12646 12647 12648 12649 12650 12651 12652 12653 12654 12655 12656 12657 12658 12659 12660 12661 12662 12663 12664 12665 12666 12667 12668 12669 12670 12671 12672 12673 12674 12675 12676 12677 12678 12679 12680 12681 12682 12683 12684 12685 12686 12687 12688 12689 12690 12691 12692 12693 12694 12695 12696 12697 12698 12699 12700 12701 12702 12703 12704 12705 12706 12707 12708 12709 12710 12711 12712 12713 12714 12715 12716 12717 12718 12719 12720 12721 12722 12723 12724 12725 12726 12727 12728 12729 12730 12731 12732 12733 12734 12735 12736 12737 12738 12739 12740 12741 12742 12743 12744 12745 12746 12747 12748 12749 12750 12751 12752 12753 12754 12755 12756 12757 12758 12759 12760 12761 12762 12763 12764 12765 12766 12767 12768 12769 12770 12771 12772 12773 12774 12775 12776 12777 12778 12779 12780 12781 12782 12783 12784 12785 12786 12787 12788 12789 12790 12791 12792 12793 12794 12795 12796 12797 12798 12799 12800 12801 12802 12803 12804 12805 12806 12807 12808 12809 12810 12811 12812 12813 12814 12815 12816 12817 12818 12819 12820 12821 12822 12823 12824 12825 12826 12827 12828 12829 12830 12831 12832 12833 12834 12835 12836 12837 12838 12839 12840 12841 12842 12843 12844 12845 12846 12847 12848 12849 12850 12851 12852 12853 12854 12855 12856 12857 12858 12859 12860 12861 12862 12863 12864 12865 12866 12867 12868 12869 12870 12871 12872 12873 12874 12875 12876 12877 12878 12879 12880 12881 12882 12883 12884 12885 12886 12887 12888 12889 12890 12891 12892 12893 12894 12895 12896 12897 12898 12899 12900 12901 12902 12903 12904 12905 12906 12907 12908 12909 12910 12911 12912 12913 12914 12915 12916 12917 12918 12919 12920 12921 12922 12923 12924 12925 12926 12927 12928 12929 12930 12931 12932 12933 12934 12935 12936 12937 12938 12939 12940 12941 12942 12943 12944 12945 12946 12947 12948 12949 12950 12951 12952 12953 12954 12955 12956 12957 12958 12959 12960 12961 12962 12963 12964 12965 12966 12967 12968 12969 12970 12971 12972 12973 12974 12975 12976 12977 12978 12979 12980 12981 12982 12983 12984 12985 12986 12987 12988 12989 12990 12991 12992 12993 12994 12995 12996 12997 12998 12999 13000 13001 13002 13003 13004 13005 13006 13007 13008 13009 13010 13011 13012 13013 13014 13015 13016 13017 13018 13019 13020 13021 13022 13023 13024 13025 13026 13027 13028 13029 13030 13031 13032 13033 13034 13035 13036 13037 13038 13039 13040 13041 13042 13043 13044 13045 13046 13047 13048 13049 13050 13051 13052 13053 13054 13055 13056 13057 13058 13059 13060 13061 13062 13063 13064 13065 13066 13067 13068 13069 13070 13071 13072 13073 13074 13075 13076 13077 13078 13079 13080 13081 13082 13083 13084 13085 13086 13087 13088 13089 13090 13091 13092 13093 13094 13095 13096 13097 13098 13099 13100 13101 13102 13103 13104 13105 13106 13107 13108 13109 13110 13111 13112 13113 13114 13115 13116 13117 13118 13119 13120 13121 13122 13123 13124 13125 13126 13127 13128 13129 13130 13131 13132 13133 13134 13135 13136 13137 13138 13139 13140 13141 13142 13143 13144 13145 13146 13147 13148 13149 13150 13151 13152 13153 13154 13155 13156 13157 13158 13159 13160 13161 13162 13163 13164 13165 13166 13167 13168 13169 13170 13171 13172 13173 13174 13175 13176 13177 13178 13179 13180 13181 13182 13183 13184 13185 13186 13187 13188 13189 13190 13191 13192 13193 13194 13195 13196 13197 13198 13199 13200 13201 13202 13203 13204 13205 13206 13207 13208 13209 13210 13211 13212 13213 13214 13215 13216 13217 13218 13219 13220 13221 13222 13223 13224 13225 13226 13227 13228 13229 13230 13231 13232 13233 13234 13235 13236 13237 13238 13239 13240 13241 13242 13243 13244 13245 13246 13247 13248 13249 13250 13251 13252 13253 13254 13255 13256 13257 13258 13259 13260 13261 13262 13263 13264 13265 13266 13267 13268 13269 13270 13271 13272 13273 13274 13275 13276 13277 13278 13279 13280 13281 13282 13283 13284 13285 13286 13287 13288 13289 13290 13291 13292 13293 13294 13295 13296 13297 13298 13299 13300 13301 13302 13303 13304 13305 13306 13307 13308 13309 13310 13311 13312 13313 13314 13315 13316 13317 13318 13319 13320 13321 13322 13323 13324 13325 13326 13327 13328 13329 13330 13331 13332 13333 13334 13335 13336 13337 13338 13339 13340 13341 13342 13343 13344 13345 13346 13347 13348 13349 13350 13351 13352 13353 13354 13355 13356 13357 13358 13359 13360 13361 13362 13363 13364 13365 13366 13367 13368 13369 13370 13371 13372 13373 13374 13375 13376 13377 13378 13379 13380 13381 13382 13383 13384 13385 13386 13387 13388 13389 13390 13391 13392 13393 13394 13395 13396 13397 13398 13399 13400 13401 13402 13403 13404 13405 13406 13407 13408 13409 13410 13411 13412 13413 13414 13415 13416 13417 13418 13419 13420 13421 13422 13423 13424 13425 13426 13427 13428 13429 13430 13431 13432 13433 13434 13435 13436 13437 13438 13439 13440 13441 13442 13443 13444 13445 13446 13447 13448 13449 13450 13451 13452 13453 13454 13455 13456 13457 13458 13459 13460 13461 13462 13463 13464 13465 13466 13467 13468 13469 13470 13471 13472 13473 13474 13475 13476 13477 13478 13479 13480 13481 13482 13483 13484 13485 13486 13487 13488 13489 13490 13491 13492 13493 13494 13495 13496 13497 13498 13499 13500 13501 13502 13503 13504 13505 13506 13507 13508 13509 13510 13511 13512 13513 13514 13515 13516 13517 13518 13519 13520 13521 13522 13523 13524 13525 13526 13527 13528 13529 13530 13531 13532 13533 13534 13535 13536 13537 13538 13539 13540 13541 13542 13543 13544 13545 13546 13547 13548 13549 13550 13551 13552 13553 13554 13555 13556 13557 13558 13559 13560 13561 13562 13563 13564 13565 13566 13567 13568 13569 13570 13571 13572 13573 13574 13575 13576 13577 13578 13579 13580 13581 13582 13583 13584 13585 13586 13587 13588 13589 13590 13591 13592 13593 13594 13595 13596 13597 13598 13599 13600 13601 13602 13603 13604 13605 13606 13607 13608 13609 13610 13611 13612 13613 13614 13615 13616 13617 13618 13619 13620 13621 13622 13623 13624 13625 13626 13627 13628 13629 13630 13631 13632 13633 13634 13635 13636 13637 13638 13639 13640 13641 13642 13643 13644 13645 13646 13647 13648 13649 13650 13651 13652 13653 13654 13655 13656 13657 13658 13659 13660 13661 13662 13663 13664 13665 13666 13667 13668 13669 13670 13671 13672 13673 13674 13675 13676 13677 13678 13679 13680 13681 13682 13683 13684 13685 13686 13687 13688 13689 13690 13691 13692 13693 13694 13695 13696 13697 13698 13699 13700 13701 13702 13703 13704 13705 13706 13707 13708 13709 13710 13711 13712 13713 13714 13715 13716 13717 13718 13719 13720 13721 13722 13723 13724 13725 13726 13727 13728 13729 13730 13731 13732 13733 13734 13735 13736 13737 13738 13739 13740 13741 13742 13743 13744 13745 13746 13747 13748 13749 13750 13751 13752 13753 13754 13755 13756 13757 13758 13759 13760 13761 13762 13763 13764 13765 13766 13767 13768 13769 13770 13771 13772 13773 13774 13775 13776 13777 13778 13779 13780 13781 13782 13783 13784 13785 13786 13787 13788 13789 13790 13791 13792 13793 13794 13795 13796 13797 13798 13799 13800 13801 13802 13803 13804 13805 13806 13807 13808 13809 13810 13811 13812 13813 13814 13815 13816 13817 13818 13819 13820 13821 13822 13823 13824 13825 13826 13827 13828 13829 13830 13831 13832 13833 13834 13835 13836 13837 13838 13839 13840 13841 13842 13843 13844 13845 13846 13847 13848 13849 13850 13851 13852 13853 13854 13855 13856 13857 13858 13859 13860 13861 13862 13863 13864 13865 13866 13867 13868 13869 13870 13871 13872 13873 13874 13875 13876 13877 13878 13879 13880 13881 13882 13883 13884 13885 13886 13887 13888 13889 13890 13891 13892 13893 13894 13895 13896 13897 13898 13899 13900 13901 13902 13903 13904 13905 13906 13907 13908 13909 13910 13911 13912 13913 13914 13915 13916 13917 13918 13919 13920 13921 13922 13923 13924 13925 13926 13927 13928 13929 13930 13931 13932 13933 13934 13935 13936 13937 13938 13939 13940 13941 13942 13943 13944 13945 13946 13947 13948 13949 13950 13951 13952 13953 13954 13955 13956 13957 13958 13959 13960 13961 13962 13963 13964 13965 13966 13967 13968 13969 13970 13971 13972 13973 13974 13975 13976 13977 13978 13979 13980 13981 13982 13983 13984 13985 13986 13987 13988 13989 13990 13991 13992 13993 13994 13995 13996 13997 13998 13999 14000 14001 14002 14003 14004 14005 14006 14007 14008 14009 14010 14011 14012 14013 14014 14015 14016 14017 14018 14019 14020 14021 14022 14023 14024 14025 14026 14027 14028 14029 14030 14031 14032 14033 14034 14035 14036 14037 14038 14039 14040 14041 14042 14043 14044 14045 14046 14047 14048 14049 14050 14051 14052 14053 14054 14055 14056 14057 14058 14059 14060 14061 14062 14063 14064 14065 14066 14067 14068 14069 14070 14071 14072 14073 14074 14075 14076 14077 14078 14079 14080 14081 14082 14083 14084 14085 14086 14087 14088 14089 14090 14091 14092 14093 14094 14095 14096 14097 14098 14099 14100 14101 14102 14103 14104 14105 14106 14107 14108 14109 14110 14111 14112 14113 14114 14115 14116 14117 14118 14119 14120 14121 14122 14123 14124 14125 14126 14127 14128 14129 14130 14131 14132 14133 14134 14135 14136 14137 14138 14139 14140 14141 14142 14143 14144 14145 14146 14147 14148 14149 14150 14151 14152 14153 14154 14155 14156 14157 14158 14159 14160 14161 14162 14163 14164 14165 14166 14167 14168 14169 14170 14171 14172 14173 14174 14175 14176 14177 14178 14179 14180 14181 14182 14183 14184 14185 14186 14187 14188 14189 14190 14191 14192 14193 14194 14195 14196 14197 14198 14199 14200 14201 14202 14203 14204 14205 14206 14207 14208 14209 14210 14211 14212 14213 14214 14215 14216 14217 14218 14219 14220 14221 14222 14223 14224 14225 14226 14227 14228 14229 14230 14231 14232 14233 14234 14235 14236 14237 14238 14239 14240 14241 14242 14243 14244 14245 14246 14247 14248 14249 14250 14251 14252 14253 14254 14255 14256 14257 14258 14259 14260 14261 14262 14263 14264 14265 14266 14267 14268 14269 14270 14271 14272 14273 14274 14275 14276 14277 14278 14279 14280 14281 14282 14283 14284 14285 14286 14287 14288 14289 14290 14291 14292 14293 14294 14295 14296 14297 14298 14299 14300 14301 14302 14303 14304 14305 14306 14307 14308 14309 14310 14311 14312 14313 14314 14315 14316 14317 14318 14319 14320 14321 14322 14323 14324 14325 14326 14327 14328 14329 14330 14331 14332 14333 14334 14335 14336 14337 14338 14339 14340 14341 14342 14343 14344 14345 14346 14347 14348 14349 14350 14351 14352 14353 14354 14355 14356 14357 14358 14359 14360 14361 14362 14363 14364 14365 14366 14367 14368 14369 14370 14371 14372 14373 14374 14375 14376 14377 14378 14379 14380 14381 14382 14383 14384 14385 14386 14387 14388 14389 14390 14391 14392 14393 14394 14395 14396 14397 14398 14399 14400 14401 14402 14403 14404 14405 14406 14407 14408 14409 14410 14411 14412 14413 14414 14415 14416 14417 14418 14419 14420 14421 14422 14423 14424 14425 14426 14427 14428 14429 14430 14431 14432 14433 14434 14435 14436 14437 14438 14439 14440 14441 14442 14443 14444 14445 14446 14447 14448 14449 14450 14451 14452 14453 14454 14455 14456 14457 14458 14459 14460 14461 14462 14463 14464 14465 14466 14467 14468 14469 14470 14471 14472 14473 14474 14475 14476 14477 14478 14479 14480 14481 14482 14483 14484 14485 14486 14487 14488 14489 14490 14491 14492 14493 14494 14495 14496 14497 14498 14499 14500 14501 14502 14503 14504 14505 14506 14507 14508 14509 14510 14511 14512 14513 14514 14515 14516 14517 14518 14519 14520 14521 14522 14523 14524 14525 14526 14527 14528 14529 14530 14531 14532 14533 14534 14535 14536 14537 14538 14539 14540 14541 14542 14543 14544 14545 14546 14547 14548 14549 14550 14551 14552 14553 14554 14555 14556 14557 14558 14559 14560 14561 14562 14563 14564 14565 14566 14567 14568 14569 14570 14571 14572 14573 14574 14575 14576 14577 14578 14579 14580 14581 14582 14583 14584 14585 14586 14587 14588 14589 14590 14591 14592 14593 14594 14595 14596 14597 14598 14599 14600 14601 14602 14603 14604 14605 14606 14607 14608 14609 14610 14611 14612 14613 14614 14615 14616 14617 14618 14619 14620 14621 14622 14623 14624 14625 14626 14627 14628 14629 14630 14631 14632 14633 14634 14635 14636 14637 14638 14639 14640 14641 14642 14643 14644 14645 14646 14647 14648 14649 14650 14651 14652 14653 14654 14655 14656 14657 14658 14659 14660 14661 14662 14663 14664 14665 14666 14667 14668 14669 14670 14671 14672 14673 14674 14675 14676 14677 14678 14679 14680 14681 14682 14683 14684 14685 14686 14687 14688 14689 14690 14691 14692 14693 14694 14695 14696 14697 14698 14699 14700 14701 14702 14703 14704 14705 14706 14707 14708 14709 14710 14711 14712 14713 14714 14715 14716 14717 14718 14719 14720 14721 14722 14723 14724 14725 14726 14727 14728 14729 14730 14731 14732 14733 14734 14735 14736 14737 14738 14739 14740 14741 14742 14743 14744 14745 14746 14747 14748 14749 14750 14751 14752 14753 14754 14755 14756 14757 14758 14759 14760 14761 14762 14763 14764 14765 14766 14767 14768 14769 14770 14771 14772 14773 14774 14775 14776 14777 14778 14779 14780 14781 14782 14783 14784 14785 14786 14787 14788 14789 14790 14791 14792 14793 14794 14795 14796 14797 14798 14799 14800 14801 14802 14803 14804 14805 14806 14807 14808 14809 14810 14811 14812 14813 14814 14815 14816 14817 14818 14819 14820 14821 14822 14823 14824 14825 14826 14827 14828 14829 14830 14831 14832 14833 14834 14835 14836 14837 14838 14839 14840 14841 14842 14843 14844 14845 14846 14847 14848 14849 14850 14851 14852 14853 14854 14855 14856 14857 14858 14859 14860 14861 14862 14863 14864 14865 14866 14867 14868 14869 14870 14871 14872 14873 14874 14875 14876 14877 14878 14879 14880 14881 14882 14883 14884 14885 14886 14887 14888 14889 14890 14891 14892 14893 14894 14895 14896 14897 14898 14899 14900 14901 14902 14903 14904 14905 14906 14907 14908 14909 14910 14911 14912 14913 14914 14915 14916 14917 14918 14919 14920 14921 14922 14923 14924 14925 14926 14927 14928 14929 14930 14931 14932 14933 14934 14935 14936 14937 14938 14939 14940 14941 14942 14943 14944 14945 14946 14947 14948 14949 14950 14951 14952 14953 14954 14955 14956 14957 14958 14959 14960 14961 14962 14963 14964 14965 14966 14967 14968 14969 14970 14971 14972 14973 14974 14975 14976 14977 14978 14979 14980 14981 14982 14983 14984 14985 14986 14987 14988 14989 14990 14991 14992 14993 14994 14995 14996 14997 14998 14999 15000 15001 15002 15003 15004 15005 15006 15007 15008 15009 15010 15011 15012 15013 15014 15015 15016 15017 15018 15019 15020 15021 15022 15023 15024 15025 15026 15027 15028 15029 15030 15031 15032 15033 15034 15035 15036 15037 15038 15039 15040 15041 15042 15043 15044 15045 15046 15047 15048 15049 15050 15051 15052 15053 15054 15055 15056 15057 15058 15059 15060 15061 15062 15063 15064 15065 15066 15067 15068 15069 15070 15071 15072 15073 15074 15075 15076 15077 15078 15079 15080 15081 15082 15083 15084 15085 15086 15087 15088 15089 15090 15091 15092 15093 15094 15095 15096 15097 15098 15099 15100 15101 15102 15103 15104 15105 15106 15107 15108 15109 15110 15111 15112 15113 15114 15115 15116 15117 15118 15119 15120 15121 15122 15123 15124 15125 15126 15127 15128 15129 15130 15131 15132 15133 15134 15135 15136 15137 15138 15139 15140 15141 15142 15143 15144 15145 15146 15147 15148 15149 15150 15151 15152 15153 15154 15155 15156 15157 15158 15159 15160 15161 15162 15163 15164 15165 15166 15167 15168 15169 15170 15171 15172 15173 15174 15175 15176 15177 15178 15179 15180 15181 15182 15183 15184 15185 15186 15187 15188 15189 15190 15191 15192 15193 15194 15195 15196 15197 15198 15199 15200 15201 15202 15203 15204 15205 15206 15207 15208 15209 15210 15211 15212 15213 15214 15215 15216 15217 15218 15219 15220 15221 15222 15223 15224 15225 15226 15227 15228 15229 15230 15231 15232 15233 15234 15235 15236 15237 15238 15239 15240 15241 15242 15243 15244 15245 15246 15247 15248 15249 15250 15251 15252 15253 15254 15255 15256 15257 15258 15259 15260 15261 15262 15263 15264 15265 15266 15267 15268 15269 15270 15271 15272 15273 15274 15275 15276 15277 15278 15279 15280 15281 15282 15283 15284 15285 15286 15287 15288 15289 15290 15291 15292 15293 15294 15295 15296 15297 15298 15299 15300 15301 15302 15303 15304 15305 15306 15307 15308 15309 15310 15311 15312 15313 15314 15315 15316 15317 15318 15319 15320 15321 15322 15323 15324 15325 15326 15327 15328 15329 15330 15331 15332 15333 15334 15335 15336 15337 15338 15339 15340 15341 15342 15343 15344 15345 15346 15347 15348 15349 15350 15351 15352 15353 15354 15355 15356 15357 15358 15359 15360 15361 15362 15363 15364 15365 15366 15367 15368 15369 15370 15371 15372 15373 15374 15375 15376 15377 15378 15379 15380 15381 15382 15383 15384 15385 15386 15387 15388 15389 15390 15391 15392 15393 15394 15395 15396 15397 15398 15399 15400 15401 15402 15403 15404 15405 15406 15407 15408 15409 15410 15411 15412 15413 15414 15415 15416 15417 15418 15419 15420 15421 15422 15423 15424 15425 15426 15427 15428 15429 15430 15431 15432 15433 15434 15435 15436 15437 15438 15439 15440 15441 15442 15443 15444 15445 15446 15447 15448 15449 15450 15451 15452 15453 15454 15455 15456 15457 15458 15459 15460 15461 15462 15463 15464 15465 15466 15467 15468 15469 15470 15471 15472 15473 15474 15475 15476 15477 15478 15479 15480 15481 15482 15483 15484 15485 15486 15487 15488 15489 15490 15491 15492 15493 15494 15495 15496 15497 15498 15499 15500 15501 15502 15503 15504 15505 15506 15507 15508 15509 15510 15511 15512 15513 15514 15515 15516 15517 15518 15519 15520 15521 15522 15523 15524 15525 15526 15527 15528 15529 15530 15531 15532 15533 15534 15535 15536 15537 15538 15539 15540 15541 15542 15543 15544 15545 15546 15547 15548 15549 15550 15551 15552 15553 15554 15555 15556 15557 15558 15559 15560 15561 15562 15563 15564 15565 15566 15567 15568 15569 15570 15571 15572 15573 15574 15575 15576 15577 15578 15579 15580 15581 15582 15583 15584 15585 15586 15587 15588 15589 15590 15591 15592 15593 15594 15595 15596 15597 15598 15599 15600 15601 15602 15603 15604 15605 15606 15607 15608 15609 15610 15611 15612 15613 15614 15615 15616 15617 15618 15619 15620 15621 15622 15623 15624 15625 15626 15627 15628 15629 15630 15631 15632 15633 15634 15635 15636 15637 15638 15639 15640 15641 15642 15643 15644 15645 15646 15647 15648 15649 15650 15651 15652 15653 15654 15655 15656 15657 15658 15659 15660 15661 15662 15663 15664 15665 15666 15667 15668 15669 15670 15671 15672 15673 15674 15675 15676 15677 15678 15679 15680 15681 15682 15683 15684 15685 15686 15687 15688 15689 15690 15691 15692 15693 15694 15695 15696 15697 15698 15699 15700 15701 15702 15703 15704 15705 15706 15707 15708 15709 15710 15711 15712 15713 15714 15715 15716 15717 15718 15719 15720 15721 15722 15723 15724 15725 15726 15727 15728 15729 15730 15731 15732 15733 15734 15735 15736 15737 15738 15739 15740 15741 15742 15743 15744 15745 15746 15747 15748 15749 15750 15751 15752 15753 15754 15755 15756 15757 15758 15759 15760 15761 15762 15763 15764 15765 15766 15767 15768 15769 15770 15771 15772 15773 15774 15775 15776 15777 15778 15779 15780 15781 15782 15783 15784 15785 15786 15787 15788 15789 15790 15791 15792 15793 15794 15795 15796 15797 15798 15799 15800 15801 15802 15803 15804 15805 15806 15807 15808 15809 15810 15811 15812 15813 15814 15815 15816 15817 15818 15819 15820 15821 15822 15823 15824 15825 15826 15827 15828 15829 15830 15831 15832 15833 15834 15835 15836 15837 15838 15839 15840 15841 15842 15843 15844 15845 15846 15847 15848 15849 15850 15851 15852 15853 15854 15855 15856 15857 15858 15859 15860 15861 15862 15863 15864 15865 15866 15867 15868 15869 15870 15871 15872 15873 15874 15875 15876 15877 15878 15879 15880 15881 15882 15883 15884 15885 15886 15887 15888 15889 15890 15891 15892 15893 15894 15895 15896 15897 15898 15899 15900 15901 15902 15903 15904 15905 15906 15907 15908 15909 15910 15911 15912 15913 15914 15915 15916 15917 15918 15919 15920 15921 15922 15923 15924 15925 15926 15927 15928 15929 15930 15931 15932 15933 15934 15935 15936 15937 15938 15939 15940 15941 15942 15943 15944 15945 15946 15947 15948 15949 15950 15951 15952 15953 15954 15955 15956 15957 15958 15959 15960 15961 15962 15963 15964 15965 15966 15967 15968 15969 15970 15971 15972 15973 15974 15975 15976 15977 15978 15979 15980 15981 15982 15983 15984 15985 15986 15987 15988 15989 15990 15991 15992 15993 15994 15995 15996 15997 15998 15999 16000 16001 16002 16003 16004 16005 16006 16007 16008 16009 16010 16011 16012 16013 16014 16015 16016 16017 16018 16019 16020 16021 16022 16023 16024 16025 16026 16027 16028 16029 16030 16031 16032 16033 16034 16035 16036 16037 16038 16039 16040 16041 16042 16043 16044 16045 16046 16047 16048 16049 16050 16051 16052 16053 16054 16055 16056 16057 16058 16059 16060 16061 16062 16063 16064 16065 16066 16067 16068 16069 16070 16071 16072 16073 16074 16075 16076 16077 16078 16079 16080 16081 16082 16083 16084 16085 16086 16087 16088 16089 16090 16091 16092 16093 16094 16095 16096 16097 16098 16099 16100 16101 16102 16103 16104 16105 16106 16107 16108 16109 16110 16111 16112 16113 16114 16115 16116 16117 16118 16119 16120 16121 16122 16123 16124 16125 16126 16127 16128 16129 16130 16131 16132 16133 16134 16135 16136 16137 16138 16139 16140 16141 16142 16143 16144 16145 16146 16147 16148 16149 16150 16151 16152 16153 16154 16155 16156 16157 16158 16159 16160 16161 16162 16163 16164 16165 16166 16167 16168 16169 16170 16171 16172 16173 16174 16175 16176 16177 16178 16179 16180 16181 16182 16183 16184 16185 16186 16187 16188 16189 16190 16191 16192 16193 16194 16195 16196 16197 16198 16199 16200 16201 16202 16203 16204 16205 16206 16207 16208 16209 16210 16211 16212 16213 16214 16215 16216 16217 16218 16219 16220 16221 16222 16223 16224 16225 16226 16227 16228 16229 16230 16231 16232 16233 16234 16235 16236 16237 16238 16239 16240 16241 16242 16243 16244 16245 16246 16247 16248 16249 16250 16251 16252 16253 16254 16255 16256 16257 16258 16259 16260 16261 16262 16263 16264 16265 16266 16267 16268 16269 16270 16271 16272 16273 16274 16275 16276 16277 16278 16279 16280 16281 16282 16283 16284 16285 16286 16287 16288 16289 16290 16291 16292 16293 16294 16295 16296 16297 16298 16299 16300 16301 16302 16303 16304 16305 16306 16307 16308 16309 16310 16311 16312 16313 16314 16315 16316 16317 16318 16319 16320 16321 16322 16323 16324 16325 16326 16327 16328 16329 16330 16331 16332 16333 16334 16335 16336 16337 16338 16339 16340 16341 16342 16343 16344 16345 16346 16347 16348 16349 16350 16351 16352 16353 16354 16355 16356 16357 16358 16359 16360 16361 16362 16363 16364 16365 16366 16367 16368 16369 16370 16371 16372 16373 16374 16375 16376 16377 16378 16379 16380 16381 16382 16383 16384 16385 16386 16387 16388 16389 16390 16391 16392 16393 16394 16395 16396 16397 16398 16399 16400 16401 16402 16403 16404 16405 16406 16407 16408 16409 16410 16411 16412 16413 16414 16415 16416 16417 16418 16419 16420 16421 16422 16423 16424 16425 16426 16427 16428 16429 16430 16431 16432 16433 16434 16435 16436 16437 16438 16439 16440 16441 16442 16443 16444 16445 16446 16447 16448 16449 16450 16451 16452 16453 16454 16455 16456 16457 16458 16459 16460 16461 16462 16463 16464 16465 16466 16467 16468 16469 16470 16471 16472 16473 16474 16475 16476 16477 16478 16479 16480 16481 16482 16483 16484 16485 16486 16487 16488 16489 16490 16491 16492 16493 16494 16495 16496 16497 16498 16499 16500 16501 16502 16503 16504 16505 16506 16507 16508 16509 16510 16511 16512 16513 16514 16515 16516 16517 16518 16519 16520 16521 16522 16523 16524 16525 16526 16527 16528 16529 16530 16531 16532 16533 16534 16535 16536 16537 16538 16539 16540 16541 16542 16543 16544 16545 16546 16547 16548 16549 16550 16551 16552 16553 16554 16555 16556 16557 16558 16559 16560 16561 16562 16563 16564 16565 16566 16567 16568 16569 16570 16571 16572 16573 16574 16575 16576 16577 16578 16579 16580 16581 16582 16583 16584 16585 16586 16587 16588 16589 16590 16591 16592 16593 16594 16595 16596 16597 16598 16599 16600 16601 16602 16603 16604 16605 16606 16607 16608 16609 16610 16611 16612 16613 16614 16615 16616 16617 16618 16619 16620 16621 16622 16623 16624 16625 16626 16627 16628 16629 16630 16631 16632 16633 16634 16635 16636 16637 16638 16639 16640 16641 16642 16643 16644 16645 16646 16647 16648 16649 16650 16651 16652 16653 16654 16655 16656 16657 16658 16659 16660 16661 16662 16663 16664 16665 16666 16667 16668 16669 16670 16671 16672 16673 16674 16675 16676 16677 16678 16679 16680 16681 16682 16683 16684 16685 16686 16687 16688 16689 16690 16691 16692 16693 16694 16695 16696 16697 16698 16699 16700 16701 16702 16703 16704 16705 16706 16707 16708 16709 16710 16711 16712 16713 16714 16715 16716 16717 16718 16719 16720 16721 16722 16723 16724 16725 16726 16727 16728 16729 16730 16731 16732 16733 16734 16735 16736 16737 16738 16739 16740 16741 16742 16743 16744 16745 16746 16747 16748 16749 16750 16751 16752 16753 16754 16755 16756 16757 16758 16759 16760 16761 16762 16763 16764 16765 16766 16767 16768 16769 16770 16771 16772 16773 16774 16775 16776 16777 16778 16779 16780 16781 16782 16783 16784 16785 16786 16787 16788 16789 16790 16791 16792 16793 16794 16795 16796 16797 16798 16799 16800 16801 16802 16803 16804 16805 16806 16807 16808 16809 16810 16811 16812 16813 16814 16815 16816 16817 16818 16819 16820 16821 16822 16823 16824 16825 16826 16827 16828 16829 16830 16831 16832 16833 16834 16835 16836 16837 16838 16839 16840 16841 16842 16843 16844 16845 16846 16847 16848 16849 16850 16851 16852 16853 16854 16855 16856 16857 16858 16859 16860 16861 16862 16863 16864 16865 16866 16867 16868 16869 16870 16871 16872 16873 16874 16875 16876 16877 16878 16879 16880 16881 16882 16883 16884 16885 16886 16887 16888 16889 16890 16891 16892 16893 16894 16895 16896 16897 16898 16899 16900 16901 16902 16903 16904 16905 16906 16907 16908 16909 16910 16911 16912 16913 16914 16915 16916 16917 16918 16919 16920 16921 16922 16923 16924 16925 16926 16927 16928 16929 16930 16931 16932 16933 16934 16935 16936 16937 16938 16939 16940 16941 16942 16943 16944 16945 16946 16947 16948 16949 16950 16951 16952 16953 16954 16955 16956 16957 16958 16959 16960 16961 16962 16963 16964 16965 16966 16967 16968 16969 16970 16971 16972 16973 16974 16975 16976 16977 16978 16979 16980 16981 16982 16983 16984 16985 16986 16987 16988 16989 16990 16991 16992 16993 16994 16995 16996 16997 16998 16999 17000 17001 17002 17003 17004 17005 17006 17007 17008 17009 17010 17011 17012 17013 17014 17015 17016 17017 17018 17019 17020 17021 17022 17023 17024 17025 17026 17027 17028 17029 17030 17031 17032 17033 17034 17035 17036 17037 17038 17039 17040 17041 17042 17043 17044 17045 17046 17047 17048 17049 17050 17051 17052 17053 17054 17055 17056 17057 17058 17059 17060 17061 17062 17063 17064 17065 17066 17067 17068 17069 17070 17071 17072 17073 17074 17075 17076 17077 17078 17079 17080 17081 17082 17083 17084 17085 17086 17087 17088 17089 17090 17091 17092 17093 17094 17095 17096 17097 17098 17099 17100 17101 17102 17103 17104 17105 17106 17107 17108 17109 17110 17111 17112 17113 17114 17115 17116 17117 17118 17119 17120 17121 17122 17123 17124 17125 17126 17127 17128 17129 17130 17131 17132 17133 17134 17135 17136 17137 17138 17139 17140 17141 17142 17143 17144 17145 17146 17147 17148 17149 17150 17151 17152 17153 17154 17155 17156 17157 17158 17159 17160 17161 17162 17163 17164 17165 17166 17167 17168 17169 17170 17171 17172 17173 17174 17175 17176 17177 17178 17179 17180 17181 17182 17183 17184 17185 17186 17187 17188 17189 17190 17191 17192 17193 17194 17195 17196 17197 17198 17199 17200 17201 17202 17203 17204 17205 17206 17207 17208 17209 17210 17211 17212 17213 17214 17215 17216 17217 17218 17219 17220 17221 17222 17223 17224 17225 17226 17227 17228 17229 17230 17231 17232 17233 17234 17235 17236 17237 17238 17239 17240 17241 17242 17243 17244 17245 17246 17247 17248 17249 17250 17251 17252 17253 17254 17255 17256 17257 17258 17259 17260 17261 17262 17263 17264 17265 17266 17267 17268 17269 17270 17271 17272 17273 17274 17275 17276 17277 17278 17279 17280 17281 17282 17283 17284 17285 17286 17287 17288 17289 17290 17291 17292 17293 17294 17295 17296 17297 17298 17299 17300 17301 17302 17303 17304 17305 17306 17307 17308 17309 17310 17311 17312 17313 17314 17315 17316 17317 17318 17319 17320 17321 17322 17323 17324 17325 17326 17327 17328 17329 17330 17331 17332 17333 17334 17335 17336 17337 17338 17339 17340 17341 17342 17343 17344 17345 17346 17347 17348 17349 17350 17351 17352 17353 17354 17355 17356 17357 17358 17359 17360 17361 17362 17363 17364 17365 17366 17367 17368 17369 17370 17371 17372 17373 17374 17375 17376 17377 17378 17379 17380 17381 17382 17383 17384 17385 17386 17387 17388 17389 17390 17391 17392 17393 17394 17395 17396 17397 17398 17399 17400 17401 17402 17403 17404 17405 17406 17407 17408 17409 17410 17411 17412 17413 17414 17415 17416 17417 17418 17419 17420 17421 17422 17423 17424 17425 17426 17427 17428 17429 17430 17431 17432 17433 17434 17435 17436 17437 17438 17439 17440 17441 17442 17443 17444 17445 17446 17447 17448 17449 17450 17451 17452 17453 17454 17455 17456 17457 17458 17459 17460 17461 17462 17463 17464 17465 17466 17467 17468 17469 17470 17471 17472 17473 17474 17475 17476 17477 17478 17479 17480 17481 17482 17483 17484 17485 17486 17487 17488 17489 17490 17491 17492 17493 17494 17495 17496 17497 17498 17499 17500 17501 17502 17503 17504 17505 17506 17507 17508 17509 17510 17511 17512 17513 17514 17515 17516 17517 17518 17519 17520 17521 17522 17523 17524 17525 17526 17527 17528 17529 17530 17531 17532 17533 17534 17535 17536 17537 17538 17539 17540 17541 17542 17543 17544 17545 17546 17547 17548 17549 17550 17551 17552 17553 17554 17555 17556 17557 17558 17559 17560 17561 17562 17563 17564 17565 17566 17567 17568 17569 17570 17571 17572 17573 17574 17575 17576 17577 17578 17579 17580 17581 17582 17583 17584 17585 17586 17587 17588 17589 17590 17591 17592 17593 17594 17595 17596 17597 17598 17599 17600 17601 17602 17603 17604 17605 17606 17607 17608 17609 17610 17611 17612 17613 17614 17615 17616 17617 17618 17619 17620 17621 17622 17623 17624 17625 17626 17627 17628 17629 17630 17631 17632 17633 17634 17635 17636 17637 17638 17639 17640 17641 17642 17643 17644 17645 17646 17647 17648 17649 17650 17651 17652 17653 17654 17655 17656 17657 17658 17659 17660 17661 17662 17663 17664 17665 17666 17667 17668 17669 17670 17671 17672 17673 17674 17675 17676 17677 17678 17679 17680 17681 17682 17683 17684 17685 17686 17687 17688 17689 17690 17691 17692 17693 17694 17695 17696 17697 17698 17699 17700 17701 17702 17703 17704 17705 17706 17707 17708 17709 17710 17711 17712 17713 17714 17715 17716 17717 17718 17719 17720 17721 17722 17723 17724 17725 17726 17727 17728 17729 17730 17731 17732 17733 17734 17735 17736 17737 17738 17739 17740 17741 17742 17743 17744 17745 17746 17747 17748 17749 17750 17751 17752 17753 17754 17755 17756 17757 17758 17759 17760 17761 17762 17763 17764 17765 17766 17767 17768 17769 17770 17771 17772 17773 17774 17775 17776 17777 17778 17779 17780 17781 17782 17783 17784 17785 17786 17787 17788 17789 17790 17791 17792 17793 17794 17795 17796 17797 17798 17799 17800 17801 17802 17803 17804 17805 17806 17807 17808 17809 17810 17811 17812 17813 17814 17815 17816 17817 17818 17819 17820 17821 17822 17823 17824 17825 17826 17827 17828 17829 17830 17831 17832 17833 17834 17835 17836 17837 17838 17839 17840 17841 17842 17843 17844 17845 17846 17847 17848 17849 17850 17851 17852 17853 17854 17855 17856 17857 17858 17859 17860 17861 17862 17863 17864 17865 17866 17867 17868 17869 17870 17871 17872 17873 17874 17875 17876 17877 17878 17879 17880 17881 17882 17883 17884 17885 17886 17887 17888 17889 17890 17891 17892 17893 17894 17895 17896 17897 17898 17899 17900 17901 17902 17903 17904 17905 17906 17907 17908 17909 17910 17911 17912 17913 17914 17915 17916 17917 17918 17919 17920 17921 17922 17923 17924 17925 17926 17927 17928 17929 17930 17931 17932 17933 17934 17935 17936 17937 17938 17939 17940 17941 17942 17943 17944 17945 17946 17947 17948 17949 17950 17951 17952 17953 17954 17955 17956 17957 17958 17959 17960 17961 17962 17963 17964 17965 17966 17967 17968 17969 17970 17971 17972 17973 17974 17975 17976 17977 17978 17979 17980 17981 17982 17983 17984 17985 17986 17987 17988 17989 17990 17991 17992 17993 17994 17995 17996 17997 17998 17999 18000 18001 18002 18003 18004 18005 18006 18007 18008 18009 18010 18011 18012 18013 18014 18015 18016 18017 18018 18019 18020 18021 18022 18023 18024 18025 18026 18027 18028 18029 18030 18031 18032 18033 18034 18035 18036 18037 18038 18039 18040 18041 18042 18043 18044 18045 18046 18047 18048 18049 18050 18051 18052 18053 18054 18055 18056 18057 18058 18059 18060 18061 18062 18063 18064 18065 18066 18067 18068 18069 18070 18071 18072 18073 18074 18075 18076 18077 18078 18079 18080 18081 18082 18083 18084 18085 18086 18087 18088 18089 18090 18091 18092 18093 18094 18095 18096 18097 18098 18099 18100 18101 18102 18103 18104 18105 18106 18107 18108 18109 18110 18111 18112 18113 18114 18115 18116 18117 18118 18119 18120 18121 18122 18123 18124 18125 18126 18127 18128 18129 18130 18131 18132 18133 18134 18135 18136 18137 18138 18139 18140 18141 18142 18143 18144 18145 18146 18147 18148 18149 18150 18151 18152 18153 18154 18155 18156 18157 18158 18159 18160 18161 18162 18163 18164 18165 18166 18167 18168 18169 18170 18171 18172 18173 18174 18175 18176 18177 18178 18179 18180 18181 18182 18183 18184 18185 18186 18187 18188 18189 18190 18191 18192 18193 18194 18195 18196 18197 18198 18199 18200 18201 18202 18203 18204 18205 18206 18207 18208 18209 18210 18211 18212 18213 18214 18215 18216 18217 18218 18219 18220 18221 18222 18223 18224 18225 18226 18227 18228 18229 18230 18231 18232 18233 18234 18235 18236 18237 18238 18239 18240 18241 18242 18243 18244 18245 18246 18247 18248 18249 18250 18251 18252 18253 18254 18255 18256 18257 18258 18259 18260 18261 18262 18263 18264 18265 18266 18267 18268 18269 18270 18271 18272 18273 18274 18275 18276 18277 18278 18279 18280 18281 18282 18283 18284 18285 18286 18287 18288 18289 18290 18291 18292 18293 18294 18295 18296 18297 18298 18299 18300 18301 18302 18303 18304 18305 18306 18307 18308 18309 18310 18311 18312 18313 18314 18315 18316 18317 18318 18319 18320 18321 18322 18323 18324 18325 18326 18327 18328 18329 18330 18331 18332 18333 18334 18335 18336 18337 18338 18339 18340 18341 18342 18343 18344 18345 18346 18347 18348 18349 18350 18351 18352 18353 18354 18355 18356 18357 18358 18359 18360 18361 18362 18363 18364 18365 18366 18367 18368 18369 18370 18371 18372 18373 18374 18375 18376 18377 18378 18379 18380 18381 18382 18383 18384 18385 18386 18387 18388 18389 18390 18391 18392 18393 18394 18395 18396 18397 18398 18399 18400 18401 18402 18403 18404 18405 18406 18407 18408 18409 18410 18411 18412 18413 18414 18415 18416 18417 18418 18419 18420 18421 18422 18423 18424 18425 18426 18427 18428 18429 18430 18431 18432 18433 18434 18435 18436 18437 18438 18439 18440 18441 18442 18443 18444 18445 18446 18447 18448 18449 18450 18451 18452 18453 18454 18455 18456 18457 18458 18459 18460 18461 18462 18463 18464 18465 18466 18467 18468 18469 18470 18471 18472 18473 18474 18475 18476 18477 18478 18479 18480 18481 18482 18483 18484 18485 18486 18487 18488 18489 18490 18491 18492 18493 18494 18495 18496 18497 18498 18499 18500 18501 18502 18503 18504 18505 18506 18507 18508 18509 18510 18511 18512 18513 18514 18515 18516 18517 18518 18519 18520 18521 18522 18523 18524 18525 18526 18527 18528 18529 18530 18531 18532 18533 18534 18535 18536 18537 18538 18539 18540 18541 18542 18543 18544 18545 18546 18547 18548 18549 18550 18551 18552 18553 18554 18555 18556 18557 18558 18559 18560 18561 18562 18563 18564 18565 18566 18567 18568 18569 18570 18571 18572 18573 18574 18575 18576 18577 18578 18579 18580 18581 18582 18583 18584 18585 18586 18587 18588 18589 18590 18591 18592 18593 18594 18595 18596 18597 18598 18599 18600 18601 18602 18603 18604 18605 18606 18607 18608 18609 18610 18611 18612 18613 18614 18615 18616 18617 18618 18619 18620 18621 18622 18623 18624 18625 18626 18627 18628 18629 18630 18631 18632 18633 18634 18635 18636 18637 18638 18639 18640 18641 18642 18643 18644 18645 18646 18647 18648 18649 18650 18651 18652 18653 18654 18655 18656 18657 18658 18659 18660 18661 18662 18663 18664 18665 18666 18667 18668 18669 18670 18671 18672 18673 18674 18675 18676 18677 18678 18679 18680 18681 18682 18683 18684 18685 18686 18687 18688 18689 18690 18691 18692 18693 18694 18695 18696 18697 18698 18699 18700 18701 18702 18703 18704 18705 18706 18707 18708 18709 18710 18711 18712 18713 18714 18715 18716 18717 18718 18719 18720 18721 18722 18723 18724 18725 18726 18727 18728 18729 18730 18731 18732 18733 18734 18735 18736 18737 18738 18739 18740 18741 18742 18743 18744 18745 18746 18747 18748 18749 18750 18751 18752 18753 18754 18755 18756 18757 18758 18759 18760 18761 18762 18763 18764 18765 18766 18767 18768 18769 18770 18771 18772 18773 18774 18775 18776 18777 18778 18779 18780 18781 18782 18783 18784 18785 18786 18787 18788 18789 18790 18791 18792 18793 18794 18795 18796 18797 18798 18799 18800 18801 18802 18803 18804 18805 18806 18807 18808 18809 18810 18811 18812 18813 18814 18815 18816 18817 18818 18819 18820 18821 18822 18823 18824 18825 18826 18827 18828 18829 18830 18831 18832 18833 18834 18835 18836 18837 18838 18839 18840 18841 18842 18843 18844 18845 18846 18847 18848 18849 18850 18851 18852 18853 18854 18855 18856 18857 18858 18859 18860 18861 18862 18863 18864 18865 18866 18867 18868 18869 18870 18871 18872 18873 18874 18875 18876 18877 18878 18879 18880 18881 18882 18883 18884 18885 18886 18887 18888 18889 18890 18891 18892 18893 18894 18895 18896 18897 18898 18899 18900 18901 18902 18903 18904 18905 18906 18907 18908 18909 18910 18911 18912 18913 18914 18915 18916 18917 18918 18919 18920 18921 18922 18923 18924 18925 18926 18927 18928 18929 18930 18931 18932 18933 18934 18935 18936 18937 18938 18939 18940 18941 18942 18943 18944 18945 18946 18947 18948 18949 18950 18951 18952 18953 18954 18955 18956 18957 18958 18959 18960 18961 18962 18963 18964 18965 18966 18967 18968 18969 18970 18971 18972 18973 18974 18975 18976 18977 18978 18979 18980 18981 18982 18983 18984 18985 18986 18987 18988 18989 18990 18991 18992 18993 18994 18995 18996 18997 18998 18999 19000 19001 19002 19003 19004 19005 19006 19007 19008 19009 19010 19011 19012 19013 19014 19015 19016 19017 19018 19019 19020 19021 19022 19023 19024 19025 19026 19027 19028 19029 19030 19031 19032 19033 19034 19035 19036 19037 19038 19039 19040 19041 19042 19043 19044 19045 19046 19047 19048 19049 19050 19051 19052 19053 19054 19055 19056 19057 19058 19059 19060 19061 19062 19063 19064 19065 19066 19067 19068 19069 19070 19071 19072 19073 19074 19075 19076 19077 19078 19079 19080 19081 19082 19083 19084 19085 19086 19087 19088 19089 19090 19091 19092 19093 19094 19095 19096 19097 19098 19099 19100 19101 19102 19103 19104 19105 19106 19107 19108 19109 19110 19111 19112 19113 19114 19115 19116 19117 19118 19119 19120 19121 19122 19123 19124 19125 19126 19127 19128 19129 19130 19131 19132 19133 19134 19135 19136 19137 19138 19139 19140 19141 19142 19143 19144 19145 19146 19147 19148 19149 19150 19151 19152 19153 19154 19155 19156 19157 19158 19159 19160 19161 19162 19163 19164 19165 19166 19167 19168 19169 19170 19171 19172 19173 19174 19175 19176 19177 19178 19179 19180 19181 19182 19183 19184 19185 19186 19187 19188 19189 19190 19191 19192 19193 19194 19195 19196 19197 19198 19199 19200 19201 19202 19203 19204 19205 19206 19207 19208 19209 19210 19211 19212 19213 19214 19215 19216 19217 19218 19219 19220 19221 19222 19223 19224 19225 19226 19227 19228 19229 19230 19231 19232 19233 19234 19235 19236 19237 19238 19239 19240 19241 19242 19243 19244 19245 19246 19247 19248 19249 19250 19251 19252 19253 19254 19255 19256 19257 19258 19259 19260 19261 19262 19263 19264 19265 19266 19267 19268 19269 19270 19271 19272 19273 19274 19275 19276 19277 19278 19279 19280 19281 19282 19283 19284 19285 19286 19287 19288 19289 19290 19291 19292 19293 19294 19295 19296 19297 19298 19299 19300 19301 19302 19303 19304 19305 19306 19307 19308 19309 19310 19311 19312 19313 19314 19315 19316 19317 19318 19319 19320 19321 19322 19323 19324 19325 19326 19327 19328 19329 19330 19331 19332 19333 19334 19335 19336 19337 19338 19339 19340 19341 19342 19343 19344 19345 19346 19347 19348 19349 19350 19351 19352 19353 19354 19355 19356 19357 19358 19359 19360 19361 19362 19363 19364 19365 19366 19367 19368 19369 19370 19371 19372 19373 19374 19375 19376 19377 19378 19379 19380 19381 19382 19383 19384 19385 19386 19387 19388 19389 19390 19391 19392 19393 19394 19395 19396 19397 19398 19399 19400 19401 19402 19403 19404 19405 19406 19407 19408 19409 19410 19411 19412 19413 19414 19415 19416 19417 19418 19419 19420 19421 19422 19423 19424 19425 19426 19427 19428 19429 19430 19431 19432 19433 19434 19435 19436 19437 19438 19439 19440 19441 19442 19443 19444 19445 19446 19447 19448 19449 19450 19451 19452 19453 19454 19455 19456 19457 19458 19459 19460 19461 19462 19463 19464 19465 19466 19467 19468 19469 19470 19471 19472 19473 19474 19475 19476 19477 19478 19479 19480 19481 19482 19483 19484 19485 19486 19487 19488 19489 19490 19491 19492 19493 19494 19495 19496 19497 19498 19499 19500 19501 19502 19503 19504 19505 19506 19507 19508 19509 19510 19511 19512 19513 19514 19515 19516 19517 19518 19519 19520 19521 19522 19523 19524 19525 19526 19527 19528 19529 19530 19531 19532 19533 19534 19535 19536 19537 19538 19539 19540 19541 19542 19543 19544 19545 19546 19547 19548 19549 19550 19551 19552 19553 19554 19555 19556 19557 19558 19559 19560 19561 19562 19563 19564 19565 19566 19567 19568 19569 19570 19571 19572 19573 19574 19575 19576 19577 19578 19579 19580 19581 19582 19583 19584 19585 19586 19587 19588 19589 19590 19591 19592 19593 19594 19595 19596 19597 19598 19599 19600 19601 19602 19603 19604 19605 19606 19607 19608 19609 19610 19611 19612 19613 19614 19615 19616 19617 19618 19619 19620 19621 19622 19623 19624 19625 19626 19627 19628 19629 19630 19631 19632 19633 19634 19635 19636 19637 19638 19639 19640 19641 19642 19643 19644 19645 19646 19647 19648 19649 19650 19651 19652 19653 19654 19655 19656 19657 19658 19659 19660 19661 19662 19663 19664 19665 19666 19667 19668 19669 19670 19671 19672 19673 19674 19675 19676 19677 19678 19679 19680 19681 19682 19683 19684 19685 19686 19687 19688 19689 19690 19691 19692 19693 19694 19695 19696 19697 19698 19699 19700 19701 19702 19703 19704 19705 19706 19707 19708 19709 19710 19711 19712 19713 19714 19715 19716 19717 19718 19719 19720 19721 19722 19723 19724 19725 19726 19727 19728 19729 19730 19731 19732 19733 19734 19735 19736 19737 19738 19739 19740 19741 19742 19743 19744 19745 19746 19747 19748 19749 19750 19751 19752 19753 19754 19755 19756 19757 19758 19759 19760 19761 19762 19763 19764 19765 19766 19767 19768 19769 19770 19771 19772 19773 19774 19775 19776 19777 19778 19779 19780 19781 19782 19783 19784 19785 19786 19787 19788 19789 19790 19791 19792 19793 19794 19795 19796 19797 19798 19799 19800 19801 19802 19803 19804 19805 19806 19807 19808 19809 19810 19811 19812 19813 19814 19815 19816 19817 19818 19819 19820 19821 19822 19823 19824 19825 19826 19827 19828 19829 19830 19831 19832 19833 19834 19835 19836 19837 19838 19839 19840 19841 19842 19843 19844 19845 19846 19847 19848 19849 19850 19851 19852 19853 19854 19855 19856 19857 19858 19859 19860 19861 19862 19863 19864 19865 19866 19867 19868 19869 19870 19871 19872 19873 19874 19875 19876 19877 19878 19879 19880 19881 19882 19883 19884 19885 19886 19887 19888 19889 19890 19891 19892 19893 19894 19895 19896 19897 19898 19899 19900 19901 19902 19903 19904 19905 19906 19907 19908 19909 19910 19911 19912 19913 19914 19915 19916 19917 19918 19919 19920 19921 19922 19923 19924 19925 19926 19927 19928 19929 19930 19931 19932 19933 19934 19935 19936 19937 19938 19939 19940 19941 19942 19943 19944 19945 19946 19947 19948 19949 19950 19951 19952 19953 19954 19955 19956 19957 19958 19959 19960 19961 19962 19963 19964 19965 19966 19967 19968 19969 19970 19971 19972 19973 19974 19975 19976 19977 19978 19979 19980 19981 19982 19983 19984 19985 19986 19987 19988 19989 19990 19991 19992 19993 19994 19995 19996 19997 19998 19999 20000 20001 20002 20003 20004 20005 20006 20007 20008 20009 20010 20011 20012 20013 20014 20015 20016 20017 20018 20019 20020 20021 20022 20023 20024 20025 20026 20027 20028 20029 20030 20031 20032 20033 20034 20035 20036 20037 20038 20039 20040 20041 20042 20043 20044 20045 20046 20047 20048 20049 20050 20051 20052 20053 20054 20055 20056 20057 20058 20059 20060 20061 20062 20063 20064 20065 20066 20067 20068 20069 20070 20071 20072 20073 20074 20075 20076 20077 20078 20079 20080 20081 20082 20083 20084 20085 20086 20087 20088 20089 20090 20091 20092 20093 20094 20095 20096 20097 20098 20099 20100 20101 20102 20103 20104 20105 20106 20107 20108 20109 20110 20111 20112 20113 20114 20115 20116 20117 20118 20119 20120 20121 20122 20123 20124 20125 20126 20127 20128 20129 20130 20131 20132 20133 20134 20135 20136 20137 20138 20139 20140 20141 20142 20143 20144 20145 20146 20147 20148 20149 20150 20151 20152 20153 20154 20155 20156 20157 20158 20159 20160 20161 20162 20163 20164 20165 20166 20167 20168 20169 20170 20171 20172 20173 20174 20175 20176 20177 20178 20179 20180 20181 20182 20183 20184 20185 20186 20187 20188 20189 20190 20191 20192 20193 20194 20195 20196 20197 20198 20199 20200 20201 20202 20203 20204 20205 20206 20207 20208 20209 20210 20211 20212 20213 20214 20215 20216 20217 20218 20219 20220 20221 20222 20223 20224 20225 20226 20227 20228 20229 20230 20231 20232 20233 20234 20235 20236 20237 20238 20239 20240 20241 20242 20243 20244 20245 20246 20247 20248 20249 20250 20251 20252 20253 20254 20255 20256 20257 20258 20259 20260 20261 20262 20263 20264 20265 20266 20267 20268 20269 20270 20271 20272 20273 20274 20275 20276 20277 20278 20279 20280 20281 20282 20283 20284 20285 20286 20287 20288 20289 20290 20291 20292 20293 20294 20295 20296 20297 20298 20299 20300 20301 20302 20303 20304 20305 20306 20307 20308 20309 20310 20311 20312 20313 20314 20315 20316 20317 20318 20319 20320 20321 20322 20323 20324 20325 20326 20327 20328 20329 20330 20331 20332 20333 20334 20335 20336 20337 20338 20339 20340 20341 20342 20343 20344 20345 20346 20347 20348 20349 20350 20351 20352 20353 20354 20355 20356 20357 20358 20359 20360 20361 20362 20363 20364 20365 20366 20367 20368 20369 20370 20371 20372 20373 20374 20375 20376 20377 20378 20379 20380 20381 20382 20383 20384 20385 20386 20387 20388 20389 20390 20391 20392 20393 20394 20395 20396 20397 20398 20399 20400 20401 20402 20403 20404 20405 20406 20407 20408 20409 20410 20411 20412 20413 20414 20415 20416 20417 20418 20419 20420 20421 20422 20423 20424 20425 20426 20427 20428 20429 20430 20431 20432 20433 20434 20435 20436 20437 20438 20439 20440 20441 20442 20443 20444 20445 20446 20447 20448 20449 20450 20451 20452 20453 20454 20455 20456 20457 20458 20459 20460 20461 20462 20463 20464 20465 20466 20467 20468 20469 20470 20471 20472 20473 20474 20475 20476 20477 20478 20479 20480 20481 20482 20483 20484 20485 20486 20487 20488 20489 20490 20491 20492 20493 20494 20495 20496 20497 20498 20499 20500 20501 20502 20503 20504 20505 20506 20507 20508 20509 20510 20511 20512 20513 20514 20515 20516 20517 20518 20519 20520 20521 20522 20523 20524 20525 20526 20527 20528 20529 20530 20531 20532 20533 20534 20535 20536 20537 20538 20539 20540 20541 20542 20543 20544 20545 20546 20547 20548 20549 20550 20551 20552 20553 20554 20555 20556 20557 20558 20559 20560 20561 20562 20563 20564 20565 20566 20567 20568 20569 20570 20571 20572 20573 20574 20575 20576 20577 20578 20579 20580 20581 20582 20583 20584 20585 20586 20587 20588 20589 20590 20591 20592 20593 20594 20595 20596 20597 20598 20599 20600 20601 20602 20603 20604 20605 20606 20607 20608 20609 20610 20611 20612 20613 20614 20615 20616 20617 20618 20619 20620 20621 20622 20623 20624 20625 20626 20627 20628 20629 20630 20631 20632 20633 20634 20635 20636 20637 20638 20639 20640 20641 20642 20643 20644 20645 20646 20647 20648 20649 20650 20651 20652 20653 20654 20655 20656 20657 20658 20659 20660 20661 20662 20663 20664 20665 20666 20667 20668 20669 20670 20671 20672 20673 20674 20675 20676 20677 20678 20679 20680 20681 20682 20683 20684 20685 20686 20687 20688 20689 20690 20691 20692 20693 20694 20695 20696 20697 20698 20699 20700 20701 20702 20703 20704 20705 20706 20707 20708 20709 20710 20711 20712 20713 20714 20715 20716 20717 20718 20719 20720 20721 20722 20723 20724 20725 20726 20727 20728 20729 20730 20731 20732 20733 20734 20735 20736 20737 20738 20739 20740 20741 20742 20743 20744 20745 20746 20747 20748 20749 20750 20751 20752 20753 20754 20755 20756 20757 20758 20759 20760 20761 20762 20763 20764 20765 20766 20767 20768 20769 20770 20771 20772 20773 20774 20775 20776 20777 20778 20779 20780 20781 20782 20783 20784 20785 20786 20787 20788 20789 20790 20791 20792 20793 20794 20795 20796 20797 20798 20799 20800 20801 20802 20803 20804 20805 20806 20807 20808 20809 20810 20811 20812 20813 20814 20815 20816 20817 20818 20819 20820 20821 20822 20823 20824 20825 20826 20827 20828 20829 20830 20831 20832 20833 20834 20835 20836 20837 20838 20839 20840 20841 20842 20843 20844 20845 20846 20847 20848 20849 20850 20851 20852 20853 20854 20855 20856 20857 20858 20859 20860 20861 20862 20863 20864 20865 20866 20867 20868 20869 20870 20871 20872 20873 20874 20875 20876 20877 20878 20879 20880 20881 20882 20883 20884 20885 20886 20887 20888 20889 20890 20891 20892 20893 20894 20895 20896 20897 20898 20899 20900 20901 20902 20903 20904 20905 20906 20907 20908 20909 20910 20911 20912 20913 20914 20915 20916 20917 20918 20919 20920 20921 20922 20923 20924 20925 20926 20927 20928 20929 20930 20931 20932 20933 20934 20935 20936 20937 20938 20939 20940 20941 20942 20943 20944 20945 20946 20947 20948 20949 20950 20951 20952 20953 20954 20955 20956 20957 20958 20959 20960 20961 20962 20963 20964 20965 20966 20967 20968 20969 20970 20971 20972 20973 20974 20975 20976 20977 20978 20979 20980 20981 20982 20983 20984 20985 20986 20987 20988 20989 20990 20991 20992 20993 20994 20995 20996 20997 20998 20999 21000 21001 21002 21003 21004 21005 21006 21007 21008 21009 21010 21011 21012 21013 21014 21015 21016 21017 21018 21019 21020 21021 21022 21023 21024 21025 21026 21027 21028 21029 21030 21031 21032 21033 21034 21035 21036 21037 21038 21039 21040 21041 21042 21043 21044 21045 21046 21047 21048 21049 21050 21051 21052 21053 21054 21055 21056 21057 21058 21059 21060 21061 21062 21063 21064 21065 21066 21067 21068 21069 21070 21071 21072 21073 21074 21075 21076 21077 21078 21079 21080 21081 21082 21083 21084 21085 21086 21087 21088 21089 21090 21091 21092 21093 21094 21095 21096 21097 21098 21099 21100 21101 21102 21103 21104 21105 21106 21107 21108 21109 21110 21111 21112 21113 21114 21115 21116 21117 21118 21119 21120 21121 21122 21123 21124 21125 21126 21127 21128 21129 21130 21131 21132 21133 21134 21135 21136 21137 21138 21139 21140 21141 21142 21143 21144 21145 21146 21147 21148 21149 21150 21151 21152 21153 21154 21155 21156 21157 21158 21159 21160 21161 21162 21163 21164 21165 21166 21167 21168 21169 21170 21171 21172 21173 21174 21175 21176 21177 21178 21179 21180 21181 21182 21183 21184 21185 21186 21187 21188 21189 21190 21191 21192 21193 21194 21195 21196 21197 21198 21199 21200 21201 21202 21203 21204 21205 21206 21207 21208 21209 21210 21211 21212 21213 21214 21215 21216 21217 21218 21219 21220 21221 21222 21223 21224 21225 21226 21227 21228 21229 21230 21231 21232 21233 21234 21235 21236 21237 21238 21239 21240 21241 21242 21243 21244 21245 21246 21247 21248 21249 21250 21251 21252 21253 21254 21255 21256 21257 21258 21259 21260 21261 21262 21263 21264 21265 21266 21267 21268 21269 21270 21271 21272 21273 21274 21275 21276 21277 21278 21279 21280 21281 21282 21283 21284 21285 21286 21287 21288 21289 21290 21291 21292 21293 21294 21295 21296 21297 21298 21299 21300 21301 21302 21303 21304 21305 21306 21307 21308 21309 21310 21311 21312 21313 21314 21315 21316 21317 21318 21319 21320 21321 21322 21323 21324 21325 21326 21327 21328 21329 21330 21331 21332 21333 21334 21335 21336 21337 21338 21339 21340 21341 21342 21343 21344 21345 21346 21347 21348 21349 21350 21351 21352 21353 21354 21355 21356 21357 21358 21359 21360 21361 21362 21363 21364 21365 21366 21367 21368 21369 21370 21371 21372 21373 21374 21375 21376 21377 21378 21379 21380 21381 21382 21383 21384 21385 21386 21387 21388 21389 21390 21391 21392 21393 21394 21395 21396 21397 21398 21399 21400 21401 21402 21403 21404 21405 21406 21407 21408 21409 21410 21411 21412 21413 21414 21415 21416 21417 21418 21419 21420 21421 21422 21423 21424 21425 21426 21427 21428 21429 21430 21431 21432 21433 21434 21435 21436 21437 21438 21439 21440 21441 21442 21443 21444 21445 21446 21447 21448 21449 21450 21451 21452 21453 21454 21455 21456 21457 21458 21459 21460 21461 21462 21463 21464 21465 21466 21467 21468 21469 21470 21471 21472 21473 21474 21475 21476 21477 21478 21479 21480 21481 21482 21483 21484 21485 21486 21487 21488 21489 21490 21491 21492 21493 21494 21495 21496 21497 21498 21499 21500 21501 21502 21503 21504 21505 21506 21507 21508 21509 21510 21511 21512 21513 21514 21515 21516 21517 21518 21519 21520 21521 21522 21523 21524 21525 21526 21527 21528 21529 21530 21531 21532 21533 21534 21535 21536 21537 21538 21539 21540 21541 21542 21543 21544 21545 21546 21547 21548 21549 21550 21551 21552 21553 21554 21555 21556 21557 21558 21559 21560 21561 21562 21563 21564 21565 21566 21567 21568 21569 21570 21571 21572 21573 21574 21575 21576 21577 21578 21579 21580 21581 21582 21583 21584 21585 21586 21587 21588 21589 21590 21591 21592 21593 21594 21595 21596 21597 21598 21599 21600 21601 21602 21603 21604 21605 21606 21607 21608 21609 21610 21611 21612 21613 21614 21615 21616 21617 21618 21619 21620 21621 21622 21623 21624 21625 21626 21627 21628 21629 21630 21631 21632 21633 21634 21635 21636 21637 21638 21639 21640 21641 21642 21643 21644 21645 21646 21647 21648 21649 21650 21651 21652 21653 21654 21655 21656 21657 21658 21659 21660 21661 21662 21663 21664 21665 21666 21667 21668 21669 21670 21671 21672 21673 21674 21675 21676 21677 21678 21679 21680 21681 21682 21683 21684 21685 21686 21687 21688 21689 21690 21691 21692 21693 21694 21695 21696 21697 21698 21699 21700 21701 21702 21703 21704 21705 21706 21707 21708 21709 21710 21711 21712 21713 21714 21715 21716 21717 21718 21719 21720 21721 21722 21723 21724 21725 21726 21727 21728 21729 21730 21731 21732 21733 21734 21735 21736 21737 21738 21739 21740 21741 21742 21743 21744 21745 21746 21747 21748 21749 21750 21751 21752 21753 21754 21755 21756 21757 21758 21759 21760 21761 21762 21763 21764 21765 21766 21767 21768 21769 21770 21771 21772 21773 21774 21775 21776 21777 21778 21779 21780 21781 21782 21783 21784 21785 21786 21787 21788 21789 21790 21791 21792 21793 21794 21795 21796 21797 21798 21799 21800 21801 21802 21803 21804 21805 21806 21807 21808 21809 21810 21811 21812 21813 21814 21815 21816 21817 21818 21819 21820 21821 21822 21823 21824 21825 21826 21827 21828 21829 21830 21831 21832 21833 21834 21835 21836 21837 21838 21839 21840 21841 21842 21843 21844 21845 21846 21847 21848 21849 21850 21851 21852 21853 21854 21855 21856 21857 21858 21859 21860 21861 21862 21863 21864 21865 21866 21867 21868 21869 21870 21871 21872 21873 21874 21875 21876 21877 21878 21879 21880 21881 21882 21883 21884 21885 21886 21887 21888 21889 21890 21891 21892 21893 21894 21895 21896 21897 21898 21899 21900 21901 21902 21903 21904 21905 21906 21907 21908 21909 21910 21911 21912 21913 21914 21915 21916 21917 21918 21919 21920 21921 21922 21923 21924 21925 21926 21927 21928 21929 21930 21931 21932 21933 21934 21935 21936 21937 21938 21939 21940 21941 21942 21943 21944 21945 21946 21947 21948 21949 21950 21951 21952 21953 21954 21955 21956 21957 21958 21959 21960 21961 21962 21963 21964 21965 21966 21967 21968 21969 21970 21971 21972 21973 21974 21975 21976 21977 21978 21979 21980 21981 21982 21983 21984 21985 21986 21987 21988 21989 21990 21991 21992 21993 21994 21995 21996 21997 21998 21999 22000 22001 22002 22003 22004 22005 22006 22007 22008 22009 22010 22011 22012 22013 22014 22015 22016 22017 22018 22019 22020 22021 22022 22023 22024 22025 22026 22027 22028 22029 22030 22031 22032 22033 22034 22035 22036 22037 22038 22039 22040 22041 22042 22043 22044 22045 22046 22047 22048 22049 22050 22051 22052 22053 22054 22055 22056 22057 22058 22059 22060 22061 22062 22063 22064 22065 22066 22067 22068 22069 22070 22071 22072 22073 22074 22075 22076 22077 22078 22079 22080 22081 22082 22083 22084 22085 22086 22087 22088 22089 22090 22091 22092 22093 22094 22095 22096 22097 22098 22099 22100 22101 22102 22103 22104 22105 22106 22107 22108 22109 22110 22111 22112 22113 22114 22115 22116 22117 22118 22119 22120 22121 22122 22123 22124 22125 22126 22127 22128 22129 22130 22131 22132 22133 22134 22135 22136 22137 22138 22139 22140 22141 22142 22143 22144 22145 22146 22147 22148 22149 22150 22151 22152 22153 22154 22155 22156 22157 22158 22159 22160 22161 22162 22163 22164 22165 22166 22167 22168 22169 22170 22171 22172 22173 22174 22175 22176 22177 22178 22179 22180 22181 22182 22183 22184 22185 22186 22187 22188 22189 22190 22191 22192 22193 22194 22195 22196 22197 22198 22199 22200 22201 22202 22203 22204 22205 22206 22207 22208 22209 22210 22211 22212 22213 22214 22215 22216 22217 22218 22219 22220 22221 22222 22223 22224 22225 22226 22227 22228 22229 22230 22231 22232 22233 22234 22235 22236 22237 22238 22239 22240 22241 22242 22243 22244 22245 22246 22247 22248 22249 22250 22251 22252 22253 22254 22255 22256 22257 22258 22259 22260 22261 22262 22263 22264 22265 22266 22267 22268 22269 22270 22271 22272 22273 22274 22275 22276 22277 22278 22279 22280 22281 22282 22283 22284 22285 22286 22287 22288 22289 22290 22291 22292 22293 22294 22295 22296 22297 22298 22299 22300 22301 22302 22303 22304 22305 22306 22307 22308 22309 22310 22311 22312 22313 22314 22315 22316 22317 22318 22319 22320 22321 22322 22323 22324 22325 22326 22327 22328 22329 22330 22331 22332 22333 22334 22335 22336 22337 22338 22339 22340 22341 22342 22343 22344 22345 22346 22347 22348 22349 22350 22351 22352 22353 22354 22355 22356 22357 22358 22359 22360 22361 22362 22363 22364 22365 22366 22367 22368 22369 22370 22371 22372 22373 22374 22375 22376 22377 22378 22379 22380 22381 22382 22383 22384 22385 22386 22387 22388 22389 22390 22391 22392 22393 22394 22395 22396 22397 22398 22399 22400 22401 22402 22403 22404 22405 22406 22407 22408 22409 22410 22411 22412 22413 22414 22415 22416 22417 22418 22419 22420 22421 22422 22423 22424 22425 22426 22427 22428 22429 22430 22431 22432 22433 22434 22435 22436 22437 22438 22439 22440 22441 22442 22443 22444 22445 22446 22447 22448 22449 22450 22451 22452 22453 22454 22455 22456 22457 22458 22459 22460 22461 22462 22463 22464 22465 22466 22467 22468 22469 22470 22471 22472 22473 22474 22475 22476 22477 22478 22479 22480 22481 22482 22483 22484 22485 22486 22487 22488 22489 22490 22491 22492 22493 22494 22495 22496 22497 22498 22499 22500 22501 22502 22503 22504 22505 22506 22507 22508 22509 22510 22511 22512 22513 22514 22515 22516 22517 22518 22519 22520 22521 22522 22523 22524 22525 22526 22527 22528 22529 22530 22531 22532 22533 22534 22535 22536 22537 22538 22539 22540 22541 22542 22543 22544 22545 22546 22547 22548 22549 22550 22551 22552 22553 22554 22555 22556 22557 22558 22559 22560 22561 22562 22563 22564 22565 22566 22567 22568 22569 22570 22571 22572 22573 22574 22575 22576 22577 22578 22579 22580 22581 22582 22583 22584 22585 22586 22587 22588 22589 22590 22591 22592 22593 22594 22595 22596 22597 22598 22599 22600 22601 22602 22603 22604 22605 22606 22607 22608 22609 22610 22611 22612 22613 22614 22615 22616 22617 22618 22619 22620 22621 22622 22623 22624 22625 22626 22627 22628 22629 22630 22631 22632 22633 22634 22635 22636 22637 22638 22639 22640 22641 22642 22643 22644 22645 22646 22647 22648 22649 22650 22651 22652 22653 22654 22655 22656 22657 22658 22659 22660 22661 22662 22663 22664 22665 22666 22667 22668 22669 22670 22671 22672 22673 22674 22675 22676 22677 22678 22679 22680 22681 22682 22683 22684 22685 22686 22687 22688 22689 22690 22691 22692 22693 22694 22695 22696 22697 22698 22699 22700 22701 22702 22703 22704 22705 22706 22707 22708 22709 22710 22711 22712 22713 22714 22715 22716 22717 22718 22719 22720 22721 22722 22723 22724 22725 22726 22727 22728 22729 22730 22731 22732 22733 22734 22735 22736 22737 22738 22739 22740 22741 22742 22743 22744 22745 22746 22747 22748 22749 22750 22751 22752 22753 22754 22755 22756 22757 22758 22759 22760 22761 22762 22763 22764 22765 22766 22767 22768 22769 22770 22771 22772 22773 22774 22775 22776 22777 22778 22779 22780 22781 22782 22783 22784 22785 22786 22787 22788 22789 22790 22791 22792 22793 22794 22795 22796 22797 22798 22799 22800 22801 22802 22803 22804 22805 22806 22807 22808 22809 22810 22811 22812 22813 22814 22815 22816 22817 22818 22819 22820 22821 22822 22823 22824 22825 22826 22827 22828 22829 22830 22831 22832 22833 22834 22835 22836 22837 22838 22839 22840 22841 22842 22843 22844 22845 22846 22847 22848 22849 22850 22851 22852 22853 22854 22855 22856 22857 22858 22859 22860 22861 22862 22863 22864 22865 22866 22867 22868 22869 22870 22871 22872 22873 22874 22875 22876 22877 22878 22879 22880 22881 22882 22883 22884 22885 22886 22887 22888 22889 22890 22891 22892 22893 22894 22895 22896 22897 22898 22899 22900 22901 22902 22903 22904 22905 22906 22907 22908 22909 22910 22911 22912 22913 22914 22915 22916 22917 22918 22919 22920 22921 22922 22923 22924 22925 22926 22927 22928 22929 22930 22931 22932 22933 22934 22935 22936 22937 22938 22939 22940 22941 22942 22943 22944 22945 22946 22947 22948 22949 22950 22951 22952 22953 22954 22955 22956 22957 22958 22959 22960 22961 22962 22963 22964 22965 22966 22967 22968 22969 22970 22971 22972 22973 22974 22975 22976 22977 22978 22979 22980 22981 22982 22983 22984 22985 22986 22987 22988 22989 22990 22991 22992 22993 22994 22995 22996 22997 22998 22999 23000 23001 23002 23003 23004 23005 23006 23007 23008 23009 23010 23011 23012 23013 23014 23015 23016 23017 23018 23019 23020 23021 23022 23023 23024 23025 23026 23027 23028 23029 23030 23031 23032 23033 23034 23035 23036 23037 23038 23039 23040 23041 23042 23043 23044 23045 23046 23047 23048 23049 23050 23051 23052 23053 23054 23055 23056 23057 23058 23059 23060 23061 23062 23063 23064 23065 23066 23067 23068 23069 23070 23071 23072 23073 23074 23075 23076 23077 23078 23079 23080 23081 23082 23083 23084 23085 23086 23087 23088 23089 23090 23091 23092 23093 23094 23095 23096 23097 23098 23099 23100 23101 23102 23103 23104 23105 23106 23107 23108 23109 23110 23111 23112 23113 23114 23115 23116 23117 23118 23119 23120 23121 23122 23123 23124 23125 23126 23127 23128 23129 23130 23131 23132 23133 23134 23135 23136 23137 23138 23139 23140 23141 23142 23143 23144 23145 23146 23147 23148 23149 23150 23151 23152 23153 23154 23155 23156 23157 23158 23159 23160 23161 23162 23163 23164 23165 23166 23167 23168 23169 23170 23171 23172 23173 23174 23175 23176 23177 23178 23179 23180 23181 23182 23183 23184 23185 23186 23187 23188 23189 23190 23191 23192 23193 23194 23195 23196 23197 23198 23199 23200 23201 23202 23203 23204 23205 23206 23207 23208 23209 23210 23211 23212 23213 23214 23215 23216 23217 23218 23219 23220 23221 23222 23223 23224 23225 23226 23227 23228 23229 23230 23231 23232 23233 23234 23235 23236 23237 23238 23239 23240 23241 23242 23243 23244 23245 23246 23247 23248 23249 23250 23251 23252 23253 23254 23255 23256 23257 23258 23259 23260 23261 23262 23263 23264 23265 23266 23267 23268 23269 23270 23271 23272 23273 23274 23275 23276 23277 23278 23279 23280 23281 23282 23283 23284 23285 23286 23287 23288 23289 23290 23291 23292 23293 23294 23295 23296 23297 23298 23299 23300 23301 23302 23303 23304 23305 23306 23307 23308 23309 23310 23311 23312 23313 23314 23315 23316 23317 23318 23319 23320 23321 23322 23323 23324 23325 23326 23327 23328 23329 23330 23331 23332 23333 23334 23335 23336 23337 23338 23339 23340 23341 23342 23343 23344 23345 23346 23347 23348 23349 23350 23351 23352 23353 23354 23355 23356 23357 23358 23359 23360 23361 23362 23363 23364 23365 23366 23367 23368 23369 23370 23371 23372 23373 23374 23375 23376 23377 23378 23379 23380 23381 23382 23383 23384 23385 23386 23387 23388 23389 23390 23391 23392 23393 23394 23395 23396 23397 23398 23399 23400 23401 23402 23403 23404 23405 23406 23407 23408 23409 23410 23411 23412 23413 23414 23415 23416 23417 23418 23419 23420 23421 23422 23423 23424 23425 23426 23427 23428 23429 23430 23431 23432 23433 23434 23435 23436 23437 23438 23439 23440 23441 23442 23443 23444 23445 23446 23447 23448 23449 23450 23451 23452 23453 23454 23455 23456 23457 23458 23459 23460 23461 23462 23463 23464 23465 23466 23467 23468 23469 23470 23471 23472 23473 23474 23475 23476 23477 23478 23479 23480 23481 23482 23483 23484 23485 23486 23487 23488 23489 23490 23491 23492 23493 23494 23495 23496 23497 23498 23499 23500 23501 23502 23503 23504 23505 23506 23507 23508 23509 23510 23511 23512 23513 23514 23515 23516 23517 23518 23519 23520 23521 23522 23523 23524 23525 23526 23527 23528 23529 23530 23531 23532 23533 23534 23535 23536 23537 23538 23539 23540 23541 23542 23543 23544 23545 23546 23547 23548 23549 23550 23551 23552 23553 23554 23555 23556 23557 23558 23559 23560 23561 23562 23563 23564 23565 23566 23567 23568 23569 23570 23571 23572 23573 23574 23575 23576 23577 23578 23579 23580 23581 23582 23583 23584 23585 23586 23587 23588 23589 23590 23591 23592 23593 23594 23595 23596 23597 23598 23599 23600 23601 23602 23603 23604 23605 23606 23607 23608 23609 23610 23611 23612 23613 23614 23615 23616 23617 23618 23619 23620 23621 23622 23623 23624 23625 23626 23627 23628 23629 23630 23631 23632 23633 23634 23635 23636 23637 23638 23639 23640 23641 23642 23643 23644 23645 23646 23647 23648 23649 23650 23651 23652 23653 23654 23655 23656 23657 23658 23659 23660 23661 23662 23663 23664 23665 23666 23667 23668 23669 23670 23671 23672 23673 23674 23675 23676 23677 23678 23679 23680 23681 23682 23683 23684 23685 23686 23687 23688 23689 23690 23691 23692 23693 23694 23695 23696 23697 23698 23699 23700 23701 23702 23703 23704 23705 23706 23707 23708 23709 23710 23711 23712 23713 23714 23715 23716 23717 23718 23719 23720 23721 23722 23723 23724 23725 23726 23727 23728 23729 23730 23731 23732 23733 23734 23735 23736 23737 23738 23739 23740 23741 23742 23743 23744 23745 23746 23747 23748 23749 23750 23751 23752 23753 23754 23755 23756 23757 23758 23759 23760 23761 23762 23763 23764 23765 23766 23767 23768 23769 23770 23771 23772 23773 23774 23775 23776 23777 23778 23779 23780 23781 23782 23783 23784 23785 23786 23787 23788 23789 23790 23791 23792 23793 23794 23795 23796 23797 23798 23799 23800 23801 23802 23803 23804 23805 23806 23807 23808 23809 23810 23811 23812 23813 23814 23815 23816 23817 23818 23819 23820 23821 23822 23823 23824 23825 23826 23827 23828 23829 23830 23831 23832 23833 23834 23835 23836 23837 23838 23839 23840 23841 23842 23843 23844 23845 23846 23847 23848 23849 23850 23851 23852 23853 23854 23855 23856 23857 23858 23859 23860 23861 23862 23863 23864 23865 23866 23867 23868 23869 23870 23871 23872 23873 23874 23875 23876 23877 23878 23879 23880 23881 23882 23883 23884 23885 23886 23887 23888 23889 23890 23891 23892 23893 23894 23895 23896 23897 23898 23899 23900 23901 23902 23903 23904 23905 23906 23907 23908 23909 23910 23911 23912 23913 23914 23915 23916 23917 23918 23919 23920 23921 23922 23923 23924 23925 23926 23927 23928 23929 23930 23931 23932 23933 23934 23935 23936 23937 23938 23939 23940 23941 23942 23943 23944 23945 23946 23947 23948 23949 23950 23951 23952 23953 23954 23955 23956 23957 23958 23959 23960 23961 23962 23963 23964 23965 23966 23967 23968 23969 23970 23971 23972 23973 23974 23975 23976 23977 23978 23979 23980 23981 23982 23983 23984 23985 23986 23987 23988 23989 23990 23991 23992 23993 23994 23995 23996 23997 23998 23999 24000 24001 24002 24003 24004 24005 24006 24007 24008 24009 24010 24011 24012 24013 24014 24015 24016 24017 24018 24019 24020 24021 24022 24023 24024 24025 24026 24027 24028 24029 24030 24031 24032 24033 24034 24035 24036 24037 24038 24039 24040 24041 24042 24043 24044 24045 24046 24047 24048 24049 24050 24051 24052 24053 24054 24055 24056 24057 24058 24059 24060 24061 24062 24063 24064 24065 24066 24067 24068 24069 24070 24071 24072 24073 24074 24075 24076 24077 24078 24079 24080 24081 24082 24083 24084 24085 24086 24087 24088 24089 24090 24091 24092 24093 24094 24095 24096 24097 24098 24099 24100 24101 24102 24103 24104 24105 24106 24107 24108 24109 24110 24111 24112 24113 24114 24115 24116 24117 24118 24119 24120 24121 24122 24123 24124 24125 24126 24127 24128 24129 24130 24131 24132 24133 24134 24135 24136 24137 24138 24139 24140 24141 24142 24143 24144 24145 24146 24147 24148 24149 24150 24151 24152 24153 24154 24155 24156 24157 24158 24159 24160 24161 24162 24163 24164 24165 24166 24167 24168 24169 24170 24171 24172 24173 24174 24175 24176 24177 24178 24179 24180 24181 24182 24183 24184 24185 24186 24187 24188 24189 24190 24191 24192 24193 24194 24195 24196 24197 24198 24199 24200 24201 24202 24203 24204 24205 24206 24207 24208 24209 24210 24211 24212 24213 24214 24215 24216 24217 24218 24219 24220 24221 24222 24223 24224 24225 24226 24227 24228 24229 24230 24231 24232 24233 24234 24235 24236 24237 24238 24239 24240 24241 24242 24243 24244 24245 24246 24247 24248 24249 24250 24251 24252 24253 24254 24255 24256 24257 24258 24259 24260 24261 24262 24263 24264 24265 24266 24267 24268 24269 24270 24271 24272 24273 24274 24275 24276 24277 24278 24279 24280 24281 24282 24283 24284 24285 24286 24287 24288 24289 24290 24291 24292 24293 24294 24295 24296 24297 24298 24299 24300 24301 24302 24303 24304 24305 24306 24307 24308 24309 24310 24311 24312 24313 24314 24315 24316 24317 24318 24319 24320 24321 24322 24323 24324 24325 24326 24327 24328 24329 24330 24331 24332 24333 24334 24335 24336 24337 24338 24339 24340 24341 24342 24343 24344 24345 24346 24347 24348 24349 24350 24351 24352 24353 24354 24355 24356 24357 24358 24359 24360 24361 24362 24363 24364 24365 24366 24367 24368 24369 24370 24371 24372 24373 24374 24375 24376 24377 24378 24379 24380 24381 24382 24383 24384 24385 24386 24387 24388 24389 24390 24391 24392 24393 24394 24395 24396 24397 24398 24399 24400 24401 24402 24403 24404 24405 24406 24407 24408 24409 24410 24411 24412 24413 24414 24415 24416 24417 24418 24419 24420 24421 24422 24423 24424 24425 24426 24427 24428 24429 24430 24431 24432 24433 24434 24435 24436 24437 24438 24439 24440 24441 24442 24443 24444 24445 24446 24447 24448 24449 24450 24451 24452 24453 24454 24455 24456 24457 24458 24459 24460 24461 24462 24463 24464 24465 24466 24467 24468 24469 24470 24471 24472 24473 24474 24475 24476 24477 24478 24479 24480 24481 24482 24483 24484 24485 24486 24487 24488 24489 24490 24491 24492 24493 24494 24495 24496 24497 24498 24499 24500 24501 24502 24503 24504 24505 24506 24507 24508 24509 24510 24511 24512 24513 24514 24515 24516 24517 24518 24519 24520 24521 24522 24523 24524 24525 24526 24527 24528 24529 24530 24531 24532 24533 24534 24535 24536 24537 24538 24539 24540 24541 24542 24543 24544 24545 24546 24547 24548 24549 24550 24551 24552 24553 24554 24555 24556 24557 24558 24559 24560 24561 24562 24563 24564 24565 24566 24567 24568 24569 24570 24571 24572 24573 24574 24575 24576 24577 24578 24579 24580 24581 24582 24583 24584 24585 24586 24587 24588 24589 24590 24591 24592 24593 24594 24595 24596 24597 24598 24599 24600 24601 24602 24603 24604 24605 24606 24607 24608 24609 24610 24611 24612 24613 24614 24615 24616 24617 24618 24619 24620 24621 24622 24623 24624 24625 24626 24627 24628 24629 24630 24631 24632 24633 24634 24635 24636 24637 24638 24639 24640 24641 24642 24643 24644 24645 24646 24647 24648 24649 24650 24651 24652 24653 24654 24655 24656 24657 24658 24659 24660 24661 24662 24663 24664 24665 24666 24667 24668 24669 24670 24671 24672 24673 24674 24675 24676 24677 24678 24679 24680 24681 24682 24683 24684 24685 24686 24687 24688 24689 24690 24691 24692 24693 24694 24695 24696 24697 24698 24699 24700 24701 24702 24703 24704 24705 24706 24707 24708 24709 24710 24711 24712 24713 24714 24715 24716 24717 24718 24719 24720 24721 24722 24723 24724 24725 24726 24727 24728 24729 24730 24731 24732 24733 24734 24735 24736 24737 24738 24739 24740 24741 24742 24743 24744 24745 24746 24747 24748 24749 24750 24751 24752 24753 24754 24755 24756 24757 24758 24759 24760 24761 24762 24763 24764 24765 24766 24767 24768 24769 24770 24771 24772 24773 24774 24775 24776 24777 24778 24779 24780 24781 24782 24783 24784 24785 24786 24787 24788 24789 24790 24791 24792 24793 24794 24795 24796 24797 24798 24799 24800 24801 24802 24803 24804 24805 24806 24807 24808 24809 24810 24811 24812 24813 24814 24815 24816 24817 24818 24819 24820 24821 24822 24823 24824 24825 24826 24827 24828 24829 24830 24831 24832 24833 24834 24835 24836 24837 24838 24839 24840 24841 24842 24843 24844 24845 24846 24847 24848 24849 24850 24851 24852 24853 24854 24855 24856 24857 24858 24859 24860 24861 24862 24863 24864 24865 24866 24867 24868 24869 24870 24871 24872 24873 24874 24875 24876 24877 24878 24879 24880 24881 24882 24883 24884 24885 24886 24887 24888 24889 24890 24891 24892 24893 24894 24895 24896 24897 24898 24899 24900 24901 24902 24903 24904 24905 24906 24907 24908 24909 24910 24911 24912 24913 24914 24915 24916 24917 24918 24919 24920 24921 24922 24923 24924 24925 24926 24927 24928 24929 24930 24931 24932 24933 24934 24935 24936 24937 24938 24939 24940 24941 24942 24943 24944 24945 24946 24947 24948 24949 24950 24951 24952 24953 24954 24955 24956 24957 24958 24959 24960 24961 24962 24963 24964 24965 24966 24967 24968 24969 24970 24971 24972 24973 24974 24975 24976 24977 24978 24979 24980 24981 24982 24983 24984 24985 24986 24987 24988 24989 24990 24991 24992 24993 24994 24995 24996 24997 24998 24999 25000 25001 25002 25003 25004 25005 25006 25007 25008 25009 25010 25011 25012 25013 25014 25015 25016 25017 25018 25019 25020 25021 25022 25023 25024 25025 25026 25027 25028 25029 25030 25031 25032 25033 25034 25035 25036 25037 25038 25039 25040 25041 25042 25043 25044 25045 25046 25047 25048 25049 25050 25051 25052 25053 25054 25055 25056 25057 25058 25059 25060 25061 25062 25063 25064 25065 25066 25067 25068 25069 25070 25071 25072 25073 25074 25075 25076 25077 25078 25079 25080 25081 25082 25083 25084 25085 25086 25087 25088 25089 25090 25091 25092 25093 25094 25095 25096 25097 25098 25099 25100 25101 25102 25103 25104 25105 25106 25107 25108 25109 25110 25111 25112 25113 25114 25115 25116 25117 25118 25119 25120 25121 25122 25123 25124 25125 25126 25127 25128 25129 25130 25131 25132 25133 25134 25135 25136 25137 25138 25139 25140 25141 25142 25143 25144 25145 25146 25147 25148 25149 25150 25151 25152 25153 25154 25155 25156 25157 25158 25159 25160 25161 25162 25163 25164 25165 25166 25167 25168 25169 25170 25171 25172 25173 25174 25175 25176 25177 25178 25179 25180 25181 25182 25183 25184 25185 25186 25187 25188 25189 25190 25191 25192 25193 25194 25195 25196 25197 25198 25199 25200 25201 25202 25203 25204 25205 25206 25207 25208 25209 25210 25211 25212 25213 25214 25215 25216 25217 25218 25219 25220 25221 25222 25223 25224 25225 25226 25227 25228 25229 25230 25231 25232 25233 25234 25235 25236 25237 25238 25239 25240 25241 25242 25243 25244 25245 25246 25247 25248 25249 25250 25251 25252 25253 25254 25255 25256 25257 25258 25259 25260 25261 25262 25263 25264 25265 25266 25267 25268 25269 25270 25271 25272 25273 25274 25275 25276 25277 25278 25279 25280 25281 25282 25283 25284 25285 25286 25287 25288 25289 25290 25291 25292 25293 25294 25295 25296 25297 25298 25299 25300 25301 25302 25303 25304 25305 25306 25307 25308 25309 25310 25311 25312 25313 25314 25315 25316 25317 25318 25319 25320 25321 25322 25323 25324 25325 25326 25327 25328 25329 25330 25331 25332 25333 25334 25335 25336 25337 25338 25339 25340 25341 25342 25343 25344 25345 25346 25347 25348 25349 25350 25351 25352 25353 25354 25355 25356 25357 25358 25359 25360 25361 25362 25363 25364 25365 25366 25367 25368 25369 25370 25371 25372 25373 25374 25375 25376 25377 25378 25379 25380 25381 25382 25383 25384 25385 25386 25387 25388 25389 25390 25391 25392 25393 25394 25395 25396 25397 25398 25399 25400 25401 25402 25403 25404 25405 25406 25407 25408 25409 25410 25411 25412 25413 25414 25415 25416 25417 25418 25419 25420 25421 25422 25423 25424 25425 25426 25427 25428 25429 25430 25431 25432 25433 25434 25435 25436 25437 25438 25439 25440 25441 25442 25443 25444 25445 25446 25447 25448 25449 25450 25451 25452 25453 25454 25455 25456 25457 25458 25459 25460 25461 25462 25463 25464 25465 25466 25467 25468 25469 25470 25471 25472 25473 25474 25475 25476 25477 25478 25479 25480 25481 25482 25483 25484 25485 25486 25487 25488 25489 25490 25491 25492 25493 25494 25495 25496 25497 25498 25499 25500 25501 25502 25503 25504 25505 25506 25507 25508 25509 25510 25511 25512 25513 25514 25515 25516 25517 25518 25519 25520 25521 25522 25523 25524 25525 25526 25527 25528 25529 25530 25531 25532 25533 25534 25535 25536 25537 25538 25539 25540 25541 25542 25543 25544 25545 25546 25547 25548 25549 25550 25551 25552 25553 25554 25555 25556 25557 25558 25559 25560 25561 25562 25563 25564 25565 25566 25567 25568 25569 25570 25571 25572 25573 25574 25575 25576 25577 25578 25579 25580 25581 25582 25583 25584 25585 25586 25587 25588 25589 25590 25591 25592 25593 25594 25595 25596 25597 25598 25599 25600 25601 25602 25603 25604 25605 25606 25607 25608 25609 25610 25611 25612 25613 25614 25615 25616 25617 25618 25619 25620 25621 25622 25623 25624 25625 25626 25627 25628 25629 25630 25631 25632 25633 25634 25635 25636 25637 25638 25639 25640 25641 25642 25643 25644 25645 25646 25647 25648 25649 25650 25651 25652 25653 25654 25655 25656 25657 25658 25659 25660 25661 25662 25663 25664 25665 25666 25667 25668 25669 25670 25671 25672 25673 25674 25675 25676 25677 25678 25679 25680 25681 25682 25683 25684 25685 25686 25687 25688 25689 25690 25691 25692 25693 25694 25695 25696 25697 25698 25699 25700 25701 25702 25703 25704 25705 25706 25707 25708 25709 25710 25711 25712 25713 25714 25715 25716 25717 25718 25719 25720 25721 25722 25723 25724 25725 25726 25727 25728 25729 25730 25731 25732 25733 25734 25735 25736 25737 25738 25739 25740 25741 25742 25743 25744 25745 25746 25747 25748 25749 25750 25751 25752 25753 25754 25755 25756 25757 25758 25759 25760 25761 25762 25763 25764 25765 25766 25767 25768 25769 25770 25771 25772 25773 25774 25775 25776 25777 25778 25779 25780 25781 25782 25783 25784 25785 25786 25787 25788 25789 25790 25791 25792 25793 25794 25795 25796 25797 25798 25799 25800 25801 25802 25803 25804 25805 25806 25807 25808 25809 25810 25811 25812 25813 25814 25815 25816 25817 25818 25819 25820 25821 25822 25823 25824 25825 25826 25827 25828 25829 25830 25831 25832 25833 25834 25835 25836 25837 25838 25839 25840 25841 25842 25843 25844 25845 25846 25847 25848 25849 25850 25851 25852 25853 25854 25855 25856 25857 25858 25859 25860 25861 25862 25863 25864 25865 25866 25867 25868 25869 25870 25871 25872 25873 25874 25875 25876 25877 25878 25879 25880 25881 25882 25883 25884 25885 25886 25887 25888 25889 25890 25891 25892 25893 25894 25895 25896 25897 25898 25899 25900 25901 25902 25903 25904 25905 25906 25907 25908 25909 25910 25911 25912 25913 25914 25915 25916 25917 25918 25919 25920 25921 25922 25923 25924 25925 25926 25927 25928 25929 25930 25931 25932 25933 25934 25935 25936 25937 25938 25939 25940 25941 25942 25943 25944 25945 25946 25947 25948 25949 25950 25951 25952 25953 25954 25955 25956 25957 25958 25959 25960 25961 25962 25963 25964 25965 25966 25967 25968 25969 25970 25971 25972 25973 25974 25975 25976 25977 25978 25979 25980 25981 25982 25983 25984 25985 25986 25987 25988 25989 25990 25991 25992 25993 25994 25995 25996 25997 25998 25999 26000 26001 26002 26003 26004 26005 26006 26007 26008 26009 26010 26011 26012 26013 26014 26015 26016 26017 26018 26019 26020 26021 26022 26023 26024 26025 26026 26027 26028 26029 26030 26031 26032 26033 26034 26035 26036 26037 26038 26039 26040 26041 26042 26043 26044 26045 26046 26047 26048 26049 26050 26051 26052 26053 26054 26055 26056 26057 26058 26059 26060 26061 26062 26063 26064 26065 26066 26067 26068 26069 26070 26071 26072 26073 26074 26075 26076 26077 26078 26079 26080 26081 26082 26083 26084 26085 26086 26087 26088 26089 26090 26091 26092 26093 26094 26095 26096 26097 26098 26099 26100 26101 26102 26103 26104 26105 26106 26107 26108 26109 26110 26111 26112 26113 26114 26115 26116 26117 26118 26119 26120 26121 26122 26123 26124 26125 26126 26127 26128 26129 26130 26131 26132 26133 26134 26135 26136 26137 26138 26139 26140 26141 26142 26143 26144 26145 26146 26147 26148 26149 26150 26151 26152 26153 26154 26155 26156 26157 26158 26159 26160 26161 26162 26163 26164 26165 26166 26167 26168 26169 26170 26171 26172 26173 26174 26175 26176 26177 26178 26179 26180 26181 26182 26183 26184 26185 26186 26187 26188 26189 26190 26191 26192 26193 26194 26195 26196 26197 26198 26199 26200 26201 26202 26203 26204 26205 26206 26207 26208 26209 26210 26211 26212 26213 26214 26215 26216 26217 26218 26219 26220 26221 26222 26223 26224 26225 26226 26227 26228 26229 26230 26231 26232 26233 26234 26235 26236 26237 26238 26239 26240 26241 26242 26243 26244 26245 26246 26247 26248 26249 26250 26251 26252 26253 26254 26255 26256 26257 26258 26259 26260 26261 26262 26263 26264 26265 26266 26267 26268 26269 26270 26271 26272 26273 26274 26275 26276 26277 26278 26279 26280 26281 26282 26283 26284 26285 26286 26287 26288 26289 26290 26291 26292 26293 26294 26295 26296 26297 26298 26299 26300 26301 26302 26303 26304 26305 26306 26307 26308 26309 26310 26311 26312 26313 26314 26315 26316 26317 26318 26319 26320 26321 26322 26323 26324 26325 26326 26327 26328 26329 26330 26331 26332 26333 26334 26335 26336 26337 26338 26339 26340 26341 26342 26343 26344 26345 26346 26347 26348 26349 26350 26351 26352 26353 26354 26355 26356 26357 26358 26359 26360 26361 26362 26363 26364 26365 26366 26367 26368 26369 26370 26371 26372 26373 26374 26375 26376 26377 26378 26379 26380 26381 26382 26383 26384 26385 26386 26387 26388 26389 26390 26391 26392 26393 26394 26395 26396 26397 26398 26399 26400 26401 26402 26403 26404 26405 26406 26407 26408 26409 26410 26411 26412 26413 26414 26415 26416 26417 26418 26419 26420 26421 26422 26423 26424 26425 26426 26427 26428 26429 26430 26431 26432 26433 26434 26435 26436 26437 26438 26439 26440 26441 26442 26443 26444 26445 26446 26447 26448 26449 26450 26451 26452 26453 26454 26455 26456 26457 26458 26459 26460 26461 26462 26463 26464 26465 26466 26467 26468 26469 26470 26471 26472 26473 26474 26475 26476 26477 26478 26479 26480 26481 26482 26483 26484 26485 26486 26487 26488 26489 26490 26491 26492 26493 26494 26495 26496 26497 26498 26499 26500 26501 26502 26503 26504 26505 26506 26507 26508 26509 26510 26511 26512 26513 26514 26515 26516 26517 26518 26519 26520 26521 26522 26523 26524 26525 26526 26527 26528 26529 26530 26531 26532 26533 26534 26535 26536 26537 26538 26539 26540 26541 26542 26543 26544 26545 26546 26547 26548 26549 26550 26551 26552 26553 26554 26555 26556 26557 26558 26559 26560 26561 26562 26563 26564 26565 26566 26567 26568 26569 26570 26571 26572 26573 26574 26575 26576 26577 26578 26579 26580 26581 26582 26583 26584 26585 26586 26587 26588 26589 26590 26591 26592 26593 26594 26595 26596 26597 26598 26599 26600 26601 26602 26603 26604 26605 26606 26607 26608 26609 26610 26611 26612 26613 26614 26615 26616 26617 26618 26619 26620 26621 26622 26623 26624 26625 26626 26627 26628 26629 26630 26631 26632 26633 26634 26635 26636 26637 26638 26639 26640 26641 26642 26643 26644 26645 26646 26647 26648 26649 26650 26651 26652 26653 26654 26655 26656 26657 26658 26659 26660 26661 26662 26663 26664 26665 26666 26667 26668 26669 26670 26671 26672 26673 26674 26675 26676 26677 26678 26679 26680 26681 26682 26683 26684 26685 26686 26687 26688 26689 26690 26691 26692 26693 26694 26695 26696 26697 26698 26699 26700 26701 26702 26703 26704 26705 26706 26707 26708 26709 26710 26711 26712 26713 26714 26715 26716 26717 26718 26719 26720 26721 26722 26723 26724 26725 26726 26727 26728 26729 26730 26731 26732 26733 26734 26735 26736 26737 26738 26739 26740 26741 26742 26743 26744 26745 26746 26747 26748 26749 26750 26751 26752 26753 26754 26755 26756 26757 26758 26759 26760 26761 26762 26763 26764 26765 26766 26767 26768 26769 26770 26771 26772 26773 26774 26775 26776 26777 26778 26779 26780 26781 26782 26783 26784 26785 26786 26787 26788 26789 26790 26791 26792 26793 26794 26795 26796 26797 26798 26799 26800 26801 26802 26803 26804 26805 26806 26807 26808 26809 26810 26811 26812 26813 26814 26815 26816 26817 26818 26819 26820 26821 26822 26823 26824 26825 26826 26827 26828 26829 26830 26831 26832 26833 26834 26835 26836 26837 26838 26839 26840 26841 26842 26843 26844 26845 26846 26847 26848 26849 26850 26851 26852 26853 26854 26855 26856 26857 26858 26859 26860 26861 26862 26863 26864 26865 26866 26867 26868 26869 26870 26871 26872 26873 26874 26875 26876 26877 26878 26879 26880 26881 26882 26883 26884 26885 26886 26887 26888 26889 26890 26891 26892 26893 26894 26895 26896 26897 26898 26899 26900 26901 26902 26903 26904 26905 26906 26907 26908 26909 26910 26911 26912 26913 26914 26915 26916 26917 26918 26919 26920 26921 26922 26923 26924 26925 26926 26927 26928 26929 26930 26931 26932 26933 26934 26935 26936 26937 26938 26939 26940 26941 26942 26943 26944 26945 26946 26947 26948 26949 26950 26951 26952 26953 26954 26955 26956 26957 26958 26959 26960 26961 26962 26963 26964 26965 26966 26967 26968 26969 26970 26971 26972 26973 26974 26975 26976 26977 26978 26979 26980 26981 26982 26983 26984 26985 26986 26987 26988 26989 26990 26991 26992 26993 26994 26995 26996 26997 26998 26999 27000 27001 27002 27003 27004 27005 27006 27007 27008 27009 27010 27011 27012 27013 27014 27015 27016 27017 27018 27019 27020 27021 27022 27023 27024 27025 27026 27027 27028 27029 27030 27031 27032 27033 27034 27035 27036 27037 27038 27039 27040 27041 27042 27043 27044 27045 27046 27047 27048 27049 27050 27051 27052 27053 27054 27055 27056 27057 27058 27059 27060 27061 27062 27063 27064 27065 27066 27067 27068 27069 27070 27071 27072 27073 27074 27075 27076 27077 27078 27079 27080 27081 27082 27083 27084 27085 27086 27087 27088 27089 27090 27091 27092 27093 27094 27095 27096 27097 27098 27099 27100 27101 27102 27103 27104 27105 27106 27107 27108 27109 27110 27111 27112 27113 27114 27115 27116 27117 27118 27119 27120 27121 27122 27123 27124 27125 27126 27127 27128 27129 27130 27131 27132 27133 27134 27135 27136 27137 27138 27139 27140 27141 27142 27143 27144 27145 27146 27147 27148 27149 27150 27151 27152 27153 27154 27155 27156 27157 27158 27159 27160 27161 27162 27163 27164 27165 27166 27167 27168 27169 27170 27171 27172 27173 27174 27175 27176 27177 27178 27179 27180 27181 27182 27183 27184 27185 27186 27187 27188 27189 27190 27191 27192 27193 27194 27195 27196 27197 27198 27199 27200 27201 27202 27203 27204 27205 27206 27207 27208 27209 27210 27211 27212 27213 27214 27215 27216 27217 27218 27219 27220 27221 27222 27223 27224 27225 27226 27227 27228 27229 27230 27231 27232 27233 27234 27235 27236 27237 27238 27239 27240 27241 27242 27243 27244 27245 27246 27247 27248 27249 27250 27251 27252 27253 27254 27255 27256 27257 27258 27259 27260 27261 27262 27263 27264 27265 27266 27267 27268 27269 27270 27271 27272 27273 27274 27275 27276 27277 27278 27279 27280 27281 27282 27283 27284 27285 27286 27287 27288 27289 27290 27291 27292 27293 27294 27295 27296 27297 27298 27299 27300 27301 27302 27303 27304 27305 27306 27307 27308 27309 27310 27311 27312 27313 27314 27315 27316 27317 27318 27319 27320 27321 27322 27323 27324 27325 27326 27327 27328 27329 27330 27331 27332 27333 27334 27335 27336 27337 27338 27339 27340 27341 27342 27343 27344 27345 27346 27347 27348 27349 27350 27351 27352 27353 27354 27355 27356 27357 27358 27359 27360 27361 27362 27363 27364 27365 27366 27367 27368 27369 27370 27371 27372 27373 27374 27375 27376 27377 27378 27379 27380 27381 27382 27383 27384 27385 27386 27387 27388 27389 27390 27391 27392 27393 27394 27395 27396 27397 27398 27399 27400 27401 27402 27403 27404 27405 27406 27407 27408 27409 27410 27411 27412 27413 27414 27415 27416 27417 27418 27419 27420 27421 27422 27423 27424 27425 27426 27427 27428 27429 27430 27431 27432 27433 27434 27435 27436 27437 27438 27439 27440 27441 27442 27443 27444 27445 27446 27447 27448 27449 27450 27451 27452 27453 27454 27455 27456 27457 27458 27459 27460 27461 27462 27463 27464 27465 27466 27467 27468 27469 27470 27471 27472 27473 27474 27475 27476 27477 27478 27479 27480 27481 27482 27483 27484 27485 27486 27487 27488 27489 27490 27491 27492 27493 27494 27495 27496 27497 27498 27499 27500 27501 27502 27503 27504 27505 27506 27507 27508 27509 27510 27511 27512 27513 27514 27515 27516 27517 27518 27519 27520 27521 27522 27523 27524 27525 27526 27527 27528 27529 27530 27531 27532 27533 27534 27535 27536 27537 27538 27539 27540 27541 27542 27543 27544 27545 27546 27547 27548 27549 27550 27551 27552 27553 27554 27555 27556 27557 27558 27559 27560 27561 27562 27563 27564 27565 27566 27567 27568 27569 27570 27571 27572 27573 27574 27575 27576 27577 27578 27579 27580 27581 27582 27583 27584 27585 27586 27587 27588 27589 27590 27591 27592 27593 27594 27595 27596 27597 27598 27599 27600 27601 27602 27603 27604 27605 27606 27607 27608 27609 27610 27611 27612 27613 27614 27615 27616 27617 27618 27619 27620 27621 27622 27623 27624 27625 27626 27627 27628 27629 27630 27631 27632 27633 27634 27635 27636 27637 27638 27639 27640 27641 27642 27643 27644 27645 27646 27647 27648 27649 27650 27651 27652 27653 27654 27655 27656 27657 27658 27659 27660 27661 27662 27663 27664 27665 27666 27667 27668 27669 27670 27671 27672 27673 27674 27675 27676 27677 27678 27679 27680 27681 27682 27683 27684 27685 27686 27687 27688 27689 27690 27691 27692 27693 27694 27695 27696 27697 27698 27699 27700 27701 27702 27703 27704 27705 27706 27707 27708 27709 27710 27711 27712 27713 27714 27715 27716 27717 27718 27719 27720 27721 27722 27723 27724 27725 27726 27727 27728 27729 27730 27731 27732 27733 27734 27735 27736 27737 27738 27739 27740 27741 27742 27743 27744 27745 27746 27747 27748 27749 27750 27751 27752 27753 27754 27755 27756 27757 27758 27759 27760 27761 27762 27763 27764 27765 27766 27767 27768 27769 27770 27771 27772 27773 27774 27775 27776 27777 27778 27779 27780 27781 27782 27783 27784 27785 27786 27787 27788 27789 27790 27791 27792 27793 27794 27795 27796 27797 27798 27799 27800 27801 27802 27803 27804 27805 27806 27807 27808 27809 27810 27811 27812 27813 27814 27815 27816 27817 27818 27819 27820 27821 27822 27823 27824 27825 27826 27827 27828 27829 27830 27831 27832 27833 27834 27835 27836 27837 27838 27839 27840 27841 27842 27843 27844 27845 27846 27847 27848 27849 27850 27851 27852 27853 27854 27855 27856 27857 27858 27859 27860 27861 27862 27863 27864 27865 27866 27867 27868 27869 27870 27871 27872 27873 27874 27875 27876 27877 27878 27879 27880 27881 27882 27883 27884 27885 27886 27887 27888 27889 27890 27891 27892 27893 27894 27895 27896 27897 27898 27899 27900 27901 27902 27903 27904 27905 27906 27907 27908 27909 27910 27911 27912 27913 27914 27915 27916 27917 27918 27919 27920 27921 27922 27923 27924 27925 27926 27927 27928 27929 27930 27931 27932 27933 27934 27935 27936 27937 27938 27939 27940 27941 27942 27943 27944 27945 27946 27947 27948 27949 27950 27951 27952 27953 27954 27955 27956 27957 27958 27959 27960 27961 27962 27963 27964 27965 27966 27967 27968 27969 27970 27971 27972 27973 27974 27975 27976 27977 27978 27979 27980 27981 27982 27983 27984 27985 27986 27987 27988 27989 27990 27991 27992 27993 27994 27995 27996 27997 27998 27999 28000 28001 28002 28003 28004 28005 28006 28007 28008 28009 28010 28011 28012 28013 28014 28015 28016 28017 28018 28019 28020 28021 28022 28023 28024 28025 28026 28027 28028 28029 28030 28031 28032 28033 28034 28035 28036 28037 28038 28039 28040 28041 28042 28043 28044 28045 28046 28047 28048 28049 28050 28051 28052 28053 28054 28055 28056 28057 28058 28059 28060 28061 28062 28063 28064 28065 28066 28067 28068 28069 28070 28071 28072 28073 28074 28075 28076 28077 28078 28079 28080 28081 28082 28083 28084 28085 28086 28087 28088 28089 28090 28091 28092 28093 28094 28095 28096 28097 28098 28099 28100 28101 28102 28103 28104 28105 28106 28107 28108 28109 28110 28111 28112 28113 28114 28115 28116 28117 28118 28119 28120 28121 28122 28123 28124 28125 28126 28127 28128 28129 28130 28131 28132 28133 28134 28135 28136 28137 28138 28139 28140 28141 28142 28143 28144 28145 28146 28147 28148 28149 28150 28151 28152 28153 28154 28155 28156 28157 28158 28159 28160 28161 28162 28163 28164 28165 28166 28167 28168 28169 28170 28171 28172 28173 28174 28175 28176 28177 28178 28179 28180 28181 28182 28183 28184 28185 28186 28187 28188 28189 28190 28191 28192 28193 28194 28195 28196 28197 28198 28199 28200 28201 28202 28203 28204 28205 28206 28207 28208 28209 28210 28211 28212 28213 28214 28215 28216 28217 28218 28219 28220 28221 28222 28223 28224 28225 28226 28227 28228 28229 28230 28231 28232 28233 28234 28235 28236 28237 28238 28239 28240 28241 28242 28243 28244 28245 28246 28247 28248 28249 28250 28251 28252 28253 28254 28255 28256 28257 28258 28259 28260 28261 28262 28263 28264 28265 28266 28267 28268 28269 28270 28271 28272 28273 28274 28275 28276 28277 28278 28279 28280 28281 28282 28283 28284 28285 28286 28287 28288 28289 28290 28291 28292 28293 28294 28295 28296 28297 28298 28299 28300 28301 28302 28303 28304 28305 28306 28307 28308 28309 28310 28311 28312 28313 28314 28315 28316 28317 28318 28319 28320 28321 28322 28323 28324 28325 28326 28327 28328 28329 28330 28331 28332 28333 28334 28335 28336 28337 28338 28339 28340 28341 28342 28343 28344 28345 28346 28347 28348 28349 28350 28351 28352 28353 28354 28355 28356 28357 28358 28359 28360 28361 28362 28363 28364 28365 28366 28367 28368 28369 28370 28371 28372 28373 28374 28375 28376 28377 28378 28379 28380 28381 28382 28383 28384 28385 28386 28387 28388 28389 28390 28391 28392 28393 28394 28395 28396 28397 28398 28399 28400 28401 28402 28403 28404 28405 28406 28407 28408 28409 28410 28411 28412 28413 28414 28415 28416 28417 28418 28419 28420 28421 28422 28423 28424 28425 28426 28427 28428 28429 28430 28431 28432 28433 28434 28435 28436 28437 28438 28439 28440 28441 28442 28443 28444 28445 28446 28447 28448 28449 28450 28451 28452 28453 28454 28455 28456 28457 28458 28459 28460 28461 28462 28463 28464 28465 28466 28467 28468 28469 28470 28471 28472 28473 28474 28475 28476 28477 28478 28479 28480 28481 28482 28483 28484 28485 28486 28487 28488 28489 28490 28491 28492 28493 28494 28495 28496 28497 28498 28499 28500 28501 28502 28503 28504 28505 28506 28507 28508 28509 28510 28511 28512 28513 28514 28515 28516 28517 28518 28519 28520 28521 28522 28523 28524 28525 28526 28527 28528 28529 28530 28531 28532 28533 28534 28535 28536 28537 28538 28539 28540 28541 28542 28543 28544 28545 28546 28547 28548 28549 28550 28551 28552 28553 28554 28555 28556 28557 28558 28559 28560 28561 28562 28563 28564 28565 28566 28567 28568 28569 28570 28571 28572 28573 28574 28575 28576 28577 28578 28579 28580 28581 28582 28583 28584 28585 28586 28587 28588 28589 28590 28591 28592 28593 28594 28595 28596 28597 28598 28599 28600 28601 28602 28603 28604 28605 28606 28607 28608 28609 28610 28611 28612 28613 28614 28615 28616 28617 28618 28619 28620 28621 28622 28623 28624 28625 28626 28627 28628 28629 28630 28631 28632 28633 28634 28635 28636 28637 28638 28639 28640 28641 28642 28643 28644 28645 28646 28647 28648 28649 28650 28651 28652 28653 28654 28655 28656 28657 28658 28659 28660 28661 28662 28663 28664 28665 28666 28667 28668 28669 28670 28671 28672 28673 28674 28675 28676 28677 28678 28679 28680 28681 28682 28683 28684 28685 28686 28687 28688 28689 28690 28691 28692 28693 28694 28695 28696 28697 28698 28699 28700 28701 28702 28703 28704 28705 28706 28707 28708 28709 28710 28711 28712 28713 28714 28715 28716 28717 28718 28719 28720 28721 28722 28723 28724 28725 28726 28727 28728 28729 28730 28731 28732 28733 28734 28735 28736 28737 28738 28739 28740 28741 28742 28743 28744 28745 28746 28747 28748 28749 28750 28751 28752 28753 28754 28755 28756 28757 28758 28759 28760 28761 28762 28763 28764 28765 28766 28767 28768 28769 28770 28771 28772 28773 28774 28775 28776 28777 28778 28779 28780 28781 28782 28783 28784 28785 28786 28787 28788 28789 28790 28791 28792 28793 28794 28795 28796 28797 28798 28799 28800 28801 28802 28803 28804 28805 28806 28807 28808 28809 28810 28811 28812 28813 28814 28815 28816 28817 28818 28819 28820 28821 28822 28823 28824 28825 28826 28827 28828 28829 28830 28831 28832 28833 28834 28835 28836 28837 28838 28839 28840 28841 28842 28843 28844 28845 28846 28847 28848 28849 28850 28851 28852 28853 28854 28855 28856 28857 28858 28859 28860 28861 28862 28863 28864 28865 28866 28867 28868 28869 28870 28871 28872 28873 28874 28875 28876 28877 28878 28879 28880 28881 28882 28883 28884 28885 28886 28887 28888 28889 28890 28891 28892 28893 28894 28895 28896 28897 28898 28899 28900 28901 28902 28903 28904 28905 28906 28907 28908 28909 28910 28911 28912 28913 28914 28915 28916 28917 28918 28919 28920 28921 28922 28923 28924 28925 28926 28927 28928 28929 28930 28931 28932 28933 28934 28935 28936 28937 28938 28939 28940 28941 28942 28943 28944 28945 28946 28947 28948 28949 28950 28951 28952 28953 28954 28955 28956 28957 28958 28959 28960 28961 28962 28963 28964 28965 28966 28967 28968 28969 28970 28971 28972 28973 28974 28975 28976 28977 28978 28979 28980 28981 28982 28983 28984 28985 28986 28987 28988 28989 28990 28991 28992 28993 28994 28995 28996 28997 28998 28999 29000 29001 29002 29003 29004 29005 29006 29007 29008 29009 29010 29011 29012 29013 29014 29015 29016 29017 29018 29019 29020 29021 29022 29023 29024 29025 29026 29027 29028 29029 29030 29031 29032 29033 29034 29035 29036 29037 29038 29039 29040 29041 29042 29043 29044 29045 29046 29047 29048 29049 29050 29051 29052 29053 29054 29055 29056 29057 29058 29059 29060 29061 29062 29063 29064 29065 29066 29067 29068 29069 29070 29071 29072 29073 29074 29075 29076 29077 29078 29079 29080 29081 29082 29083 29084 29085 29086 29087 29088 29089 29090 29091 29092 29093 29094 29095 29096 29097 29098 29099 29100 29101 29102 29103 29104 29105 29106 29107 29108 29109 29110 29111 29112 29113 29114 29115 29116 29117 29118 29119 29120 29121 29122 29123 29124 29125 29126 29127 29128 29129 29130 29131 29132 29133 29134 29135 29136 29137 29138 29139 29140 29141 29142 29143 29144 29145 29146 29147 29148 29149 29150 29151 29152 29153 29154 29155 29156 29157 29158 29159 29160 29161 29162 29163 29164 29165 29166 29167 29168 29169 29170 29171 29172 29173 29174 29175 29176 29177 29178 29179 29180 29181 29182 29183 29184 29185 29186 29187 29188 29189 29190 29191 29192 29193 29194 29195 29196 29197 29198 29199 29200 29201 29202 29203 29204 29205 29206 29207 29208 29209 29210 29211 29212 29213 29214 29215 29216 29217 29218 29219 29220 29221 29222 29223 29224 29225 29226 29227 29228 29229 29230 29231 29232 29233 29234 29235 29236 29237 29238 29239 29240 29241 29242 29243 29244 29245 29246 29247 29248 29249 29250 29251 29252 29253 29254 29255 29256 29257 29258 29259 29260 29261 29262 29263 29264 29265 29266 29267 29268 29269 29270 29271 29272 29273 29274 29275 29276 29277 29278 29279 29280 29281 29282 29283 29284 29285 29286 29287 29288 29289 29290 29291 29292 29293 29294 29295 29296 29297 29298 29299 29300 29301 29302 29303 29304 29305 29306 29307 29308 29309 29310 29311 29312 29313 29314 29315 29316 29317 29318 29319 29320 29321 29322 29323 29324 29325 29326 29327 29328 29329 29330 29331 29332 29333 29334 29335 29336 29337 29338 29339 29340 29341 29342 29343 29344 29345 29346 29347 29348 29349 29350 29351 29352 29353 29354 29355 29356 29357 29358 29359 29360 29361 29362 29363 29364 29365 29366 29367 29368 29369 29370 29371 29372 29373 29374 29375 29376 29377 29378 29379 29380 29381 29382 29383 29384 29385 29386 29387 29388 29389 29390 29391 29392 29393 29394 29395 29396 29397 29398 29399 29400 29401 29402 29403 29404 29405 29406 29407 29408 29409 29410 29411 29412 29413 29414 29415 29416 29417 29418 29419 29420 29421 29422 29423 29424 29425 29426 29427 29428 29429 29430 29431 29432 29433 29434 29435 29436 29437 29438 29439 29440 29441 29442 29443 29444 29445 29446 29447 29448 29449 29450 29451 29452 29453 29454 29455 29456 29457 29458 29459 29460 29461 29462 29463 29464 29465 29466 29467 29468 29469 29470 29471 29472 29473 29474 29475 29476 29477 29478 29479 29480 29481 29482 29483 29484 29485 29486 29487 29488 29489 29490 29491 29492 29493 29494 29495 29496 29497 29498 29499 29500 29501 29502 29503 29504 29505 29506 29507 29508 29509 29510 29511 29512 29513 29514 29515 29516 29517 29518 29519 29520 29521 29522 29523 29524 29525 29526 29527 29528 29529 29530 29531 29532 29533 29534 29535 29536 29537 29538 29539 29540 29541 29542 29543 29544 29545 29546 29547 29548 29549 29550 29551 29552 29553 29554 29555 29556 29557 29558 29559 29560 29561 29562 29563 29564 29565 29566 29567 29568 29569 29570 29571 29572 29573 29574 29575 29576 29577 29578 29579 29580 29581 29582 29583 29584 29585 29586 29587 29588 29589 29590 29591 29592 29593 29594 29595 29596 29597 29598 29599 29600 29601 29602 29603 29604 29605 29606 29607 29608 29609 29610 29611 29612 29613 29614 29615 29616 29617 29618 29619 29620 29621 29622 29623 29624 29625 29626 29627 29628 29629 29630 29631 29632 29633 29634 29635 29636 29637 29638 29639 29640 29641 29642 29643 29644 29645 29646 29647 29648 29649 29650 29651 29652 29653 29654 29655 29656 29657 29658 29659 29660 29661 29662 29663 29664 29665 29666 29667 29668 29669 29670 29671 29672 29673 29674 29675 29676 29677 29678 29679 29680 29681 29682 29683 29684 29685 29686 29687 29688 29689 29690 29691 29692 29693 29694 29695 29696 29697 29698 29699 29700 29701 29702 29703 29704 29705 29706 29707 29708 29709 29710 29711 29712 29713 29714 29715 29716 29717 29718 29719 29720 29721 29722 29723 29724 29725 29726 29727 29728 29729 29730 29731 29732 29733 29734 29735 29736 29737 29738 29739 29740 29741 29742 29743 29744 29745 29746 29747 29748 29749 29750 29751 29752 29753 29754 29755 29756 29757 29758 29759 29760 29761 29762 29763 29764 29765 29766 29767 29768 29769 29770 29771 29772 29773 29774 29775 29776 29777 29778 29779 29780 29781 29782 29783 29784 29785 29786 29787 29788 29789 29790 29791 29792 29793 29794 29795 29796 29797 29798 29799 29800 29801 29802 29803 29804 29805 29806 29807 29808 29809 29810 29811 29812 29813 29814 29815 29816 29817 29818 29819 29820 29821 29822 29823 29824 29825 29826 29827 29828 29829 29830 29831 29832 29833 29834 29835 29836 29837 29838 29839 29840 29841 29842 29843 29844 29845 29846 29847 29848 29849 29850 29851 29852 29853 29854 29855 29856 29857 29858 29859 29860 29861 29862 29863 29864 29865 29866 29867 29868 29869 29870 29871 29872 29873 29874 29875 29876 29877 29878 29879 29880 29881 29882 29883 29884 29885 29886 29887 29888 29889 29890 29891 29892 29893 29894 29895 29896 29897 29898 29899 29900 29901 29902 29903 29904 29905 29906 29907 29908 29909 29910 29911 29912 29913 29914 29915 29916 29917 29918 29919 29920 29921 29922 29923 29924 29925 29926 29927 29928 29929 29930 29931 29932 29933 29934 29935 29936 29937 29938 29939 29940 29941 29942 29943 29944 29945 29946 29947 29948 29949 29950 29951 29952 29953 29954 29955 29956 29957 29958 29959 29960 29961 29962 29963 29964 29965 29966 29967 29968 29969 29970 29971 29972 29973 29974 29975 29976 29977 29978 29979 29980 29981 29982 29983 29984 29985 29986 29987 29988 29989 29990 29991 29992 29993 29994 29995 29996 29997 29998 29999 30000 30001 30002 30003 30004 30005 30006 30007 30008 30009 30010 30011 30012 30013 30014 30015 30016 30017 30018 30019 30020 30021 30022 30023 30024 30025 30026 30027 30028 30029 30030 30031 30032 30033 30034 30035 30036 30037 30038 30039 30040 30041 30042 30043 30044 30045 30046 30047 30048 30049 30050 30051 30052 30053 30054 30055 30056 30057 30058 30059 30060 30061 30062 30063 30064 30065 30066 30067 30068 30069 30070 30071 30072 30073 30074 30075 30076 30077 30078 30079 30080 30081 30082 30083 30084 30085 30086 30087 30088 30089 30090 30091 30092 30093 30094 30095 30096 30097 30098 30099 30100 30101 30102 30103 30104 30105 30106 30107 30108 30109 30110 30111 30112 30113 30114 30115 30116 30117 30118 30119 30120 30121 30122 30123 30124 30125 30126 30127 30128 30129 30130 30131 30132 30133 30134 30135 30136 30137 30138 30139 30140 30141 30142 30143 30144 30145 30146 30147 30148 30149 30150 30151 30152 30153 30154 30155 30156 30157 30158 30159 30160 30161 30162 30163 30164 30165 30166 30167 30168 30169 30170 30171 30172 30173 30174 30175 30176 30177 30178 30179 30180 30181 30182 30183 30184 30185 30186 30187 30188 30189 30190 30191 30192 30193 30194 30195 30196 30197 30198 30199 30200 30201 30202 30203 30204 30205 30206 30207 30208 30209 30210 30211 30212 30213 30214 30215 30216 30217 30218 30219 30220 30221 30222 30223 30224 30225 30226 30227 30228 30229 30230 30231 30232 30233 30234 30235 30236 30237 30238 30239 30240 30241 30242 30243 30244 30245 30246 30247 30248 30249 30250 30251 30252 30253 30254 30255 30256 30257 30258 30259 30260 30261 30262 30263 30264 30265 30266 30267 30268 30269 30270 30271 30272 30273 30274 30275 30276 30277 30278 30279 30280 30281 30282 30283 30284 30285 30286 30287 30288 30289 30290 30291 30292 30293 30294 30295 30296 30297 30298 30299 30300 30301 30302 30303 30304 30305 30306 30307 30308 30309 30310 30311 30312 30313 30314 30315 30316 30317 30318 30319 30320 30321 30322 30323 30324 30325 30326 30327 30328 30329 30330 30331 30332 30333 30334 30335 30336 30337 30338 30339 30340 30341 30342 30343 30344 30345 30346 30347 30348 30349 30350 30351 30352 30353 30354 30355 30356 30357 30358 30359 30360 30361 30362 30363 30364 30365 30366 30367 30368 30369 30370 30371 30372 30373 30374 30375 30376 30377 30378 30379 30380 30381 30382 30383 30384 30385 30386 30387 30388 30389 30390 30391 30392 30393 30394 30395 30396 30397 30398 30399 30400 30401 30402 30403 30404 30405 30406 30407 30408 30409 30410 30411 30412 30413 30414 30415 30416 30417 30418 30419 30420 30421 30422 30423 30424 30425 30426 30427 30428 30429 30430 30431 30432 30433 30434 30435 30436 30437 30438 30439 30440 30441 30442 30443 30444 30445 30446 30447 30448 30449 30450 30451 30452 30453 30454 30455 30456 30457 30458 30459 30460 30461 30462 30463 30464 30465 30466 30467 30468 30469 30470 30471 30472 30473 30474 30475 30476 30477 30478 30479 30480 30481 30482 30483 30484 30485 30486 30487 30488 30489 30490 30491 30492 30493 30494 30495 30496 30497 30498 30499 30500 30501 30502 30503 30504 30505 30506 30507 30508 30509 30510 30511 30512 30513 30514 30515 30516 30517 30518 30519 30520 30521 30522 30523 30524 30525 30526 30527 30528 30529 30530 30531 30532 30533 30534 30535 30536 30537 30538 30539 30540 30541 30542 30543 30544 30545 30546 30547 30548 30549 30550 30551 30552 30553 30554 30555 30556 30557 30558 30559 30560 30561 30562 30563 30564 30565 30566 30567 30568 30569 30570 30571 30572 30573 30574 30575 30576 30577 30578 30579 30580 30581 30582 30583 30584 30585 30586 30587 30588 30589 30590 30591 30592 30593 30594 30595 30596 30597 30598 30599 30600 30601 30602 30603 30604 30605 30606 30607 30608 30609 30610 30611 30612 30613 30614 30615 30616 30617 30618 30619 30620 30621 30622 30623 30624 30625 30626 30627 30628 30629 30630 30631 30632 30633 30634 30635 30636 30637 30638 30639 30640 30641 30642 30643 30644 30645 30646 30647 30648 30649 30650 30651 30652 30653 30654 30655 30656 30657 30658 30659 30660 30661 30662 30663 30664 30665 30666 30667 30668 30669 30670 30671 30672 30673 30674 30675 30676 30677 30678 30679 30680 30681 30682 30683 30684 30685 30686 30687 30688 30689 30690 30691 30692 30693 30694 30695 30696 30697 30698 30699 30700 30701 30702 30703 30704 30705 30706 30707 30708 30709 30710 30711 30712 30713 30714 30715 30716 30717 30718 30719 30720 30721 30722 30723 30724 30725 30726 30727 30728 30729 30730 30731 30732 30733 30734 30735 30736 30737 30738 30739 30740 30741 30742 30743 30744 30745 30746 30747 30748 30749 30750 30751 30752 30753 30754 30755 30756 30757 30758 30759 30760 30761 30762 30763 30764 30765 30766 30767 30768 30769 30770 30771 30772 30773 30774 30775 30776 30777 30778 30779 30780 30781 30782 30783 30784 30785 30786 30787 30788 30789 30790 30791 30792 30793 30794 30795 30796 30797 30798 30799 30800 30801 30802 30803 30804 30805 30806 30807 30808 30809 30810 30811 30812 30813 30814 30815 30816 30817 30818 30819 30820 30821 30822 30823 30824 30825 30826 30827 30828 30829 30830 30831 30832 30833 30834 30835 30836 30837 30838 30839 30840 30841 30842 30843 30844 30845 30846 30847 30848 30849 30850 30851 30852 30853 30854 30855 30856 30857 30858 30859 30860 30861 30862 30863 30864 30865 30866 30867 30868 30869 30870 30871 30872 30873 30874 30875 30876 30877 30878 30879 30880 30881 30882 30883 30884 30885 30886 30887 30888 30889 30890 30891 30892 30893 30894 30895 30896 30897 30898 30899 30900 30901 30902 30903 30904 30905 30906 30907 30908 30909 30910 30911 30912 30913 30914 30915 30916 30917 30918 30919 30920 30921 30922 30923 30924 30925 30926 30927 30928 30929 30930 30931 30932 30933 30934 30935 30936 30937 30938 30939 30940 30941 30942 30943 30944 30945 30946 30947 30948 30949 30950 30951 30952 30953 30954 30955 30956 30957 30958 30959 30960 30961 30962 30963 30964 30965 30966 30967 30968 30969 30970 30971 30972 30973 30974 30975 30976 30977 30978 30979 30980 30981 30982 30983 30984 30985 30986 30987 30988 30989 30990 30991 30992 30993 30994 30995 30996 30997 30998 30999 31000 31001 31002 31003 31004 31005 31006 31007 31008 31009 31010 31011 31012 31013 31014 31015 31016 31017 31018 31019 31020 31021 31022 31023 31024 31025 31026 31027 31028 31029 31030 31031 31032 31033 31034 31035 31036 31037 31038 31039 31040 31041 31042 31043 31044 31045 31046 31047 31048 31049 31050 31051 31052 31053 31054 31055 31056 31057 31058 31059 31060 31061 31062 31063 31064 31065 31066 31067 31068 31069 31070 31071 31072 31073 31074 31075 31076 31077 31078 31079 31080 31081 31082 31083 31084 31085 31086 31087 31088 31089 31090 31091 31092 31093 31094 31095 31096 31097 31098 31099 31100 31101 31102 31103 31104 31105 31106 31107 31108 31109 31110 31111 31112 31113 31114 31115 31116 31117 31118 31119 31120 31121 31122 31123 31124 31125 31126 31127 31128 31129 31130 31131 31132 31133 31134 31135 31136 31137 31138 31139 31140 31141 31142 31143 31144 31145 31146 31147 31148 31149 31150 31151 31152 31153 31154 31155 31156 31157 31158 31159 31160 31161 31162 31163 31164 31165 31166 31167 31168 31169 31170 31171 31172 31173 31174 31175 31176 31177 31178 31179 31180 31181 31182 31183 31184 31185 31186 31187 31188 31189 31190 31191 31192 31193 31194 31195 31196 31197 31198 31199 31200 31201 31202 31203 31204 31205 31206 31207 31208 31209 31210 31211 31212 31213 31214 31215 31216 31217 31218 31219 31220 31221 31222 31223 31224 31225 31226 31227 31228 31229 31230 31231 31232 31233 31234 31235 31236 31237 31238 31239 31240 31241 31242 31243 31244 31245 31246 31247 31248 31249 31250 31251 31252 31253 31254 31255 31256 31257 31258 31259 31260 31261 31262 31263 31264 31265 31266 31267 31268 31269 31270 31271 31272 31273 31274 31275 31276 31277 31278 31279 31280 31281 31282 31283 31284 31285 31286 31287 31288 31289 31290 31291 31292 31293 31294 31295 31296 31297 31298 31299 31300 31301 31302 31303 31304 31305 31306 31307 31308 31309 31310 31311 31312 31313 31314 31315 31316 31317 31318 31319 31320 31321 31322 31323 31324 31325 31326 31327 31328 31329 31330 31331 31332 31333 31334 31335 31336 31337 31338 31339 31340 31341 31342 31343 31344 31345 31346 31347 31348 31349 31350 31351 31352 31353 31354 31355 31356 31357 31358 31359 31360 31361 31362 31363 31364 31365 31366 31367 31368 31369 31370 31371 31372 31373 31374 31375 31376 31377 31378 31379 31380 31381 31382 31383 31384 31385 31386 31387 31388 31389 31390 31391 31392 31393 31394 31395 31396 31397 31398 31399 31400 31401 31402 31403 31404 31405 31406 31407 31408 31409 31410 31411 31412 31413 31414 31415 31416 31417 31418 31419 31420 31421 31422 31423 31424 31425 31426 31427 31428 31429 31430 31431 31432 31433 31434 31435 31436 31437 31438 31439 31440 31441 31442 31443 31444 31445 31446 31447 31448 31449 31450 31451 31452 31453 31454 31455 31456 31457 31458 31459 31460 31461 31462 31463 31464 31465 31466 31467 31468 31469 31470 31471 31472 31473 31474 31475 31476 31477 31478 31479 31480 31481 31482 31483 31484 31485 31486 31487 31488 31489 31490 31491 31492 31493 31494 31495 31496 31497 31498 31499 31500 31501 31502 31503 31504 31505 31506 31507 31508 31509 31510 31511 31512 31513 31514 31515 31516 31517 31518 31519 31520 31521 31522 31523 31524 31525 31526 31527 31528 31529 31530 31531 31532 31533 31534 31535 31536 31537 31538 31539 31540 31541 31542 31543 31544 31545 31546 31547 31548 31549 31550 31551 31552 31553 31554 31555 31556 31557 31558 31559 31560 31561 31562 31563 31564 31565 31566 31567 31568 31569 31570 31571 31572 31573 31574 31575 31576 31577 31578 31579 31580 31581 31582 31583 31584 31585 31586 31587 31588 31589 31590 31591 31592 31593 31594 31595 31596 31597 31598 31599 31600 31601 31602 31603 31604 31605 31606 31607 31608 31609 31610 31611 31612 31613 31614 31615 31616 31617 31618 31619 31620 31621 31622 31623 31624 31625 31626 31627 31628 31629 31630 31631 31632 31633 31634 31635 31636 31637 31638 31639 31640 31641 31642 31643 31644 31645 31646 31647 31648 31649 31650 31651 31652 31653 31654 31655 31656 31657 31658 31659 31660 31661 31662 31663 31664 31665 31666 31667 31668 31669 31670 31671 31672 31673 31674 31675 31676 31677 31678 31679 31680 31681 31682 31683 31684 31685 31686 31687 31688 31689 31690 31691 31692 31693 31694 31695 31696 31697 31698 31699 31700 31701 31702 31703 31704 31705 31706 31707 31708 31709 31710 31711 31712 31713 31714 31715 31716 31717 31718 31719 31720 31721 31722 31723 31724 31725 31726 31727 31728 31729 31730 31731 31732 31733 31734 31735 31736 31737 31738 31739 31740 31741 31742 31743 31744 31745 31746 31747 31748 31749 31750 31751 31752 31753 31754 31755 31756 31757 31758 31759 31760 31761 31762 31763 31764 31765 31766 31767 31768 31769 31770 31771 31772 31773 31774 31775 31776 31777 31778 31779 31780 31781 31782 31783 31784 31785 31786 31787 31788 31789 31790 31791 31792 31793 31794 31795 31796 31797 31798 31799 31800 31801 31802 31803 31804 31805 31806 31807 31808 31809 31810 31811 31812 31813 31814 31815 31816 31817 31818 31819 31820 31821 31822 31823 31824 31825 31826 31827 31828 31829 31830 31831 31832 31833 31834 31835 31836 31837 31838 31839 31840 31841 31842 31843 31844 31845 31846 31847 31848 31849 31850 31851 31852 31853 31854 31855 31856 31857 31858 31859 31860 31861 31862 31863 31864 31865 31866 31867 31868 31869 31870 31871 31872 31873 31874 31875 31876 31877 31878 31879 31880 31881 31882 31883 31884 31885 31886 31887 31888 31889 31890 31891 31892 31893 31894 31895 31896 31897 
</DataArray>
<DataArray type="UInt32" Name="offsets" format="ascii">
3 6 9 12 15 17 20 23 26 29 32 35 38 40 43 46 49 52 54 57 60 62 65 68 71 74 76 79 82 85 88 90 93 96 99 102 105 108 111 114 117 120 123 126 129 131 134 137 139 142 145 148 151 154 156 159 162 165 168 171 174 177 179 182 185 188 191 193 196 199 202 205 208 211 214 217 220 222 225 228 230 233 236 238 241 244 247 250 252 255 258 261 264 267 270 273 275 277 279 282 285 287 290 293 296 299 302 304 307 310 313 316 319 322 325 328 331 334 337 340 343 345 348 351 354 356 359 362 365 368 371 374 376 379 382 385 388 391 394 397 400 403 406 409 412 415 418 421 424 427 430 433 436 439 442 445 448 451 453 456 459 462 464 467 470 472 475 478 481 484 487 490 493 496 499 502 505 507 510 513 516 519 522 525 528 531 533 536 539 542 545 548 551 554 557 559 562 565 568 571 574 577 580 583 586 588 591 594 597 600 603 606 609 612 615 618 621 624 627 630 633 636 639 642 645 648 651 654 657 659 662 665 668 670 673 675 678 680 683 686 688 691 694 697 699 702 704 707 709 712 714 716 719 721 724 727 729 732 734 737 740 743 745 748 750 752 755 758 760 763 766 769 771 774 776 778 780 783 785 788 791 794 796 799 801 803 805 808 811 813 815 818 821 824 827 829 832 834 837 840 842 845 848 851 853 856 858 860 862 865 868 871 873 876 878 880 882 884 887 890 893 895 897 900 903 905 907 909 912 914 917 920 923 926 928 931 934 937 940 943 946 949 951 954 957 960 963 966 969 971 973 976 979 982 984 987 990 993 995 998 1000 1003 1005 1007 1010 1013 1016 1019 1021 1024 1027 1029 1032 1035 1038 1041 1043 1046 1048 1051 1054 1057 1060 1063 1065 1067 1070 1073 1076 1079 1082 1085 1088 1091 1093 1096 1099 1102 1104 1107 1110 1112 1115 1117 1120 1123 1126 1129 1132 1135 1138 1141 1144 1147 1150 1152 1155 1157 1160 1162 1165 1168 1171 1173 1176 1178 1181 1183 1186 1189 1192 1195 1198 1201 1203 1206 1208 1211 1214 1217 1219 1222 1225 1228 1230 1233 1235 1237 1240 1243 1246 1249 1251 1254 1257 1260 1263 1265 1267 1270 1273 1275 1278 1280 1283 1285 1287 1290 1293 1296 1298 1301 1304 1307 1310 1312 1315 1318 1321 1324 1327 1330 1333 1336 1339 1342 1345 1347 1350 1353 1356 1359 1361 1364 1367 1370 1372 1375 1377 1379 1381 1384 1387 1390 1392 1394 1397 1399 1402 1405 1407 1410 1413 1416 1419 1421 1424 1427 1430 1433 1436 1439 1442 1445 1448 1451 1454 1456 1458 1461 1464 1466 1469 1472 1475 1477 1480 1483 1486 1489 1492 1495 1497 1500 1503 1506 1508 1511 1514 1517 1519 1522 1525 1528 1531 1534 1537 1540 1543 1546 1549 1552 1554 1557 1560 1563 1565 1568 1571 1574 1577 1580 1583 1586 1588 1591 1594 1597 1600 1603 1605 1608 1611 1614 1617 1620 1623 1626 1629 1632 1635 1638 1641 1644 1647 1650 1653 1656 1659 1662 1664 1667 1670 1673 1676 1678 1681 1684 1686 1689 1692 1695 1698 1701 1704 1707 1709 1712 1715 1718 1721 1724 1727 1730 1733 1735 1738 1740 1743 1746 1748 1751 1754 1757 1759 1762 1765 1767 1770 1773 1776 1778 1781 1783 1786 1789 1791 1794 1796 1799 1802 1805 1808 1811 1814 1817 1820 1823 1826 1829 1832 1835 1838 1841 1844 1847 1850 1853 1856 1859 1862 1864 1867 1869 1872 1874 1877 1880 1883 1886 1889 1892 1895 1898 1901 1904 1907 1910 1913 1916 1919 1921 1924 1927 1930 1933 1936 1939 1942 1945 1948 1950 1953 1956 1959 1962 1965 1968 1971 1974 1977 1980 1983 1986 1989 1992 1995 1998 2001 2004 2007 2010 2013 2016 2019 2022 2025 2028 2031 2034 2037 2039 2042 2045 2047 2050 2053 2056 2058 2060 2063 2065 2068 2071 2074 2077 2080 2082 2085 2088 2091 2094 2097 2099 2102 2105 2108 2111 2114 2117 2120 2123 2126 2129 2132 2135 2138 2141 2144 2147 2150 2153 2156 2159 2162 2165 2168 2171 2174 2177 2180 2183 2186 2189 2192 2195 2198 2201 2204 2207 2210 2213 2216 2219 2222 2225 2228 2231 2234 2237 2240 2243 2246 2248 2251 2254 2257 2260 2263 2266 2269 2272 2275 2278 2281 2284 2287 2290 2293 2295 2298 2301 2304 2307 2309 2312 2315 2318 2321 2324 2327 2330 2333 2336 2339 2342 2345 2348 2351 2354 2357 2360 2363 2366 2369 2372 2375 2378 2381 2384 2387 2390 2392 2395 2398 2400 2403 2405 2407 2409 2411 2414 2417 2419 2422 2425 2428 2431 2434 2437 2440 2443 2446 2449 2452 2455 2458 2461 2464 2467 2470 2472 2475 2478 2480 2483 2485 2488 2491 2494 2497 2499 2502 2504 2507 2510 2513 2516 2518 2521 2524 2527 2529 2532 2535 2538 2541 2544 2546 2549 2551 2554 2557 2559 2561 2564 2566 2569 2572 2575 2578 2581 2584 2587 2590 2593 2596 2599 2601 2604 2607 2610 2612 2615 2618 2621 2623 2626 2629 2631 2633 2635 2638 2641 2644 2647 2650 2653 2656 2659 2662 2665 2668 2670 2673 2676 2679 2682 2685 2688 2691 2694 2696 2698 2700 2703 2706 2709 2712 2715 2718 2721 2724 2726 2728 2731 2734 2737 2739 2742 2745 2747 2750 2753 2756 2759 2762 2765 2768 2771 2774 2777 2780 2782 2785 2788 2791 2794 2797 2800 2803 2806 2808 2811 2814 2817 2820 2823 2826 2829 2832 2835 2838 2840 2843 2845 2847 2849 2852 2855 2858 2861 2864 2867 2870 2872 2874 2877 2879 2882 2885 2888 2891 2894 2896 2899 2901 2903 2906 2909 2912 2914 2917 2919 2922 2925 2928 2931 2933 2936 2939 2942 2945 2948 2951 2954 2957 2960 2963 2966 2969 2972 2975 2978 2981 2984 2986 2989 2992 2995 2997 3000 3003 3006 3009 3012 3014 3017 3020 3023 3026 3029 3032 3034 3037 3039 3042 3045 3048 3051 3054 3057 3060 3063 3065 3068 3071 3074 3076 3079 3082 3085 3088 3091 3094 3097 3100 3103 3106 3109 3112 3115 3118 3121 3124 3127 3130 3133 3136 3139 3142 3145 3148 3151 3153 3155 3157 3160 3163 3166 3169 3171 3174 3177 3180 3183 3185 3188 3191 3194 3197 3200 3203 3206 3208 3211 3214 3217 3220 3223 3226 3229 3232 3234 3237 3240 3243 3246 3249 3252 3255 3258 3261 3264 3267 3270 3272 3275 3278 3281 3284 3287 3290 3292 3295 3298 3301 3304 3307 3310 3313 3316 3318 3321 3324 3327 3329 3332 3335 3338 3341 3344 3347 3350 3353 3356 3359 3362 3365 3367 3370 3373 3376 3379 3382 3385 3388 3391 3394 3397 3400 3403 3406 3409 3412 3415 3418 3421 3424 3427 3430 3433 3436 3439 3442 3445 3448 3451 3454 3457 3460 3463 3466 3469 3472 3475 3478 3481 3484 3487 3490 3493 3496 3499 3502 3505 3508 3510 3513 3516 3519 3522 3525 3528 3531 3534 3537 3540 3543 3546 3549 3552 3555 3558 3561 3564 3567 3570 3573 3576 3579 3582 3584 3587 3590 3593 3596 3599 3602 3605 3608 3611 3614 3616 3619 3622 3624 3627 3630 3633 3636 3639 3642 3645 3648 3651 3653 3656 3658 3661 3664 3667 3670 3672 3675 3678 3680 3683 3685 3688 3691 3694 3697 3700 3702 3705 3708 3711 3714 3717 3720 3723 3726 3728 3731 3734 3737 3740 3743 3746 3749 3752 3755 3758 3761 3764 3767 3770 3772 3775 3777 3779 3782 3785 3788 3791 3794 3796 3799 3802 3805 3808 3811 3814 3817 3820 3823 3826 3829 3832 3835 3838 3841 3843 3846 3849 3852 3855 3858 3861 3864 3867 3870 3873 3876 3879 3882 3885 3888 3891 3893 3896 3899 3902 3905 3908 3910 3912 3915 3918 3920 3923 3926 3929 3932 3935 3938 3941 3944 3947 3950 3952 3955 3958 3961 3964 3967 3970 3973 3976 3979 3981 3984 3986 3989 3992 3995 3998 4001 4003 4006 4009 4012 4015 4017 4020 4023 4026 4028 4031 4034 4037 4039 4042 4045 4047 4050 4053 4056 4059 4062 4065 4068 4071 4074 4077 4080 4083 4086 4089 4092 4095 4097 4100 4103 4106 4109 4112 4115 4118 4120 4123 4126 4129 4132 4135 4138 4141 4144 4147 4150 4153 4156 4159 4162 4165 4168 4171 4174 4177 4180 4183 4186 4189 4192 4195 4198 4201 4203 4206 4209 4212 4215 4217 4220 4223 4226 4228 4231 4234 4237 4240 4243 4246 4249 4252 4255 4257 4260 4262 4265 4268 4271 4274 4277 4280 4283 4286 4289 4292 4295 4298 4301 4304 4307 4310 4313 4316 4318 4320 4323 4326 4329 4331 4334 4337 4339 4342 4345 4347 4350 4353 4356 4358 4361 4364 4366 4369 4372 4375 4378 4381 4384 4387 4390 4393 4396 4399 4402 4405 4408 4411 4414 4417 4420 4423 4426 4428 4431 4433 4436 4439 4442 4445 4448 4451 4454 4457 4460 4463 4466 4468 4471 4473 4476 4479 4482 4484 4487 4490 4493 4496 4499 4501 4504 4507 4510 4513 4516 4519 4521 4524 4527 4530 4533 4536 4539 4542 4545 4548 4551 4554 4556 4559 4562 4565 4568 4571 4574 4577 4580 4582 4585 4588 4591 4593 4596 4599 4601 4604 4607 4610 4613 4616 4618 4621 4624 4627 4630 4633 4636 4639 4642 4645 4647 4650 4653 4655 4658 4660 4663 4665 4667 4669 4672 4674 4677 4680 4683 4686 4689 4692 4694 4697 4700 4703 4706 4709 4712 4714 4717 4720 4723 4726 4729 4732 4735 4737 4740 4743 4746 4749 4751 4754 4757 4760 4763 4766 4768 4771 4773 4776 4779 4782 4785 4788 4791 4794 4797 4800 4803 4805 4808 4811 4814 4817 4820 4823 4826 4828 4831 4834 4837 4840 4843 4846 4849 4851 4854 4856 4859 4862 4865 4868 4871 4874 4877 4880 4882 4885 4888 4891 4893 4895 4898 4901 4904 4907 4910 4912 4914 4917 4919 4922 4925 4927 4930 4933 4935 4938 4941 4944 4947 4950 4953 4956 4959 4961 4964 4967 4970 4973 4976 4978 4981 4984 4987 4990 4992 4995 4998 5000 5003 5006 5009 5012 5015 5018 5021 5024 5027 5030 5033 5036 5039 5042 5045 5048 5051 5054 5057 5060 5063 5066 5069 5072 5075 5078 5081 5084 5087 5090 5093 5096 5099 5102 5105 5108 5111 5114 5117 5120 5123 5125 5128 5131 5133 5136 5139 5142 5145 5148 5150 5153 5156 5159 5162 5164 5167 5170 5173 5176 5179 5182 5185 5188 5191 5194 5197 5200 5203 5206 5209 5212 5215 5218 5221 5224 5227 5230 5233 5236 5238 5241 5244 5247 5249 5252 5255 5258 5261 5264 5267 5269 5272 5275 5278 5281 5284 5287 5290 5293 5296 5299 5302 5304 5307 5309 5311 5314 5317 5319 5322 5325 5328 5331 5334 5337 5340 5343 5346 5349 5352 5354 5357 5360 5362 5365 5368 5371 5374 5377 5380 5383 5386 5389 5392 5395 5398 5401 5404 5407 5409 5412 5415 5418 5421 5424 5427 5430 5432 5435 5437 5440 5443 5446 5449 5451 5454 5456 5459 5462 5465 5468 5471 5474 5477 5480 5483 5485 5488 5491 5494 5497 5500 5503 5506 5509 5512 5515 5518 5521 5524 5527 5530 5533 5536 5538 5541 5544 5547 5550 5553 5556 5559 5562 5565 5568 5571 5574 5577 5580 5583 5586 5589 5592 5595 5598 5601 5604 5607 5610 5613 5615 5617 5620 5623 5626 5629 5632 5635 5638 5641 5644 5647 5650 5652 5655 5658 5661 5664 5666 5669 5672 5675 5678 5680 5683 5686 5689 5692 5695 5698 5701 5704 5706 5709 5712 5715 5718 5721 5724 5727 5730 5733 5735 5738 5741 5744 5747 5750 5753 5756 5759 5762 5765 5768 5771 5774 5777 5780 5783 5786 5789 5792 5795 5797 5800 5803 5806 5809 5812 5815 5818 5821 5824 5827 5830 5833 5836 5839 5841 5844 5846 5849 5852 5855 5858 5861 5864 5867 5870 5872 5875 5878 5880 5883 5886 5889 5892 5895 5898 5901 5904 5907 5910 5913 5916 5919 5922 5925 5928 5931 5934 5937 5940 5943 5946 5949 5952 5955 5958 5961 5964 5967 5970 5973 5976 5979 5982 5985 5988 5990 5993 5996 5998 6001 6004 6007 6010 6012 6015 6017 6020 6023 6025 6028 6030 6033 6036 6039 6042 6045 6047 6050 6053 6056 6059 6062 6065 6068 6071 6074 6077 6080 6083 6085 6088 6091 6094 6096 6099 6102 6105 6108 6111 6114 6117 6120 6123 6125 6128 6131 6134 6137 6139 6141 6144 6147 6150 6153 6156 6159 6162 6165 6167 6170 6173 6176 6179 6182 6184 6187 6190 6193 6195 6198 6201 6204 6206 6209 6212 6215 6218 6220 6223 6226 6229 6232 6235 6238 6241 6244 6247 6250 6253 6256 6259 6262 6264 6267 6270 6273 6276 6279 6282 6284 6287 6289 6291 6294 6296 6299 6301 6304 6307 6310 6313 6315 6318 6321 6324 6327 6329 6332 6335 6338 6341 6344 6347 6350 6353 6356 6358 6361 6364 6367 6370 6373 6376 6379 6382 6385 6388 6391 6394 6397 6400 6402 6405 6408 6411 6413 6416 6419 6422 6424 6427 6429 6432 6435 6438 6441 6444 6447 6450 6453 6456 6459 6462 6465 6468 6471 6474 6477 6479 6482 6485 6488 6491 6494 6497 6499 6502 6505 6508 6511 6514 6517 6520 6523 6526 6529 6532 6535 6538 6541 6544 6547 6550 6553 6555 6558 6561 6564 6567 6570 6573 6576 6579 6582 6585 6588 6591 6594 6597 6600 6603 6606 6609 6612 6615 6618 6621 6624 6627 6630 6633 6636 6639 6642 6645 6648 6651 6654 6657 6659 6662 6665 6668 6671 6673 6676 6679 6682 6685 6688 6691 6694 6696 6699 6702 6705 6708 6711 6714 6717 6720 6723 6725 6728 6731 6733 6736 6739 6742 6745 6748 6750 6753 6756 6759 6761 6764 6767 6769 6772 6775 6778 6781 6784 6787 6790 6793 6796 6799 6802 6805 6808 6811 6814 6817 6820 6823 6826 6829 6831 6834 6837 6840 6843 6846 6849 6852 6855 6858 6861 6863 6865 6868 6870 6873 6876 6879 6882 6885 6887 6890 6893 6896 6899 6901 6904 6907 6910 6913 6916 6918 6921 6923 6926 6929 6931 6934 6937 6940 6943 6946 6949 6952 6955 6957 6960 6963 6966 6969 6972 6975 6977 6980 6983 6986 6989 6992 6995 6997 7000 7003 7006 7009 7011 7014 7017 7019 7022 7024 7027 7030 7032 7035 7038 7041 7044 7047 7050 7052 7055 7058 7061 7064 7066 7069 7072 7075 7078 7081 7084 7087 7090 7092 7094 7097 7100 7103 7106 7109 7112 7115 7118 7120 7123 7126 7129 7132 7135 7138 7140 7143 7146 7149 7152 7155 7158 7161 7163 7166 7169 7172 7174 7177 7180 7183 7186 7189 7192 7195 7198 7201 7204 7207 7210 7212 7215 7218 7221 7224 7226 7229 7232 7234 7237 7240 7243 7246 7248 7251 7254 7257 7259 7261 7264 7267 7270 7272 7275 7278 7281 7283 7286 7289 7292 7295 7298 7301 7304 7307 7310 7312 7315 7318 7321 7323 7326 7329 7332 7335 7338 7341 7344 7347 7350 7353 7356 7359 7361 7364 7366 7369 7372 7374 7377 7380 7382 7385 7388 7391 7394 7397 7400 7403 7405 7408 7411 7414 7417 7420 7422 7425 7427 7430 7433 7436 7438 7440 7443 7445 7447 7450 7452 7455 7458 7461 7464 7467 7470 7472 7475 7477 7480 7483 7486 7489 7492 7495 7498 7501 7504 7507 7510 7513 7516 7518 7521 7524 7526 7529 7531 7534 7537 7539 7542 7545 7548 7550 7552 7555 7558 7560 7563 7566 7569 7572 7575 7578 7581 7584 7587 7590 7593 7596 7599 7602 7605 7608 7611 7614 7617 7620 7623 7626 7629 7631 7633 7636 7638 7641 7643 7646 7649 7651 7653 7656 7659 7661 7664 7667 7669 7672 7675 7677 7680 7682 7685 7688 7691 7694 7696 7699 7702 7705 7708 7710 7713 7715 7717 7720 7722 7725 7728 7730 7732 7735 7738 7741 7743 7746 7749 7752 7755 7757 7759 7762 7765 7768 7771 7774 7776 7779 7782 7785 7788 7791 7794 7797 7800 7803 7806 7809 7811 7814 7816 7819 7821 7824 7827 7829 7832 7834 7837 7840 7843 7846 7849 7852 7855 7858 7860 7863 7866 7868 7871 7874 7877 7880 7882 7885 7888 7891 7894 7897 7900 7903 7906 7909 7912 7915 7918 7920 7923 7926 7929 7932 7935 7938 7941 7944 7947 7950 7953 7955 7958 7961 7964 7967 7970 7973 7975 7978 7980 7983 7986 7988 7991 7994 7997 8000 8003 8006 8009 8012 8015 8018 8021 8024 8027 8030 8033 8036 8039 8041 8043 8046 8049 8052 8054 8057 8060 8062 8065 8068 8071 8074 8077 8080 8083 8086 8089 8092 8095 8098 8101 8104 8107 8110 8113 8116 8119 8122 8125 8128 8131 8134 8137 8139 8141 8144 8147 8150 8153 8156 8159 8162 8165 8168 8171 8174 8176 8179 8182 8185 8188 8191 8194 8197 8200 8203 8206 8209 8212 8215 8218 8221 8224 8227 8230 8233 8236 8239 8242 8245 8248 8251 8254 8257 8260 8263 8266 8269 8272 8275 8277 8280 8283 8286 8289 8292 8294 8297 8300 8302 8305 8308 8310 8312 8315 8318 8321 8324 8327 8330 8333 8336 8339 8342 8345 8348 8351 8353 8356 8359 8361 8364 8367 8370 8373 8376 8379 8381 8384 8387 8389 8392 8395 8398 8401 8404 8407 8410 8413 8416 8419 8422 8425 8428 8430 8433 8436 8439 8442 8445 8448 8451 8453 8456 8459 8462 8465 8468 8471 8474 8477 8480 8483 8486 8489 8491 8494 8497 8499 8502 8505 8508 8511 8514 8517 8520 8523 8526 8529 8532 8535 8538 8541 8544 8547 8550 8553 8556 8559 8561 8564 8567 8569 8572 8574 8577 8580 8583 8585 8588 8591 8593 8596 8598 8601 8604 8607 8609 8612 8615 8618 8621 8623 8626 8629 8632 8635 8638 8641 8644 8646 8649 8652 8655 8657 8660 8663 8666 8669 8672 8675 8678 8681 8684 8687 8690 8693 8695 8698 8701 8704 8707 8710 8713 8716 8719 8721 8724 8727 8730 8733 8736 8739 8742 8745 8748 8751 8754 8756 8759 8762 8765 8768 8771 8774 8777 8780 8783 8786 8789 8792 8795 8798 8801 8804 8807 8810 8813 8815 8817 8820 8823 8826 8828 8831 8834 8837 8840 8843 8846 8849 8852 8855 8858 8861 8864 8866 8869 8872 8875 8878 8881 8884 8887 8890 8893 8895 8898 8901 8904 8907 8910 8913 8916 8919 8922 8925 8928 8931 8934 8937 8940 8943 8945 8948 8950 8953 8956 8959 8962 8965 8967 8970 8973 8976 8979 8981 8984 8987 8990 8992 8995 8998 9001 9003 9006 9009 9012 9015 9018 9021 9024 9027 9030 9032 9035 9038 9041 9043 9046 9049 9051 9054 9057 9060 9063 9066 9069 9071 9074 9077 9080 9083 9086 9089 9092 9095 9097 9100 9103 9106 9108 9111 9114 9117 9120 9123 9126 9129 9132 9135 9138 9141 9144 9147 9150 9153 9156 9159 9162 9165 9168 9171 9174 9177 9180 9183 9186 9189 9191 9194 9197 9200 9203 9206 9209 9212 9214 9217 9220 9223 9226 9229 9232 9235 9238 9241 9244 9247 9250 9253 9256 9259 9262 9265 9268 9271 9274 9277 9280 9283 9286 9289 9291 9294 9296 9299 9302 9305 9308 9311 9314 9316 9319 9322 9325 9327 9330 9333 9335 9338 9341 9344 9347 9350 9353 9356 9359 9362 9365 9368 9371 9373 9376 9379 9382 9385 9388 9390 9393 9396 9399 9402 9405 9408 9411 9414 9417 9420 9423 9426 9429 9431 9434 9437 9440 9442 9445 9448 9451 9454 9457 9460 9463 9466 9469 9472 9475 9478 9480 9482 9485 9488 9491 9494 9496 9499 9502 9505 9508 9511 9514 9517 9520 9523 9525 9527 9530 9533 9536 9539 9542 9544 9547 9550 9553 9556 9559 9561 9564 9567 9570 9573 9576 9578 9581 9583 9586 9589 9592 9595 9597 9600 9602 9605 9607 9609 9612 9615 9618 9621 9624 9627 9630 9632 9634 9637 9640 9643 9646 9649 9652 9654 9656 9658 9661 9663 9665 9668 9671 9674 9676 9679 9682 9685 9688 9691 9693 9695 9697 9700 9702 9705 9708 9711 9713 9716 9718 9720 9723 9726 9729 9732 9735 9738 9741 9743 9745 9748 9751 9753 9755 9757 9760 9763 9766 9769 9772 9775 9778 9781 9784 9787 9790 9793 9796 9799 9802 9805 9808 9811 9814 9817 9820 9823 9826 9829 9832 9835 9838 9841 9844 9847 9850 9853 9856 9859 9862 9865 9868 9871 9874 9877 9879 9882 9885 9888 9891 9894 9897 9900 9903 9906 9909 9911 9914 9917 9920 9923 9926 9929 9931 9934 9937 9939 9942 9945 9948 9951 9954 9957 9960 9963 9966 9969 9972 9975 9978 9980 9983 9985 9988 9991 9994 9997 9999 10002 10005 10008 10010 10013 10016 10018 10021 10024 10027 10029 10032 10035 10037 10040 10043 10046 10049 10052 10054 10057 10060 10063 10066 10069 10072 10075 10077 10080 10083 10086 10089 10092 10095 10098 10100 10103 10106 10108 10111 10114 10117 10120 10122 10125 10127 10130 10133 10136 10139 10142 10144 10147 10150 10153 10156 10158 10161 10164 10167 10170 10173 10176 10178 10180 10183 10186 10189 10192 10195 10197 10200 10203 10205 10208 10211 10214 10217 10220 10223 10226 10229 10232 10235 10237 10240 10243 10246 10249 10252 10255 10258 10261 10264 10267 10270 10273 10276 10279 10282 10285 10288 10291 10293 10296 10299 10302 10305 10308 10311 10313 10316 10319 10322 10325 10328 10331 10334 10336 10338 10341 10344 10347 10350 10352 10355 10358 10361 10364 10367 10370 10373 10375 10378 10381 10383 10386 10388 10390 10392 10395 10398 10401 10404 10407 10410 10412 10415 10418 10421 10424 10427 10429 10432 10435 10438 10441 10443 10446 10449 10452 10454 10457 10460 10463 10465 10468 10471 10474 10477 10480 10483 10486 10489 10492 10495 10498 10501 10504 10507 10510 10513 10516 10519 10522 10525 10528 10531 10534 10537 10540 10542 10545 10548 10551 10554 10557 10560 10563 10565 10568 10570 10573 10576 10579 10582 10585 10588 10590 10593 10596 10598 10601 10604 10607 10609 10612 10615 10617 10620 10623 10626 10629 10632 10634 10637 10640 10643 10645 10647 10650 10653 10656 10659 10662 10665 10668 10671 10674 10677 10680 10683 10685 10688 10691 10694 10697 10700 10703 10706 10709 10712 10714 10717 10720 10723 10726 10729 10731 10733 10736 10739 10742 10745 10748 10751 10754 10757 10760 10762 10765 10768 10771 10774 10777 10780 10783 10786 10788 10791 10794 10797 10800 10803 10806 10809 10812 10815 10818 10821 10824 10827 10830 10833 10836 10839 10842 10844 10847 10850 10853 10856 10858 10861 10863 10866 10868 10871 10874 10877 10880 10883 10886 10889 10892 10895 10898 10901 10904 10907 10910 10913 10916 10919 10921 10924 10927 10930 10933 10936 10938 10941 10944 10947 10949 10951 10954 10957 10960 10963 10966 10968 10971 10974 10977 10980 10982 10985 10988 10991 10994 10997 11000 11003 11006 11008 11011 11014 11017 11020 11023 11026 11029 11031 11034 11037 11040 11043 11046 11049 11052 11055 11058 11060 11063 11066 11069 11072 11075 11078 11081 11084 11087 11090 11093 11096 11099 11102 11105 11108 11111 11114 11116 11119 11122 11125 11128 11131 11134 11137 11140 11143 11146 11149 11152 11155 11157 11160 11163 11166 11169 11172 11175 11177 11180 11183 11185 11188 11191 11193 11196 11199 11202 11205 11208 11211 11214 11217 11220 11223 11226 11229 11232 11235 11238 11241 11244 11247 11250 11253 11256 11259 11262 11265 11268 11271 11273 11276 11278 11281 11283 11285 11288 11291 11294 11296 11299 11302 11305 11308 11311 11314 11317 11320 11323 11325 11327 11330 11332 11335 11338 11341 11344 11347 11350 11353 11356 11359 11362 11365 11368 11371 11374 11376 11379 11381 11383 11386 11388 11391 11394 11397 11400 11403 11406 11409 11412 11415 11417 11419 11422 11425 11428 11431 11434 11437 11440 11443 11446 11449 11452 11455 11458 11461 11464 11467 11470 11473 11476 11479 11482 11485 11487 11490 11493 11496 11499 11502 11504 11507 11510 11513 11516 11519 11521 11524 11527 11530 11532 11535 11538 11541 11544 11547 11550 11553 11556 11559 11561 11564 11567 11570 11573 11575 11578 11581 11584 11587 11590 11593 11595 11598 11601 11604 11607 11610 11613 11616 11618 11621 11624 11627 11630 11632 11635 11638 11641 11644 11647 11650 11653 11656 11659 11662 11664 11667 11670 11673 11676 11678 11681 11684 11687 11689 11692 11695 11698 11701 11704 11706 11709 11712 11715 11718 11721 11724 11727 11730 11733 11736 11739 11742 11745 11748 11750 11752 11755 11758 11760 11763 11766 11769 11772 11775 11778 11781 11783 11786 11789 11792 11795 11798 11801 11803 11806 11809 11812 11815 11818 11821 11824 11827 11830 11833 11836 11839 11842 11845 11848 11851 11854 11857 11860 11863 11866 11869 11872 11874 11877 11880 11883 11886 11889 11892 11895 11898 11900 11903 11906 11909 11912 11914 11917 11920 11923 11926 11929 11931 11934 11936 11939 11941 11944 11947 11950 11953 11956 11959 11962 11964 11967 11970 11973 11975 11978 11981 11984 11987 11990 11992 11995 11998 12001 12004 12007 12009 12012 12014 12017 12020 12022 12025 12027 12030 12033 12036 12039 12042 12044 12047 12050 12053 12055 12058 12061 12064 12067 12070 12073 12076 12079 12082 12085 12087 12090 12093 12096 12099 12102 12105 12108 12111 12114 12117 12120 12123 12126 12129 12132 12135 12138 12141 12144 12147 12150 12153 12155 12158 12161 12164 12167 12170 12173 12176 12179 12182 12185 12188 12191 12194 12197 12200 12203 12206 12209 12211 12214 12217 12220 12222 12225 12228 12231 12234 12237 12240 12242 12245 12248 12251 12253 12255 12258 12260 12263 12265 12267 12270 12272 12275 12278 12280 12283 12286 12288 12290 12293 12296 12299 12302 12305 12308 12311 12314 12316 12319 12321 12324 12327 12330 12333 12336 12339 12342 12345 12348 12351 12354 12357 12360 12363 12366 12369 12372 12375 12378 12381 12384 12387 12389 12392 12395 12398 12401 12404 12407 12410 12413 12415 12418 12421 12423 12426 12429 12431 12433 12436 12439 12441 12444 12447 12450 12453 12456 12459 12462 12465 12468 12471 12474 12477 12480 12483 12486 12489 12492 12495 12498 12501 12504 12507 12510 12513 12516 12519 12522 12525 12528 12531 12534 12537 12540 12543 12546 12549 12552 12555 12558 12560 12563 12565 12568 12571 12574 12577 12580 12583 12586 12589 12592 12595 12598 12601 12604 12607 12610 12613 12616 12619 12622 12625 12628 12631 12634 12637 12640 12643 12646 12649 12652 12655 12658 12661 12664 12667 12670 12673 12676 12679 12682 12685 12687 12690 12693 12695 12698 12701 12704 12707 12710 12712 12715 12717 12720 12723 12725 12728 12731 12734 12737 12740 12743 12745 12748 12751 12754 12757 12760 12763 12766 12769 12772 12775 12778 12780 12783 12786 12788 12790 12793 12795 12798 12801 12803 12806 12809 12812 12815 12817 12820 12823 12826 12829 12832 12835 12838 12841 12844 12846 12849 12851 12854 12857 12860 12863 12866 12869 12872 12874 12877 12879 12882 12885 12888 12891 12894 12897 12900 12903 12906 12908 12911 12913 12916 12919 12922 12925 12928 12931 12934 12937 12940 12943 12945 12948 12951 12954 12956 12959 12962 12964 12967 12970 12972 12975 12978 12981 12984 12986 12989 12992 12995 12997 13000 13003 13006 13009 13012 13015 13018 13021 13024 13027 13030 13033 13036 13039 13041 13044 13047 13050 13053 13056 13059 13061 13064 13066 13069 13071 13074 13077 13080 13082 13085 13088 13091 13094 13097 13100 13103 13106 13108 13111 13114 13117 13120 13123 13125 13128 13131 13133 13136 13139 13142 13145 13148 13151 13154 13157 13160 13162 13165 13168 13171 13173 13176 13179 13182 13185 13188 13191 13193 13196 13199 13202 13205 13208 13211 13214 13217 13220 13223 13226 13229 13232 13235 13238 13241 13244 13247 13250 13253 13256 13259 13262 13265 13268 13271 13274 13277 13280 13283 13286 13288 13291 13294 13297 13300 13303 13305 13308 13311 13313 13315 13318 13321 13324 13327 13329 13332 13335 13338 13341 13344 13346 13349 13352 13355 13358 13361 13364 13367 13370 13373 13376 13379 13382 13385 13388 13391 13394 13396 13399 13402 13405 13408 13411 13414 13417 13420 13422 13424 13427 13430 13433 13436 13439 13442 13444 13447 13450 13453 13456 13458 13461 13464 13467 13470 13473 13476 13479 13482 13485 13488 13491 13494 13497 13500 13503 13506 13509 13512 13515 13518 13521 13524 13527 13530 13532 13535 13538 13540 13543 13546 13549 13552 13555 13558 13561 13564 13567 13570 13573 13576 13579 13582 13585 13588 13591 13594 13597 13600 13603 13606 13609 13612 13615 13618 13621 13623 13626 13628 13631 13634 13637 13640 13643 13645 13648 13651 13654 13657 13660 13663 13666 13669 13672 13675 13678 13681 13684 13687 13690 13693 13696 13699 13702 13705 13707 13709 13712 13714 13717 13720 13723 13726 13729 13732 13735 13738 13741 13744 13747 13750 13753 13756 13759 13762 13764 13767 13770 13773 13775 13778 13781 13784 13787 13790 13793 13796 13799 13802 13805 13808 13811 13814 13816 13819 13822 13825 13828 13831 13834 13837 13840 13843 13846 13849 13852 13855 13858 13861 13864 13867 13870 13873 13876 13879 13882 13884 13887 13890 13893 13896 13899 13902 13905 13908 13911 13914 13917 13920 13923 13925 13928 13930 13933 13936 13938 13940 13943 13946 13949 13952 13955 13958 13961 13964 13967 13970 13973 13976 13979 13982 13985 13988 13991 13994 13997 14000 14002 14005 14008 14010 14013 14016 14019 14021 14024 14027 14030 14033 14036 14039 14041 14044 14047 14050 14052 14055 14058 14061 14064 14067 14070 14073 14076 14078 14081 14084 14086 14089 14092 14094 14097 14099 14102 14105 14108 14111 14113 14115 14118 14121 14123 14125 14128 14131 14133 14136 14139 14142 14145 14147 14150 14153 14155 14157 14160 14162 14165 14168 14171 14174 14177 14180 14183 14186 14189 14192 14195 14198 14201 14204 14207 14210 14213 14216 14219 14222 14224 14227 14230 14233 14236 14238 14241 14244 14247 14250 14252 14254 14257 14260 14263 14266 14269 14272 14275 14278 14281 14284 14287 14290 14292 14295 14298 14301 14303 14306 14309 14312 14315 14318 14321 14324 14326 14329 14332 14335 14337 14340 14343 14345 14347 14350 14353 14356 14358 14361 14364 14367 14369 14372 14375 14378 14381 14384 14387 14390 14393 14396 14399 14402 14405 14408 14411 14414 14417 14420 14423 14425 14428 14431 14434 14437 14440 14443 14446 14449 14452 14455 14458 14461 14464 14467 14470 14473 14476 14479 14481 14483 14486 14489 14492 14495 14498 14500 14502 14505 14507 14510 14513 14516 14519 14522 14525 14528 14531 14534 14536 14539 14542 14545 14547 14550 14553 14556 14559 14562 14565 14568 14571 14574 14577 14580 14583 14586 14589 14591 14594 14597 14600 14603 14606 14609 14612 14614 14617 14620 14622 14625 14628 14631 14634 14637 14640 14642 14645 14648 14651 14654 14656 14659 14662 14665 14668 14671 14674 14676 14679 14682 14685 14688 14691 14694 14697 14700 14702 14704 14707 14710 14713 14715 14717 14720 14723 14726 14729 14732 14734 14737 14740 14743 14746 14749 14752 14754 14757 14760 14763 14766 14768 14771 14774 14777 14780 14783 14785 14788 14791 14794 14797 14799 14802 14805 14808 14811 14814 14817 14820 14823 14826 14829 14832 14835 14838 14841 14844 14847 14850 14853 14856 14859 14862 14865 14868 14871 14874 14876 14879 14882 14885 14888 14890 14893 14895 14898 14900 14903 14906 14908 14911 14914 14916 14919 14922 14924 14927 14930 14933 14936 14939 14942 14944 14947 14950 14952 14955 14957 14959 14961 14964 14967 14969 14972 14974 14976 14979 14982 14985 14987 14990 14992 14995 14998 15001 15004 15007 15010 15012 15015 15018 15021 15023 15026 15029 15032 15035 15038 15041 15044 15046 15049 15052 15055 15057 15060 15062 15064 15067 15070 15073 15076 15079 15082 15085 15087 15090 15093 15096 15099 15102 15105 15108 15111 15113 15115 15118 15121 15124 15127 15129 15132 15135 15137 15140 15143 15146 15148 15151 15154 15157 15159 15161 15164 15167 15170 15173 15175 15178 15181 15184 15187 15190 15192 15194 15197 15200 15203 15206 15209 15212 15215 15218 15221 15224 15227 15230 15233 15236 15239 15242 15245 15248 15251 15254 15257 15260 15263 15266 15269 15272 15275 15278 15281 15284 15287 15289 15292 15295 15298 15300 15303 15306 15309 15312 15315 15318 15321 15324 15327 15330 15333 15336 15339 15342 15345 15347 15350 15352 15354 15357 15360 15362 15365 15368 15371 15374 15377 15380 15383 15386 15389 15392 15395 15398 15401 15404 15407 15410 15413 15416 15419 15422 15425 15428 15431 15433 15436 15439 15441 15443 15446 15449 15452 15455 15458 15461 15464 15466 15469 15472 15475 15477 15480 15483 15486 15489 15491 15493 15496 15499 15502 15505 15508 15511 15514 15516 15519 15522 15525 15528 15530 15533 15536 15539 15542 15544 15547 15550 15553 15556 15559 15562 15565 15568 15571 15574 15577 15580 15583 15586 15589 15592 15595 15598 15601 15603 15606 15609 15612 15615 15618 15621 15624 15627 15630 15633 15636 15639 15642 15645 15648 15651 15653 15656 15659 15662 15664 15667 15670 15673 15676 15679 15682 15685 15688 15691 15693 15696 15699 15702 15705 15708 15711 15714 15717 15720 15723 15726 15729 15732 15735 15738 15741 15744 15747 15750 15753 15756 15758 15761 15764 15767 15770 15773 15776 15779 15782 15785 15788 15791 15794 15797 15800 15803 15806 15809 15811 15814 15817 15820 15823 15826 15828 15831 15834 15837 15840 15843 15846 15849 15852 15855 15858 15861 15864 15867 15870 15873 15876 15879 15882 15885 15888 15891 15894 15897 15900 15903 15906 15909 15911 15914 15917 15919 15922 15925 15928 15930 15933 15936 15939 15942 15945 15948 15951 15954 15957 15960 15963 15966 15969 15972 15975 15977 15980 15982 15985 15988 15991 15994 15997 16000 16003 16006 16009 16011 16014 16017 16020 16023 16026 16029 16032 16035 16038 16040 16042 16045 16048 16051 16054 16057 16060 16063 16066 16069 16072 16075 16078 16081 16084 16087 16090 16093 16096 16099 16102 16105 16108 16111 16114 16117 16120 16123 16126 16129 16132 16135 16138 16141 16144 16147 16150 16153 16156 16159 16162 16165 16168 16171 16174 16177 16180 16183 16186 16189 16192 16195 16198 16201 16204 16207 16210 16213 16216 16219 16222 16225 16228 16231 16234 16237 16240 16243 16246 16249 16252 16255 16257 16260 16263 16266 16269 16272 16275 16277 16280 16283 16286 16289 16292 16295 16298 16301 16304 16306 16309 16311 16314 16317 16320 16323 16326 16329 16332 16335 16338 16341 16344 16347 16350 16353 16356 16359 16362 16365 16368 16371 16374 16377 16380 16383 16386 16389 16392 16395 16398 16401 16404 16407 16410 16413 16415 16418 16421 16424 16426 16428 16431 16434 16437 16440 16443 16446 16449 16452 16455 16458 16461 16464 16467 16470 16473 16476 16479 16482 16485 16488 16491 16494 16496 16498 16501 16504 16507 16510 16513 16516 16519 16522 16524 16527 16530 16533 16536 16539 16542 16544 16547 16550 16553 16556 16559 16561 16564 16567 16570 16573 16575 16578 16581 16584 16586 16589 16592 16595 16597 16600 16603 16605 16608 16611 16614 16617 16620 16623 16626 16629 16632 16635 16638 16641 16644 16646 16649 16652 16655 16658 16661 16664 16667 16670 16672 16675 16678 16681 16684 16687 16690 16693 16696 16699 16702 16705 16707 16710 16713 16716 16718 16721 16724 16727 16730 16732 16735 16738 16741 16744 16747 16750 16753 16756 16758 16761 16763 16766 16769 16771 16774 16777 16780 16783 16786 16788 16791 16794 16797 16800 16803 16806 16809 16812 16815 16818 16821 16824 16826 16829 16832 16835 16838 16841 16844 16847 16850 16853 16855 16858 16861 16864 16867 16870 16873 16875 16878 16881 16884 16887 16890 16893 16896 16898 16901 16904 16907 16910 16913 16915 16918 16921 16924 16927 16930 16933 16936 16939 16942 16945 16948 16951 16954 16957 16960 16963 16966 16969 16972 16975 16978 16981 16984 16987 16990 16993 16996 16999 17002 17005 17008 17011 17014 17017 17020 17023 17026 17029 17032 17035 17038 17041 17044 17047 17050 17053 17056 17058 17061 17063 17066 17069 17072 17075 17078 17081 17084 17087 17090 17093 17096 17099 17102 17105 17107 17110 17113 17116 17119 17122 17125 17128 17131 17134 17137 17140 17143 17146 17149 17152 17154 17157 17160 17162 17165 17167 17170 17173 17176 17179 17182 17184 17187 17190 17193 17196 17199 17202 17205 17208 17211 17214 17217 17220 17223 17226 17229 17232 17235 17238 17241 17244 17246 17249 17252 17255 17258 17261 17264 17267 17270 17273 17276 17279 17281 17284 17286 17289 17292 17294 17297 17299 17302 17305 17308 17311 17314 17317 17320 17322 17325 17327 17330 17333 17336 17339 17341 17344 17347 17350 17353 17355 17357 17360 17363 17365 17368 17371 17374 17377 17380 17383 17386 17389 17392 17395 17398 17401 17404 17407 17410 17413 17415 17418 17421 17424 17427 17430 17433 17436 17439 17442 17445 17448 17451 17454 17457 17459 17462 17464 17467 17470 17473 17476 17479 17482 17485 17487 17490 17492 17495 17498 17501 17504 17507 17510 17513 17516 17519 17521 17523 17526 17529 17532 17534 17537 17540 17543 17546 17548 17551 17553 17556 17559 17561 17564 17566 17568 17570 17573 17576 17578 17581 17584 17587 17589 17591 17593 17596 17599 17602 17605 17608 17611 17614 17617 17620 17623 17626 17628 17631 17634 17637 17640 17643 17646 17648 17651 17654 17657 17659 17662 17665 17668 17671 17674 17677 17680 17683 17685 17688 17691 17694 17696 17699 17702 17705 17708 17711 17714 17717 17720 17723 17726 17729 17732 17735 17738 17741 17744 17747 17750 17753 17756 17759 17762 17765 17768 17771 17774 17777 17780 17783 17786 17789 17792 17795 17798 17801 17804 17807 17810 17813 17816 17819 17822 17825 17828 17831 17834 17837 17840 17843 17846 17849 17852 17855 17858 17861 17864 17867 17870 17873 17876 17878 17881 17884 17887 17890 17893 17895 17898 17901 17904 17907 17909 17912 17915 17918 17920 17923 17926 17929 17932 17935 17938 17941 17944 17947 17950 17953 17956 17959 17962 17965 17968 17971 17974 17977 17980 17983 17986 17989 17992 17995 17998 18001 18004 18007 18010 18013 18016 18019 18022 18025 18028 18031 18034 18037 18040 18042 18045 18048 18050 18053 18056 18059 18062 18065 18068 18071 18073 18076 18079 18082 18085 18088 18091 18094 18097 18100 18103 18106 18108 18111 18114 18116 18119 18121 18124 18127 18130 18132 18135 18138 18141 18144 18147 18150 18153 18156 18158 18161 18164 18167 18170 18172 18175 18178 18181 18184 18186 18189 18191 18194 18197 18200 18203 18206 18209 18212 18215 18218 18221 18224 18227 18229 18232 18234 18237 18240 18243 18246 18249 18252 18255 18258 18261 18264 18267 18270 18273 18275 18278 18281 18284 18287 18290 18293 18296 18299 18302 18304 18307 18310 18313 18315 18318 18321 18324 18327 18330 18333 18336 18339 18342 18345 18348 18351 18354 18357 18360 18363 18366 18369 18372 18375 18378 18381 18384 18387 18390 18393 18396 18399 18402 18405 18408 18411 18414 18417 18420 18422 18425 18428 18430 18433 18436 18439 18442 18444 18447 18450 18453 18456 18459 18462 18465 18468 18471 18474 18477 18480 18483 18486 18489 18491 18494 18497 18500 18503 18506 18509 18512 18515 18518 18520 18523 18525 18528 18531 18534 18537 18540 18543 18546 18548 18551 18554 18557 18560 18563 18566 18569 18572 18575 18578 18581 18584 18587 18590 18592 18595 18598 18601 18604 18607 18610 18613 18616 18619 18622 18625 18627 18630 18633 18636 18639 18642 18645 18648 18651 18654 18657 18660 18663 18666 18669 18672 18675 18678 18681 18684 18687 18690 18693 18696 18698 18701 18703 18706 18709 18712 18715 18718 18721 18723 18726 18728 18731 18734 18737 18739 18742 18745 18748 18750 18753 18756 18759 18761 18764 18767 18769 18772 18775 18778 18781 18784 18787 18790 18792 18795 18798 18801 18804 18807 18810 18813 18815 18818 18821 18824 18827 18830 18833 18836 18839 18842 18845 18848 18851 18854 18856 18859 18862 18865 18868 18871 18874 18877 18880 18882 18885 18888 18891 18894 18897 18900 18903 18906 18909 18912 18915 18918 18921 18924 18927 18930 18933 18936 18939 18942 18944 18947 18950 18953 18956 18959 18962 18965 18968 18971 18974 18977 18980 18983 18986 18989 18992 18995 18998 19001 19004 19007 19010 19013 19016 19019 19022 19025 19028 19031 19034 19037 19040 19043 19046 19049 19052 19055 19058 19061 19064 19067 19070 19073 19076 19079 19082 19085 19088 19091 19094 19096 19099 19101 19104 19107 19110 19112 19115 19118 19120 19122 19125 19127 19130 19133 19136 19139 19142 19145 19148 19151 19154 19157 19160 19163 19166 19169 19172 19175 19178 19181 19184 19187 19190 19193 19196 19199 19202 19205 19208 19211 19214 19217 19220 19223 19226 19229 19232 19234 19237 19240 19243 19246 19248 19251 19254 19256 19259 19262 19265 19267 19270 19273 19276 19279 19281 19284 19286 19288 19291 19294 19297 19300 19302 19305 19308 19311 19313 19316 19319 19322 19324 19327 19330 19333 19336 19339 19342 19344 19347 19350 19353 19356 19359 19362 19365 19368 19371 19374 19377 19380 19383 19386 19389 19392 19395 19398 19401 19404 19406 19409 19412 19415 19418 19421 19424 19427 19430 19433 19436 19439 19442 19445 19448 19451 19454 19457 19460 19462 19465 19468 19470 19473 19476 19478 19481 19484 19487 19490 19493 19496 19499 19502 19505 19508 19511 19513 19516 19519 19522 19525 19527 19530 19533 19536 19539 19541 19544 19547 19550 19552 19555 19558 19561 19564 19567 19570 19573 19576 19579 19582 19585 19588 19591 19594 19597 19600 19603 19606 19609 19612 19615 19618 19621 19624 19627 19629 19632 19635 19638 19641 19644 19647 19650 19653 19655 19658 19661 19664 19666 19669 19672 19675 19678 19681 19684 19687 19690 19693 19696 19699 19702 19705 19708 19711 19714 19717 19720 19723 19726 19729 19732 19735 19738 19740 19743 19746 19749 19751 19754 19757 19760 19763 19766 19769 19772 19775 19777 19780 19783 19785 19788 19791 19794 19797 19799 19802 19805 19808 19811 19814 19817 19820 19822 19825 19827 19830 19833 19835 19838 19841 19843 19845 19848 19851 19854 19857 19860 19863 19866 19869 19872 19875 19878 19881 19884 19887 19890 19893 19896 19899 19902 19905 19908 19910 19913 19916 19919 19922 19924 19927 19930 19933 19936 19939 19942 19945 19948 19951 19954 19957 19960 19963 19965 19968 19971 19973 19976 19979 19982 19985 19988 19991 19994 19997 20000 20003 20006 20009 20012 20015 20018 20021 20024 20027 20030 20033 20036 20039 20042 20045 20048 20051 20054 20057 20060 20063 20066 20069 20072 20075 20078 20081 20084 20087 20090 20093 20096 20099 20102 20105 20108 20111 20114 20117 20120 20123 20126 20129 20132 20135 20138 20141 20144 20147 20150 20153 20156 20159 20162 20165 20168 20171 20174 20177 20180 20183 20186 20189 20192 20195 20198 20201 20204 20207 20210 20213 20216 20219 20222 20225 20228 20231 20234 20237 20240 20243 20246 20249 20252 20255 20258 20261 20264 20267 20270 20273 20276 20279 20282 20285 20288 20291 20294 20297 20300 20303 20306 20309 20312 20315 20318 20321 20324 20327 20330 20333 20336 20339 20342 20345 20348 20351 20354 20357 20359 20362 20365 20368 20371 20374 20377 20380 20382 20385 20388 20391 20394 20397 20400 20403 20406 20409 20411 20414 20416 20419 20422 20425 20427 20430 20433 20435 20438 20441 20444 20447 20450 20453 20456 20459 20462 20465 20468 20471 20474 20477 20480 20483 20486 20489 20492 20495 20498 20501 20504 20507 20510 20513 20516 20519 20522 20525 20528 20531 20534 20537 20540 20543 20546 20548 20551 20554 20556 20558 20561 20564 20566 20569 20572 20574 20577 20580 20583 20585 20588 20591 20594 20597 20600 20603 20606 20609 20612 20614 20617 20620 20623 20626 20629 20632 20634 20637 20640 20643 20646 20649 20652 20655 20658 20661 20664 20667 20670 20673 20676 20679 20682 20685 20688 20691 20694 20697 20700 20703 20706 20709 20712 20715 20718 20721 20724 20727 20729 20732 20735 20738 20741 20744 20747 20750 20753 20756 20759 20762 20765 20768 20771 20774 20777 20780 20783 20786 20789 20792 20795 20798 20801 20804 20807 20810 20813 20816 20819 20822 20825 20828 20831 20834 20837 20840 20843 20846 20849 20852 20855 20858 20861 20864 20867 20869 20872 20874 20877 20880 20883 20886 20888 20891 20894 20897 20900 20902 20905 20908 20911 20914 20916 20919 20922 20925 20928 20931 20934 20937 20940 20942 20945 20948 20950 20953 20955 20958 20961 20964 20967 20969 20972 20975 20977 20979 20982 20985 20988 20991 20994 20997 20999 21002 21005 21008 21011 21014 21017 21020 21023 21026 21029 21031 21033 21036 21039 21042 21045 21048 21050 21053 21056 21058 21061 21064 21067 21070 21072 21075 21078 21080 21083 21086 21089 21092 21095 21098 21101 21104 21107 21110 21113 21116 21119 21122 21125 21128 21131 21134 21137 21140 21143 21146 21149 21152 21155 21158 21161 21164 21167 21169 21172 21174 21177 21180 21183 21186 21189 21192 21195 21198 21201 21204 21207 21210 21213 21215 21218 21221 21224 21227 21229 21231 21234 21237 21240 21243 21246 21249 21252 21255 21258 21261 21264 21267 21270 21273 21276 21279 21282 21285 21288 21291 21294 21297 21300 21303 21306 21309 21312 21315 21318 21321 21324 21327 21330 21333 21336 21339 21342 21345 21348 21351 21354 21357 21359 21362 21365 21368 21370 21373 21376 21379 21382 21385 21388 21391 21394 21397 21400 21403 21406 21409 21412 21415 21418 21421 21424 21427 21430 21432 21435 21438 21440 21443 21446 21449 21452 21455 21458 21461 21464 21467 21469 21472 21475 21478 21481 21484 21486 21489 21492 21495 21498 21501 21503 21506 21508 21511 21514 21517 21520 21523 21526 21529 21532 21535 21538 21541 21544 21547 21549 21552 21555 21558 21560 21562 21565 21568 21571 21574 21577 21580 21583 21586 21588 21591 21594 21596 21599 21602 21604 21606 21609 21612 21615 21618 21621 21623 21626 21629 21632 21635 21638 21641 21644 21646 21649 21652 21654 21656 21659 21662 21665 21668 21671 21674 21676 21678 21681 21684 21687 21689 21692 21695 21698 21701 21704 21707 21710 21712 21715 21718 21721 21724 21727 21730 21733 21736 21739 21742 21745 21748 21751 21754 21757 21760 21763 21766 21769 21772 21775 21778 21781 21784 21787 21790 21792 21795 21798 21801 21804 21807 21810 21813 21815 21818 21821 21824 21827 21830 21833 21836 21839 21842 21845 21848 21850 21853 21856 21859 21862 21865 21868 21871 21874 21876 21879 21882 21885 21888 21891 21894 21897 21900 21903 21906 21909 21912 21915 21918 21921 21924 21926 21929 21932 21935 21937 21940 21943 21946 21949 21952 21954 21957 21960 21963 21966 21969 21972 21975 21978 21981 21984 21987 21990 21993 21996 21998 22001 22004 22007 22010 22012 22015 22018 22020 22023 22026 22029 22032 22035 22037 22040 22043 22046 22049 22052 22055 22058 22061 22064 22067 22070 22073 22076 22079 22081 22084 22086 22089 22092 22095 22097 22100 22102 22105 22107 22110 22113 22116 22119 22122 22125 22127 22129 22132 22135 22138 22141 22144 22147 22149 22152 22154 22157 22160 22163 22166 22169 22172 22175 22178 22181 22184 22187 22190 22193 22196 22199 22202 22205 22207 22210 22213 22216 22218 22220 22223 22226 22229 22232 22235 22237 22240 22243 22245 22247 22250 22253 22256 22259 22262 22265 22268 22271 22274 22277 22280 22283 22286 22289 22292 22295 22298 22301 22304 22307 22310 22313 22316 22319 22322 22325 22328 22331 22334 22337 22340 22343 22346 22349 22352 22355 22358 22361 22364 22367 22370 22373 22376 22379 22381 22384 22387 22389 22391 22393 22396 22399 22402 22405 22408 22411 22413 22416 22419 22422 22425 22428 22431 22434 22437 22440 22442 22445 22448 22451 22453 22456 22459 22462 22465 22468 22471 22474 22477 22480 22483 22486 22489 22492 22495 22498 22501 22504 22507 22510 22513 22515 22518 22521 22524 22527 22529 22532 22535 22538 22541 22544 22547 22550 22553 22556 22559 22562 22565 22568 22571 22574 22577 22580 22583 22586 22589 22592 22595 22598 22601 22604 22607 22610 22613 22616 22619 22622 22625 22628 22631 22633 22636 22638 22641 22644 22647 22650 22653 22656 22659 22662 22664 22667 22670 22673 22675 22678 22680 22683 22686 22689 22692 22695 22698 22701 22704 22706 22709 22712 22715 22718 22720 22723 22726 22729 22732 22734 22737 22740 22743 22746 22749 22752 22755 22757 22760 22763 22766 22769 22771 22774 22777 22780 22783 22786 22789 22792 22795 22798 22801 22804 22807 22810 22813 22816 22819 22822 22825 22828 22831 22834 22837 22840 22843 22846 22849 22852 22855 22858 22861 22864 22867 22870 22873 22876 22879 22882 22885 22888 22891 22894 22897 22900 22903 22906 22909 22911 22914 22917 22920 22923 22925 22927 22930 22933 22935 22937 22940 22943 22946 22949 22952 22955 22958 22961 22964 22967 22970 22973 22976 22979 22982 22985 22988 22991 22994 22996 22999 23002 23005 23007 23009 23012 23015 23018 23021 23024 23027 23030 23033 23036 23039 23042 23045 23048 23051 23054 23057 23060 23063 23066 23069 23072 23075 23078 23081 23084 23087 23090 23092 23095 23098 23101 23104 23107 23110 23113 23115 23118 23121 23124 23127 23130 23133 23136 23139 23142 23145 23148 23151 23154 23157 23160 23162 23165 23168 23171 23174 23177 23180 23183 23186 23188 23191 23193 23195 23198 23201 23204 23207 23210 23213 23216 23219 23222 23225 23228 23231 23233 23236 23239 23242 23245 23248 23251 23254 23257 23260 23263 23266 23269 23272 23275 23278 23281 23284 23287 23289 23292 23295 23298 23300 23303 23306 23309 23312 23315 23318 23321 23324 23326 23329 23332 23335 23338 23341 23344 23347 23350 23353 23356 23359 23362 23365 23368 23371 23373 23376 23379 23382 23384 23387 23390 23393 23396 23399 23402 23405 23408 23411 23414 23417 23420 23423 23426 23429 23432 23435 23438 23441 23444 23447 23450 23453 23456 23459 23462 23465 23468 23471 23474 23477 23480 23483 23485 23488 23490 23493 23496 23499 23502 23505 23508 23511 23514 23516 23519 23522 23525 23528 23531 23534 23537 23540 23543 23545 23548 23551 23553 23556 23559 23562 23565 23568 23570 23573 23576 23579 23582 23584 23587 23590 23593 23596 23598 23601 23604 23607 23609 23612 23614 23617 23620 23622 23625 23628 23631 23634 23637 23640 23643 23646 23649 23652 23655 23658 23661 23664 23666 23669 23672 23674 23677 23679 23682 23685 23688 23690 23693 23696 23698 23701 23704 23707 23710 23712 23715 23717 23720 23723 23726 23729 23732 23735 23737 23740 23742 23745 23748 23751 23754 23757 23759 23762 23765 23768 23771 23773 23776 23779 23782 23785 23788 23791 23793 23796 23799 23802 23805 23808 23811 23814 23817 23820 23823 23826 23829 23832 23835 23838 23841 23844 23847 23850 23853 23856 23859 23862 23865 23868 23871 23874 23877 23880 23883 23886 23889 23892 23894 23896 23899 23902 23905 23908 23911 23914 23917 23920 23923 23926 23928 23931 23934 23936 23938 23941 23943 23946 23949 23952 23955 23958 23961 23964 23966 23969 23972 23975 23978 23981 23984 23987 23990 23993 23996 23999 24002 24004 24007 24010 24013 24016 24018 24021 24024 24027 24030 24033 24036 24039 24042 24045 24048 24051 24054 24056 24059 24062 24065 24068 24071 24074 24077 24080 24083 24086 24089 24092 24095 24098 24101 24104 24107 24109 24112 24115 24118 24121 24124 24126 24129 24132 24135 24137 24140 24143 24146 24149 24152 24155 24157 24160 24162 24165 24168 24171 24173 24176 24179 24182 24185 24188 24191 24194 24197 24200 24202 24205 24208 24210 24213 24216 24219 24222 24225 24228 24231 24233 24236 24239 24242 24245 24248 24251 24254 24257 24260 24263 24266 24269 24272 24274 24277 24280 24282 24285 24288 24291 24294 24297 24300 24302 24305 24308 24311 24314 24317 24320 24322 24325 24328 24331 24334 24337 24340 24343 24345 24348 24351 24354 24357 24360 24363 24366 24369 24372 24375 24378 24381 24384 24387 24390 24393 24396 24399 24402 24405 24408 24411 24413 24416 24419 24422 24425 24428 24431 24434 24437 24440 24443 24445 24448 24451 24454 24457 24459 24461 24464 24467 24470 24473 24475 24478 24481 24484 24487 24490 24493 24496 24499 24502 24504 24507 24510 24513 24516 24519 24522 24525 24528 24531 24534 24537 24539 24542 24545 24548 24550 24553 24556 24559 24561 24564 24567 24570 24573 24576 24579 24582 24585 24588 24591 24594 24597 24599 24602 24605 24608 24611 24614 24616 24619 24622 24624 24627 24630 24633 24636 24639 24642 24645 24648 24651 24654 24657 24660 24663 24666 24668 24671 24674 24677 24680 24683 24686 24689 24691 24694 24697 24700 24702 24705 24708 24711 24714 24717 24719 24722 24725 24728 24731 24734 24737 24740 24743 24746 24748 24751 24754 24757 24760 24763 24766 24769 24772 24774 24777 24780 24783 24786 24789 24791 24794 24797 24800 24803 24806 24809 24812 24814 24817 24820 24823 24826 24829 24832 24835 24838 24841 24844 24847 24850 24853 24856 24859 24862 24865 24868 24871 24874 24877 24880 24883 24886 24889 24892 24895 24898 24901 24904 24907 24910 24913 24916 24919 24922 24925 24928 24931 24934 24937 24940 24943 24946 24949 24952 24955 24958 24960 24963 24966 24969 24972 24975 24978 24981 24983 24986 24989 24992 24995 24998 25001 25004 25007 25010 25013 25016 25019 25022 25025 25028 25031 25034 25037 25040 25043 25046 25049 25051 25053 25056 25059 25061 25063 25066 25069 25072 25075 25078 25081 25084 25086 25089 25092 25095 25098 25101 25104 25107 25110 25113 25116 25119 25122 25125 25128 25130 25133 25136 25139 25142 25145 25148 25151 25154 25156 25159 25162 25164 25167 25170 25173 25175 25178 25181 25184 25187 25190 25193 25196 25199 25202 25205 25208 25211 25214 25217 25220 25223 25226 25229 25232 25235 25238 25241 25244 25247 25250 25253 25256 25259 25261 25264 25267 25270 25273 25276 25279 25282 25285 25287 25290 25293 25296 25299 25302 25305 25307 25309 25312 25315 25318 25321 25323 25326 25329 25331 25334 25337 25339 25342 25345 25348 25351 25354 25357 25359 25362 25365 25368 25371 25374 25377 25380 25383 25385 25388 25391 25394 25397 25400 25403 25406 25409 25412 25415 25418 25420 25423 25426 25428 25431 25434 25437 25440 25443 25446 25449 25451 25454 25457 25460 25462 25465 25467 25470 25472 25475 25478 25481 25484 25487 25490 25493 25496 25499 25502 25505 25508 25511 25514 25517 25520 25523 25525 25528 25530 25533 25536 25539 25542 25545 25548 25551 25554 25557 25560 25562 25565 25568 25571 25574 25577 25580 25583 25585 25588 25591 25594 25596 25599 25601 25603 25606 25609 25611 25614 25617 25620 25623 25625 25628 25631 25634 25636 25639 25642 25645 25647 25650 25652 25654 25657 25660 25663 25666 25669 25672 25674 25677 25680 25683 25686 25689 25692 25695 25698 25700 25702 25704 25707 25709 25712 25715 25717 25719 25722 25725 25727 25730 25733 25736 25739 25742 25745 25748 25751 25754 25757 25760 25762 25765 25768 25771 25774 25777 25780 25783 25786 25789 25792 25795 25798 25801 25803 25805 25808 25811 25814 25817 25819 25822 25825 25828 25830 25833 25836 25839 25842 25845 25847 25849 25852 25855 25858 25860 25863 25866 25869 25872 25875 25878 25881 25884 25887 25890 25893 25896 25899 25902 25905 25907 25910 25913 25916 25918 25921 25924 25927 25929 25932 25935 25938 25941 25944 25947 25949 25952 25955 25958 25961 25964 25966 25969 25972 25975 25978 25981 25984 25987 25990 25992 25995 25998 26001 26004 26007 26010 26013 26016 26019 26021 26024 26027 26030 26033 26035 26038 26040 26043 26046 26048 26051 26053 26056 26059 26062 26065 26068 26071 26073 26076 26078 26080 26083 26086 26089 26092 26095 26098 26101 26104 26106 26109 26111 26114 26116 26119 26121 26124 26127 26130 26133 26136 26139 26142 26145 26148 26151 26154 26156 26159 26162 26165 26167 26170 26173 26176 26179 26182 26185 26188 26191 26193 26196 26199 26202 26205 26208 26211 26214 26217 26220 26222 26225 26228 26231 26234 26236 26239 26242 26244 26247 26250 26253 26256 26259 26262 26265 26268 26271 26273 26276 26279 26282 26284 26287 26290 26293 26296 26299 26302 26305 26308 26311 26314 26317 26320 26323 26326 26329 26332 26335 26338 26341 26343 26346 26349 26352 26355 26358 26361 26364 26367 26370 26373 26375 26378 26381 26384 26387 26390 26393 26396 26399 26402 26405 26408 26411 26414 26417 26420 26423 26426 26429 26432 26435 26438 26441 26444 26447 26450 26453 26456 26459 26462 26465 26468 26471 26474 26477 26480 26483 26486 26489 26492 26495 26498 26501 26504 26507 26510 26512 26514 26517 26520 26523 26526 26529 26532 26535 26538 26541 26544 26547 26550 26553 26555 26557 26560 26563 26566 26568 26571 26574 26576 26579 26582 26585 26587 26590 26593 26596 26598 26601 26604 26607 26610 26613 26616 26619 26622 26624 26627 26630 26632 26635 26637 26639 26642 26645 26648 26651 26654 26657 26659 26662 26664 26666 26668 26671 26674 26676 26679 26682 26684 26686 26689 26692 26695 26698 26701 26704 26707 26710 26713 26716 26719 26722 26725 26728 26731 26734 26737 26740 26743 26746 26749 26751 26754 26757 26760 26763 26766 26769 26772 26775 26778 26780 26783 26786 26789 26792 26795 26798 26801 26803 26805 26808 26811 26814 26817 26820 26823 26826 26829 26832 26835 26838 26841 26844 26847 26850 26853 26856 26859 26862 26865 26868 26871 26874 26876 26879 26881 26884 26887 26890 26893 26896 26899 26902 26904 26907 26910 26913 26915 26917 26920 26923 26925 26928 26931 26934 26937 26939 26942 26945 26948 26950 26953 26956 26959 26961 26964 26967 26970 26973 26976 26979 26982 26985 26988 26990 26992 26995 26998 27001 27004 27007 27009 27012 27015 27017 27019 27021 27024 27027 27030 27033 27036 27038 27041 27044 27047 27050 27053 27056 27059 27062 27065 27067 27070 27072 27075 27078 27081 27084 27087 27090 27093 27096 27099 27102 27105 27108 27111 27114 27117 27120 27123 27126 27129 27132 27135 27138 27141 27144 27146 27149 27152 27155 27158 27160 27162 27165 27168 27171 27173 27176 27179 27182 27185 27188 27191 27194 27197 27200 27203 27206 27209 27212 27215 27218 27221 27223 27226 27229 27232 27234 27237 27240 27242 27245 27248 27251 27254 27257 27260 27263 27266 27269 27272 27275 27278 27281 27283 27286 27289 27291 27294 27297 27300 27302 27305 27307 27310 27312 27315 27317 27319 27321 27324 27327 27330 27333 27336 27339 27342 27345 27347 27350 27353 27356 27359 27362 27365 27368 27371 27373 27376 27379 27381 27384 27387 27390 27393 27396 27399 27402 27405 27408 27411 27414 27417 27420 27423 27426 27429 27432 27435 27438 27441 27444 27446 27449 27452 27455 27458 27461 27464 27467 27470 27473 27476 27478 27481 27483 27486 27489 27491 27494 27496 27499 27501 27504 27507 27509 27512 27514 27517 27520 27522 27525 27528 27531 27533 27536 27539 27542 27545 27548 27551 27554 27557 27560 27563 27566 27569 27572 27575 27578 27581 27584 27587 27590 27593 27596 27599 27602 27605 27608 27611 27614 27617 27620 27623 27626 27629 27632 27635 27638 27641 27644 27647 27650 27653 27656 27659 27662 27665 27668 27671 27674 27677 27680 27683 27686 27689 27692 27695 27698 27701 27704 27707 27710 27713 27716 27718 27721 27724 27726 27729 27732 27735 27738 27741 27744 27746 27748 27751 27754 27757 27760 27763 27766 27769 27772 27775 27778 27781 27784 27787 27790 27793 27796 27799 27802 27804 27807 27810 27813 27815 27818 27821 27824 27827 27830 27833 27836 27839 27842 27845 27848 27851 27854 27857 27860 27863 27865 27868 27871 27874 27877 27880 27883 27886 27888 27891 27894 27897 27900 27903 27906 27909 27912 27914 27917 27919 27922 27925 27928 27931 27934 27937 27940 27943 27946 27949 27952 27955 27958 27961 27964 27967 27969 27972 27975 27978 27981 27984 27987 27990 27992 27995 27998 28001 28004 28006 28009 28012 28015 28018 28021 28024 28027 28029 28032 28035 28037 28039 28042 28045 28047 28050 28053 28056 28059 28062 28065 28067 28070 28073 28076 28079 28082 28085 28088 28091 28094 28096 28099 28102 28104 28107 28110 28112 28115 28118 28120 28123 28126 28129 28132 28135 28137 28140 28143 28146 28149 28152 28155 28158 28161 28163 28166 28169 28172 28175 28178 28181 28184 28186 28189 28192 28195 28198 28201 28204 28207 28210 28213 28216 28219 28222 28224 28227 28230 28233 28236 28239 28242 28245 28247 28249 28252 28254 28257 28259 28262 28265 28268 28271 28274 28277 28280 28283 28286 28289 28292 28295 28298 28301 28304 28306 28309 28311 28314 28317 28320 28323 28326 28329 28332 28335 28337 28340 28342 28345 28347 28350 28352 28355 28357 28360 28363 28365 28368 28371 28374 28377 28380 28382 28385 28388 28391 28394 28397 28400 28403 28406 28408 28411 28414 28417 28420 28423 28425 28428 28431 28433 28436 28438 28440 28443 28446 28449 28452 28455 28458 28461 28464 28466 28469 28472 28475 28478 28481 28484 28487 28490 28493 28496 28499 28502 28505 28507 28510 28513 28516 28519 28522 28525 28528 28530 28533 28536 28539 28541 28544 28547 28550 28553 28556 28559 28562 28565 28568 28571 28574 28577 28580 28583 28586 28589 28592 28594 28597 28600 28603 28606 28609 28612 28615 28617 28620 28623 28625 28628 28631 28634 28637 28640 28643 28646 28649 28652 28655 28658 28661 28664 28667 28670 28672 28675 28678 28681 28684 28686 28689 28692 28695 28698 28701 28704 28707 28710 28713 28716 28719 28722 28725 28728 28731 28734 28737 28740 28743 28746 28749 28752 28755 28758 28761 28763 28766 28769 28772 28775 28778 28781 28783 28786 28789 28792 28795 28798 28801 28804 28807 28810 28812 28814 28817 28820 28823 28825 28828 28830 28833 28836 28839 28842 28845 28848 28851 28854 28857 28860 28863 28866 28869 28872 28875 28877 28880 28883 28886 28889 28892 28895 28898 28901 28904 28907 28910 28913 28915 28917 28920 28923 28926 28929 28932 28935 28938 28941 28943 28946 28949 28951 28954 28957 28959 28961 28964 28967 28970 28973 28976 28979 28982 28984 28987 28990 28993 28996 28999 29002 29005 29008 29011 29013 29016 29019 29022 29024 29027 29030 29033 29036 29039 29041 29044 29047 29050 29053 29056 29059 29062 29065 29068 29071 29074 29077 29079 29082 29085 29088 29090 29093 29096 29099 29101 29104 29107 29110 29113 29116 29119 29122 29125 29128 29131 29134 29137 29140 29143 29146 29149 29152 29155 29158 29161 29164 29167 29170 29173 29176 29179 29182 29185 29188 29191 29194 29197 29199 29202 29205 29208 29211 29214 29217 29220 29223 29226 29229 29232 29235 29238 29241 29244 29247 29250 29253 29256 29259 29262 29265 29268 29271 29273 29276 29278 29281 29284 29286 29289 29292 29295 29298 29301 29304 29307 29310 29313 29315 29318 29321 29324 29327 29330 29333 29336 29339 29342 29345 29348 29351 29354 29357 29359 29362 29365 29368 29371 29373 29376 29379 29382 29384 29387 29390 29393 29396 29399 29402 29405 29408 29411 29414 29417 29420 29423 29426 29429 29432 29435 29438 29441 29444 29447 29450 29453 29456 29459 29462 29465 29468 29471 29474 29477 29480 29483 29486 29489 29492 29495 29498 29501 29504 29507 29510 29513 29516 29519 29522 29525 29528 29531 29534 29537 29540 29543 29546 29549 29552 29555 29558 29561 29564 29567 29570 29573 29576 29579 29582 29585 29588 29591 29594 29597 29600 29603 29606 29609 29612 29615 29618 29621 29624 29627 29630 29633 29636 29639 29642 29645 29648 29651 29654 29657 29660 29663 29666 29669 29672 29675 29678 29681 29684 29687 29690 29693 29696 29699 29702 29705 29708 29711 29714 29717 29720 29723 29726 29729 29732 29735 29738 29741 29744 29747 29750 29753 29756 29759 29762 29765 29768 29771 29774 29777 29780 29783 29786 29789 29792 29795 29798 29801 29804 29807 29810 29813 29816 29819 29822 29825 29828 29831 29834 29837 29840 29843 29846 29849 29852 29855 29858 29861 29864 29867 29870 29873 29876 29879 29882 29885 29888 29891 29894 29897 29900 29903 29906 29909 29912 29915 29918 29921 29924 29927 29930 29933 29936 29939 29942 29945 29948 29951 29953 29956 29959 29962 29965 29968 29971 29974 29977 29980 29983 29986 29989 29992 29995 29998 30001 30003 30006 30009 30012 30015 30018 30021 30024 30027 30029 30032 30035 30038 30041 30043 30046 30049 30052 30055 30058 30061 30064 30067 30070 30073 30076 30079 30082 30085 30088 30091 30094 30097 30100 30103 30106 30109 30111 30114 30117 30120 30123 30126 30129 30132 30135 30138 30141 30144 30147 30150 30152 30154 30157 30160 30163 30166 30169 30171 30174 30176 30179 30182 30185 30188 30191 30194 30197 30200 30203 30206 30209 30211 30214 30217 30220 30223 30226 30229 30232 30234 30237 30240 30243 30246 30249 30252 30255 30258 30261 30264 30267 30270 30273 30276 30279 30281 30283 30286 30289 30292 30295 30298 30301 30304 30307 30310 30313 30316 30319 30321 30324 30327 30330 30333 30336 30339 30342 30345 30348 30351 30354 30357 30360 30363 30366 30369 30371 30374 30377 30380 30383 30386 30389 30392 30394 30397 30400 30403 30406 30409 30412 30415 30418 30421 30424 30426 30428 30431 30434 30437 30440 30443 30446 30449 30452 30455 30458 30461 30464 30467 30470 30473 30476 30479 30482 30485 30488 30491 30494 30497 30500 30503 30506 30509 30512 30515 30518 30520 30523 30526 30529 30532 30535 30537 30540 30543 30546 30549 30552 30555 30558 30561 30564 30567 30569 30572 30575 30578 30581 30583 30586 30589 30592 30595 30598 30601 30604 30607 30610 30613 30615 30618 30620 30623 30626 30629 30632 30635 30638 30641 30644 30647 30650 30653 30656 30659 30662 30665 30668 30671 30674 30677 30680 30683 30686 30689 30692 30695 30698 30701 30704 30707 30710 30713 30715 30718 30721 30724 30727 30730 30732 30735 30738 30741 30744 30747 30750 30753 30756 30759 30762 30765 30768 30771 30774 30777 30780 30783 30786 30788 30791 30794 30796 30799 30802 30805 30807 30810 30813 30816 30819 30822 30824 30827 30830 30833 30836 30839 30842 30845 30848 30851 30854 30856 30859 30862 30865 30868 30871 30874 30876 30879 30882 30885 30888 30891 30893 30895 30898 30901 30903 30906 30909 30911 30914 30917 30920 30923 30926 30929 30932 30935 30938 30941 30943 30946 30949 30951 30954 30957 30959 30962 30965 30967 30970 30973 30975 30978 30981 30983 30986 30989 30992 30995 30998 31001 31003 31006 31009 31012 31015 31018 31021 31024 31027 31030 31033 31036 31038 31041 31044 31047 31050 31053 31056 31059 31061 31064 31067 31070 31073 31075 31078 31081 31084 31086 31089 31092 31095 31098 31101 31104 31107 31110 31113 31116 31119 31121 31124 31127 31130 31133 31136 31139 31142 31145 31148 31151 31154 31157 31160 31163 31166 31169 31172 31175 31178 31181 31184 31187 31190 31193 31195 31198 31201 31204 31207 31210 31212 31215 31218 31221 31224 31227 31230 31233 31236 31239 31242 31245 31248 31251 31254 31256 31259 31262 31264 31267 31269 31272 31275 31278 31281 31283 31286 31288 31290 31293 31295 31298 31301 31304 31307 31310 31313 31316 31318 31321 31323 31326 31329 31332 31335 31338 31341 31343 31346 31349 31352 31355 31358 31361 31363 31366 31369 31372 31375 31377 31380 31383 31386 31389 31392 31394 31397 31400 31402 31405 31408 31411 31414 31416 31419 31422 31425 31428 31430 31433 31436 31439 31442 31445 31448 31450 31453 31456 31459 31462 31465 31468 31471 31474 31477 31479 31482 31485 31488 31491 31494 31497 31499 31502 31505 31508 31511 31513 31516 31519 31522 31525 31528 31531 31534 31537 31540 31543 31546 31549 31552 31555 31558 31561 31563 31566 31569 31572 31574 31577 31580 31582 31585 31588 31591 31594 31597 31600 31603 31606 31609 31612 31615 31618 31621 31624 31627 31630 31632 31635 31637 31640 31643 31646 31649 31652 31655 31658 31661 31664 31667 31670 31673 31676 31679 31682 31685 31688 31691 31694 31697 31700 31703 31706 31709 31712 31715 31717 31720 31723 31725 31728 31731 31734 31737 31740 31743 31746 31749 31752 31755 31757 31760 31763 31766 31769 31771 31774 31777 31780 31783 31785 31788 31791 31794 31797 31800 31803 31806 31809 31812 31814 31817 31820 31823 31826 31829 31832 31835 31838 31841 31844 31847 31850 31853 31856 31859 31862 31865 31868 31871 31874 31877 31880 31883 31886 31889 31892 31895 31898 
</DataArray>
<DataArray type="UInt32" Name="types" format="ascii">
5 5 5 5 5 3 5 5 5 5 5 5 5 3 5 5 5 5 3 5 5 3 5 5 5 5 3 5 5 5 5 3 5 5 5 5 5 5 5 5 5 5 5 5 5 3 5 5 3 5 5 5 5 5 3 5 5 5 5 5 5 5 3 5 5 5 5 3 5 5 5 5 5 5 5 5 5 3 5 5 3 5 5 3 5 5 5 5 3 5 5 5 5 5 5 5 3 3 3 5 5 3 5 5 5 5 5 3 5 5 5 5 5 5 5 5 5 5 5 5 5 3 5 5 5 3 5 5 5 5 5 5 3 5 5 5 5 5 5 5 5 5 5 5 5 5 5 5 5 5 5 5 5 5 5 5 5 5 3 5 5 5 3 5 5 3 5 5 5 5 5 5 5 5 5 5 5 3 5 5 5 5 5 5 5 5 3 5 5 5 5 5 5 5 5 3 5 5 5 5 5 5 5 5 5 3 5 5 5 5 5 5 5 5 5 5 5 5 5 5 5 5 5 5 5 5 5 5 5 3 5 5 5 3 5 3 5 3 5 5 3 5 5 5 3 5 3 5 3 5 3 3 5 3 5 5 3 5 3 5 5 5 3 5 3 3 5 5 3 5 5 5 3 5 3 3 3 5 3 5 5 5 3 5 3 3 3 5 5 3 3 5 5 5 5 3 5 3 5 5 3 5 5 5 3 5 3 3 3 5 5 5 3 5 3 3 3 3 5 5 5 3 3 5 5 3 3 3 5 3 5 5 5 5 3 5 5 5 5 5 5 5 3 5 5 5 5 5 5 3 3 5 5 5 3 5 5 5 3 5 3 5 3 3 5 5 5 5 3 5 5 3 5 5 5 5 3 5 3 5 5 5 5 5 3 3 5 5 5 5 5 5 5 5 3 5 5 5 3 5 5 3 5 3 5 5 5 5 5 5 5 5 5 5 5 3 5 3 5 3 5 5 5 3 5 3 5 3 5 5 5 5 5 5 3 5 3 5 5 5 3 5 5 5 3 5 3 3 5 5 5 5 3 5 5 5 5 3 3 5 5 3 5 3 5 3 3 5 5 5 3 5 5 5 5 3 5 5 5 5 5 5 5 5 5 5 5 3 5 5 5 5 3 5 5 5 3 5 3 3 3 5 5 5 3 3 5 3 5 5 3 5 5 5 5 3 5 5 5 5 5 5 5 5 5 5 5 3 3 5 5 3 5 5 5 3 5 5 5 5 5 5 3 5 5 5 3 5 5 5 3 5 5 5 5 5 5 5 5 5 5 5 3 5 5 5 3 5 5 5 5 5 5 5 3 5 5 5 5 5 3 5 5 5 5 5 5 5 5 5 5 5 5 5 5 5 5 5 5 5 3 5 5 5 5 3 5 5 3 5 5 5 5 5 5 5 3 5 5 5 5 5 5 5 5 3 5 3 5 5 3 5 5 5 3 5 5 3 5 5 5 3 5 3 5 5 3 5 3 5 5 5 5 5 5 5 5 5 5 5 5 5 5 5 5 5 5 5 5 5 5 3 5 3 5 3 5 5 5 5 5 5 5 5 5 5 5 5 5 5 5 3 5 5 5 5 5 5 5 5 5 3 5 5 5 5 5 5 5 5 5 5 5 5 5 5 5 5 5 5 5 5 5 5 5 5 5 5 5 5 5 3 5 5 3 5 5 5 3 3 5 3 5 5 5 5 5 3 5 5 5 5 5 3 5 5 5 5 5 5 5 5 5 5 5 5 5 5 5 5 5 5 5 5 5 5 5 5 5 5 5 5 5 5 5 5 5 5 5 5 5 5 5 5 5 5 5 5 5 5 5 5 5 3 5 5 5 5 5 5 5 5 5 5 5 5 5 5 5 3 5 5 5 5 3 5 5 5 5 5 5 5 5 5 5 5 5 5 5 5 5 5 5 5 5 5 5 5 5 5 5 5 3 5 5 3 5 3 3 3 3 5 5 3 5 5 5 5 5 5 5 5 5 5 5 5 5 5 5 5 5 3 5 5 3 5 3 5 5 5 5 3 5 3 5 5 5 5 3 5 5 5 3 5 5 5 5 5 3 5 3 5 5 3 3 5 3 5 5 5 5 5 5 5 5 5 5 5 3 5 5 5 3 5 5 5 3 5 5 3 3 3 5 5 5 5 5 5 5 5 5 5 5 3 5 5 5 5 5 5 5 5 3 3 3 5 5 5 5 5 5 5 5 3 3 5 5 5 3 5 5 3 5 5 5 5 5 5 5 5 5 5 5 3 5 5 5 5 5 5 5 5 3 5 5 5 5 5 5 5 5 5 5 3 5 3 3 3 5 5 5 5 5 5 5 3 3 5 3 5 5 5 5 5 3 5 3 3 5 5 5 3 5 3 5 5 5 5 3 5 5 5 5 5 5 5 5 5 5 5 5 5 5 5 5 5 3 5 5 5 3 5 5 5 5 5 3 5 5 5 5 5 5 3 5 3 5 5 5 5 5 5 5 5 3 5 5 5 3 5 5 5 5 5 5 5 5 5 5 5 5 5 5 5 5 5 5 5 5 5 5 5 5 5 3 3 3 5 5 5 5 3 5 5 5 5 3 5 5 5 5 5 5 5 3 5 5 5 5 5 5 5 5 3 5 5 5 5 5 5 5 5 5 5 5 5 3 5 5 5 5 5 5 3 5 5 5 5 5 5 5 5 3 5 5 5 3 5 5 5 5 5 5 5 5 5 5 5 5 3 5 5 5 5 5 5 5 5 5 5 5 5 5 5 5 5 5 5 5 5 5 5 5 5 5 5 5 5 5 5 5 5 5 5 5 5 5 5 5 5 5 5 5 5 5 5 5 3 5 5 5 5 5 5 5 5 5 5 5 5 5 5 5 5 5 5 5 5 5 5 5 5 3 5 5 5 5 5 5 5 5 5 5 3 5 5 3 5 5 5 5 5 5 5 5 5 3 5 3 5 5 5 5 3 5 5 3 5 3 5 5 5 5 5 3 5 5 5 5 5 5 5 5 3 5 5 5 5 5 5 5 5 5 5 5 5 5 5 3 5 3 3 5 5 5 5 5 3 5 5 5 5 5 5 5 5 5 5 5 5 5 5 5 3 5 5 5 5 5 5 5 5 5 5 5 5 5 5 5 5 3 5 5 5 5 5 3 3 5 5 3 5 5 5 5 5 5 5 5 5 5 3 5 5 5 5 5 5 5 5 5 3 5 3 5 5 5 5 5 3 5 5 5 5 3 5 5 5 3 5 5 5 3 5 5 3 5 5 5 5 5 5 5 5 5 5 5 5 5 5 5 5 3 5 5 5 5 5 5 5 3 5 5 5 5 5 5 5 5 5 5 5 5 5 5 5 5 5 5 5 5 5 5 5 5 5 5 5 3 5 5 5 5 3 5 5 5 3 5 5 5 5 5 5 5 5 5 3 5 3 5 5 5 5 5 5 5 5 5 5 5 5 5 5 5 5 5 5 3 3 5 5 5 3 5 5 3 5 5 3 5 5 5 3 5 5 3 5 5 5 5 5 5 5 5 5 5 5 5 5 5 5 5 5 5 5 5 3 5 3 5 5 5 5 5 5 5 5 5 5 5 3 5 3 5 5 5 3 5 5 5 5 5 3 5 5 5 5 5 5 3 5 5 5 5 5 5 5 5 5 5 5 3 5 5 5 5 5 5 5 5 3 5 5 5 3 5 5 3 5 5 5 5 5 3 5 5 5 5 5 5 5 5 5 3 5 5 3 5 3 5 3 3 3 5 3 5 5 5 5 5 5 3 5 5 5 5 5 5 3 5 5 5 5 5 5 5 3 5 5 5 5 3 5 5 5 5 5 3 5 3 5 5 5 5 5 5 5 5 5 5 3 5 5 5 5 5 5 5 3 5 5 5 5 5 5 5 3 5 3 5 5 5 5 5 5 5 5 3 5 5 5 3 3 5 5 5 5 5 3 3 5 3 5 5 3 5 5 3 5 5 5 5 5 5 5 5 3 5 5 5 5 5 3 5 5 5 5 3 5 5 3 5 5 5 5 5 5 5 5 5 5 5 5 5 5 5 5 5 5 5 5 5 5 5 5 5 5 5 5 5 5 5 5 5 5 5 5 5 5 5 5 5 3 5 5 3 5 5 5 5 5 3 5 5 5 5 3 5 5 5 5 5 5 5 5 5 5 5 5 5 5 5 5 5 5 5 5 5 5 5 5 3 5 5 5 3 5 5 5 5 5 5 3 5 5 5 5 5 5 5 5 5 5 5 3 5 3 3 5 5 3 5 5 5 5 5 5 5 5 5 5 5 3 5 5 3 5 5 5 5 5 5 5 5 5 5 5 5 5 5 5 3 5 5 5 5 5 5 5 3 5 3 5 5 5 5 3 5 3 5 5 5 5 5 5 5 5 5 3 5 5 5 5 5 5 5 5 5 5 5 5 5 5 5 5 5 3 5 5 5 5 5 5 5 5 5 5 5 5 5 5 5 5 5 5 5 5 5 5 5 5 5 3 3 5 5 5 5 5 5 5 5 5 5 5 3 5 5 5 5 3 5 5 5 5 3 5 5 5 5 5 5 5 5 3 5 5 5 5 5 5 5 5 5 3 5 5 5 5 5 5 5 5 5 5 5 5 5 5 5 5 5 5 5 5 3 5 5 5 5 5 5 5 5 5 5 5 5 5 5 3 5 3 5 5 5 5 5 5 5 5 3 5 5 3 5 5 5 5 5 5 5 5 5 5 5 5 5 5 5 5 5 5 5 5 5 5 5 5 5 5 5 5 5 5 5 5 5 5 5 5 3 5 5 3 5 5 5 5 3 5 3 5 5 3 5 3 5 5 5 5 5 3 5 5 5 5 5 5 5 5 5 5 5 5 3 5 5 5 3 5 5 5 5 5 5 5 5 5 3 5 5 5 5 3 3 5 5 5 5 5 5 5 5 3 5 5 5 5 5 3 5 5 5 3 5 5 5 3 5 5 5 5 3 5 5 5 5 5 5 5 5 5 5 5 5 5 5 3 5 5 5 5 5 5 3 5 3 3 5 3 5 3 5 5 5 5 3 5 5 5 5 3 5 5 5 5 5 5 5 5 5 3 5 5 5 5 5 5 5 5 5 5 5 5 5 5 3 5 5 5 3 5 5 5 3 5 3 5 5 5 5 5 5 5 5 5 5 5 5 5 5 5 5 3 5 5 5 5 5 5 3 5 5 5 5 5 5 5 5 5 5 5 5 5 5 5 5 5 5 3 5 5 5 5 5 5 5 5 5 5 5 5 5 5 5 5 5 5 5 5 5 5 5 5 5 5 5 5 5 5 5 5 5 5 3 5 5 5 5 3 5 5 5 5 5 5 5 3 5 5 5 5 5 5 5 5 5 3 5 5 3 5 5 5 5 5 3 5 5 5 3 5 5 3 5 5 5 5 5 5 5 5 5 5 5 5 5 5 5 5 5 5 5 5 3 5 5 5 5 5 5 5 5 5 5 3 3 5 3 5 5 5 5 5 3 5 5 5 5 3 5 5 5 5 5 3 5 3 5 5 3 5 5 5 5 5 5 5 5 3 5 5 5 5 5 5 3 5 5 5 5 5 5 3 5 5 5 5 3 5 5 3 5 3 5 5 3 5 5 5 5 5 5 3 5 5 5 5 3 5 5 5 5 5 5 5 5 3 3 5 5 5 5 5 5 5 5 3 5 5 5 5 5 5 3 5 5 5 5 5 5 5 3 5 5 5 3 5 5 5 5 5 5 5 5 5 5 5 5 3 5 5 5 5 3 5 5 3 5 5 5 5 3 5 5 5 3 3 5 5 5 3 5 5 5 3 5 5 5 5 5 5 5 5 5 3 5 5 5 3 5 5 5 5 5 5 5 5 5 5 5 5 3 5 3 5 5 3 5 5 3 5 5 5 5 5 5 5 3 5 5 5 5 5 3 5 3 5 5 5 3 3 5 3 3 5 3 5 5 5 5 5 5 3 5 3 5 5 5 5 5 5 5 5 5 5 5 5 5 3 5 5 3 5 3 5 5 3 5 5 5 3 3 5 5 3 5 5 5 5 5 5 5 5 5 5 5 5 5 5 5 5 5 5 5 5 5 5 5 3 3 5 3 5 3 5 5 3 3 5 5 3 5 5 3 5 5 3 5 3 5 5 5 5 3 5 5 5 5 3 5 3 3 5 3 5 5 3 3 5 5 5 3 5 5 5 5 3 3 5 5 5 5 5 3 5 5 5 5 5 5 5 5 5 5 5 3 5 3 5 3 5 5 3 5 3 5 5 5 5 5 5 5 5 3 5 5 3 5 5 5 5 3 5 5 5 5 5 5 5 5 5 5 5 5 3 5 5 5 5 5 5 5 5 5 5 5 3 5 5 5 5 5 5 3 5 3 5 5 3 5 5 5 5 5 5 5 5 5 5 5 5 5 5 5 5 5 3 3 5 5 5 3 5 5 3 5 5 5 5 5 5 5 5 5 5 5 5 5 5 5 5 5 5 5 5 5 5 5 5 5 3 3 5 5 5 5 5 5 5 5 5 5 5 3 5 5 5 5 5 5 5 5 5 5 5 5 5 5 5 5 5 5 5 5 5 5 5 5 5 5 5 5 5 5 5 5 5 3 5 5 5 5 5 3 5 5 3 5 5 3 3 5 5 5 5 5 5 5 5 5 5 5 5 5 3 5 5 3 5 5 5 5 5 5 3 5 5 3 5 5 5 5 5 5 5 5 5 5 5 5 5 3 5 5 5 5 5 5 5 3 5 5 5 5 5 5 5 5 5 5 5 5 3 5 5 3 5 5 5 5 5 5 5 5 5 5 5 5 5 5 5 5 5 5 5 5 3 5 5 3 5 3 5 5 5 3 5 5 3 5 3 5 5 5 3 5 5 5 5 3 5 5 5 5 5 5 5 3 5 5 5 3 5 5 5 5 5 5 5 5 5 5 5 5 3 5 5 5 5 5 5 5 5 3 5 5 5 5 5 5 5 5 5 5 5 3 5 5 5 5 5 5 5 5 5 5 5 5 5 5 5 5 5 5 5 3 3 5 5 5 3 5 5 5 5 5 5 5 5 5 5 5 5 3 5 5 5 5 5 5 5 5 5 3 5 5 5 5 5 5 5 5 5 5 5 5 5 5 5 5 3 5 3 5 5 5 5 5 3 5 5 5 5 3 5 5 5 3 5 5 5 3 5 5 5 5 5 5 5 5 5 3 5 5 5 3 5 5 3 5 5 5 5 5 5 3 5 5 5 5 5 5 5 5 3 5 5 5 3 5 5 5 5 5 5 5 5 5 5 5 5 5 5 5 5 5 5 5 5 5 5 5 5 5 5 5 3 5 5 5 5 5 5 5 3 5 5 5 5 5 5 5 5 5 5 5 5 5 5 5 5 5 5 5 5 5 5 5 5 5 3 5 3 5 5 5 5 5 5 3 5 5 5 3 5 5 3 5 5 5 5 5 5 5 5 5 5 5 5 3 5 5 5 5 5 3 5 5 5 5 5 5 5 5 5 5 5 5 5 3 5 5 5 3 5 5 5 5 5 5 5 5 5 5 5 5 3 3 5 5 5 5 3 5 5 5 5 5 5 5 5 5 3 3 5 5 5 5 5 3 5 5 5 5 5 3 5 5 5 5 5 3 5 3 5 5 5 5 3 5 3 5 3 3 5 5 5 5 5 5 5 3 3 5 5 5 5 5 5 3 3 3 5 3 3 5 5 5 3 5 5 5 5 5 3 3 3 5 3 5 5 5 3 5 3 3 5 5 5 5 5 5 5 3 3 5 5 3 3 3 5 5 5 5 5 5 5 5 5 5 5 5 5 5 5 5 5 5 5 5 5 5 5 5 5 5 5 5 5 5 5 5 5 5 5 5 5 5 5 5 3 5 5 5 5 5 5 5 5 5 5 3 5 5 5 5 5 5 3 5 5 3 5 5 5 5 5 5 5 5 5 5 5 5 5 3 5 3 5 5 5 5 3 5 5 5 3 5 5 3 5 5 5 3 5 5 3 5 5 5 5 5 3 5 5 5 5 5 5 5 3 5 5 5 5 5 5 5 3 5 5 3 5 5 5 5 3 5 3 5 5 5 5 5 3 5 5 5 5 3 5 5 5 5 5 5 3 3 5 5 5 5 5 3 5 5 3 5 5 5 5 5 5 5 5 5 5 3 5 5 5 5 5 5 5 5 5 5 5 5 5 5 5 5 5 5 3 5 5 5 5 5 5 3 5 5 5 5 5 5 5 3 3 5 5 5 5 3 5 5 5 5 5 5 5 3 5 5 3 5 3 3 3 5 5 5 5 5 5 3 5 5 5 5 5 3 5 5 5 5 3 5 5 5 3 5 5 5 3 5 5 5 5 5 5 5 5 5 5 5 5 5 5 5 5 5 5 5 5 5 5 5 5 5 3 5 5 5 5 5 5 5 3 5 3 5 5 5 5 5 5 3 5 5 3 5 5 5 3 5 5 3 5 5 5 5 5 3 5 5 5 3 3 5 5 5 5 5 5 5 5 5 5 5 5 3 5 5 5 5 5 5 5 5 5 3 5 5 5 5 5 3 3 5 5 5 5 5 5 5 5 5 3 5 5 5 5 5 5 5 5 3 5 5 5 5 5 5 5 5 5 5 5 5 5 5 5 5 5 5 3 5 5 5 5 3 5 3 5 3 5 5 5 5 5 5 5 5 5 5 5 5 5 5 5 5 5 3 5 5 5 5 5 3 5 5 5 3 3 5 5 5 5 5 3 5 5 5 5 3 5 5 5 5 5 5 5 5 3 5 5 5 5 5 5 5 3 5 5 5 5 5 5 5 5 5 3 5 5 5 5 5 5 5 5 5 5 5 5 5 5 5 5 5 5 3 5 5 5 5 5 5 5 5 5 5 5 5 5 3 5 5 5 5 5 5 3 5 5 3 5 5 3 5 5 5 5 5 5 5 5 5 5 5 5 5 5 5 5 5 5 5 5 5 5 5 5 5 5 3 5 3 5 3 3 5 5 5 3 5 5 5 5 5 5 5 5 5 3 3 5 3 5 5 5 5 5 5 5 5 5 5 5 5 5 5 3 5 3 3 5 3 5 5 5 5 5 5 5 5 5 3 3 5 5 5 5 5 5 5 5 5 5 5 5 5 5 5 5 5 5 5 5 5 5 3 5 5 5 5 5 3 5 5 5 5 5 3 5 5 5 3 5 5 5 5 5 5 5 5 5 3 5 5 5 5 3 5 5 5 5 5 5 3 5 5 5 5 5 5 5 3 5 5 5 5 3 5 5 5 5 5 5 5 5 5 5 3 5 5 5 5 3 5 5 5 3 5 5 5 5 5 3 5 5 5 5 5 5 5 5 5 5 5 5 5 5 3 3 5 5 3 5 5 5 5 5 5 5 3 5 5 5 5 5 5 3 5 5 5 5 5 5 5 5 5 5 5 5 5 5 5 5 5 5 5 5 5 5 5 3 5 5 5 5 5 5 5 5 3 5 5 5 5 3 5 5 5 5 5 3 5 3 5 3 5 5 5 5 5 5 5 3 5 5 5 3 5 5 5 5 5 3 5 5 5 5 5 3 5 3 5 5 3 5 3 5 5 5 5 5 3 5 5 5 3 5 5 5 5 5 5 5 5 5 5 3 5 5 5 5 5 5 5 5 5 5 5 5 5 5 5 5 5 5 5 5 5 5 3 5 5 5 5 5 5 5 5 5 5 5 5 5 5 5 5 5 5 3 5 5 5 3 5 5 5 5 5 5 3 5 5 5 3 3 5 3 5 3 3 5 3 5 5 3 5 5 3 3 5 5 5 5 5 5 5 5 3 5 3 5 5 5 5 5 5 5 5 5 5 5 5 5 5 5 5 5 5 5 5 5 5 3 5 5 5 5 5 5 5 5 3 5 5 3 5 5 3 3 5 5 3 5 5 5 5 5 5 5 5 5 5 5 5 5 5 5 5 5 5 5 5 5 5 5 5 5 5 5 5 5 5 5 5 5 5 5 5 5 5 5 3 5 3 5 5 5 5 5 5 5 5 5 5 5 5 5 5 5 5 5 5 5 5 5 5 5 5 5 5 5 5 5 5 5 5 5 5 5 5 5 5 5 5 3 5 5 3 5 5 5 5 5 3 5 3 5 5 3 5 5 5 5 5 5 3 5 5 5 5 5 5 5 5 5 5 5 3 5 5 3 3 5 3 5 5 3 5 5 5 5 3 5 5 5 5 5 5 5 5 5 3 5 3 5 5 5 5 5 5 5 3 5 3 5 5 5 5 5 5 5 5 5 3 5 3 5 5 5 5 5 5 5 5 5 5 3 5 5 5 3 5 5 3 5 5 3 5 5 5 5 3 5 5 5 3 5 5 5 5 5 5 5 5 5 5 5 5 5 5 3 5 5 5 5 5 5 3 5 3 5 3 5 5 5 3 5 5 5 5 5 5 5 5 3 5 5 5 5 5 3 5 5 3 5 5 5 5 5 5 5 5 5 3 5 5 5 3 5 5 5 5 5 5 3 5 5 5 5 5 5 5 5 5 5 5 5 5 5 5 5 5 5 5 5 5 5 5 5 5 5 5 5 5 5 5 3 5 5 5 5 5 3 5 5 3 3 5 5 5 5 3 5 5 5 5 5 3 5 5 5 5 5 5 5 5 5 5 5 5 5 5 5 5 3 5 5 5 5 5 5 5 5 3 3 5 5 5 5 5 5 3 5 5 5 5 3 5 5 5 5 5 5 5 5 5 5 5 5 5 5 5 5 5 5 5 5 5 5 5 5 3 5 5 3 5 5 5 5 5 5 5 5 5 5 5 5 5 5 5 5 5 5 5 5 5 5 5 5 5 5 5 3 5 3 5 5 5 5 5 3 5 5 5 5 5 5 5 5 5 5 5 5 5 5 5 5 5 5 5 5 3 3 5 3 5 5 5 5 5 5 5 5 5 5 5 5 5 5 5 5 3 5 5 5 3 5 5 5 5 5 5 5 5 5 5 5 5 5 3 5 5 5 5 5 5 5 5 5 5 5 5 5 5 5 5 5 5 5 5 5 5 3 5 5 5 5 5 5 5 5 5 5 5 5 5 3 5 3 5 5 3 3 5 5 5 5 5 5 5 5 5 5 5 5 5 5 5 5 5 5 5 5 3 5 5 3 5 5 5 3 5 5 5 5 5 5 3 5 5 5 3 5 5 5 5 5 5 5 5 3 5 5 3 5 5 3 5 3 5 5 5 5 3 3 5 5 3 3 5 5 3 5 5 5 5 3 5 5 3 3 5 3 5 5 5 5 5 5 5 5 5 5 5 5 5 5 5 5 5 5 5 5 3 5 5 5 5 3 5 5 5 5 3 3 5 5 5 5 5 5 5 5 5 5 5 5 3 5 5 5 3 5 5 5 5 5 5 5 3 5 5 5 3 5 5 3 3 5 5 5 3 5 5 5 3 5 5 5 5 5 5 5 5 5 5 5 5 5 5 5 5 5 5 3 5 5 5 5 5 5 5 5 5 5 5 5 5 5 5 5 5 5 3 3 5 5 5 5 5 3 3 5 3 5 5 5 5 5 5 5 5 5 3 5 5 5 3 5 5 5 5 5 5 5 5 5 5 5 5 5 5 3 5 5 5 5 5 5 5 3 5 5 3 5 5 5 5 5 5 3 5 5 5 5 3 5 5 5 5 5 5 3 5 5 5 5 5 5 5 5 3 3 5 5 5 3 3 5 5 5 5 5 3 5 5 5 5 5 5 3 5 5 5 5 3 5 5 5 5 5 3 5 5 5 5 3 5 5 5 5 5 5 5 5 5 5 5 5 5 5 5 5 5 5 5 5 5 5 5 5 5 3 5 5 5 5 3 5 3 5 3 5 5 3 5 5 3 5 5 3 5 5 5 5 5 5 3 5 5 3 5 3 3 3 5 5 3 5 3 3 5 5 5 3 5 3 5 5 5 5 5 5 3 5 5 5 3 5 5 5 5 5 5 5 3 5 5 5 3 5 3 3 5 5 5 5 5 5 5 3 5 5 5 5 5 5 5 5 3 3 5 5 5 5 3 5 5 3 5 5 5 3 5 5 5 3 3 5 5 5 5 3 5 5 5 5 5 3 3 5 5 5 5 5 5 5 5 5 5 5 5 5 5 5 5 5 5 5 5 5 5 5 5 5 5 5 5 5 5 5 3 5 5 5 3 5 5 5 5 5 5 5 5 5 5 5 5 5 5 5 3 5 3 3 5 5 3 5 5 5 5 5 5 5 5 5 5 5 5 5 5 5 5 5 5 5 5 5 5 5 3 5 5 3 3 5 5 5 5 5 5 5 3 5 5 5 3 5 5 5 5 3 3 5 5 5 5 5 5 5 3 5 5 5 5 3 5 5 5 5 3 5 5 5 5 5 5 5 5 5 5 5 5 5 5 5 5 5 5 5 3 5 5 5 5 5 5 5 5 5 5 5 5 5 5 5 5 3 5 5 5 3 5 5 5 5 5 5 5 5 5 3 5 5 5 5 5 5 5 5 5 5 5 5 5 5 5 5 5 5 5 5 5 3 5 5 5 5 5 5 5 5 5 5 5 5 5 5 5 5 5 3 5 5 5 5 5 3 5 5 5 5 5 5 5 5 5 5 5 5 5 5 5 5 5 5 5 5 5 5 5 5 5 5 5 3 5 5 3 5 5 5 3 5 5 5 5 5 5 5 5 5 5 5 5 5 5 5 3 5 3 5 5 5 5 5 5 5 5 5 3 5 5 5 5 5 5 5 5 5 3 3 5 5 5 5 5 5 5 5 5 5 5 5 5 5 5 5 5 5 5 5 5 5 5 5 5 5 5 5 5 5 5 5 5 5 5 5 5 5 5 5 5 5 5 5 5 5 5 5 5 5 5 5 5 5 5 5 5 5 5 5 5 5 5 5 5 5 5 5 5 5 5 3 5 5 5 5 5 5 3 5 5 5 5 5 5 5 5 5 3 5 3 5 5 5 5 5 5 5 5 5 5 5 5 5 5 5 5 5 5 5 5 5 5 5 5 5 5 5 5 5 5 5 5 5 5 3 5 5 5 3 3 5 5 5 5 5 5 5 5 5 5 5 5 5 5 5 5 5 5 5 5 5 5 3 3 5 5 5 5 5 5 5 5 3 5 5 5 5 5 5 3 5 5 5 5 5 3 5 5 5 5 3 5 5 5 3 5 5 5 3 5 5 3 5 5 5 5 5 5 5 5 5 5 5 5 5 3 5 5 5 5 5 5 5 5 3 5 5 5 5 5 5 5 5 5 5 5 3 5 5 5 3 5 5 5 5 3 5 5 5 5 5 5 5 5 3 5 3 5 5 3 5 5 5 5 5 3 5 5 5 5 5 5 5 5 5 5 5 5 3 5 5 5 5 5 5 5 5 5 3 5 5 5 5 5 5 3 5 5 5 5 5 5 5 3 5 5 5 5 5 3 5 5 5 5 5 5 5 5 5 5 5 5 5 5 5 5 5 5 5 5 5 5 5 5 5 5 5 5 5 5 5 5 5 5 5 5 5 5 5 5 5 5 5 5 5 5 5 3 5 3 5 5 5 5 5 5 5 5 5 5 5 5 5 5 3 5 5 5 5 5 5 5 5 5 5 5 5 5 5 5 3 5 5 3 5 3 5 5 5 5 5 3 5 5 5 5 5 5 5 5 5 5 5 5 5 5 5 5 5 5 5 5 3 5 5 5 5 5 5 5 5 5 5 5 3 5 3 5 5 3 5 3 5 5 5 5 5 5 5 3 5 3 5 5 5 5 3 5 5 5 5 3 3 5 5 3 5 5 5 5 5 5 5 5 5 5 5 5 5 5 5 5 3 5 5 5 5 5 5 5 5 5 5 5 5 5 5 3 5 3 5 5 5 5 5 5 5 3 5 3 5 5 5 5 5 5 5 5 5 3 3 5 5 5 3 5 5 5 5 3 5 3 5 5 3 5 3 3 3 5 5 3 5 5 5 3 3 3 5 5 5 5 5 5 5 5 5 5 5 3 5 5 5 5 5 5 3 5 5 5 3 5 5 5 5 5 5 5 5 3 5 5 5 3 5 5 5 5 5 5 5 5 5 5 5 5 5 5 5 5 5 5 5 5 5 5 5 5 5 5 5 5 5 5 5 5 5 5 5 5 5 5 5 5 5 5 5 5 5 5 5 5 5 5 5 5 5 5 5 5 5 5 5 5 3 5 5 5 5 5 3 5 5 5 5 3 5 5 5 3 5 5 5 5 5 5 5 5 5 5 5 5 5 5 5 5 5 5 5 5 5 5 5 5 5 5 5 5 5 5 5 5 5 5 5 5 5 5 5 5 3 5 5 3 5 5 5 5 5 5 5 3 5 5 5 5 5 5 5 5 5 5 5 3 5 5 3 5 3 5 5 5 3 5 5 5 5 5 5 5 5 3 5 5 5 5 3 5 5 5 5 3 5 3 5 5 5 5 5 5 5 5 5 5 5 5 3 5 3 5 5 5 5 5 5 5 5 5 5 5 5 5 3 5 5 5 5 5 5 5 5 5 3 5 5 5 3 5 5 5 5 5 5 5 5 5 5 5 5 5 5 5 5 5 5 5 5 5 5 5 5 5 5 5 5 5 5 5 5 5 5 5 3 5 5 3 5 5 5 5 3 5 5 5 5 5 5 5 5 5 5 5 5 5 5 5 3 5 5 5 5 5 5 5 5 5 3 5 3 5 5 5 5 5 5 5 3 5 5 5 5 5 5 5 5 5 5 5 5 5 5 3 5 5 5 5 5 5 5 5 5 5 5 3 5 5 5 5 5 5 5 5 5 5 5 5 5 5 5 5 5 5 5 5 5 5 5 3 5 3 5 5 5 5 5 5 3 5 3 5 5 5 3 5 5 5 3 5 5 5 3 5 5 3 5 5 5 5 5 5 5 3 5 5 5 5 5 5 5 3 5 5 5 5 5 5 5 5 5 5 5 5 5 3 5 5 5 5 5 5 5 5 3 5 5 5 5 5 5 5 5 5 5 5 5 5 5 5 5 5 5 5 5 3 5 5 5 5 5 5 5 5 5 5 5 5 5 5 5 5 5 5 5 5 5 5 5 5 5 5 5 5 5 5 5 5 5 5 5 5 5 5 5 5 5 5 5 5 5 5 5 5 5 5 3 5 3 5 5 5 3 5 5 3 3 5 3 5 5 5 5 5 5 5 5 5 5 5 5 5 5 5 5 5 5 5 5 5 5 5 5 5 5 5 5 5 5 5 5 5 5 5 3 5 5 5 5 3 5 5 3 5 5 5 3 5 5 5 5 3 5 3 3 5 5 5 5 3 5 5 5 3 5 5 5 3 5 5 5 5 5 5 3 5 5 5 5 5 5 5 5 5 5 5 5 5 5 5 5 5 5 5 5 3 5 5 5 5 5 5 5 5 5 5 5 5 5 5 5 5 5 5 3 5 5 3 5 5 3 5 5 5 5 5 5 5 5 5 5 5 3 5 5 5 5 3 5 5 5 5 3 5 5 5 3 5 5 5 5 5 5 5 5 5 5 5 5 5 5 5 5 5 5 5 5 5 5 5 5 5 3 5 5 5 5 5 5 5 5 3 5 5 5 3 5 5 5 5 5 5 5 5 5 5 5 5 5 5 5 5 5 5 5 5 5 5 5 5 3 5 5 5 3 5 5 5 5 5 5 5 5 3 5 5 3 5 5 5 5 3 5 5 5 5 5 5 5 3 5 3 5 5 3 5 5 3 3 5 5 5 5 5 5 5 5 5 5 5 5 5 5 5 5 5 5 5 5 5 3 5 5 5 5 3 5 5 5 5 5 5 5 5 5 5 5 5 5 3 5 5 3 5 5 5 5 5 5 5 5 5 5 5 5 5 5 5 5 5 5 5 5 5 5 5 5 5 5 5 5 5 5 5 5 5 5 5 5 5 5 5 5 5 5 5 5 5 5 5 5 5 5 5 5 5 5 5 5 5 5 5 5 5 5 5 5 5 5 5 5 5 5 5 5 5 5 5 5 5 5 5 5 5 5 5 5 5 5 5 5 5 5 5 5 5 5 5 5 5 5 5 5 5 5 5 5 5 5 5 5 5 5 5 5 5 5 5 5 5 5 5 5 5 5 5 5 5 5 5 5 3 5 5 5 5 5 5 5 3 5 5 5 5 5 5 5 5 5 3 5 3 5 5 5 3 5 5 3 5 5 5 5 5 5 5 5 5 5 5 5 5 5 5 5 5 5 5 5 5 5 5 5 5 5 5 5 5 5 5 5 5 5 5 5 5 3 5 5 3 3 5 5 3 5 5 3 5 5 5 3 5 5 5 5 5 5 5 5 5 3 5 5 5 5 5 5 3 5 5 5 5 5 5 5 5 5 5 5 5 5 5 5 5 5 5 5 5 5 5 5 5 5 5 5 5 5 5 5 3 5 5 5 5 5 5 5 5 5 5 5 5 5 5 5 5 5 5 5 5 5 5 5 5 5 5 5 5 5 5 5 5 5 5 5 5 5 5 5 5 5 5 5 5 5 5 3 5 3 5 5 5 5 3 5 5 5 5 3 5 5 5 5 3 5 5 5 5 5 5 5 5 3 5 5 3 5 3 5 5 5 5 3 5 5 3 3 5 5 5 5 5 5 3 5 5 5 5 5 5 5 5 5 5 3 3 5 5 5 5 5 3 5 5 3 5 5 5 5 3 5 5 3 5 5 5 5 5 5 5 5 5 5 5 5 5 5 5 5 5 5 5 5 5 5 5 5 5 5 5 5 5 3 5 3 5 5 5 5 5 5 5 5 5 5 5 5 5 3 5 5 5 5 3 3 5 5 5 5 5 5 5 5 5 5 5 5 5 5 5 5 5 5 5 5 5 5 5 5 5 5 5 5 5 5 5 5 5 5 5 5 5 5 5 5 5 5 3 5 5 5 3 5 5 5 5 5 5 5 5 5 5 5 5 5 5 5 5 5 5 5 5 3 5 5 3 5 5 5 5 5 5 5 5 5 3 5 5 5 5 5 3 5 5 5 5 5 3 5 3 5 5 5 5 5 5 5 5 5 5 5 5 5 3 5 5 5 3 3 5 5 5 5 5 5 5 5 3 5 5 3 5 5 3 3 5 5 5 5 5 3 5 5 5 5 5 5 5 3 5 5 3 3 5 5 5 5 5 5 3 3 5 5 5 3 5 5 5 5 5 5 5 3 5 5 5 5 5 5 5 5 5 5 5 5 5 5 5 5 5 5 5 5 5 5 5 5 5 5 3 5 5 5 5 5 5 5 3 5 5 5 5 5 5 5 5 5 5 5 3 5 5 5 5 5 5 5 5 3 5 5 5 5 5 5 5 5 5 5 5 5 5 5 5 5 3 5 5 5 3 5 5 5 5 5 3 5 5 5 5 5 5 5 5 5 5 5 5 5 5 3 5 5 5 5 3 5 5 3 5 5 5 5 5 3 5 5 5 5 5 5 5 5 5 5 5 5 5 5 3 5 3 5 5 5 3 5 3 5 3 5 5 5 5 5 5 3 3 5 5 5 5 5 5 3 5 3 5 5 5 5 5 5 5 5 5 5 5 5 5 5 5 5 5 3 5 5 5 3 3 5 5 5 5 5 3 5 5 3 3 5 5 5 5 5 5 5 5 5 5 5 5 5 5 5 5 5 5 5 5 5 5 5 5 5 5 5 5 5 5 5 5 5 5 5 5 5 5 5 5 5 5 5 5 3 5 5 3 3 3 5 5 5 5 5 5 3 5 5 5 5 5 5 5 5 5 3 5 5 5 3 5 5 5 5 5 5 5 5 5 5 5 5 5 5 5 5 5 5 5 5 3 5 5 5 5 3 5 5 5 5 5 5 5 5 5 5 5 5 5 5 5 5 5 5 5 5 5 5 5 5 5 5 5 5 5 5 5 5 5 5 3 5 3 5 5 5 5 5 5 5 5 3 5 5 5 3 5 3 5 5 5 5 5 5 5 5 3 5 5 5 5 3 5 5 5 5 3 5 5 5 5 5 5 5 3 5 5 5 5 3 5 5 5 5 5 5 5 5 5 5 5 5 5 5 5 5 5 5 5 5 5 5 5 5 5 5 5 5 5 5 5 5 5 5 5 5 5 5 5 5 5 5 5 5 5 5 3 5 5 5 5 3 3 5 5 3 3 5 5 5 5 5 5 5 5 5 5 5 5 5 5 5 5 5 5 5 3 5 5 5 3 3 5 5 5 5 5 5 5 5 5 5 5 5 5 5 5 5 5 5 5 5 5 5 5 5 5 5 5 3 5 5 5 5 5 5 5 3 5 5 5 5 5 5 5 5 5 5 5 5 5 5 5 3 5 5 5 5 5 5 5 5 3 5 3 3 5 5 5 5 5 5 5 5 5 5 5 5 3 5 5 5 5 5 5 5 5 5 5 5 5 5 5 5 5 5 5 3 5 5 5 3 5 5 5 5 5 5 5 5 3 5 5 5 5 5 5 5 5 5 5 5 5 5 5 5 3 5 5 5 3 5 5 5 5 5 5 5 5 5 5 5 5 5 5 5 5 5 5 5 5 5 5 5 5 5 5 5 5 5 5 5 5 5 3 5 3 5 5 5 5 5 5 5 5 3 5 5 5 5 5 5 5 5 5 3 5 5 3 5 5 5 5 5 3 5 5 5 5 3 5 5 5 5 3 5 5 5 3 5 3 5 5 3 5 5 5 5 5 5 5 5 5 5 5 5 5 5 3 5 5 3 5 3 5 5 5 3 5 5 3 5 5 5 5 3 5 3 5 5 5 5 5 5 3 5 3 5 5 5 5 5 3 5 5 5 5 3 5 5 5 5 5 5 3 5 5 5 5 5 5 5 5 5 5 5 5 5 5 5 5 5 5 5 5 5 5 5 5 5 5 5 5 5 5 5 5 5 3 3 5 5 5 5 5 5 5 5 5 5 3 5 5 3 3 5 3 5 5 5 5 5 5 5 3 5 5 5 5 5 5 5 5 5 5 5 5 3 5 5 5 5 3 5 5 5 5 5 5 5 5 5 5 5 5 3 5 5 5 5 5 5 5 5 5 5 5 5 5 5 5 5 5 3 5 5 5 5 5 3 5 5 5 3 5 5 5 5 5 5 3 5 3 5 5 5 3 5 5 5 5 5 5 5 5 5 3 5 5 3 5 5 5 5 5 5 5 3 5 5 5 5 5 5 5 5 5 5 5 5 5 3 5 5 3 5 5 5 5 5 5 3 5 5 5 5 5 5 3 5 5 5 5 5 5 5 3 5 5 5 5 5 5 5 5 5 5 5 5 5 5 5 5 5 5 5 5 5 5 3 5 5 5 5 5 5 5 5 5 5 3 5 5 5 5 3 3 5 5 5 5 3 5 5 5 5 5 5 5 5 5 3 5 5 5 5 5 5 5 5 5 5 5 3 5 5 5 3 5 5 5 3 5 5 5 5 5 5 5 5 5 5 5 5 3 5 5 5 5 5 3 5 5 3 5 5 5 5 5 5 5 5 5 5 5 5 5 5 3 5 5 5 5 5 5 5 3 5 5 5 3 5 5 5 5 5 3 5 5 5 5 5 5 5 5 5 3 5 5 5 5 5 5 5 5 3 5 5 5 5 5 3 5 5 5 5 5 5 5 3 5 5 5 5 5 5 5 5 5 5 5 5 5 5 5 5 5 5 5 5 5 5 5 5 5 5 5 5 5 5 5 5 5 5 5 5 5 5 5 5 5 5 5 5 5 5 5 5 3 5 5 5 5 5 5 5 3 5 5 5 5 5 5 5 5 5 5 5 5 5 5 5 5 5 5 5 5 5 5 3 3 5 5 3 3 5 5 5 5 5 5 5 3 5 5 5 5 5 5 5 5 5 5 5 5 5 5 3 5 5 5 5 5 5 5 5 3 5 5 3 5 5 5 3 5 5 5 5 5 5 5 5 5 5 5 5 5 5 5 5 5 5 5 5 5 5 5 5 5 5 5 5 3 5 5 5 5 5 5 5 5 3 5 5 5 5 5 5 3 3 5 5 5 5 3 5 5 3 5 5 3 5 5 5 5 5 5 3 5 5 5 5 5 5 5 5 3 5 5 5 5 5 5 5 5 5 5 5 3 5 5 3 5 5 5 5 5 5 5 3 5 5 5 3 5 3 5 3 5 5 5 5 5 5 5 5 5 5 5 5 5 5 5 5 5 3 5 3 5 5 5 5 5 5 5 5 5 5 3 5 5 5 5 5 5 5 3 5 5 5 3 5 3 3 5 5 3 5 5 5 5 3 5 5 5 3 5 5 5 3 5 3 3 5 5 5 5 5 5 3 5 5 5 5 5 5 5 5 3 3 3 5 3 5 5 3 3 5 5 3 5 5 5 5 5 5 5 5 5 5 5 3 5 5 5 5 5 5 5 5 5 5 5 5 5 3 3 5 5 5 5 3 5 5 5 3 5 5 5 5 5 3 3 5 5 5 3 5 5 5 5 5 5 5 5 5 5 5 5 5 5 5 3 5 5 5 3 5 5 5 3 5 5 5 5 5 5 3 5 5 5 5 5 3 5 5 5 5 5 5 5 5 3 5 5 5 5 5 5 5 5 5 3 5 5 5 5 3 5 3 5 5 3 5 3 5 5 5 5 5 5 3 5 3 3 5 5 5 5 5 5 5 5 3 5 3 5 3 5 3 5 5 5 5 5 5 5 5 5 5 5 3 5 5 5 3 5 5 5 5 5 5 5 5 3 5 5 5 5 5 5 5 5 5 3 5 5 5 5 3 5 5 3 5 5 5 5 5 5 5 5 5 3 5 5 5 3 5 5 5 5 5 5 5 5 5 5 5 5 5 5 5 5 5 5 5 3 5 5 5 5 5 5 5 5 5 5 3 5 5 5 5 5 5 5 5 5 5 5 5 5 5 5 5 5 5 5 5 5 5 5 5 5 5 5 5 5 5 5 5 5 5 5 5 5 5 5 5 5 5 5 5 5 3 3 5 5 5 5 5 5 5 5 5 5 5 5 5 3 3 5 5 5 3 5 5 3 5 5 5 3 5 5 5 3 5 5 5 5 5 5 5 5 3 5 5 3 5 3 3 5 5 5 5 5 5 3 5 3 3 3 5 5 3 5 5 3 3 5 5 5 5 5 5 5 5 5 5 5 5 5 5 5 5 5 5 5 5 5 3 5 5 5 5 5 5 5 5 5 3 5 5 5 5 5 5 5 3 3 5 5 5 5 5 5 5 5 5 5 5 5 5 5 5 5 5 5 5 5 5 5 5 3 5 3 5 5 5 5 5 5 5 3 5 5 5 3 3 5 5 3 5 5 5 5 3 5 5 5 3 5 5 5 3 5 5 5 5 5 5 5 5 5 3 3 5 5 5 5 5 3 5 5 3 3 3 5 5 5 5 5 3 5 5 5 5 5 5 5 5 5 3 5 3 5 5 5 5 5 5 5 5 5 5 5 5 5 5 5 5 5 5 5 5 5 5 5 5 3 5 5 5 5 3 3 5 5 5 3 5 5 5 5 5 5 5 5 5 5 5 5 5 5 5 5 3 5 5 5 3 5 5 3 5 5 5 5 5 5 5 5 5 5 5 5 5 3 5 5 3 5 5 5 3 5 3 5 3 5 3 3 3 5 5 5 5 5 5 5 5 3 5 5 5 5 5 5 5 5 3 5 5 3 5 5 5 5 5 5 5 5 5 5 5 5 5 5 5 5 5 5 5 5 5 3 5 5 5 5 5 5 5 5 5 5 3 5 3 5 5 3 5 3 5 3 5 5 3 5 3 5 5 3 5 5 5 3 5 5 5 5 5 5 5 5 5 5 5 5 5 5 5 5 5 5 5 5 5 5 5 5 5 5 5 5 5 5 5 5 5 5 5 5 5 5 5 5 5 5 5 5 5 5 5 5 5 5 5 5 5 5 5 5 5 5 5 5 5 3 5 5 3 5 5 5 5 5 5 3 3 5 5 5 5 5 5 5 5 5 5 5 5 5 5 5 5 5 5 3 5 5 5 3 5 5 5 5 5 5 5 5 5 5 5 5 5 5 5 5 3 5 5 5 5 5 5 5 3 5 5 5 5 5 5 5 5 3 5 3 5 5 5 5 5 5 5 5 5 5 5 5 5 5 5 5 3 5 5 5 5 5 5 5 3 5 5 5 5 3 5 5 5 5 5 5 5 3 5 5 3 3 5 5 3 5 5 5 5 5 5 3 5 5 5 5 5 5 5 5 5 3 5 5 3 5 5 3 5 5 3 5 5 5 5 5 3 5 5 5 5 5 5 5 5 3 5 5 5 5 5 5 5 3 5 5 5 5 5 5 5 5 5 5 5 5 3 5 5 5 5 5 5 5 3 3 5 3 5 3 5 5 5 5 5 5 5 5 5 5 5 5 5 5 5 3 5 3 5 5 5 5 5 5 5 5 3 5 3 5 3 5 3 5 3 5 5 3 5 5 5 5 5 3 5 5 5 5 5 5 5 5 3 5 5 5 5 5 3 5 5 3 5 3 3 5 5 5 5 5 5 5 5 3 5 5 5 5 5 5 5 5 5 5 5 5 5 3 5 5 5 5 5 5 5 3 5 5 5 3 5 5 5 5 5 5 5 5 5 5 5 5 5 5 5 5 5 3 5 5 5 5 5 5 5 3 5 5 3 5 5 5 5 5 5 5 5 5 5 5 5 5 5 5 3 5 5 5 5 3 5 5 5 5 5 5 5 5 5 5 5 5 5 5 5 5 5 5 5 5 5 5 5 5 5 3 5 5 5 5 5 5 3 5 5 5 5 5 5 5 5 5 3 3 5 5 5 3 5 3 5 5 5 5 5 5 5 5 5 5 5 5 5 5 5 3 5 5 5 5 5 5 5 5 5 5 5 5 3 3 5 5 5 5 5 5 5 5 3 5 5 3 5 5 3 3 5 5 5 5 5 5 5 3 5 5 5 5 5 5 5 5 5 3 5 5 5 3 5 5 5 5 5 3 5 5 5 5 5 5 5 5 5 5 5 5 3 5 5 5 3 5 5 5 3 5 5 5 5 5 5 5 5 5 5 5 5 5 5 5 5 5 5 5 5 5 5 5 5 5 5 5 5 5 5 5 5 3 5 5 5 5 5 5 5 5 5 5 5 5 5 5 5 5 5 5 5 5 5 5 5 5 3 5 3 5 5 3 5 5 5 5 5 5 5 5 5 3 5 5 5 5 5 5 5 5 5 5 5 5 5 5 3 5 5 5 5 3 5 5 5 3 5 5 5 5 5 5 5 5 5 5 5 5 5 5 5 5 5 5 5 5 5 5 5 5 5 5 5 5 5 5 5 5 5 5 5 5 5 5 5 5 5 5 5 5 5 5 5 5 5 5 5 5 5 5 5 5 5 5 5 5 5 5 5 5 5 5 5 5 5 5 5 5 5 5 5 5 5 5 5 5 5 5 5 5 5 5 5 5 5 5 5 5 5 5 5 5 5 5 5 5 5 5 5 5 5 5 5 5 5 5 5 5 5 5 5 5 5 5 5 5 5 5 5 5 5 5 5 5 5 5 5 5 5 5 5 5 5 5 5 5 5 5 5 5 5 5 5 5 5 5 5 5 5 5 5 5 5 5 5 5 5 5 5 5 5 5 5 5 5 5 5 5 5 5 5 5 5 5 5 5 5 5 5 5 5 5 5 5 5 3 5 5 5 5 5 5 5 5 5 5 5 5 5 5 5 5 3 5 5 5 5 5 5 5 5 3 5 5 5 5 3 5 5 5 5 5 5 5 5 5 5 5 5 5 5 5 5 5 5 5 5 5 5 3 5 5 5 5 5 5 5 5 5 5 5 5 5 3 3 5 5 5 5 5 3 5 3 5 5 5 5 5 5 5 5 5 5 5 3 5 5 5 5 5 5 5 3 5 5 5 5 5 5 5 5 5 5 5 5 5 5 5 3 3 5 5 5 5 5 5 5 5 5 5 5 5 3 5 5 5 5 5 5 5 5 5 5 5 5 5 5 5 5 3 5 5 5 5 5 5 5 3 5 5 5 5 5 5 5 5 5 5 3 3 5 5 5 5 5 5 5 5 5 5 5 5 5 5 5 5 5 5 5 5 5 5 5 5 5 5 5 5 5 5 3 5 5 5 5 5 3 5 5 5 5 5 5 5 5 5 5 3 5 5 5 5 3 5 5 5 5 5 5 5 5 5 5 3 5 3 5 5 5 5 5 5 5 5 5 5 5 5 5 5 5 5 5 5 5 5 5 5 5 5 5 5 5 5 5 5 5 3 5 5 5 5 5 3 5 5 5 5 5 5 5 5 5 5 5 5 5 5 5 5 5 5 3 5 5 3 5 5 5 3 5 5 5 5 5 3 5 5 5 5 5 5 5 5 5 5 3 5 5 5 5 5 5 3 5 5 5 5 5 3 3 5 5 3 5 5 3 5 5 5 5 5 5 5 5 5 5 3 5 5 3 5 5 3 5 5 3 5 5 3 5 5 3 5 5 5 5 5 5 3 5 5 5 5 5 5 5 5 5 5 5 3 5 5 5 5 5 5 5 3 5 5 5 5 3 5 5 5 3 5 5 5 5 5 5 5 5 5 5 5 3 5 5 5 5 5 5 5 5 5 5 5 5 5 5 5 5 5 5 5 5 5 5 5 5 3 5 5 5 5 5 3 5 5 5 5 5 5 5 5 5 5 5 5 5 5 3 5 5 3 5 3 5 5 5 5 3 5 3 3 5 3 5 5 5 5 5 5 5 3 5 3 5 5 5 5 5 5 3 5 5 5 5 5 5 3 5 5 5 5 3 5 5 5 5 5 3 5 5 3 5 5 5 5 3 5 5 5 5 3 5 5 5 5 5 5 3 5 5 5 5 5 5 5 5 5 3 5 5 5 5 5 5 3 5 5 5 5 3 5 5 5 5 5 5 5 5 5 5 5 5 5 5 5 5 3 5 5 5 3 5 5 3 5 5 5 5 5 5 5 5 5 5 5 5 5 5 5 5 3 5 3 5 5 5 5 5 5 5 5 5 5 5 5 5 5 5 5 5 5 5 5 5 5 5 5 5 5 3 5 5 3 5 5 5 5 5 5 5 5 5 5 3 5 5 5 5 3 5 5 5 5 3 5 5 5 5 5 5 5 5 5 3 5 5 5 5 5 5 5 5 5 5 5 5 5 5 5 5 5 5 5 5 5 5 5 5 5 5 5 5 
</DataArray>
</Cells>
<PointData Scalars="" Vectors="displacement," Tensors="">
<DataArray type="Float64" Name="displacement" NumberOfComponents="3" format="ascii">
0.054996032363847959 0.054996903000101328 0 0.051275424523938719 0.054019533399569983 0 0.046362289484279333 0.054992671534114954 0 0.054996032363847959 0.054996903000101328 0 0.054122761894922398 0.052994514809843657 0 0.051275424523938719 0.054019533399569983 0 0.054996032363847959 0.054996903000101328 0 0.054122761894922398 0.052994514809843657 0 0.05499691883965082 0.04935118484756526 0 0.054122761894922398 0.052994514809843657 0 0.05499691883965082 0.04935118484756526 0 0.054456330848947868 0.052229296407343036 0 0.05499691883965082 0.04935118484756526 0 0.054456330848947868 0.052229296407343036 0 0.055175169212137637 0.048337201307633901 0 0.053354752683466178 0.053702504409944445 0 0.053145351710146553 0.054135885011024593 0 0.054456330848947868 0.052229296407343036 0 0.059171518085422321 0.052708096569578158 0 0.059540084499318142 0.050357321755968951 0 0.054456330848947868 0.052229296407343036 0 0.059540084499318142 0.050357321755968951 0 0.05756344400481396 0.048548484393476719 0 0.054122761894922398 0.052994514809843657 0 0.054456330848947868 0.052229296407343036 0 0.051275424523938719 0.054019533399569983 0 0.054456330848947868 0.052229296407343036 0 0.051275424523938719 0.054019533399569983 0 0.050041608392103906 0.054967790720399846 0 0.051275424523938719 0.054019533399569983 0 0.047719683353589545 0.054412577737500634 0 0.050041608392103906 0.054967790720399846 0 0.051275424523938719 0.054019533399569983 0 0.046362289484279333 0.054992671534114954 0 0.047719683353589545 0.054412577737500634 0 0.046345621891234375 0.054999993540626291 0 0.045175546573065183 0.05707458404496208 0 0.043327494219868666 0.054999991133139484 0 0.046347258430409294 0.055000707303752186 0 0.047097483270224283 0.0552715533581477 0 0.043327494219868666 0.054999991133139484 0 0.042880545555959187 0.057343864844471987 0 0.040846689612928685 0.05672358256422113 0 0.043327494219868666 0.054999991133139484 0 0.040309341076205409 0.054999989552814696 0 0.040846689612928685 0.05672358256422113 0 0.045175546573065183 0.05707458404496208 0 0.043327494219868666 0.054999991133139484 0 0.042880545555959187 0.057343864844471987 0 0.045175546573065183 0.05707458404496208 0 0.042880545555959187 0.057343864844471987 0 0.044014706378461978 0.059143828269637433 0 0.047097483270224283 0.0552715533581477 0 0.048716182406963494 0.054317472826771698 0 0.042880545555959187 0.057343864844471987 0 0.041433081648903615 0.05857910737360935 0 0.044014706378461978 0.059143828269637433 0 0.042880545555959187 0.057343864844471987 0 0.041433081648903615 0.05857910737360935 0 0.040846689612928685 0.05672358256422113 0 0.041767824118694327 0.055708519666661648 0 0.048716182406963494 0.054317472826771698 0 0.038312005277397178 0.05812873322525814 0 0.038207742005655826 0.058095452555910754 0 0.038136553044149077 0.05812938052424127 0 0.038312005277397178 0.05812873322525814 0 0.038207742005655826 0.058095452555910754 0 0.038223293285614898 0.05811562767414985 0 0.038207742005655826 0.058095452555910754 0 0.038136553044149077 0.05812938052424127 0 0.038153719470817499 0.058007179050101249 0 0.062476997487674379 0.052975179242388107 0 0.063416160598275206 0.050774410445801159 0 0.061327557777933736 0.051403589015077779 0 0.048716182406963494 0.054317472826771698 0 0.049182153477996426 0.053396741109316859 0 0.063416160598275206 0.050774410445801159 0 0.061327557777933736 0.051403589015077779 0 0.062000601841128739 0.049993369660440407 0 0.038153719470817499 0.058007179050101249 0 0.038223293285614898 0.05811562767414985 0 0.038225929902037402 0.058002812826835802 0 0.038207742005655826 0.058095452555910754 0 0.038153719470817499 0.058007179050101249 0 0.038223293285614898 0.05811562767414985 0 0.062476997487674379 0.052975179242388107 0 0.059171518085422321 0.052708096569578158 0 0.061327557777933736 0.051403589015077779 0 0.048716182406963494 0.054317472826771698 0 0.053145351710146553 0.054135885011024593 0 0.047719683353589545 0.054412577737500634 0 0.047480151867084319 0.055234842842252115 0 0.050041608392103906 0.054967790720399846 0 0.061327557777933736 0.051403589015077779 0 0.059540084499318142 0.050357321755968951 0 0.060983054705968015 0.050173454374137796 0 0.061327557777933736 0.051403589015077779 0 0.060983054705968015 0.050173454374137796 0 0.062000601841128739 0.049993369660440407 0 0.059171518085422321 0.052708096569578158 0 0.061327557777933736 0.051403589015077779 0 0.059540084499318142 0.050357321755968951 0 0.059540084499318142 0.050357321755968951 0 0.059488787243600953 0.048812060039635993 0 0.05756344400481396 0.048548484393476719 0 0.059488787243600953 0.048812060039635993 0 0.059151678105326462 0.047362474436780842 0 0.05756344400481396 0.048548484393476719 0 0.059488787243600953 0.048812060039635993 0 0.060243031590869467 0.04880717524331693 0 0.060165913742357573 0.048095687005898141 0 0.059488787243600953 0.048812060039635993 0 0.060416694048124227 0.049444169082264941 0 0.060243031590869467 0.04880717524331693 0 0.059540084499318142 0.050357321755968951 0 0.059488787243600953 0.048812060039635993 0 0.060416694048124227 0.049444169082264941 0 0.059540084499318142 0.050357321755968951 0 0.060983054705968015 0.050173454374137796 0 0.060416694048124227 0.049444169082264941 0 0.060983054705968015 0.050173454374137796 0 0.060416694048124227 0.049444169082264941 0 0.061197559038957718 0.049319425634929921 0 0.060983054705968015 0.050173454374137796 0 0.061197559038957718 0.049319425634929921 0 0.062000601841128739 0.049993369660440407 0 0.061197559038957718 0.049319425634929921 0 0.062000601841128739 0.049993369660440407 0 0.061985327801297556 0.049051359110691833 0 0.059198867673461719 0.046087672143212709 0 0.059167595964135573 0.045714547266718496 0 0.061197559038957718 0.049319425634929921 0 0.060902169239683432 0.048878670677538878 0 0.061467983842347147 0.047905798628051929 0 0.061197559038957718 0.049319425634929921 0 0.061384114874779093 0.048667605328071628 0 0.061985327801297556 0.049051359110691833 0 0.059160873471419601 0.045857864516075666 0 0.059167595964135573 0.045714547266718496 0 0.060902169239683432 0.048878670677538878 0 0.060165913742357573 0.048095687005898141 0 0.061371964850103836 0.047990200887417678 0 0.060416694048124227 0.049444169082264941 0 0.060243031590869467 0.04880717524331693 0 0.060902169239683432 0.048878670677538878 0 0.060416694048124227 0.049444169082264941 0 0.061197559038957718 0.049319425634929921 0 0.060902169239683432 0.048878670677538878 0 0.060243031590869467 0.04880717524331693 0 0.060902169239683432 0.048878670677538878 0 0.060165913742357573 0.048095687005898141 0 0.060165913742357573 0.048095687005898141 0 0.061371964850103836 0.047990200887417678 0 0.060333244710925493 0.046734395094962591 0 0.059167595964135573 0.045714547266718496 0 0.059538062876358683 0.043742934416076407 0 0.061371964850103836 0.047990200887417678 0 0.060333244710925493 0.046734395094962591 0 0.061713546278832083 0.045240847679739696 0 0.060333244710925493 0.046734395094962591 0 0.059151678105326462 0.047362474436780842 0 0.059292232056747357 0.045050453024667425 0 0.059151678105326462 0.047362474436780842 0 0.059292232056747357 0.045050453024667425 0 0.057589042301413193 0.046892790058746608 0 0.060165913742357573 0.048095687005898141 0 0.060333244710925493 0.046734395094962591 0 0.059151678105326462 0.047362474436780842 0 0.059488787243600953 0.048812060039635993 0 0.060165913742357573 0.048095687005898141 0 0.059151678105326462 0.047362474436780842 0 0.063416160598275206 0.050774410445801159 0 0.064038057276291388 0.048962779974423068 0 0.062870682559123273 0.0492037241681215 0 0.038153719470817499 0.058007179050101249 0 0.038167239823659237 0.057801370702086415 0 0.038225929902037402 0.058002812826835802 0 0.049182153477996426 0.053396741109316859 0 0.049147550849780119 0.051736830332793839 0 0.064038057276291388 0.048962779974423068 0 0.062870682559123273 0.0492037241681215 0 0.063268032532480867 0.048448845298709443 0 0.063416160598275206 0.050774410445801159 0 0.062870682559123273 0.0492037241681215 0 0.062000601841128739 0.049993369660440407 0 0.062870682559123273 0.0492037241681215 0 0.062000601841128739 0.049993369660440407 0 0.061985327801297556 0.049051359110691833 0 0.061384114874779093 0.048667605328071628 0 0.062483731136575855 0.048178018227838189 0 0.062444678214811658 0.04704916737652403 0 0.059167595964135573 0.045714547266718496 0 0.058816915810723958 0.043825049354279014 0 0.062870682559123273 0.0492037241681215 0 0.061985327801297556 0.049051359110691833 0 0.062483731136575855 0.048178018227838189 0 0.061384114874779093 0.048667605328071628 0 0.061985327801297556 0.049051359110691833 0 0.062483731136575855 0.048178018227838189 0 0.062870682559123273 0.0492037241681215 0 0.062483731136575855 0.048178018227838189 0 0.063268032532480867 0.048448845298709443 0 0.062483731136575855 0.048178018227838189 0 0.063268032532480867 0.048448845298709443 0 0.063671975095043243 0.047475384824818882 0 0.064038057276291388 0.048962779974423068 0 0.063671975095043243 0.047475384824818882 0 0.064732214102921987 0.047450684919255311 0 0.064038057276291388 0.048962779974423068 0 0.063268032532480867 0.048448845298709443 0 0.063671975095043243 0.047475384824818882 0 0.063671975095043243 0.047475384824818882 0 0.06335185869491515 0.046709430867971601 0 0.062444678214811658 0.04704916737652403 0 0.063671975095043243 0.047475384824818882 0 0.06335185869491515 0.046709430867971601 0 0.063983359203877113 0.046631972766059689 0 0.062483731136575855 0.048178018227838189 0 0.063671975095043243 0.047475384824818882 0 0.062444678214811658 0.04704916737652403 0 0.058816915810723958 0.043825049354279014 0 0.0574914470692197 0.040879266346930211 0 0.059249712985134463 0.043094954837888812 0 0.05879469080298725 0.041447027678884307 0 0.060168503658213475 0.04146576807692022 0 0.059249712985134463 0.043094954837888812 0 0.05879469080298725 0.041447027678884307 0 0.05856011754491755 0.043085957941538772 0 0.059734199147588485 0.040955597832859 0 0.0574914470692197 0.040879266346930211 0 0.063287812778644287 0.04571673530428598 0 0.063983359203877113 0.046631972766059689 0 0.064277803638703918 0.045773423364518069 0 0.06335185869491515 0.046709430867971601 0 0.063287812778644287 0.04571673530428598 0 0.063983359203877113 0.046631972766059689 0 0.0574914470692197 0.040879266346930211 0 0.054420111273469511 0.041904009874154644 0 0.06335185869491515 0.046709430867971601 0 0.062444678214811658 0.04704916737652403 0 0.063287812778644287 0.04571673530428598 0 0.058328027209969692 0.044731702032855349 0 0.059249712985134463 0.043094954837888812 0 0.05856011754491755 0.043085957941538772 0 0.060333244710925493 0.046734395094962591 0 0.059292232056747357 0.045050453024667425 0 0.061713546278832083 0.045240847679739696 0 0.062085232072936751 0.042583723904201475 0 0.059292232056747357 0.045050453024667425 0 0.061713546278832083 0.045240847679739696 0 0.059734199147588485 0.040955597832859 0 0.059538062876358683 0.043742934416076407 0 0.062085232072936751 0.042583723904201475 0 0.059292232056747357 0.045050453024667425 0 0.058520146189536396 0.042548640328062555 0 0.059292232056747357 0.045050453024667425 0 0.057219204083309667 0.044703734291210218 0 0.058520146189536396 0.042548640328062555 0 0.057219204083309667 0.044703734291210218 0 0.054993784699679915 0.042503486548622398 0 0.058520146189536396 0.042548640328062555 0 0.059292232056747357 0.045050453024667425 0 0.057219204083309667 0.044703734291210218 0 0.057589042301413193 0.046892790058746608 0 0.057219204083309667 0.044703734291210218 0 0.055933343863998834 0.045987418793158825 0 0.057589042301413193 0.046892790058746608 0 0.056627332606640782 0.046087560276420067 0 0.055941411220656226 0.044273733875645947 0 0.055907733413529372 0.046559797375231138 0 0.059560170410861708 0.04433300022261194 0 0.059135747613660944 0.042759629556487037 0 0.057304402038008233 0.043120684965241435 0 0.057646005557916657 0.043747354149368957 0 0.056394640466899848 0.043001500456157582 0 0.057646005557916657 0.043747354149368957 0 0.057647332216368419 0.043769650656878129 0 0.057646005557916657 0.043747354149368957 0 0.057653063808095782 0.042852130073400226 0 0.057219204083309667 0.044703734291210218 0 0.055933343863998834 0.045987418793158825 0 0.055463998495364063 0.044244779297294388 0 0.057219204083309667 0.044703734291210218 0 0.055463998495364063 0.044244779297294388 0 0.054993784699679915 0.042503486548622398 0 0.057653063808095782 0.042852130073400226 0 0.057635423787324433 0.041485121829139944 0 0.059135747613660944 0.042759629556487037 0 0.058069328654200288 0.042189354199546808 0 0.05871088720793223 0.041174482115235854 0 0.058069328654200288 0.042189354199546808 0 0.057304402038008233 0.043120684965241435 0 0.057459587029989094 0.041149282517662117 0 0.057304402038008233 0.043120684965241435 0 0.056115337904364612 0.040962851081398313 0 0.057459587029989094 0.041149282517662117 0 0.058069328654200288 0.042189354199546808 0 0.057459587029989094 0.041149282517662117 0 0.05871088720793223 0.041174482115235854 0 0.059135747613660944 0.042759629556487037 0 0.058069328654200288 0.042189354199546808 0 0.057304402038008233 0.043120684965241435 0 0.055001039744369679 0.041905543138462398 0 0.056394640466899848 0.043001500456157582 0 0.055000005144996283 0.041904121143499881 0 0.057304402038008233 0.043120684965241435 0 0.056115337904364612 0.040962851081398313 0 0.054999817247936449 0.041906066333045125 0 0.055941411220656226 0.044273733875645947 0 0.054998635744757565 0.04509855844313311 0 0.055941411220656226 0.044273733875645947 0 0.055907733413529372 0.046559797375231138 0 0.054998635744757565 0.04509855844313311 0 0.055907733413529372 0.046559797375231138 0 0.054998635744757565 0.04509855844313311 0 0.055175169212137637 0.048337201307633901 0 0.05499691883965082 0.04935118484756526 0 0.054998635744757565 0.04509855844313311 0 0.055175169212137637 0.048337201307633901 0 0.055907733413529372 0.046559797375231138 0 0.055175169212137637 0.048337201307633901 0 0.05580542710916199 0.048464683964276604 0 0.054456330848947868 0.052229296407343036 0 0.055175169212137637 0.048337201307633901 0 0.05580542710916199 0.048464683964276604 0 0.054456330848947868 0.052229296407343036 0 0.05580542710916199 0.048464683964276604 0 0.05756344400481396 0.048548484393476719 0 0.05580542710916199 0.048464683964276604 0 0.05756344400481396 0.048548484393476719 0 0.056635258053366 0.047314670014920117 0 0.05756344400481396 0.048548484393476719 0 0.057589042301413193 0.046892790058746608 0 0.056635258053366 0.047314670014920117 0 0.059151678105326462 0.047362474436780842 0 0.05756344400481396 0.048548484393476719 0 0.057589042301413193 0.046892790058746608 0 0.056568507223714114 0.046098442503873953 0 0.057589042301413193 0.046892790058746608 0 0.056614479272824592 0.046315376064071948 0 0.057589042301413193 0.046892790058746608 0 0.056614479272824592 0.046315376064071948 0 0.056635258053366 0.047314670014920117 0 0.057646005557916657 0.043747354149368957 0 0.057758652563131396 0.044110917805503073 0 0.055907733413529372 0.046559797375231138 0 0.056614479272824592 0.046315376064071948 0 0.056635258053366 0.047314670014920117 0 0.056627332606640782 0.046087560276420067 0 0.055907733413529372 0.046559797375231138 0 0.056614479272824592 0.046315376064071948 0 0.055907733413529372 0.046559797375231138 0 0.05580542710916199 0.048464683964276604 0 0.056635258053366 0.047314670014920117 0 0.023548265690319242 0.057679804589059455 0 0.021076295982136031 0.054654200921312797 0 0.027677338047197953 0.059368725134734526 0 0.027526125719884394 0.062682578495729238 0 0.02576786150815194 0.060152960933114903 0 0.030224011681210108 0.060155759239986409 0 0.028144695404407196 0.059466248691624216 0 0.027966935668924064 0.061810935563001358 0 0.030224011681210108 0.060155759239986409 0 0.030110325985309862 0.062195014553441078 0 0.027966935668924064 0.061810935563001358 0 0.030224011681210108 0.060155759239986409 0 0.032118550915870153 0.061037577764399886 0 0.030110325985309862 0.062195014553441078 0 0.030224011681210108 0.060155759239986409 0 0.029433619516511831 0.058347905659512429 0 0.031079724867637472 0.05814296260271444 0 0.030224011681210108 0.060155759239986409 0 0.029433619516511831 0.058347905659512429 0 0.028144695404407196 0.059466248691624216 0 0.023548265690319242 0.057679804589059455 0 0.024355868849959446 0.05755519640819725 0 0.029433619516511831 0.058347905659512429 0 0.028144695404407196 0.059466248691624216 0 0.028197470479962079 0.057011617371700837 0 0.027677338047197953 0.059368725134734526 0 0.028197470479962079 0.057011617371700837 0 0.025395835126490778 0.057591117115273517 0 0.028197470479962079 0.057011617371700837 0 0.028236475433144146 0.054999510545754374 0 0.030093194217807734 0.056605790299431261 0 0.028197470479962079 0.057011617371700837 0 0.028236475433144146 0.054999510545754374 0 0.026395637141730887 0.056063592249950736 0 0.028236475433144146 0.054999510545754374 0 0.030093194217807734 0.056605790299431261 0 0.031254805843277604 0.054999931711554033 0 0.029433619516511831 0.058347905659512429 0 0.028197470479962079 0.057011617371700837 0 0.030093194217807734 0.056605790299431261 0 0.029433619516511831 0.058347905659512429 0 0.030093194217807734 0.056605790299431261 0 0.031079724867637472 0.05814296260271444 0 0.031079724867637472 0.05814296260271444 0 0.032068668211276338 0.05643938796538784 0 0.032767890153490312 0.057885620183208565 0 0.030093194217807734 0.056605790299431261 0 0.031079724867637472 0.05814296260271444 0 0.032068668211276338 0.05643938796538784 0 0.031254805843277604 0.054999931711554033 0 0.032068668211276338 0.05643938796538784 0 0.03427291763089526 0.054999908704108501 0 0.030093194217807734 0.056605790299431261 0 0.031254805843277604 0.054999931711554033 0 0.032068668211276338 0.05643938796538784 0 0.032068668211276338 0.05643938796538784 0 0.03427291763089526 0.054999908704108501 0 0.033617253263347156 0.056765421557796653 0 0.033617253263347156 0.056765421557796653 0 0.032767890153490312 0.057885620183208565 0 0.03451241385477908 0.05781854961631569 0 0.032068668211276338 0.05643938796538784 0 0.033617253263347156 0.056765421557796653 0 0.032767890153490312 0.057885620183208565 0 0.032767890153490312 0.057885620183208565 0 0.033626610551854549 0.058953616251149969 0 0.03451241385477908 0.05781854961631569 0 0.033626610551854549 0.058953616251149969 0 0.033283956749451109 0.060378179075506015 0 0.034396091556850458 0.059828241848138716 0 0.033626610551854549 0.058953616251149969 0 0.032149848545353764 0.05941535861078006 0 0.033283956749451109 0.060378179075506015 0 0.032767890153490312 0.057885620183208565 0 0.033626610551854549 0.058953616251149969 0 0.032149848545353764 0.05941535861078006 0 0.030224011681210108 0.060155759239986409 0 0.031079724867637472 0.05814296260271444 0 0.032149848545353764 0.05941535861078006 0 0.031079724867637472 0.05814296260271444 0 0.032767890153490312 0.057885620183208565 0 0.032149848545353764 0.05941535861078006 0 0.030224011681210108 0.060155759239986409 0 0.032149848545353764 0.05941535861078006 0 0.032118550915870153 0.061037577764399886 0 0.032149848545353764 0.05941535861078006 0 0.032118550915870153 0.061037577764399886 0 0.033283956749451109 0.060378179075506015 0 0.032118550915870153 0.061037577764399886 0 0.033283956749451109 0.060378179075506015 0 0.033349244721439519 0.061653905245687021 0 0.033283956749451109 0.060378179075506015 0 0.03486052797681452 0.061119270922583208 0 0.033349244721439519 0.061653905245687021 0 0.033283956749451109 0.060378179075506015 0 0.034396091556850458 0.059828241848138716 0 0.03486052797681452 0.061119270922583208 0 0.031586375798180286 0.057060007954127065 0 0.031931662589837505 0.057627570764215673 0 0.034921928721084343 0.060898022182384749 0 0.036534312268516611 0.061009731121558629 0 0.035651305811086616 0.059314945261087444 0 0.034396091556850458 0.059828241848138716 0 0.03486052797681452 0.061119270922583208 0 0.035651305811086616 0.059314945261087444 0 0.036473715633332085 0.059947909470518868 0 0.036642810587284198 0.059275160173068837 0 0.035887011732723281 0.058085353282737458 0 0.03551569943565281 0.055952476263708771 0 0.036195594618102955 0.056648282099423991 0 0.036473715633332085 0.059947909470518868 0 0.036642810587284198 0.059275160173068837 0 0.037364971227644081 0.059172599305954227 0 0.036642810587284198 0.059275160173068837 0 0.035887011732723281 0.058085353282737458 0 0.036430872424311991 0.058368861285203792 0 0.03551569943565281 0.055952476263708771 0 0.035978073616554342 0.058070051139133612 0 0.036534312268516611 0.061009731121558629 0 0.035887011732723281 0.058085353282737458 0 0.035651305811086616 0.059314945261087444 0 0.036642810587284198 0.059275160173068837 0 0.036750947670352675 0.058685513957059128 0 0.03711371100597128 0.058755927510067488 0 0.036642810587284198 0.059275160173068837 0 0.036750947670352675 0.058685513957059128 0 0.036430872424311991 0.058368861285203792 0 0.036750947670352675 0.058685513957059128 0 0.036923608587157507 0.058285228915822107 0 0.03711371100597128 0.058755927510067488 0 0.036750947670352675 0.058685513957059128 0 0.036923608587157507 0.058285228915822107 0 0.036430872424311991 0.058368861285203792 0 0.035887011732723281 0.058085353282737458 0 0.034818720171598726 0.05879392385430933 0 0.03451241385477908 0.05781854961631569 0 0.035887011732723281 0.058085353282737458 0 0.035651305811086616 0.059314945261087444 0 0.034818720171598726 0.05879392385430933 0 0.033626610551854549 0.058953616251149969 0 0.034396091556850458 0.059828241848138716 0 0.034818720171598726 0.05879392385430933 0 0.034396091556850458 0.059828241848138716 0 0.035651305811086616 0.059314945261087444 0 0.034818720171598726 0.05879392385430933 0 0.033626610551854549 0.058953616251149969 0 0.034818720171598726 0.05879392385430933 0 0.03451241385477908 0.05781854961631569 0 0.033617253263347156 0.056765421557796653 0 0.03451241385477908 0.05781854961631569 0 0.035965161495962225 0.057297951519240643 0 0.035440233465631049 0.056498959038187323 0 0.036584883246316861 0.056581395424445867 0 0.033617253263347156 0.056765421557796653 0 0.03515596146741904 0.056312505729233832 0 0.036254544979038218 0.057436025809784276 0 0.035887011732723281 0.058085353282737458 0 0.03451241385477908 0.05781854961631569 0 0.035965161495962225 0.057297951519240643 0 0.03427291763089526 0.054999908704108501 0 0.037291188182391216 0.054999983281212313 0 0.036245778159589091 0.056022133143739127 0 0.03427291763089526 0.054999908704108501 0 0.03515596146741904 0.056312505729233832 0 0.036245778159589091 0.056022133143739127 0 0.03427291763089526 0.054999908704108501 0 0.033617253263347156 0.056765421557796653 0 0.03515596146741904 0.056312505729233832 0 0.03515596146741904 0.056312505729233832 0 0.036245778159589091 0.056022133143739127 0 0.036254544979038218 0.057436025809784276 0 0.036245778159589091 0.056022133143739127 0 0.036254544979038218 0.057436025809784276 0 0.038276768836227826 0.056408801966169222 0 0.037291188182391216 0.054999983281212313 0 0.036245778159589091 0.056022133143739127 0 0.038276768836227826 0.056408801966169222 0 0.036584883246316861 0.056581395424445867 0 0.038742122039824051 0.056441960296111829 0 0.036254544979038218 0.057436025809784276 0 0.038847095227473732 0.05801186642599538 0 0.038276768836227826 0.056408801966169222 0 0.036923608587157507 0.058285228915822107 0 0.035965161495962225 0.057297951519240643 0 0.037720611628853817 0.057793370296924135 0 0.035887011732723281 0.058085353282737458 0 0.036430872424311991 0.058368861285203792 0 0.035965161495962225 0.057297951519240643 0 0.036923608587157507 0.058285228915822107 0 0.036430872424311991 0.058368861285203792 0 0.035965161495962225 0.057297951519240643 0 0.038847095227473732 0.05801186642599538 0 0.038276768836227826 0.056408801966169222 0 0.040846689612928685 0.05672358256422113 0 0.037291188182391216 0.054999983281212313 0 0.038276768836227826 0.056408801966169222 0 0.040309341076205409 0.054999989552814696 0 0.038276768836227826 0.056408801966169222 0 0.040309341076205409 0.054999989552814696 0 0.040846689612928685 0.05672358256422113 0 0.041433081648903615 0.05857910737360935 0 0.038847095227473732 0.05801186642599538 0 0.040846689612928685 0.05672358256422113 0 0.041767824118694327 0.055708519666661648 0 0.038742122039824051 0.056441960296111829 0 0.038312005277397178 0.05812873322525814 0 0.038223293285614898 0.05811562767414985 0 0.038111095637891626 0.0582115299434562 0 0.038312005277397178 0.05812873322525814 0 0.037720611628853817 0.057793370296924135 0 0.038111095637891626 0.0582115299434562 0 0.038223293285614898 0.05811562767414985 0 0.038111095637891626 0.0582115299434562 0 0.038212654847540925 0.058103633239661542 0 0.037720611628853817 0.057793370296924135 0 0.038111095637891626 0.0582115299434562 0 0.037497336446112826 0.058432048494590924 0 0.036923608587157507 0.058285228915822107 0 0.037720611628853817 0.057793370296924135 0 0.037497336446112826 0.058432048494590924 0 0.036923608587157507 0.058285228915822107 0 0.037497336446112826 0.058432048494590924 0 0.03711371100597128 0.058755927510067488 0 0.037497336446112826 0.058432048494590924 0 0.03711371100597128 0.058755927510067488 0 0.037364971227644081 0.059172599305954227 0 0.038111095637891626 0.0582115299434562 0 0.038409208832798455 0.058097111327993244 0 0.038212654847540925 0.058103633239661542 0 0.038111095637891626 0.0582115299434562 0 0.037497336446112826 0.058432048494590924 0 0.037364971227644081 0.059172599305954227 0 0.036455871675558429 0.056807946699128503 0 0.036195594618102955 0.056648282099423991 0 0.038409208832798455 0.058097111327993244 0 0.038307044057437317 0.058020870489430887 0 0.038212654847540925 0.058103633239661542 0 0.036642810587284198 0.059275160173068837 0 0.03711371100597128 0.058755927510067488 0 0.037364971227644081 0.059172599305954227 0 0.038409208832798455 0.058097111327993244 0 0.038438254785478375 0.057998779282674856 0 0.038307044057437317 0.058020870489430887 0 0.038623930642437285 0.057914992779187928 0 0.038409208832798455 0.058097111327993244 0 0.038438254785478375 0.057998779282674856 0 0.038438254785478375 0.057998779282674856 0 0.038370933427015343 0.057942197148076205 0 0.038419282059552161 0.057861215236725716 0 0.038438254785478375 0.057998779282674856 0 0.038370933427015343 0.057942197148076205 0 0.038307044057437317 0.058020870489430887 0 0.038370933427015343 0.057942197148076205 0 0.038307044057437317 0.058020870489430887 0 0.038299585894850767 0.057893049565898136 0 0.038307044057437317 0.058020870489430887 0 0.038225929902037402 0.058002812826835802 0 0.038299585894850767 0.057893049565898136 0 0.038223293285614898 0.05811562767414985 0 0.038225929902037402 0.058002812826835802 0 0.038212654847540925 0.058103633239661542 0 0.038307044057437317 0.058020870489430887 0 0.038225929902037402 0.058002812826835802 0 0.038212654847540925 0.058103633239661542 0 0.038167239823659237 0.057801370702086415 0 0.038225929902037402 0.058002812826835802 0 0.038299585894850767 0.057893049565898136 0 0.038167239823659237 0.057801370702086415 0 0.038299585894850767 0.057893049565898136 0 0.038299872561904945 0.057732030451133183 0 0.038299585894850767 0.057893049565898136 0 0.038389074111693983 0.057763992985179487 0 0.038299872561904945 0.057732030451133183 0 0.038438254785478375 0.057998779282674856 0 0.038419282059552161 0.057861215236725716 0 0.038553872230746689 0.05778225900418385 0 0.038370933427015343 0.057942197148076205 0 0.038299585894850767 0.057893049565898136 0 0.038419282059552161 0.057861215236725716 0 0.038419282059552161 0.057861215236725716 0 0.038473713327404922 0.057764005043872232 0 0.038389074111693983 0.057763992985179487 0 0.038419282059552161 0.057861215236725716 0 0.038473713327404922 0.057764005043872232 0 0.038553872230746689 0.05778225900418385 0 0.038299585894850767 0.057893049565898136 0 0.038419282059552161 0.057861215236725716 0 0.038389074111693983 0.057763992985179487 0 0.038389074111693983 0.057763992985179487 0 0.038382858142391299 0.057648663870129034 0 0.038299872561904945 0.057732030451133183 0 0.038382858142391299 0.057648663870129034 0 0.038267935335734346 0.057544054652214578 0 0.038518890360918011 0.057526180367989919 0 0.038389074111693983 0.057763992985179487 0 0.038466432468942761 0.057699699101360788 0 0.038382858142391299 0.057648663870129034 0 0.038473713327404922 0.057764005043872232 0 0.038389074111693983 0.057763992985179487 0 0.038466432468942761 0.057699699101360788 0 0.038473713327404922 0.057764005043872232 0 0.038466432468942761 0.057699699101360788 0 0.038539970751490848 0.057715573970598434 0 0.03735536173777957 0.052258628703793844 0 0.037178765625118196 0.052103362141148163 0 0.038466432468942761 0.057699699101360788 0 0.038382858142391299 0.057648663870129034 0 0.038518890360918011 0.057526180367989919 0 0.038466432468942761 0.057699699101360788 0 0.038518890360918011 0.057526180367989919 0 0.038552596127913868 0.057710993852738958 0 0.038167239823659237 0.057801370702086415 0 0.038299872561904945 0.057732030451133183 0 0.038267935335734346 0.057544054652214578 0 0.049147550849780119 0.051736830332793839 0 0.048744411754507076 0.048527851564349307 0 0.038382858142391299 0.057648663870129034 0 0.038299872561904945 0.057732030451133183 0 0.038267935335734346 0.057544054652214578 0 0.052655664196352807 0.048373353161261942 0 0.048744411754507076 0.048527851564349307 0 0.063671975095043243 0.047475384824818882 0 0.064394505609488048 0.047401754289139508 0 0.063983359203877113 0.046631972766059689 0 0.048744411754507076 0.048527851564349307 0 0.048589776276781793 0.045198480848929488 0 0.064394505609488048 0.047401754289139508 0 0.063983359203877113 0.046631972766059689 0 0.064807167113980296 0.046583265322600521 0 0.063983359203877113 0.046631972766059689 0 0.064807167113980296 0.046583265322600521 0 0.064277803638703918 0.045773423364518069 0 0.054420111273469511 0.041904009874154644 0 0.046522281598210133 0.042583415614975174 0 0.064807167113980296 0.046583265322600521 0 0.064277803638703918 0.045773423364518069 0 0.065205570654241568 0.045795925979092773 0 0.045049906893892808 0.047047803754446879 0 0.045896291552833875 0.04578629972861499 0 0.04646033603732623 0.048249631890656015 0 0.03957337528543875 0.042886615840012535 0 0.039768017345730163 0.043780265556930591 0 0.039978113948266294 0.043297487218853521 0 0.045627956565351194 0.042491949087424291 0 0.040536104517555169 0.0479704364515771 0 0.046283254324742062 0.041415191078861623 0 0.044654742162217313 0.041393093450567152 0 0.046376965111699101 0.041814044182058321 0 0.045627956565351194 0.042491949087424291 0 0.0421361680417872 0.04133207692503825 0 0.0470303220623201 0.04651651714640432 0 0.043857879190563387 0.04647062186312996 0 0.046090515930676902 0.042479224717964427 0 0.045627956565351194 0.042491949087424291 0 0.046522281598210133 0.042583415614975174 0 0.045049906893892808 0.047047803754446879 0 0.045896291552833875 0.04578629972861499 0 0.045750521261520675 0.04578405877490991 0 0.048589776276781793 0.045198480848929488 0 0.046522281598210133 0.042583415614975174 0 0.048744411754507076 0.048527851564349307 0 0.040536104517555169 0.0479704364515771 0 0.044353566844847529 0.048308181298168454 0 0.045049906893892808 0.047047803754446879 0 0.04646033603732623 0.048249631890656015 0 0.040536104517555169 0.0479704364515771 0 0.036090286458002538 0.047151146204046451 0 0.04022854225700017 0.043765797418546803 0 0.039978113948266294 0.043297487218853521 0 0.040479444347467627 0.043164703456519786 0 0.039768017345730163 0.043780265556930591 0 0.04022854225700017 0.043765797418546803 0 0.039978113948266294 0.043297487218853521 0 0.0421361680417872 0.04133207692503825 0 0.033924905803463495 0.038882842291311448 0 0.039978113948266294 0.043297487218853521 0 0.039840114873820026 0.042891257429094276 0 0.040479444347467627 0.043164703456519786 0 0.0421361680417872 0.04133207692503825 0 0.034644791014315258 0.041917322222567402 0 0.03957337528543875 0.042886615840012535 0 0.039978113948266294 0.043297487218853521 0 0.039840114873820026 0.042891257429094276 0 0.03978676771208807 0.040430082585267084 0 0.033809305982298039 0.04033881045037542 0 0.034679753309544883 0.038308564835555885 0 0.030299067711983652 0.041036686303286163 0 0.030730081167347666 0.040036070654000562 0 0.028141050761539024 0.040066468529627905 0 0.033924905803463495 0.038882842291311448 0 0.034644791014315258 0.041917322222567402 0 0.034855817284735094 0.044835004618315188 0 0.033974967576746229 0.046882055796940172 0 0.031605342767268757 0.044918299886339476 0 0.036090286458002538 0.047151146204046451 0 0.034644791014315258 0.041917322222567402 0 0.036090286458002538 0.047151146204046451 0 0.029343893777712678 0.046984073286874005 0 0.033843728273462111 0.049824318952047288 0 0.033104580189483361 0.049198402285113386 0 0.031994523748215604 0.049866913306246909 0 0.033104580189483361 0.049198402285113386 0 0.034299427364300882 0.048771279927450978 0 0.03298128736335678 0.048524218468000355 0 0.03635652909254744 0.051948446854219184 0 0.032253655421705163 0.052958651135997278 0 0.033104580189483361 0.049198402285113386 0 0.03298128736335678 0.048524218468000355 0 0.032403002227799196 0.049006013861962669 0 0.036712603867209551 0.0472484419843342 0 0.037359685831641974 0.048713729511112275 0 0.037035324896407824 0.04865329642702871 0 0.036712603867209551 0.0472484419843342 0 0.037997646270593724 0.04721202673164672 0 0.037359685831641974 0.048713729511112275 0 0.036090286458002538 0.047151146204046451 0 0.03635652909254744 0.051948446854219184 0 0.033843728273462111 0.049824318952047288 0 0.033104580189483361 0.049198402285113386 0 0.034299427364300882 0.048771279927450978 0 0.040536104517555169 0.0479704364515771 0 0.037178765625118196 0.052103362141148163 0 0.037178765625118196 0.052103362141148163 0 0.036538524059218806 0.053210866506202284 0 0.03635652909254744 0.051948446854219184 0 0.036538524059218806 0.053210866506202284 0 0.036891718983004002 0.051029358031365483 0 0.036644108736921047 0.050983183954539504 0 0.036737782899694926 0.051390305551757755 0 0.03635652909254744 0.051948446854219184 0 0.037178765625118196 0.052103362141148163 0 0.038623930642437285 0.057914992779187928 0 0.038438254785478375 0.057998779282674856 0 0.038559785408253264 0.057655725222456981 0 0.035723384618437708 0.052707709520606626 0 0.035846798538972428 0.053232261616136346 0 0.035033900463233215 0.053280446025159738 0 0.03576693195303858 0.05341681719698884 0 0.035846798538972428 0.053232261616136346 0 0.035033900463233215 0.053280446025159738 0 0.036397690352047894 0.055042818100538064 0 0.036538524059218806 0.053210866506202284 0 0.038473713327404922 0.057764005043872232 0 0.038539970751490848 0.057715573970598434 0 0.038553872230746689 0.05778225900418385 0 0.03551569943565281 0.055952476263708771 0 0.036538524059218806 0.053210866506202284 0 0.03551569943565281 0.055952476263708771 0 0.032253655421705163 0.052958651135997278 0 0.031586375798180286 0.057060007954127065 0 0.031250655253499349 0.053494425978254566 0 0.034921928721084343 0.060898022182384749 0 0.036534312268516611 0.061009731121558629 0 0.03467049569191815 0.062512552104303995 0 0.034921928721084343 0.060898022182384749 0 0.03467049569191815 0.062512552104303995 0 0.034197343861920769 0.062421116997460058 0 0.032253655421705163 0.052958651135997278 0 0.031250655253499349 0.053494425978254566 0 0.031250655253499349 0.053494425978254566 0 0.02888736899147264 0.05408234498398929 0 0.03486052797681452 0.061119270922583208 0 0.034045538673263737 0.062834524758442659 0 0.033349244721439519 0.061653905245687021 0 0.028916910944753071 0.052618571280892687 0 0.028931477899404721 0.052622737062739774 0 0.028919463307343091 0.052606643568254854 0 0.034045538673263737 0.062834524758442659 0 0.033349244721439519 0.061653905245687021 0 0.032269550738427445 0.062503779339097773 0 0.032118550915870153 0.061037577764399886 0 0.033349244721439519 0.061653905245687021 0 0.032269550738427445 0.062503779339097773 0 0.02888736899147264 0.05408234498398929 0 0.025691822068487455 0.05458621262752613 0 0.024629822538575905 0.04859879583471461 0 0.023673964233990631 0.049507630710245325 0 0.022849995292025898 0.048272081239129523 0 0.029283550793327014 0.056137084857467816 0 0.02888736899147264 0.05408234498398929 0 0.032118550915870153 0.061037577764399886 0 0.032257372042015092 0.062571700643064401 0 0.030110325985309862 0.062195014553441078 0 0.024629822538575905 0.04859879583471461 0 0.023673964233990631 0.049507630710245325 0 0.024810281537752284 0.050452910490112031 0 0.02888736899147264 0.05408234498398929 0 0.028624515611747996 0.049310048019602176 0 0.023673964233990631 0.049507630710245325 0 0.023776726221412116 0.050389268091204059 0 0.024810281537752284 0.050452910490112031 0 0.029955281299730494 0.049100674630007599 0 0.029689358833353809 0.049651086287653558 0 0.029499640716176875 0.049473640929080971 0 0.028931477899404721 0.052622737062739774 0 0.028919463307343091 0.052606643568254854 0 0.028928563038903617 0.05259200566528565 0 0.03055506377283989 0.051118035981570845 0 0.028624515611747996 0.049310048019602176 0 0.033104580189483361 0.049198402285113386 0 0.032403002227799196 0.049006013861962669 0 0.031994523748215604 0.049866913306246909 0 0.03055506377283989 0.051118035981570845 0 0.029343893777712678 0.046984073286874005 0 0.032253655421705163 0.052958651135997278 0 0.03055506377283989 0.051118035981570845 0 0.031250655253499349 0.053494425978254566 0 0.03055506377283989 0.051118035981570845 0 0.029966112066806515 0.052236089254165397 0 0.03016828586086517 0.052273078100596823 0 0.030327803488462039 0.051923734973476257 0 0.033974967576746229 0.046882055796940172 0 0.031605342767268757 0.044918299886339476 0 0.031214008699420714 0.045747874237807996 0 0.029689358833353809 0.049651086287653558 0 0.029515917350066187 0.049655253009614653 0 0.029499640716176875 0.049473640929080971 0 0.029343893777712678 0.046984073286874005 0 0.02807600539893515 0.046984733027832661 0 0.027941414836864853 0.047832498826976183 0 0.02825040594879806 0.047167288227344166 0 0.028314600507255136 0.047821900761579827 0 0.029343893777712678 0.046984073286874005 0 0.028483458066756919 0.044501623798690222 0 0.028483458066756919 0.044501623798690222 0 0.02807600539893515 0.046984733027832661 0 0.033924905803463495 0.038882842291311448 0 0.025296009949291643 0.03758209903485777 0 0.034644791014315258 0.041917322222567402 0 0.028483458066756919 0.044501623798690222 0 0.030730081167347666 0.040036070654000562 0 0.027663302255389682 0.038782563360899115 0 0.028141050761539024 0.040066468529627905 0 0.030299067711983652 0.041036686303286163 0 0.028141050761539024 0.040066468529627905 0 0.027875892234687037 0.040999371597758183 0 0.027663302255389682 0.038782563360899115 0 0.028141050761539024 0.040066468529627905 0 0.027841665152125196 0.040679296833600373 0 0.028483458066756919 0.044501623798690222 0 0.025199033940606463 0.038070104728710613 0 0.025221423156571152 0.038118914490790808 0 0.025199033940606463 0.038070104728710613 0 0.028141050761539024 0.040066468529627905 0 0.027845219430003437 0.040676643554030792 0 0.027875892234687037 0.040999371597758183 0 0.02522365147811674 0.038010761450665238 0 0.024882852033097605 0.034441294432262556 0 0.026929621030268018 0.03447087896818702 0 0.025199033940606463 0.038070104728710613 0 0.024530611850877276 0.037535569757926011 0 0.025199033940606463 0.038070104728710613 0 0.025296009949291643 0.03758209903485777 0 0.025296009949291643 0.03758209903485777 0 0.024530611850877276 0.037535569757926011 0 0.022638230072839594 0.042539705474762629 0 0.021467236833217912 0.041470554452844546 0 0.020735693493765882 0.04161150986422972 0 0.024530611850877276 0.037535569757926011 0 0.015438954357769794 0.036417856853092068 0 0.022638230072839594 0.042539705474762629 0 0.020735693493765882 0.04161150986422972 0 0.020061132844587704 0.042495580462835643 0 0.022782172568921129 0.042246412701524808 0 0.022638230072839594 0.042539705474762629 0 0.022092117155125546 0.041630762820951926 0 0.022638230072839594 0.042539705474762629 0 0.022092117155125546 0.041630762820951926 0 0.021467236833217912 0.041470554452844546 0 0.022634447484777668 0.04050225049318433 0 0.022782172568921129 0.042246412701524808 0 0.022092117155125546 0.041630762820951926 0 0.028483458066756919 0.044501623798690222 0 0.028217665151098408 0.044319135968851182 0 0.022613985788211562 0.040517003439931129 0 0.022092117155125546 0.041630762820951926 0 0.021732941783908496 0.040777451347438411 0 0.022092117155125546 0.041630762820951926 0 0.021467236833217912 0.041470554452844546 0 0.021732941783908496 0.040777451347438411 0 0.021467236833217912 0.041470554452844546 0 0.021069969767883029 0.040967763232455413 0 0.021732941783908496 0.040777451347438411 0 0.021069969767883029 0.040967763232455413 0 0.020418213876436463 0.040544771264161464 0 0.020735693493765882 0.04161150986422972 0 0.021467236833217912 0.041470554452844546 0 0.021069969767883029 0.040967763232455413 0 0.020735693493765882 0.04161150986422972 0 0.021227512319105662 0.040343900731547276 0 0.022535773237497624 0.039688623162754261 0 0.020378870556807795 0.039741270988403014 0 0.021069969767883029 0.040967763232455413 0 0.021227512319105662 0.040343900731547276 0 0.020418213876436463 0.040544771264161464 0 0.02807600539893515 0.046984733027832661 0 0.021522571062248329 0.045681672550101964 0 0.02485401309330524 0.050846091956053982 0 0.024497985245991439 0.05071439806293105 0 0.023168608302460945 0.05089402921254603 0 0.021069969767883029 0.040967763232455413 0 0.021227512319105662 0.040343900731547276 0 0.021732941783908496 0.040777451347438411 0 0.021227512319105662 0.040343900731547276 0 0.021732941783908496 0.040777451347438411 0 0.022535773237497624 0.039688623162754261 0 0.022613985788211562 0.040517003439931129 0 0.021732941783908496 0.040777451347438411 0 0.022535773237497624 0.039688623162754261 0 0.023776726221412116 0.050389268091204059 0 0.024497985245991439 0.05071439806293105 0 0.024810281537752284 0.050452910490112031 0 0.02485401309330524 0.050846091956053982 0 0.024497985245991439 0.05071439806293105 0 0.024820320443431174 0.050441209419143436 0 0.02807600539893515 0.046984733027832661 0 0.028624515611747996 0.049310048019602176 0 0.028517469337890806 0.049383148748756531 0 0.028624515611747996 0.049310048019602176 0 0.023776726221412116 0.050389268091204059 0 0.024497985245991439 0.05071439806293105 0 0.023168608302460945 0.05089402921254603 0 0.020418213876436463 0.040544771264161464 0 0.019551481543025179 0.04249585976075012 0 0.018227133939609119 0.039807168793432282 0 0.020378870556807795 0.039741270988403014 0 0.020418213876436463 0.040544771264161464 0 0.018227133939609119 0.039807168793432282 0 0.021522571062248329 0.045681672550101964 0 0.014614029607027214 0.044492131343854213 0 0.023168608302460945 0.05089402921254603 0 0.021491790810433342 0.050936874169509178 0 0.022503217794418523 0.04981216901044621 0 0.021227512319105662 0.040343900731547276 0 0.020378870556807795 0.039741270988403014 0 0.020418213876436463 0.040544771264161464 0 0.020418213876436463 0.040544771264161464 0 0.019551481543025179 0.04249585976075012 0 0.020038464622095211 0.042501249326563469 0 0.015809810948039755 0.037911107270690116 0 0.015438954357769794 0.036417856853092068 0 0.020418213876436463 0.040544771264161464 0 0.020735693493765882 0.04161150986422972 0 0.020061132844587704 0.042495580462835643 0 0.014008092589789158 0.036456804007703139 0 0.015438954357769794 0.036417856853092068 0 -0.0050748156728034222 0.033636341845063172 0 0.00024508759279372416 0.037085730891769079 0 -0.00031407662878977827 0.043438873865471204 0 0.014008092589789158 0.036456804007703139 0 0.010544819765381306 0.034900972614632576 0 0.014008092589789158 0.036456804007703139 0 0.014614029607027214 0.044492131343854213 0 -0.0050748156728034222 0.033636341845063172 0 0.00024508759279372416 0.037085730891769079 0 0.0056940999440441894 0.033726136219560068 0 0.00024508759279372416 0.037085730891769079 0 0.0034742760989302517 0.040590507619671964 0 0.0056940999440441894 0.033726136219560068 0 0.00024508759279372416 0.037085730891769079 0 0.0034742760989302517 0.040590507619671964 0 -0.00031407662878977827 0.043438873865471204 0 -3.2332588357251023e-05 0.044284560616113203 0 0.0030986854792020469 0.04518084388349522 0 0.0079980942477060751 0.044055297242050942 0 0.014614029607027214 0.044492131343854213 0 0.011100400839810311 0.044290403967319196 0 0.0034742760989302517 0.040590507619671964 0 -0.00031407662878977827 0.043438873865471204 0 0.0074202182735431136 0.043358981311512584 0 -3.2332588357251023e-05 0.044284560616113203 0 0.0030986854792020469 0.04518084388349522 0 0.0027467780976902132 0.049901215518805719 0 0.014614029607027214 0.044492131343854213 0 0.015376928767819844 0.049066151938554889 0 0.021491790810433342 0.050936874169509178 0 0.020921828714914385 0.049774387786307821 0 0.022503217794418523 0.04981216901044621 0 0.020921828714914385 0.049774387786307821 0 0.022503217794418523 0.04981216901044621 0 0.021837041743791492 0.048952592104420038 0 0.0025969995439895435 0.049984213928903627 0 0.0032462203735853733 0.051326116384884601 0 0.0018086868775513691 0.059403659436747497 0 0.0030986854792020469 0.04518084388349522 0 0.0026281300090876861 0.05001066577917905 0 0.0049993588243133135 0.04771484555176915 0 0.014800088542484378 0.048806017415582541 0 0.015376928767819844 0.049066151938554889 0 0.0026281300090876861 0.05001066577917905 0 0.0032462203735853733 0.051326116384884601 0 0.0055964358580586774 0.051097724054335776 0 0.015376928767819844 0.049066151938554889 0 0.015303581120235884 0.04903135788687317 0 0.023673964233990631 0.049507630710245325 0 0.022503217794418523 0.04981216901044621 0 0.022849995292025898 0.048272081239129523 0 0.023776726221412116 0.050389268091204059 0 0.023168608302460945 0.05089402921254603 0 0.022503217794418523 0.04981216901044621 0 0.023673964233990631 0.049507630710245325 0 0.023776726221412116 0.050389268091204059 0 0.022503217794418523 0.04981216901044621 0 0.022503217794418523 0.04981216901044621 0 0.022849995292025898 0.048272081239129523 0 0.021837041743791492 0.048952592104420038 0 0.022849995292025898 0.048272081239129523 0 0.021837041743791492 0.048952592104420038 0 0.021074550378578243 0.047951939447697572 0 0.015376928767819844 0.049066151938554889 0 0.021076295982136031 0.054654200921312797 0 0.025691822068487455 0.05458621262752613 0 0.021076295982136031 0.054654200921312797 0 0.020921828714914385 0.049774387786307821 0 0.021837041743791492 0.048952592104420038 0 0.021074550378578243 0.047951939447697572 0 0.0032462203735853733 0.051326116384884601 0 0.0018086868775513691 0.059403659436747497 0 0.0044845766577087491 0.0543204380390001 0 0.0097191715936472359 0.024083720697407447 0 0.0081881090272161797 0.025860737779868751 0 0.010186560557652841 0.022630595896395149 0 0.0097191715936472359 0.024083720697407447 0 0.010518400726243739 0.024837707484243691 0 0.011257473544025315 0.023339099840965681 0 0.0097191715936472359 0.024083720697407447 0 0.010531095534553602 0.023060974906250292 0 0.011257473544025315 0.023339099840965681 0 0.010531095534553602 0.023060974906250292 0 0.010924711669215419 0.02236076320574908 0 0.011257473544025315 0.023339099840965681 0 0.0097191715936472359 0.024083720697407447 0 0.010531095534553602 0.023060974906250292 0 0.010186560557652841 0.022630595896395149 0 0.0098051375770887034 0.023254478191174207 0 0.0094376214837226628 0.022721065915174768 0 0.0097904517138970495 0.022376845900938889 0 0.012186657229800812 0.027492911919241598 0 0.011718655284233843 0.025152891251379463 0 0.0089029950290062249 0.024621455182201022 0 0.010186560557652841 0.022630595896395149 0 0.010269876070144766 0.022131495338425539 0 0.0098051375770887034 0.023254478191174207 0 0.0097904517138970495 0.022376845900938889 0 0.010269876070144766 0.022131495338425539 0 0.0091040978742328183 0.024668694869706784 0 0.0089029950290062249 0.024621455182201022 0 0.010186560557652841 0.022630595896395149 0 0.017332313607811681 0.029229705512468736 0 0.01580494781303049 0.02645093385895933 0 0.0091040978742328183 0.024668694869706784 0 0.0096936352137530248 0.025584086631856958 0 0.010186560557652841 0.022630595896395149 0 0.0088988479499698837 0.024627225218419518 0 0.0096936352137530248 0.025584086631856958 0 0.0079840259572281219 0.026492019631377987 0 0.017332313607811681 0.029229705512468736 0 0.018768767882339169 0.032247120315529398 0 0.0091040978742328183 0.024668694869706784 0 0.0088988479499698837 0.024627225218419518 0 0.0096936352137530248 0.025584086631856958 0 0.017277696419609485 0.029214697750738379 0 0.017332313607811681 0.029229705512468736 0 0.0081881090272161797 0.025860737779868751 0 0.0095410842227576301 0.025251644281398485 0 0.0097720276437636439 0.026392633212710209 0 0.0097191715936472359 0.024083720697407447 0 0.0081881090272161797 0.025860737779868751 0 0.0095410842227576301 0.025251644281398485 0 0.0097191715936472359 0.024083720697407447 0 0.0095410842227576301 0.025251644281398485 0 0.010518400726243739 0.024837707484243691 0 0.0095410842227576301 0.025251644281398485 0 0.010518400726243739 0.024837707484243691 0 0.0097720276437636439 0.026392633212710209 0 0.010518400726243739 0.024837707484243691 0 0.0097720276437636439 0.026392633212710209 0 0.01162965328338726 0.026176859894916232 0 0.0081881090272161797 0.025860737779868751 0 0.0097720276437636439 0.026392633212710209 0 0.0087985881453039802 0.028476488961775823 0 0.0097720276437636439 0.026392633212710209 0 0.010552382388664948 0.028689311945988148 0 0.01162965328338726 0.026176859894916232 0 0.0097720276437636439 0.026392633212710209 0 0.0087985881453039802 0.028476488961775823 0 0.010552382388664948 0.028689311945988148 0 0.0073612978483848547 0.031676563980705071 0 0.008968193797448263 0.030323055125207256 0 0.011281098694172488 0.032076187258998787 0 0.010552382388664948 0.028689311945988148 0 0.008968193797448263 0.030323055125207256 0 0.011281098694172488 0.032076187258998787 0 0.0087985881453039802 0.028476488961775823 0 0.010552382388664948 0.028689311945988148 0 0.008968193797448263 0.030323055125207256 0 0.014595470122596738 0.034641223185038997 0 0.018768767882339169 0.032247120315529398 0 0.015212999654674323 0.037979849259233603 0 0.014555515168416038 0.037970013603095279 0 0.014734662632453819 0.03699768128167339 0 0.015438954357769794 0.036417856853092068 0 0.014595470122596738 0.034641223185038997 0 0.0073612978483848547 0.031676563980705071 0 0.008968193797448263 0.030323055125207256 0 0.0068597310508556894 0.030686054974486537 0 0.014008092589789158 0.036456804007703139 0 0.014595470122596738 0.034641223185038997 0 0.0087985881453039802 0.028476488961775823 0 0.008968193797448263 0.030323055125207256 0 0.0068597310508556894 0.030686054974486537 0 0.0081881090272161797 0.025860737779868751 0 0.0087985881453039802 0.028476488961775823 0 0.0068597310508556894 0.030686054974486537 0 0.0096936352137530248 0.025584086631856958 0 0.0091409126696658082 0.02885975373070223 0 0.0079840259572281219 0.026492019631377987 0 0.012186657229800812 0.027492911919241598 0 0.014595470122596738 0.034641223185038997 0 0.023156563639853637 0.031981351436701 0 0.021602540744737917 0.032813168061962952 0 0.022710333896473863 0.031078272313693926 0 0.018768767882339169 0.032247120315529398 0 0.01899434933670862 0.032314702531427902 0 0.018609336785006987 0.037012083364977501 0 0.020063576923097511 0.03663666337791751 0 0.019419332016069803 0.03530528933591149 0 0.024530611850877276 0.037535569757926011 0 0.018768767882339169 0.032247120315529398 0 0.018609336785006987 0.037012083364977501 0 0.019991257425716929 0.037029353937238822 0 0.020063576923097511 0.03663666337791751 0 0.02192121176866425 0.034596717778779248 0 0.023156563639853637 0.031981351436701 0 0.021602540744737917 0.032813168061962952 0 0.021779010060249019 0.034594948751964644 0 0.02192121176866425 0.034596717778779248 0 0.021602540744737917 0.032813168061962952 0 0.026922316902885768 0.038857702697289734 0 0.029821924287584969 0.038897988467164177 0 0.028808181005084785 0.037579175376095356 0 0.026922316902885768 0.038857702697289734 0 0.028808181005084785 0.037579175376095356 0 0.028099798419483322 0.036068373350613421 0 0.029821924287584969 0.038897988467164177 0 0.028808181005084785 0.037579175376095356 0 0.029557313326561602 0.036088654407664823 0 0.025296009949291643 0.03758209903485777 0 0.026109383873504775 0.034434209681062977 0 0.028808181005084785 0.037579175376095356 0 0.028099798419483322 0.036068373350613421 0 0.029557313326561602 0.036088654407664823 0 0.031120575021981928 0.034661073530007643 0 0.027079888302857753 0.031317795877468961 0 0.039077616646484133 0.033630474282217389 0 0.03841880220717854 0.035109033536466536 0 0.039267838303232938 0.034669865790898605 0 0.021602540744737917 0.032813168061962952 0 0.021436667244966189 0.031040076770417521 0 0.022710333896473863 0.031078272313693926 0 0.028099798419483322 0.036068373350613421 0 0.029557313326561602 0.036088654407664823 0 0.029282961141684844 0.03326859860185933 0 0.026109383873504775 0.034434209681062977 0 0.027079888302857753 0.031317795877468961 0 0.039142698307124392 0.035345141901284897 0 0.03841880220717854 0.035109033536466536 0 0.039267838303232938 0.034669865790898605 0 0.039142698307124392 0.035345141901284897 0 0.03841880220717854 0.035109033536466536 0 0.038506546480308511 0.036126788980205979 0 0.039142698307124392 0.035345141901284897 0 0.038982521305320025 0.036217966489605638 0 0.038506546480308511 0.036126788980205979 0 0.027079888302857753 0.031317795877468961 0 0.027690391784843831 0.028953404598673394 0 0.028719032075221362 0.026310319978176108 0 0.026813671194417254 0.030771745822712582 0 0.026346015019217791 0.025864932435013567 0 0.024289006185392738 0.028550808901020179 0 0.027079888302857753 0.031317795877468961 0 0.017332313607811681 0.029229705512468736 0 0.024289006185392738 0.028550808901020179 0 0.023904814187318574 0.030342724154086339 0 0.021904000266252496 0.029959173244008697 0 0.022710333896473863 0.031078272313693926 0 0.023904814187318574 0.030342724154086339 0 0.023129584435129049 0.031948107093402948 0 0.022710333896473863 0.031078272313693926 0 0.021904000266252496 0.029959173244008697 0 0.021436667244966189 0.031040076770417521 0 0.022710333896473863 0.031078272313693926 0 0.0088889120967263913 0.023093047769998116 0 0.0094376214837226628 0.022721065915174768 0 0.0091330881873049191 0.022447971921239596 0 0.024289006185392738 0.028550808901020179 0 0.021630690011693085 0.027019471441782874 0 0.0098051375770887034 0.023254478191174207 0 0.0088889120967263913 0.023093047769998116 0 0.0094376214837226628 0.022721065915174768 0 0.0094376214837226628 0.022721065915174768 0 0.0091330881873049191 0.022447971921239596 0 0.0094655777105276361 0.022265397075963481 0 0.0094376214837226628 0.022721065915174768 0 0.0094655777105276361 0.022265397075963481 0 0.0097904517138970495 0.022376845900938889 0 0.040740413007473227 0.027430173901612499 0 0.04067101592443674 0.027512007002438197 0 0.040566011737212096 0.027336738087110297 0 0.027378625525286505 0.027469868457149063 0 0.030864300071205695 0.028718239523285914 0 0.030864300071205695 0.028718239523285914 0 0.027690391784843831 0.028953404598673394 0 0.027260537067289727 0.027600919596486733 0 0.024424459070842081 0.030911929768604594 0 0.027634783877710647 0.031514808169797251 0 0.02298469214213382 0.02789789494193378 0 0.023219270640592825 0.027318810243303474 0 0.022722940122871561 0.027576668222546296 0 0.024289006185392738 0.028550808901020179 0 0.027690391784843831 0.028953404598673394 0 0.02298469214213382 0.02789789494193378 0 0.022722940122871561 0.027576668222546296 0 0.022750308982376028 0.027854476781837396 0 0.027378625525286505 0.027469868457149063 0 0.027690391784843831 0.028953404598673394 0 0.04067101592443674 0.027512007002438197 0 0.040566011737212096 0.027336738087110297 0 0.040403050338388195 0.027458854374388171 0 0.030864300071205695 0.028718239523285914 0 0.041349034748668467 0.030402703952389372 0 0.041349034748668467 0.030402703952389372 0 0.05286464108506999 0.031540371300810298 0 0.040824578241366191 0.036559421938805341 0 0.041992949422172368 0.034713885271021025 0 0.042637002592035345 0.036898860653302487 0 0.040824578241366191 0.036559421938805341 0 0.040436879301082536 0.03459424092125242 0 0.041992949422172368 0.034713885271021025 0 0.039142698307124392 0.035345141901284897 0 0.038982521305320025 0.036217966489605638 0 0.040436879301082536 0.03459424092125242 0 0.030864300071205695 0.028718239523285914 0 0.033308878088727283 0.029916597660164374 0 0.039022004237385929 0.036209187724083602 0 0.040824578241366191 0.036559421938805341 0 0.040436879301082536 0.03459424092125242 0 0.039142698307124392 0.035345141901284897 0 0.039267838303232938 0.034669865790898605 0 0.040436879301082536 0.03459424092125242 0 0.039077616646484133 0.033630474282217389 0 0.039267838303232938 0.034669865790898605 0 0.040436879301082536 0.03459424092125242 0 0.039077616646484133 0.033630474282217389 0 0.040436879301082536 0.03459424092125242 0 0.040944125571626896 0.03380068032207599 0 0.033924905803463495 0.038882842291311448 0 0.031120575021981928 0.034661073530007643 0 0.039726919987953108 0.032154047303551835 0 0.039077616646484133 0.033630474282217389 0 0.040683243682075272 0.032899146968477309 0 0.039077616646484133 0.033630474282217389 0 0.040683243682075272 0.032899146968477309 0 0.040944125571626896 0.03380068032207599 0 0.041658217995784542 0.03219120915053688 0 0.039726919987953108 0.032154047303551835 0 0.040683243682075272 0.032899146968477309 0 0.041658217995784542 0.03219120915053688 0 0.041752421739471447 0.032770692216244797 0 0.040683243682075272 0.032899146968477309 0 0.040683243682075272 0.032899146968477309 0 0.041803667637433761 0.033386055906700296 0 0.040944125571626896 0.03380068032207599 0 0.041752421739471447 0.032770692216244797 0 0.040683243682075272 0.032899146968477309 0 0.041803667637433761 0.033386055906700296 0 0.040436879301082536 0.03459424092125242 0 0.040944125571626896 0.03380068032207599 0 0.041992949422172368 0.034713885271021025 0 0.041803667637433761 0.033386055906700296 0 0.040944125571626896 0.03380068032207599 0 0.041992949422172368 0.034713885271021025 0 0.041803667637433761 0.033386055906700296 0 0.041992949422172368 0.034713885271021025 0 0.042445734421018094 0.033544007849585097 0 0.041992949422172368 0.034713885271021025 0 0.04309679411747773 0.033905112151244053 0 0.043645870331504411 0.035155581666074555 0 0.041992949422172368 0.034713885271021025 0 0.04309679411747773 0.033905112151244053 0 0.042445734421018094 0.033544007849585097 0 0.045873990402254927 0.039962837872246061 0 0.045679032033272296 0.041171941107339939 0 0.041803667637433761 0.033386055906700296 0 0.042445734421018094 0.033544007849585097 0 0.042480894686271899 0.032684333239388144 0 0.0530789021177877 0.040381984243786362 0 0.049860405600757246 0.040339279592068816 0 0.049721258729928698 0.041021052096639858 0 0.04309679411747773 0.033905112151244053 0 0.042445734421018094 0.033544007849585097 0 0.042480894686271899 0.032684333239388144 0 0.041658217995784542 0.03219120915053688 0 0.041752421739471447 0.032770692216244797 0 0.04240018142606692 0.032507156507250431 0 0.0421361680417872 0.04133207692503825 0 0.045679032033272296 0.041171941107339939 0 0.044654742162217313 0.041393093450567152 0 0.046376965111699101 0.041814044182058321 0 0.046452554487339766 0.042135472976384029 0 0.049860405600757246 0.040339279592068816 0 0.049649438287127028 0.040714934158919497 0 0.049721258729928698 0.041021052096639858 0 0.041752421739471447 0.032770692216244797 0 0.041803667637433761 0.033386055906700296 0 0.04240018142606692 0.032507156507250431 0 0.046522281598210133 0.042583415614975174 0 0.045936432688443801 0.042109498393296682 0 0.041803667637433761 0.033386055906700296 0 0.042480894686271899 0.032684333239388144 0 0.042437151517928956 0.032490144860619158 0 0.045627956565351194 0.042491949087424291 0 0.045936432688443801 0.042109498393296682 0 0.045936432688443801 0.042109498393296682 0 0.045679032033272296 0.041171941107339939 0 0.045656420588091662 0.041087524767151315 0 0.045679032033272296 0.041171941107339939 0 0.0530789021177877 0.040381984243786362 0 0.049721258729928698 0.041021052096639858 0 0.054763959735355951 0.043102893117715799 0 0.04309679411747773 0.033905112151244053 0 0.042480894686271899 0.032684333239388144 0 0.044668745788924005 0.033408118628350456 0 0.042480894686271899 0.032684333239388144 0 0.042435325659521406 0.032489558616437084 0 0.044668745788924005 0.033408118628350456 0 0.045679032033272296 0.041171941107339939 0 0.055680995700833326 0.038069653631872563 0 0.054264861366913934 0.034976279741883033 0 0.055680995700833326 0.038069653631872563 0 0.04309679411747773 0.033905112151244053 0 0.043645870331504411 0.035155581666074555 0 0.044668745788924005 0.033408118628350456 0 0.054264861366913934 0.034976279741883033 0 0.05286464108506999 0.031540371300810298 0 0.065285223546580382 0.035259811483537379 0 0.066105074356515969 0.033759829208719019 0 0.064704325740903498 0.034473372497422508 0 0.041992949422172368 0.034713885271021025 0 0.043645870331504411 0.035155581666074555 0 0.042637002592035345 0.036898860653302487 0 0.05286464108506999 0.031540371300810298 0 0.06154168602562033 0.032991891430188582 0 0.066105074356515969 0.033759829208719019 0 0.064705915546483417 0.03348950254502104 0 0.064704325740903498 0.034473372497422508 0 0.066181844436083839 0.03351841718075145 0 0.067540921554699387 0.031940091998675986 0 0.065356124694993051 0.031253870113661798 0 0.068344329615282029 0.033924956022682376 0 0.066181844436083839 0.03351841718075145 0 0.067540921554699387 0.031940091998675986 0 0.068344329615282029 0.033924956022682376 0 0.067540921554699387 0.031940091998675986 0 0.06984880466319672 0.031309304762843451 0 0.05286464108506999 0.031540371300810298 0 0.051808997252483481 0.027893781400890109 0 0.067540921554699387 0.031940091998675986 0 0.067008653059124332 0.029639146669995821 0 0.06984880466319672 0.031309304762843451 0 0.067540921554699387 0.031940091998675986 0 0.067008653059124332 0.029639146669995821 0 0.065356124694993051 0.031253870113661798 0 0.067008653059124332 0.029639146669995821 0 0.067316539529853114 0.027604639556473971 0 0.068936720501121554 0.028426459711624979 0 0.067008653059124332 0.029639146669995821 0 0.067316539529853114 0.027604639556473971 0 0.066034797369720052 0.02767302699556232 0 0.067316539529853114 0.027604639556473971 0 0.066385110111038356 0.026615144963826852 0 0.067290183569111497 0.026275503252446986 0 0.067316539529853114 0.027604639556473971 0 0.066034797369720052 0.02767302699556232 0 0.066385110111038356 0.026615144963826852 0 0.067316539529853114 0.027604639556473971 0 0.068936720501121554 0.028426459711624979 0 0.068122423721271128 0.02642212695293918 0 0.068936720501121554 0.028426459711624979 0 0.068122423721271128 0.02642212695293918 0 0.069978141967972501 0.026673424457664314 0 0.067008653059124332 0.029639146669995821 0 0.068936720501121554 0.028426459711624979 0 0.06984880466319672 0.031309304762843451 0 0.040483587362731756 0.02667289771786497 0 0.040551490913828585 0.026781100366938409 0 0.040301380746218148 0.027055163362658907 0 0.068936720501121554 0.028426459711624979 0 0.071328471956475126 0.028677884251157169 0 0.06984880466319672 0.031309304762843451 0 0.047348668755446861 0.025040918121399629 0 0.051808997252483481 0.027893781400890109 0 0.047348668755446861 0.025040918121399629 0 0.054892152142186977 0.024492912457853153 0 0.068936720501121554 0.028426459711624979 0 0.071328471956475126 0.028677884251157169 0 0.069978141967972501 0.026673424457664314 0 0.046446066090096071 0.019544106808011587 0 0.04730104745998872 0.020751057057895636 0 0.046353812920857086 0.021049839500909058 0 0.047348668755446861 0.025040918121399629 0 0.036887212533175846 0.023579935968867385 0 0.040447207011321651 0.026641637946932799 0 0.040722144621084096 0.026675554076400397 0 0.040670441737562263 0.026196400101631191 0 0.046446066090096071 0.019544106808011587 0 0.046353812920857086 0.021049839500909058 0 0.045575424603527877 0.021023525133112096 0 0.040447207011321651 0.026641637946932799 0 0.040551490913828585 0.026781100366938409 0 0.040722144621084096 0.026675554076400397 0 0.047348668755446861 0.025040918121399629 0 0.046996541872172046 0.024911104693773767 0 0.040551490913828585 0.026781100366938409 0 0.04053632793929042 0.027065576578029511 0 0.040729706209170824 0.027077084946641277 0 0.040551490913828585 0.026781100366938409 0 0.04053632793929042 0.027065576578029511 0 0.040301380746218148 0.027055163362658907 0 0.040566011737212096 0.027336738087110297 0 0.040403050338388195 0.027458854374388171 0 0.040301380746218148 0.027055163362658907 0 0.040403050338388195 0.027458854374388171 0 0.040140080680534422 0.027408668875094515 0 0.040301380746218148 0.027055163362658907 0 0.040566011737212096 0.027336738087110297 0 0.04053632793929042 0.027065576578029511 0 0.040301380746218148 0.027055163362658907 0 0.040566011737212096 0.027336738087110297 0 0.04053632793929042 0.027065576578029511 0 0.040729706209170824 0.027077084946641277 0 0.027378625525286505 0.027469868457149063 0 0.028737757611809366 0.023847555941472427 0 0.040740413007473227 0.027430173901612499 0 0.040566011737212096 0.027336738087110297 0 0.040729706209170824 0.027077084946641277 0 0.012772008356366046 0.018935702857866048 0 0.012686428224003336 0.019025366471270018 0 0.012754364741123856 0.019117754751290232 0 0.012686428224003336 0.019025366471270018 0 0.01265042665741953 0.019087960383477039 0 0.012754364741123856 0.019117754751290232 0 0.027378625525286505 0.027469868457149063 0 0.020200901531020981 0.025844896908946594 0 0.012772008356366046 0.018935702857866048 0 0.012686428224003336 0.019025366471270018 0 0.012554552203484056 0.019077645829775898 0 0.023219270640592825 0.027318810243303474 0 0.022722940122871561 0.027576668222546296 0 0.023452217085632488 0.026741545195485574 0 0.0091330881873049191 0.022447971921239596 0 0.0094655777105276361 0.022265397075963481 0 0.0093307437895732009 0.02174578828002444 0 0.021630690011693085 0.027019471441782874 0 0.020200901531020981 0.025844896908946594 0 0.0094655777105276361 0.022265397075963481 0 0.0093307437895732009 0.02174578828002444 0 0.009622656937874766 0.021993190741082712 0 0.012686428224003336 0.019025366471270018 0 0.012624960564071292 0.019075654050552723 0 0.01265042665741953 0.019087960383477039 0 0.012686428224003336 0.019025366471270018 0 0.012554552203484056 0.019077645829775898 0 0.012624960564071292 0.019075654050552723 0 0.012624960564071292 0.019075654050552723 0 0.01265042665741953 0.019087960383477039 0 0.012601790800004745 0.01910936839351535 0 0.012554552203484056 0.019077645829775898 0 0.012624960564071292 0.019075654050552723 0 0.012601790800004745 0.01910936839351535 0 0.012601790800004745 0.01910936839351535 0 0.012633650962165463 0.019139865932048052 0 0.012535783254302154 0.019181049459553963 0 0.01265042665741953 0.019087960383477039 0 0.012601790800004745 0.01910936839351535 0 0.012633650962165463 0.019139865932048052 0 0.012554552203484056 0.019077645829775898 0 0.012601790800004745 0.01910936839351535 0 0.012535783254302154 0.019181049459553963 0 0.012633650962165463 0.019139865932048052 0 0.012535783254302154 0.019181049459553963 0 0.012623371453486409 0.019238733255472835 0 0.012633650962165463 0.019139865932048052 0 0.012754364741123856 0.019117754751290232 0 0.012623371453486409 0.019238733255472835 0 0.012754364741123856 0.019117754751290232 0 0.01275437615216801 0.019333538459469432 0 0.012623371453486409 0.019238733255472835 0 0.028737757611809366 0.023847555941472427 0 0.031438853709417916 0.023052354330290951 0 0.01265042665741953 0.019087960383477039 0 0.012633650962165463 0.019139865932048052 0 0.012754364741123856 0.019117754751290232 0 0.040551490913828585 0.026781100366938409 0 0.040729706209170824 0.027077084946641277 0 0.040722144621084096 0.026675554076400397 0 0.01275437615216801 0.019333538459469432 0 0.012585968120395728 0.019409619310171503 0 0.012623371453486409 0.019238733255472835 0 0.031438853709417916 0.023052354330290951 0 0.036887212533175846 0.023579935968867385 0 0.01275437615216801 0.019333538459469432 0 0.012585968120395728 0.019409619310171503 0 0.012752131260046805 0.019540483342593187 0 0.012585968120395728 0.019409619310171503 0 0.012489739707456033 0.01931150883515995 0 0.012381231308402164 0.019496854445550937 0 0.012585968120395728 0.019409619310171503 0 0.012381231308402164 0.019496854445550937 0 0.01258242800914562 0.01954396865624344 0 0.012585968120395728 0.019409619310171503 0 0.012489739707456033 0.01931150883515995 0 0.012623371453486409 0.019238733255472835 0 0.012535783254302154 0.019181049459553963 0 0.012489739707456033 0.01931150883515995 0 0.012623371453486409 0.019238733255472835 0 0.012489739707456033 0.01931150883515995 0 0.012301949983489791 0.019247089130301265 0 0.012381231308402164 0.019496854445550937 0 0.012535783254302154 0.019181049459553963 0 0.012489739707456033 0.01931150883515995 0 0.012301949983489791 0.019247089130301265 0 0.015563886112480984 0.023161808007498817 0 0.014525372718928384 0.022221439638680705 0 0.012301949983489791 0.019247089130301265 0 0.012381231308402164 0.019496854445550937 0 0.011969740322634826 0.019575401154132217 0 0.010466034199476447 0.020461013287152587 0 0.012008375378814171 0.020282267270387382 0 0.011969740322634826 0.019575401154132217 0 0.010466034199476447 0.020461013287152587 0 0.01129298165020203 0.021274719174611607 0 0.012008375378814171 0.020282267270387382 0 0.010466034199476447 0.020461013287152587 0 0.01129298165020203 0.021274719174611607 0 0.010530671657238783 0.021514374703297291 0 0.012554552203484056 0.019077645829775898 0 0.012535783254302154 0.019181049459553963 0 0.012301949983489791 0.019247089130301265 0 0.020200901531020981 0.025844896908946594 0 0.015563886112480984 0.023161808007498817 0 0.010466034199476447 0.020461013287152587 0 0.010530671657238783 0.021514374703297291 0 0.009947184190692163 0.021789164768199525 0 0.0093307437895732009 0.02174578828002444 0 0.010466034199476447 0.020461013287152587 0 0.009947184190692163 0.021789164768199525 0 0.010530671657238783 0.021514374703297291 0 0.009947184190692163 0.021789164768199525 0 0.010193580154784778 0.021894415922393825 0 0.010193580154784778 0.021894415922393825 0 0.0098648161556593519 0.022020422134958639 0 0.010025751579127962 0.022111735436229157 0 0.009947184190692163 0.021789164768199525 0 0.010193580154784778 0.021894415922393825 0 0.0098648161556593519 0.022020422134958639 0 0.010193580154784778 0.021894415922393825 0 0.010025751579127962 0.022111735436229157 0 0.010269876070144766 0.022131495338425539 0 0.0093307437895732009 0.02174578828002444 0 0.009947184190692163 0.021789164768199525 0 0.009622656937874766 0.021993190741082712 0 0.009947184190692163 0.021789164768199525 0 0.0098648161556593519 0.022020422134958639 0 0.009622656937874766 0.021993190741082712 0 0.0094655777105276361 0.022265397075963481 0 0.009622656937874766 0.021993190741082712 0 0.0097904517138970495 0.022376845900938889 0 0.0098648161556593519 0.022020422134958639 0 0.009622656937874766 0.021993190741082712 0 0.0097904517138970495 0.022376845900938889 0 0.0098648161556593519 0.022020422134958639 0 0.0097904517138970495 0.022376845900938889 0 0.010025751579127962 0.022111735436229157 0 0.0097904517138970495 0.022376845900938889 0 0.010025751579127962 0.022111735436229157 0 0.010269876070144766 0.022131495338425539 0 0.010531095534553602 0.023060974906250292 0 0.010186560557652841 0.022630595896395149 0 0.010924711669215419 0.02236076320574908 0 0.01129298165020203 0.021274719174611607 0 0.010530671657238783 0.021514374703297291 0 0.010924711669215419 0.02236076320574908 0 0.010186560557652841 0.022630595896395149 0 0.010269876070144766 0.022131495338425539 0 0.010924711669215419 0.02236076320574908 0 0.010530671657238783 0.021514374703297291 0 0.010193580154784778 0.021894415922393825 0 0.010269876070144766 0.022131495338425539 0 0.010530671657238783 0.021514374703297291 0 0.010269876070144766 0.022131495338425539 0 0.010924711669215419 0.02236076320574908 0 0.058409651501156873 0.036796763740547869 0 0.059452380439031539 0.036327562338361222 0 0.059658550542803272 0.037982544172855633 0 0.058409651501156873 0.036796763740547869 0 0.059452380439031539 0.036327562338361222 0 0.057598652316064397 0.035391960422235288 0 0.058909787381597856 0.03607770765124025 0 0.060226185413419432 0.037290424366594827 0 0.059452380439031539 0.036327562338361222 0 0.059658550542803272 0.037982544172855633 0 0.061213364317001542 0.037107056025357077 0 0.059236764628948835 0.034835197457507329 0 0.059395157381456773 0.034088487929346552 0 0.06060565564875918 0.034003850616424407 0 0.059236764628948835 0.034835197457507329 0 0.059395157381456773 0.034088487929346552 0 0.058743945164380397 0.033773713965138702 0 0.059395157381456773 0.034088487929346552 0 0.058743945164380397 0.033773713965138702 0 0.059377546096348086 0.032967670307550399 0 0.058909787381597856 0.03607770765124025 0 0.057059881141104815 0.035058291956466772 0 0.059236764628948835 0.034835197457507329 0 0.058743945164380397 0.033773713965138702 0 0.057265738906536599 0.034383611783769176 0 0.057598652316064397 0.035391960422235288 0 0.056300252204981034 0.036035342140521169 0 0.057376884032045765 0.0361996687435336 0 0.057059881141104815 0.035058291956466772 0 0.05500183965166236 0.034138598579741677 0 0.056300252204981034 0.036035342140521169 0 0.054999969171546079 0.036726549151714603 0 0.055000045081334693 0.034137891087698193 0 0.057598652316064397 0.035391960422235288 0 0.056300252204981034 0.036035342140521169 0 0.055000045081334693 0.034137891087698193 0 0.056300252204981034 0.036035342140521169 0 0.056436394100372447 0.037766063024205557 0 0.054999969171546079 0.036726549151714603 0 0.058409651501156873 0.036796763740547869 0 0.057376884032045765 0.0361996687435336 0 0.05789443773009887 0.037901910211088685 0 0.056436394100372447 0.037766063024205557 0 0.057376884032045765 0.0361996687435336 0 0.058087339480357221 0.038695962676821266 0 0.056300252204981034 0.036035342140521169 0 0.056436394100372447 0.037766063024205557 0 0.057376884032045765 0.0361996687435336 0 0.058409651501156873 0.036796763740547869 0 0.057598652316064397 0.035391960422235288 0 0.057376884032045765 0.0361996687435336 0 0.057278239842583747 0.037909058656036047 0 0.057440598925091617 0.039004386023635963 0 0.056436394100372447 0.037766063024205557 0 0.058087339480357221 0.038695962676821266 0 0.05660777322595438 0.039576218265810634 0 0.056436394100372447 0.037766063024205557 0 0.054999975560579631 0.039315386599194806 0 0.05660777322595438 0.039576218265810634 0 0.056436394100372447 0.037766063024205557 0 0.054999969171546079 0.036726549151714603 0 0.054999975560579631 0.039315386599194806 0 0.055000005144996283 0.041904121143499881 0 0.054999975560579631 0.039315386599194806 0 0.056115337904364612 0.040962851081398313 0 0.054999975560579631 0.039315386599194806 0 0.05660777322595438 0.039576218265810634 0 0.056115337904364612 0.040962851081398313 0 0.058087339480357221 0.038695962676821266 0 0.05660777322595438 0.039576218265810634 0 0.057459587029989094 0.041149282517662117 0 0.058087339480357221 0.038695962676821266 0 0.057459587029989094 0.041149282517662117 0 0.058750892865348493 0.041168331058474374 0 0.05660777322595438 0.039576218265810634 0 0.056115337904364612 0.040962851081398313 0 0.057459587029989094 0.041149282517662117 0 0.057681886175443217 0.041468073193588362 0 0.057635423787324433 0.041485121829139944 0 0.05789443773009887 0.037901910211088685 0 0.058353252551060018 0.039545735617132066 0 0.059658550542803272 0.037982544172855633 0 0.057440598925091617 0.039004386023635963 0 0.057635423787324433 0.041485121829139944 0 0.058409651501156873 0.036796763740547869 0 0.05789443773009887 0.037901910211088685 0 0.059658550542803272 0.037982544172855633 0 0.058353252551060018 0.039545735617132066 0 0.059658550542803272 0.037982544172855633 0 0.060554279767586844 0.039560229844759723 0 0.057635423787324433 0.041485121829139944 0 0.059312304788987871 0.041177322199468513 0 0.059658550542803272 0.037982544172855633 0 0.060554279767586844 0.039560229844759723 0 0.061655673579819645 0.038546084595553053 0 0.062718595430188276 0.039583218162420462 0 0.060554279767586844 0.039560229844759723 0 0.061655673579819645 0.038546084595553053 0 0.062718595430188276 0.039583218162420462 0 0.061655673579819645 0.038546084595553053 0 0.062968201651217026 0.037855435191263942 0 0.059734199147588485 0.040955597832859 0 0.059312304788987871 0.041177322199468513 0 0.061655673579819645 0.038546084595553053 0 0.062968201651217026 0.037855435191263942 0 0.061213364317001542 0.037107056025357077 0 0.062850853481975111 0.035909601161850394 0 0.062819459575423675 0.036125147116275493 0 0.061036687031064747 0.035466015175771033 0 0.059854796831750857 0.038659564037466988 0 0.060226185413419432 0.037290424366594827 0 0.059658550542803272 0.037982544172855633 0 0.061655673579819645 0.038546084595553053 0 0.061213364317001542 0.037107056025357077 0 0.058574429459436986 0.039164916549509314 0 0.058553247536546948 0.039195785604966206 0 0.058615793112801497 0.039219738535518307 0 0.056292492597481487 0.040427246966774036 0 0.0530789021177877 0.040381984243786362 0 0.054763959735355951 0.043102893117715799 0 0.0574914470692197 0.040879266346930211 0 0.055680995700833326 0.038069653631872563 0 0.058623279891911385 0.03916757907091635 0 0.058574429459436986 0.039164916549509314 0 0.058615793112801497 0.039219738535518307 0 0.059734199147588485 0.040955597832859 0 0.059854796831750857 0.038659564037466988 0 0.062817725776780034 0.036113031928592665 0 0.063957285493770707 0.035767336038109616 0 0.063377334087634074 0.035546663290434273 0 0.062850853481975111 0.035909601161850394 0 0.062817725776780034 0.036113031928592665 0 0.063377334087634074 0.035546663290434273 0 0.059870597058090703 0.038616424643334764 0 0.059854796831750857 0.038659564037466988 0 0.065285223546580382 0.035259811483537379 0 0.064436333398981444 0.036769275387954617 0 0.063957285493770707 0.035767336038109616 0 0.055680995700833326 0.038069653631872563 0 0.059854796831750857 0.038659564037466988 0 0.064436333398981444 0.036769275387954617 0 0.062817725776780034 0.036113031928592665 0 0.063957285493770707 0.035767336038109616 0 0.065285223546580382 0.035259811483537379 0 0.064704325740903498 0.034473372497422508 0 0.063957285493770707 0.035767336038109616 0 0.064704325740903498 0.034473372497422508 0 0.063957285493770707 0.035767336038109616 0 0.063743315163060171 0.034564090748856142 0 0.063957285493770707 0.035767336038109616 0 0.063743315163060171 0.034564090748856142 0 0.063377334087634074 0.035546663290434273 0 0.062850853481975111 0.035909601161850394 0 0.063038419688567812 0.034967532638737669 0 0.062119569155256703 0.034602356090130355 0 0.063743315163060171 0.034564090748856142 0 0.063377334087634074 0.035546663290434273 0 0.063038419688567812 0.034967532638737669 0 0.063743315163060171 0.034564090748856142 0 0.063038419688567812 0.034967532638737669 0 0.063016416501150502 0.034157632837541786 0 0.062850853481975111 0.035909601161850394 0 0.063377334087634074 0.035546663290434273 0 0.063038419688567812 0.034967532638737669 0 0.063038419688567812 0.034967532638737669 0 0.063016416501150502 0.034157632837541786 0 0.062119569155256703 0.034602356090130355 0 0.063743315163060171 0.034564090748856142 0 0.063016416501150502 0.034157632837541786 0 0.063297657672040181 0.033174379841820964 0 0.063016416501150502 0.034157632837541786 0 0.061866948165333085 0.032758622993533458 0 0.063297657672040181 0.033174379841820964 0 0.064705915546483417 0.03348950254502104 0 0.063743315163060171 0.034564090748856142 0 0.063297657672040181 0.033174379841820964 0 0.064705915546483417 0.03348950254502104 0 0.064704325740903498 0.034473372497422508 0 0.063743315163060171 0.034564090748856142 0 0.061036687031064747 0.035466015175771033 0 0.062119569155256703 0.034602356090130355 0 0.06060565564875918 0.034003850616424407 0 0.059236764628948835 0.034835197457507329 0 0.061036687031064747 0.035466015175771033 0 0.06060565564875918 0.034003850616424407 0 0.062850853481975111 0.035909601161850394 0 0.061036687031064747 0.035466015175771033 0 0.062119569155256703 0.034602356090130355 0 0.062119569155256703 0.034602356090130355 0 0.06060565564875918 0.034003850616424407 0 0.061866948165333085 0.032758622993533458 0 0.063016416501150502 0.034157632837541786 0 0.062119569155256703 0.034602356090130355 0 0.061866948165333085 0.032758622993533458 0 0.06060565564875918 0.034003850616424407 0 0.061866948165333085 0.032758622993533458 0 0.059954791583160451 0.031826385740055134 0 0.061866948165333085 0.032758622993533458 0 0.062059214155303778 0.030776666184482507 0 0.063442110719567166 0.031594679210343535 0 0.061866948165333085 0.032758622993533458 0 0.062059214155303778 0.030776666184482507 0 0.059954791583160451 0.031826385740055134 0 0.062059214155303778 0.030776666184482507 0 0.059954791583160451 0.031826385740055134 0 0.06087380766333364 0.029161598985645309 0 0.060363555704379436 0.031460886590396052 0 0.061155697372045709 0.029476009682406188 0 0.06065039881118002 0.031917642424477456 0 0.061607216026293592 0.0292091360093834 0 0.059768833299019948 0.030168678742244982 0 0.06154168602562033 0.032991891430188582 0 0.062822804712972607 0.03314196894001295 0 0.066181844436083839 0.03351841718075145 0 0.064025962188597241 0.03312436657823891 0 0.065356124694993051 0.031253870113661798 0 0.062610939696288129 0.033072100768898285 0 0.062822804712972607 0.03314196894001295 0 0.061866948165333085 0.032758622993533458 0 0.064025962188597241 0.03312436657823891 0 0.063442110719567166 0.031594679210343535 0 0.064025962188597241 0.03312436657823891 0 0.063442110719567166 0.031594679210343535 0 0.065356124694993051 0.031253870113661798 0 0.062059214155303778 0.030776666184482507 0 0.063442110719567166 0.031594679210343535 0 0.063917981254514075 0.030079956584784705 0 0.063442110719567166 0.031594679210343535 0 0.065356124694993051 0.031253870113661798 0 0.063917981254514075 0.030079956584784705 0 0.067008653059124332 0.029639146669995821 0 0.065356124694993051 0.031253870113661798 0 0.065266357034970482 0.028856305789715198 0 0.065356124694993051 0.031253870113661798 0 0.065266357034970482 0.028856305789715198 0 0.063917981254514075 0.030079956584784705 0 0.067008653059124332 0.029639146669995821 0 0.065266357034970482 0.028856305789715198 0 0.066034797369720052 0.02767302699556232 0 0.062059214155303778 0.030776666184482507 0 0.063917981254514075 0.030079956584784705 0 0.063246525339156812 0.028212732924703259 0 0.065266357034970482 0.028856305789715198 0 0.063917981254514075 0.030079956584784705 0 0.063246525339156812 0.028212732924703259 0 0.063246525339156812 0.028212732924703259 0 0.064999092774752035 0.026855119105599626 0 0.063500633426426922 0.026146957148131568 0 0.063246525339156812 0.028212732924703259 0 0.062103511209202669 0.026497354944968219 0 0.063500633426426922 0.026146957148131568 0 0.065266357034970482 0.028856305789715198 0 0.063246525339156812 0.028212732924703259 0 0.064999092774752035 0.026855119105599626 0 0.065266357034970482 0.028856305789715198 0 0.064999092774752035 0.026855119105599626 0 0.066034797369720052 0.02767302699556232 0 0.064999092774752035 0.026855119105599626 0 0.066034797369720052 0.02767302699556232 0 0.066385110111038356 0.026615144963826852 0 0.062059214155303778 0.030776666184482507 0 0.063246525339156812 0.028212732924703259 0 0.06087380766333364 0.029161598985645309 0 0.061155697372045709 0.029476009682406188 0 0.061641039611037528 0.028252637743749504 0 0.063246525339156812 0.028212732924703259 0 0.06087380766333364 0.029161598985645309 0 0.062103511209202669 0.026497354944968219 0 0.061607216026293592 0.0292091360093834 0 0.059800703042252837 0.027798929438036857 0 0.062103511209202669 0.026497354944968219 0 0.059800703042252837 0.027798929438036857 0 0.058034570820249702 0.030030877473709409 0 0.057517014620146092 0.027755597862472919 0 0.059800703042252837 0.027798929438036857 0 0.058034570820249702 0.030030877473709409 0 0.059768833299019948 0.030168678742244982 0 0.061607216026293592 0.0292091360093834 0 0.059800703042252837 0.027798929438036857 0 0.059768833299019948 0.030168678742244982 0 0.06065039881118002 0.031917642424477456 0 0.059768833299019948 0.030168678742244982 0 0.058389454145091141 0.032388189734929414 0 0.058034570820249702 0.030030877473709409 0 0.059768833299019948 0.030168678742244982 0 0.058389454145091141 0.032388189734929414 0 0.058743945164380397 0.033773713965138702 0 0.058389454145091141 0.032388189734929414 0 0.059377546096348086 0.032967670307550399 0 0.058743945164380397 0.033773713965138702 0 0.057265738906536599 0.034383611783769176 0 0.058389454145091141 0.032388189734929414 0 0.059905336910739258 0.032574175744522038 0 0.060363555704379436 0.031460886590396052 0 0.059395157381456773 0.034088487929346552 0 0.06060565564875918 0.034003850616424407 0 0.059954791583160451 0.031826385740055134 0 0.059395157381456773 0.034088487929346552 0 0.06065039881118002 0.031917642424477456 0 0.059377546096348086 0.032967670307550399 0 0.06065039881118002 0.031917642424477456 0 0.058389454145091141 0.032388189734929414 0 0.059377546096348086 0.032967670307550399 0 0.057265738906536599 0.034383611783769176 0 0.054999975954950438 0.034136156074764105 0 0.056681697494165108 0.032096814074383785 0 0.057265738906536599 0.034383611783769176 0 0.058389454145091141 0.032388189734929414 0 0.056681697494165108 0.032096814074383785 0 0.058034570820249702 0.030030877473709409 0 0.058389454145091141 0.032388189734929414 0 0.056681697494165108 0.032096814074383785 0 0.056681697494165108 0.032096814074383785 0 0.054999735761359123 0.031073048873839597 0 0.056426679642984874 0.029601973488399966 0 0.054999975954950438 0.034136156074764105 0 0.056681697494165108 0.032096814074383785 0 0.054999735761359123 0.031073048873839597 0 0.054999735761359123 0.031073048873839597 0 0.056426679642984874 0.029601973488399966 0 0.05499980435604495 0.028008093161996844 0 0.058034570820249702 0.030030877473709409 0 0.056681697494165108 0.032096814074383785 0 0.056426679642984874 0.029601973488399966 0 0.058034570820249702 0.030030877473709409 0 0.056426679642984874 0.029601973488399966 0 0.057517014620146092 0.027755597862472919 0 0.056426679642984874 0.029601973488399966 0 0.057517014620146092 0.027755597862472919 0 0.05499980435604495 0.028008093161996844 0 0.05499980435604495 0.028008093161996844 0 0.056946651602392651 0.025413061847451603 0 0.05499982217774424 0.024943685136408194 0 0.057517014620146092 0.027755597862472919 0 0.05499980435604495 0.028008093161996844 0 0.056946651602392651 0.025413061847451603 0 0.057517014620146092 0.027755597862472919 0 0.056946651602392651 0.025413061847451603 0 0.058720715226730787 0.025690113368440928 0 0.056946651602392651 0.025413061847451603 0 0.058720715226730787 0.025690113368440928 0 0.057487893275292495 0.022991227615898762 0 0.056946651602392651 0.025413061847451603 0 0.05499982217774424 0.024943685136408194 0 0.057487893275292495 0.022991227615898762 0 0.059800703042252837 0.027798929438036857 0 0.058720715226730787 0.025690113368440928 0 0.060720224376833706 0.025182165672233747 0 0.059800703042252837 0.027798929438036857 0 0.057517014620146092 0.027755597862472919 0 0.058720715226730787 0.025690113368440928 0 0.058720715226730787 0.025690113368440928 0 0.059647679021429111 0.023818267222528049 0 0.057487893275292495 0.022991227615898762 0 0.058720715226730787 0.025690113368440928 0 0.059647679021429111 0.023818267222528049 0 0.060720224376833706 0.025182165672233747 0 0.059647679021429111 0.023818267222528049 0 0.059852608735595093 0.021823723596193629 0 0.061399179070990927 0.023295058167072703 0 0.059647679021429111 0.023818267222528049 0 0.059852608735595093 0.021823723596193629 0 0.057487893275292495 0.022991227615898762 0 0.059852608735595093 0.021823723596193629 0 0.057487893275292495 0.022991227615898762 0 0.05797267309285891 0.020086938840574994 0 0.05499982217774424 0.024943685136408194 0 0.057487893275292495 0.022991227615898762 0 0.054999851016747599 0.021879101786658375 0 0.057487893275292495 0.022991227615898762 0 0.056326373506653718 0.020182090811916593 0 0.05797267309285891 0.020086938840574994 0 0.057487893275292495 0.022991227615898762 0 0.054999851016747599 0.021879101786658375 0 0.056326373506653718 0.020182090811916593 0 0.054999851016747599 0.021879101786658375 0 0.056326373506653718 0.020182090811916593 0 0.054999854906909826 0.018814956912502193 0 0.056326373506653718 0.020182090811916593 0 0.054999854906909826 0.018814956912502193 0 0.055877403450547876 0.018299523230753394 0 0.054999895205210224 0.018810113847023066 0 0.055374689359710641 0.017627588986305703 0 0.054999998424036987 0.018814282321964949 0 0.055964750168314113 0.018143995532866847 0 0.054999999189456923 0.017495668472523998 0 0.055941899484767119 0.018112238516533857 0 0.054999938110100503 0.017495491771716061 0 0.056004637229174301 0.016984135056822579 0 0.055374689359710641 0.017627588986305703 0 0.055001094684150265 0.017495845232005761 0 0.050861971823552898 0.015084026089323672 0 0.053247753289859145 0.015123205565501523 0 0.053505882317912618 0.01689019482150806 0 0.050861971823552898 0.015084026089323672 0 0.053247753289859145 0.015123205565501523 0 0.053350079937015418 0.013355358921434721 0 0.055941899484767119 0.018112238516533857 0 0.056004637229174301 0.016984135056822579 0 0.058136070929714512 0.016544157709590664 0 0.055374689359710641 0.017627588986305703 0 0.056437097296074788 0.015607690391356264 0 0.055374689359710641 0.017627588986305703 0 0.056074607421304226 0.01855561829192098 0 0.056326373506653718 0.020182090811916593 0 0.055877403450547876 0.018299523230753394 0 0.05797267309285891 0.020086938840574994 0 0.058006261846784563 0.020201530614578314 0 0.056074607421304226 0.01855561829192098 0 0.056059086184387971 0.018771266010676368 0 0.053505882317912618 0.01689019482150806 0 0.055281042213157598 0.015165811019354859 0 0.056059086184387971 0.018771266010676368 0 0.055281042213157598 0.015165811019354859 0 0.057727443919694206 0.016338900889123872 0 0.055281042213157598 0.015165811019354859 0 0.057665954163769836 0.014131537935721243 0 0.057727443919694206 0.016338900889123872 0 0.053247753289859145 0.015123205565501523 0 0.055281042213157598 0.015165811019354859 0 0.053350079937015418 0.013355358921434721 0 0.053247753289859145 0.015123205565501523 0 0.053505882317912618 0.01689019482150806 0 0.055281042213157598 0.015165811019354859 0 0.058287646181468471 0.013649422475779752 0 0.056437097296074788 0.015607690391356264 0 0.060301554248030277 0.014982880365955338 0 0.058032256071873831 0.014758507154654415 0 0.058136070929714512 0.016544157709590664 0 0.055281042213157598 0.015165811019354859 0 0.0559348774315147 0.011630429863888412 0 0.053350079937015418 0.013355358921434721 0 0.0559348774315147 0.011630429863888412 0 0.058144896795428308 0.011837936619377437 0 0.057665954163769836 0.014131537935721243 0 0.055281042213157598 0.015165811019354859 0 0.0559348774315147 0.011630429863888412 0 0.057665954163769836 0.014131537935721243 0 0.0559348774315147 0.011630429863888412 0 0.058144896795428308 0.011837936619377437 0 0.058512330275160521 0.010100158686293235 0 0.058287646181468471 0.013649422475779752 0 0.060260907920297202 0.011843279064045916 0 0.060301554248030277 0.014982880365955338 0 0.058032256071873831 0.014758507154654415 0 0.059159284395283965 0.013237425106240003 0 0.058032256071873831 0.014758507154654415 0 0.056355614349863629 0.013823166921542854 0 0.056165451440087527 0.015853933645798585 0 0.058032256071873831 0.014758507154654415 0 0.056355614349863629 0.013823166921542854 0 0.059159284395283965 0.013237425106240003 0 0.054999997212728725 0.014249381060510808 0 0.056355614349863629 0.013823166921542854 0 0.056165451440087527 0.015853933645798585 0 0.054999938110100503 0.017495491771716061 0 0.054999997212728725 0.014249381060510808 0 0.056165451440087527 0.015853933645798585 0 0.054999938110100503 0.017495491771716061 0 0.056165451440087527 0.015853933645798585 0 0.056004637229174301 0.016984135056822579 0 0.056165451440087527 0.015853933645798585 0 0.056004637229174301 0.016984135056822579 0 0.058136070929714512 0.016544157709590664 0 0.058032256071873831 0.014758507154654415 0 0.056165451440087527 0.015853933645798585 0 0.058136070929714512 0.016544157709590664 0 0.061359984916456028 0.013455999049707399 0 0.063057422834937968 0.013073032132629501 0 0.061989253358435206 0.011999203709475404 0 0.063057422834937968 0.013073032132629501 0 0.063105793260448656 0.011722586204920393 0 0.061989253358435206 0.011999203709475404 0 0.061359984916456028 0.013455999049707399 0 0.061989253358435206 0.011999203709475404 0 0.060729404114593488 0.012016179820645222 0 0.063057422834937968 0.013073032132629501 0 0.063105793260448656 0.011722586204920393 0 0.064396428916819598 0.011929564621374206 0 0.063057422834937968 0.013073032132629501 0 0.064274384474332286 0.013695191733893143 0 0.064396428916819598 0.011929564621374206 0 0.063105793260448656 0.011722586204920393 0 0.063613163389691835 0.010801790822328721 0 0.064396428916819598 0.011929564621374206 0 0.063105793260448656 0.011722586204920393 0 0.063613163389691835 0.010801790822328721 0 0.062291685733008494 0.010802506468869138 0 0.063105793260448656 0.011722586204920393 0 0.062291685733008494 0.010802506468869138 0 0.061989253358435206 0.011999203709475404 0 0.061989253358435206 0.011999203709475404 0 0.061386063343568047 0.010978900904731137 0 0.060729404114593488 0.012016179820645222 0 0.062291685733008494 0.010802506468869138 0 0.061989253358435206 0.011999203709475404 0 0.061386063343568047 0.010978900904731137 0 0.062291685733008494 0.010802506468869138 0 0.061386063343568047 0.010978900904731137 0 0.061434203111380883 0.010225681342719884 0 0.061386063343568047 0.010978900904731137 0 0.060323920369682316 0.010946587773956913 0 0.060796078232722615 0.010246463764375602 0 0.060323920369682316 0.010946587773956913 0 0.059950452119276881 0.010258682683107237 0 0.060796078232722615 0.010246463764375602 0 0.060323920369682316 0.010946587773956913 0 0.059602770704130531 0.011732626401829571 0 0.059379058787390304 0.010854098002307976 0 0.060323920369682316 0.010946587773956913 0 0.059379058787390304 0.010854098002307976 0 0.059950452119276881 0.010258682683107237 0 0.060323920369682316 0.010946587773956913 0 0.059602770704130531 0.011732626401829571 0 0.060729404114593488 0.012016179820645222 0 0.061386063343568047 0.010978900904731137 0 0.060323920369682316 0.010946587773956913 0 0.060729404114593488 0.012016179820645222 0 0.059379058787390304 0.010854098002307976 0 0.058144896795428308 0.011837936619377437 0 0.058512330275160521 0.010100158686293235 0 0.059602770704130531 0.011732626401829571 0 0.059379058787390304 0.010854098002307976 0 0.058144896795428308 0.011837936619377437 0 0.058144896795428308 0.011837936619377437 0 0.059624356637486414 0.013073643419440523 0 0.057665954163769836 0.014131537935721243 0 0.059602770704130531 0.011732626401829571 0 0.058144896795428308 0.011837936619377437 0 0.059624356637486414 0.013073643419440523 0 0.061359984916456028 0.013455999049707399 0 0.060729404114593488 0.012016179820645222 0 0.059624356637486414 0.013073643419440523 0 0.059602770704130531 0.011732626401829571 0 0.060729404114593488 0.012016179820645222 0 0.059624356637486414 0.013073643419440523 0 0.061359984916456028 0.013455999049707399 0 0.059624356637486414 0.013073643419440523 0 0.060074841824646799 0.015530767746477533 0 0.059624356637486414 0.013073643419440523 0 0.060074841824646799 0.015530767746477533 0 0.057665954163769836 0.014131537935721243 0 0.060074841824646799 0.015530767746477533 0 0.057665954163769836 0.014131537935721243 0 0.057727443919694206 0.016338900889123872 0 0.056059086184387971 0.018771266010676368 0 0.057727443919694206 0.016338900889123872 0 0.059283219678999535 0.018163454706420782 0 0.060074841824646799 0.015530767746477533 0 0.057727443919694206 0.016338900889123872 0 0.059283219678999535 0.018163454706420782 0 0.060074841824646799 0.015530767746477533 0 0.061999884136978684 0.017517477782887377 0 0.059283219678999535 0.018163454706420782 0 0.061999884136978684 0.017517477782887377 0 0.062788614412638277 0.015102272055659931 0 0.063463834524282725 0.016943204868654155 0 0.060074841824646799 0.015530767746477533 0 0.061999884136978684 0.017517477782887377 0 0.062788614412638277 0.015102272055659931 0 0.061999884136978684 0.017517477782887377 0 0.063463834524282725 0.016943204868654155 0 0.063489008424604004 0.018715431585381082 0 0.061359984916456028 0.013455999049707399 0 0.060074841824646799 0.015530767746477533 0 0.062788614412638277 0.015102272055659931 0 0.061359984916456028 0.013455999049707399 0 0.063057422834937968 0.013073032132629501 0 0.062788614412638277 0.015102272055659931 0 0.064274384474332286 0.013695191733893143 0 0.064239757007559711 0.015914623054138474 0 0.065148253168587272 0.014118949877362874 0 0.062788614412638277 0.015102272055659931 0 0.064274384474332286 0.013695191733893143 0 0.064239757007559711 0.015914623054138474 0 0.063057422834937968 0.013073032132629501 0 0.062788614412638277 0.015102272055659931 0 0.064274384474332286 0.013695191733893143 0 0.064239757007559711 0.015914623054138474 0 0.065148253168587272 0.014118949877362874 0 0.065451736771333355 0.017382459936321315 0 0.062788614412638277 0.015102272055659931 0 0.064239757007559711 0.015914623054138474 0 0.063463834524282725 0.016943204868654155 0 0.064239757007559711 0.015914623054138474 0 0.063463834524282725 0.016943204868654155 0 0.064896156658539317 0.017765810271856124 0 0.064239757007559711 0.015914623054138474 0 0.064896156658539317 0.017765810271856124 0 0.065451736771333355 0.017382459936321315 0 0.062631646572676863 0.020374876844033146 0 0.062363373504909968 0.020584693871391599 0 0.064896156658539317 0.017765810271856124 0 0.065700168852332305 0.018929563026342383 0 0.065451736771333355 0.017382459936321315 0 0.064896156658539317 0.017765810271856124 0 0.064890739088662289 0.01962514410898384 0 0.066757727663266112 0.020117722303464557 0 0.064890739088662289 0.01962514410898384 0 0.065189966903205915 0.021002115990709926 0 0.066757727663266112 0.020117722303464557 0 0.064890739088662289 0.01962514410898384 0 0.063489008424604004 0.018715431585381082 0 0.063712856096194162 0.020839220394036306 0 0.064896156658539317 0.017765810271856124 0 0.064890739088662289 0.01962514410898384 0 0.063489008424604004 0.018715431585381082 0 0.063463834524282725 0.016943204868654155 0 0.064896156658539317 0.017765810271856124 0 0.063489008424604004 0.018715431585381082 0 0.061999884136978684 0.017517477782887377 0 0.063489008424604004 0.018715431585381082 0 0.06148549070666999 0.020059899362738196 0 0.063489008424604004 0.018715431585381082 0 0.063712856096194162 0.020839220394036306 0 0.06148549070666999 0.020059899362738196 0 0.063712856096194162 0.020839220394036306 0 0.064600006098844684 0.022277832223995694 0 0.062587146755665624 0.02393777436653511 0 0.063712856096194162 0.020839220394036306 0 0.06148549070666999 0.020059899362738196 0 0.062587146755665624 0.02393777436653511 0 0.064600006098844684 0.022277832223995694 0 0.065189966903205915 0.021002115990709926 0 0.066183282445709576 0.022048776725489775 0 0.064600006098844684 0.022277832223995694 0 0.065201497851832699 0.02364262435434605 0 0.066183282445709576 0.022048776725489775 0 0.065189966903205915 0.021002115990709926 0 0.066757727663266112 0.020117722303464557 0 0.066183282445709576 0.022048776725489775 0 0.063712856096194162 0.020839220394036306 0 0.064600006098844684 0.022277832223995694 0 0.065189966903205915 0.021002115990709926 0 0.064890739088662289 0.01962514410898384 0 0.063712856096194162 0.020839220394036306 0 0.065189966903205915 0.021002115990709926 0 0.058006261846784563 0.020201530614578314 0 0.060045724826461276 0.021825846687586557 0 0.056059086184387971 0.018771266010676368 0 0.059283219678999535 0.018163454706420782 0 0.058736223107455895 0.021052683460420399 0 0.059283219678999535 0.018163454706420782 0 0.06148549070666999 0.020059899362738196 0 0.058736223107455895 0.021052683460420399 0 0.061999884136978684 0.017517477782887377 0 0.059283219678999535 0.018163454706420782 0 0.06148549070666999 0.020059899362738196 0 0.06148549070666999 0.020059899362738196 0 0.058736223107455895 0.021052683460420399 0 0.062587146755665624 0.02393777436653511 0 0.060045724826461276 0.021825846687586557 0 0.061253441454541022 0.022726376762743063 0 0.059647679021429111 0.023818267222528049 0 0.061399179070990927 0.023295058167072703 0 0.060720224376833706 0.025182165672233747 0 0.061399179070990927 0.023295058167072703 0 0.060720224376833706 0.025182165672233747 0 0.062587146755665624 0.02393777436653511 0 0.060720224376833706 0.025182165672233747 0 0.062103511209202669 0.026497354944968219 0 0.062587146755665624 0.02393777436653511 0 0.059800703042252837 0.027798929438036857 0 0.060720224376833706 0.025182165672233747 0 0.062103511209202669 0.026497354944968219 0 0.065201497851832699 0.02364262435434605 0 0.064697688990881921 0.025112434093843207 0 0.066388211670351957 0.024331910719498917 0 0.065201497851832699 0.02364262435434605 0 0.066733737930689097 0.023281400079961101 0 0.066183282445709576 0.022048776725489775 0 0.065201497851832699 0.02364262435434605 0 0.066388211670351957 0.024331910719498917 0 0.066733737930689097 0.023281400079961101 0 0.062587146755665624 0.02393777436653511 0 0.063500633426426922 0.026146957148131568 0 0.064697688990881921 0.025112434093843207 0 0.064600006098844684 0.022277832223995694 0 0.065201497851832699 0.02364262435434605 0 0.062587146755665624 0.02393777436653511 0 0.065201497851832699 0.02364262435434605 0 0.062587146755665624 0.02393777436653511 0 0.064697688990881921 0.025112434093843207 0 0.062103511209202669 0.026497354944968219 0 0.062587146755665624 0.02393777436653511 0 0.063500633426426922 0.026146957148131568 0 0.064999092774752035 0.026855119105599626 0 0.063500633426426922 0.026146957148131568 0 0.064697688990881921 0.025112434093843207 0 0.064999092774752035 0.026855119105599626 0 0.064697688990881921 0.025112434093843207 0 0.065824877940604265 0.025698877265284355 0 0.064697688990881921 0.025112434093843207 0 0.065824877940604265 0.025698877265284355 0 0.066388211670351957 0.024331910719498917 0 0.064999092774752035 0.026855119105599626 0 0.065824877940604265 0.025698877265284355 0 0.066385110111038356 0.026615144963826852 0 0.066385110111038356 0.026615144963826852 0 0.067290183569111497 0.026275503252446986 0 0.066796182687600542 0.025484439971594924 0 0.065824877940604265 0.025698877265284355 0 0.066385110111038356 0.026615144963826852 0 0.066796182687600542 0.025484439971594924 0 0.067316539529853114 0.027604639556473971 0 0.067290183569111497 0.026275503252446986 0 0.068122423721271128 0.02642212695293918 0 0.067290183569111497 0.026275503252446986 0 0.067699038229904099 0.02593961744687362 0 0.068122423721271128 0.02642212695293918 0 0.067290183569111497 0.026275503252446986 0 0.067699038229904099 0.02593961744687362 0 0.067383564917434954 0.025570474154825037 0 0.067699038229904099 0.02593961744687362 0 0.067383564917434954 0.025570474154825037 0 0.068140979856834025 0.025307138260482871 0 0.067290183569111497 0.026275503252446986 0 0.067383564917434954 0.025570474154825037 0 0.066796182687600542 0.025484439971594924 0 0.067383564917434954 0.025570474154825037 0 0.066796182687600542 0.025484439971594924 0 0.067486622398766141 0.024836826487375799 0 0.067383564917434954 0.025570474154825037 0 0.067486622398766141 0.024836826487375799 0 0.068140979856834025 0.025307138260482871 0 0.065824877940604265 0.025698877265284355 0 0.066796182687600542 0.025484439971594924 0 0.066388211670351957 0.024331910719498917 0 0.067486622398766141 0.024836826487375799 0 0.066733737930689097 0.023281400079961101 0 0.067948305087947414 0.022206735846011762 0 0.066388211670351957 0.024331910719498917 0 0.067486622398766141 0.024836826487375799 0 0.066733737930689097 0.023281400079961101 0 0.060403914501279139 0.022131950164999518 0 0.061281363704095024 0.021038198292092563 0 0.066796182687600542 0.025484439971594924 0 0.066388211670351957 0.024331910719498917 0 0.067486622398766141 0.024836826487375799 0 0.067486622398766141 0.024836826487375799 0 0.068140979856834025 0.025307138260482871 0 0.067948305087947414 0.022206735846011762 0 0.059116233174173236 0.021780201929792631 0 0.058749977631361146 0.019670141129849359 0 0.06136317543546168 0.021697385504860354 0 0.061068561183669851 0.022050680433983501 0 0.060900770537260812 0.02102565779144893 0 0.059116233174173236 0.021780201929792631 0 0.055301345417908924 0.021135846050820868 0 0.059116233174173236 0.021780201929792631 0 0.061281363704095024 0.021038198292092563 0 0.059116233174173236 0.021780201929792631 0 0.060403914501279139 0.022131950164999518 0 0.059116233174173236 0.021780201929792631 0 0.054892152142186977 0.024492912457853153 0 0.068601573912187505 0.024667179043947898 0 0.067950088520335225 0.025457788923225332 0 0.068122423721271128 0.02642212695293918 0 0.068601573912187505 0.024667179043947898 0 0.068122423721271128 0.02642212695293918 0 0.069978141967972501 0.026673424457664314 0 0.060403914501279139 0.022131950164999518 0 0.060764854415480879 0.022762115821012164 0 0.067699038229904099 0.02593961744687362 0 0.068140979856834025 0.025307138260482871 0 0.068122423721271128 0.02642212695293918 0 0.048204258456093704 0.022010743422428355 0 0.04730104745998872 0.020751057057895636 0 0.047055253266378758 0.021790569366811872 0 0.04730104745998872 0.020751057057895636 0 0.046353812920857086 0.021049839500909058 0 0.047055253266378758 0.021790569366811872 0 0.046032615325696732 0.021558698088687867 0 0.045673745925078169 0.022084503694022189 0 0.045575424603527877 0.021023525133112096 0 0.046353812920857086 0.021049839500909058 0 0.046455701459197168 0.021633837823746505 0 0.046032615325696732 0.021558698088687867 0 0.046353812920857086 0.021049839500909058 0 0.046455701459197168 0.021633837823746505 0 0.047055253266378758 0.021790569366811872 0 0.046353812920857086 0.021049839500909058 0 0.046032615325696732 0.021558698088687867 0 0.045575424603527877 0.021023525133112096 0 0.045673745925078169 0.022084503694022189 0 0.046085705973261608 0.022640059196509296 0 0.045472752517848734 0.023158956618401293 0 0.046032615325696732 0.021558698088687867 0 0.045673745925078169 0.022084503694022189 0 0.046295855703204075 0.022062571576674517 0 0.046455701459197168 0.021633837823746505 0 0.046295855703204075 0.022062571576674517 0 0.047055253266378758 0.021790569366811872 0 0.046455701459197168 0.021633837823746505 0 0.046032615325696732 0.021558698088687867 0 0.046295855703204075 0.022062571576674517 0 0.046295855703204075 0.022062571576674517 0 0.046085705973261608 0.022640059196509296 0 0.046686820039225571 0.022464228441679869 0 0.045673745925078169 0.022084503694022189 0 0.046295855703204075 0.022062571576674517 0 0.046085705973261608 0.022640059196509296 0 0.048204258456093704 0.022010743422428355 0 0.047055253266378758 0.021790569366811872 0 0.047390535673447552 0.022601775492957481 0 0.056938856946185661 0.020815189537542932 0 0.057606885822128341 0.020300408450261476 0 0.057806446021837737 0.019730394279967502 0 0.046295855703204075 0.022062571576674517 0 0.047055253266378758 0.021790569366811872 0 0.046686820039225571 0.022464228441679869 0 0.047055253266378758 0.021790569366811872 0 0.046686820039225571 0.022464228441679869 0 0.047390535673447552 0.022601775492957481 0 0.055301345417908924 0.021135846050820868 0 0.053364664581469094 0.01948651706418833 0 0.046686820039225571 0.022464228441679869 0 0.047390535673447552 0.022601775492957481 0 0.046604189933082608 0.023228998928822211 0 0.057606885822128341 0.020300408450261476 0 0.057806446021837737 0.019730394279967502 0 0.05825327535068045 0.019754237430778924 0 0.058749977631361146 0.019670141129849359 0 0.053364664581469094 0.01948651706418833 0 0.042126338164093738 0.016601200416634872 0 0.041373711943850602 0.016540532925470555 0 0.041159767705179533 0.017301145492381462 0 0.053364664581469094 0.01948651706418833 0 0.042453841441839869 0.020060482004499228 0 0.060887408951380853 0.019706014491392154 0 0.062173280549983813 0.01978388045554326 0 0.063361482255421597 0.017028897896395896 0 0.046085705973261608 0.022640059196509296 0 0.046604189933082608 0.023228998928822211 0 0.045472752517848734 0.023158956618401293 0 0.046085705973261608 0.022640059196509296 0 0.046686820039225571 0.022464228441679869 0 0.046604189933082608 0.023228998928822211 0 0.06159886326550771 0.018759160082022632 0 0.06203390914280682 0.018291407948329338 0 0.062131936590584615 0.018237564812283124 0 0.053364664581469094 0.01948651706418833 0 0.051833245512922801 0.015963669063771179 0 0.062173280549983813 0.01978388045554326 0 0.063361482255421597 0.017028897896395896 0 0.065518170495544134 0.017035947686910927 0 0.058749977631361146 0.019670141129849359 0 0.062283382950112265 0.017424487776717679 0 0.062088182822569608 0.018244243615824132 0 0.061895910073110301 0.018064954405322499 0 0.06211077075145488 0.017995855950722266 0 0.06203390914280682 0.018291407948329338 0 0.062131936590584615 0.018237564812283124 0 0.062441914926388675 0.01783665710233124 0 0.061768761831935075 0.018616283704799601 0 0.061712933958157239 0.018248288257083942 0 0.061401138871683116 0.018273186196105039 0 0.061768761831935075 0.018616283704799601 0 0.062088182822569608 0.018244243615824132 0 0.061712933958157239 0.018248288257083942 0 0.058749977631361146 0.019670141129849359 0 0.060582190952268043 0.018313929845234823 0 0.062088182822569608 0.018244243615824132 0 0.061712933958157239 0.018248288257083942 0 0.061895910073110301 0.018064954405322499 0 0.061712933958157239 0.018248288257083942 0 0.061522201012892921 0.017932524888110812 0 0.061895910073110301 0.018064954405322499 0 0.061712933958157239 0.018248288257083942 0 0.061401138871683116 0.018273186196105039 0 0.061522201012892921 0.017932524888110812 0 0.061575797389033418 0.020315212950470479 0 0.062949577174318469 0.017586080977544764 0 0.061401138871683116 0.018273186196105039 0 0.061111774011712403 0.018572435108128772 0 0.061023197619368981 0.018012861161273673 0 0.065700168852332305 0.018929563026342383 0 0.066098248127669568 0.017286533064418515 0 0.065451736771333355 0.017382459936321315 0 0.065700168852332305 0.018929563026342383 0 0.06646638995095687 0.019580124277448586 0 0.066098248127669568 0.017286533064418515 0 0.065700168852332305 0.018929563026342383 0 0.06646638995095687 0.019580124277448586 0 0.066146051186317334 0.019582937722973832 0 0.06092181407576569 0.020649825603865562 0 0.060898744206173791 0.020649945152272912 0 0.060928678453082134 0.020695281400481429 0 0.061575797389033418 0.020315212950470479 0 0.06181360110457694 0.020598048664190172 0 0.066757727663266112 0.020117722303464557 0 0.067401145401669513 0.021223544218192957 0 0.066183282445709576 0.022048776725489775 0 0.062363373504909968 0.020584693871391599 0 0.06181360110457694 0.020598048664190172 0 0.067401145401669513 0.021223544218192957 0 0.066183282445709576 0.022048776725489775 0 0.067948305087947414 0.022206735846011762 0 0.066733737930689097 0.023281400079961101 0 0.066183282445709576 0.022048776725489775 0 0.067948305087947414 0.022206735846011762 0 0.061575797389033418 0.020315212950470479 0 0.061281363704095024 0.021038198292092563 0 0.06181360110457694 0.020598048664190172 0 0.061281363704095024 0.021038198292092563 0 0.061768761831935075 0.018616283704799601 0 0.061401138871683116 0.018273186196105039 0 0.061111774011712403 0.018572435108128772 0 0.058749977631361146 0.019670141129849359 0 0.061575797389033418 0.020315212950470479 0 0.059520543716871536 0.020166405677178798 0 0.059968221498165442 0.020196581144487646 0 0.059950804889680492 0.020096448529024442 0 0.059782220390187921 0.019858081973314005 0 0.059520543716871536 0.020166405677178798 0 0.059950804889680492 0.020096448529024442 0 0.012241730958167975 0.019593881005074205 0 0.012324828707181762 0.019576958052728192 0 0.012227297956885106 0.019505440319060683 0 0.012241730958167975 0.019593881005074205 0 0.012396778523493973 0.019689548277521562 0 0.012324828707181762 0.019576958052728192 0 0.012381231308402164 0.019496854445550937 0 0.012241730958167975 0.019593881005074205 0 0.011969740322634826 0.019575401154132217 0 0.012381231308402164 0.019496854445550937 0 0.012241730958167975 0.019593881005074205 0 0.01246381784195226 0.019616509078802271 0 0.012241730958167975 0.019593881005074205 0 0.01246381784195226 0.019616509078802271 0 0.012396778523493973 0.019689548277521562 0 0.01246381784195226 0.019616509078802271 0 0.012565427955753685 0.019735797222282483 0 0.012396778523493973 0.019689548277521562 0 0.01246381784195226 0.019616509078802271 0 0.01258242800914562 0.01954396865624344 0 0.012649783990284082 0.01964564284145378 0 0.01246381784195226 0.019616509078802271 0 0.012649783990284082 0.01964564284145378 0 0.012565427955753685 0.019735797222282483 0 0.012381231308402164 0.019496854445550937 0 0.01246381784195226 0.019616509078802271 0 0.01258242800914562 0.01954396865624344 0 0.036887212533175846 0.023579935968867385 0 0.032899140760756646 0.022265014441206193 0 0.01258242800914562 0.01954396865624344 0 0.012752131260046805 0.019540483342593187 0 0.012649783990284082 0.01964564284145378 0 0.012585968120395728 0.019409619310171503 0 0.01258242800914562 0.01954396865624344 0 0.012752131260046805 0.019540483342593187 0 0.045673745925078169 0.022084503694022189 0 0.045575424603527877 0.021023525133112096 0 0.04495460867665322 0.02204503327122664 0 0.032899140760756646 0.022265014441206193 0 0.030491813008897591 0.020633363987461593 0 0.045673745925078169 0.022084503694022189 0 0.04495460867665322 0.02204503327122664 0 0.045472752517848734 0.023158956618401293 0 0.04495460867665322 0.02204503327122664 0 0.045472752517848734 0.023158956618401293 0 0.044328465057824756 0.023085962800161536 0 0.041373711943850602 0.016540532925470555 0 0.041159767705179533 0.017301145492381462 0 0.040648233250106545 0.016499469018197769 0 0.042453841441839869 0.020060482004499228 0 0.030491813008897591 0.020633363987461593 0 0.041159767705179533 0.017301145492381462 0 0.040222925546710704 0.017224335661739334 0 0.040648233250106545 0.016499469018197769 0 0.012628137399564419 0.01969109193610772 0 0.012758583015900136 0.019539765766155827 0 0.012548469565914336 0.019536251240434902 0 0.02939248701259067 0.01935543321036725 0 0.030491813008897591 0.020633363987461593 0 0.030491813008897591 0.020633363987461593 0 0.01922522179083426 0.019952332075213627 0 0.01922522179083426 0.019952332075213627 0 0.016569417247753501 0.019792736021569998 0 0.012628137399564419 0.01969109193610772 0 0.012548469565914336 0.019536251240434902 0 0.012418939632906354 0.019665985390392146 0 0.012628137399564419 0.01969109193610772 0 0.012418939632906354 0.019665985390392146 0 0.012537302623035 0.019802458384778964 0 0.012418939632906354 0.019665985390392146 0 0.012275092529453906 0.019590964946967212 0 0.01232173882379122 0.019696362358181629 0 0.012418939632906354 0.019665985390392146 0 0.012400802553801882 0.019739932553953291 0 0.01232173882379122 0.019696362358181629 0 0.012418939632906354 0.019665985390392146 0 0.012324828707181762 0.019576958052728192 0 0.012275092529453906 0.019590964946967212 0 0.012548469565914336 0.019536251240434902 0 0.012418939632906354 0.019665985390392146 0 0.012324828707181762 0.019576958052728192 0 0.01249061103927915 0.019866470265136559 0 0.012468788515650076 0.019858762664387304 0 0.012537302623035 0.019802458384778964 0 0.012399247608826705 0.019909559842991378 0 0.012468788515650076 0.019858762664387304 0 0.012453705654807672 0.019964581986743914 0 0.012399247608826705 0.019909559842991378 0 0.012468788515650076 0.019858762664387304 0 0.012385262806572716 0.019845762473548193 0 0.012399247608826705 0.019909559842991378 0 0.012385262806572716 0.019845762473548193 0 0.012322120981886885 0.019910761013017881 0 0.01249061103927915 0.019866470265136559 0 0.012468788515650076 0.019858762664387304 0 0.012511369507705034 0.019851936994801981 0 0.029655149126078674 0.012711289473193667 0 0.030680073934320488 0.011015628294057235 0 0.012468788515650076 0.019858762664387304 0 0.012447388398776779 0.019802858867512756 0 0.012537302623035 0.019802458384778964 0 0.012468788515650076 0.019858762664387304 0 0.012385262806572716 0.019845762473548193 0 0.012447388398776779 0.019802858867512756 0 0.012385262806572716 0.019845762473548193 0 0.012360161640589633 0.019780013281077459 0 0.012447388398776779 0.019802858867512756 0 0.012418939632906354 0.019665985390392146 0 0.012400802553801882 0.019739932553953291 0 0.012537302623035 0.019802458384778964 0 0.012360161640589633 0.019780013281077459 0 0.012400802553801882 0.019739932553953291 0 0.012447388398776779 0.019802858867512756 0 0.012400802553801882 0.019739932553953291 0 0.012447388398776779 0.019802858867512756 0 0.012537302623035 0.019802458384778964 0 0.012360161640589633 0.019780013281077459 0 0.012400802553801882 0.019739932553953291 0 0.01232173882379122 0.019696362358181629 0 0.040222925546710704 0.017224335661739334 0 0.039808519357650715 0.017893242962561284 0 0.040249113083500716 0.017934054401784052 0 0.02939248701259067 0.01935543321036725 0 0.029909631244976365 0.017547631548970689 0 0.034032184574569246 0.011400531081097327 0 0.048213309012830101 0.012446679682464927 0 0.034032184574569246 0.011400531081097327 0 0.029909631244976365 0.017547631548970689 0 0.039378260071594416 0.018510304454213016 0 0.039808519357650715 0.017893242962561284 0 0.040249113083500716 0.017934054401784052 0 0.070077990588841899 0.012583368950510803 0 0.068920581889433744 0.012871381458814944 0 0.068452859612243719 0.014402362333104577 0 0.068920581889433744 0.012871381458814944 0 0.067469942709692129 0.013073192396429222 0 0.068876796809937205 0.012025019393075027 0 0.068407895330247895 0.01282908610241692 0 0.067720748492529459 0.012730615029070032 0 0.068394332626965565 0.012169829297032602 0 0.067469942709692129 0.013073192396429222 0 0.068452859612243719 0.014402362333104577 0 0.067074181332032495 0.014328993450831199 0 0.068920581889433744 0.012871381458814944 0 0.067469942709692129 0.013073192396429222 0 0.068452859612243719 0.014402362333104577 0 0.041159767705179533 0.017301145492381462 0 0.040222925546710704 0.017224335661739334 0 0.040249113083500716 0.017934054401784052 0 0.065518170495544134 0.017035947686910927 0 0.068452859612243719 0.014402362333104577 0 0.067074181332032495 0.014328993450831199 0 0.051833245512922801 0.015963669063771179 0 0.048213309012830101 0.012446679682464927 0 0.065564950391064705 0.015234049145379288 0 0.065387045898394058 0.015285620075517523 0 0.063361482255421597 0.017028897896395896 0 0.065518170495544134 0.017035947686910927 0 0.065731445842087566 0.014516913090881128 0 0.065518170495544134 0.017035947686910927 0 0.067074181332032495 0.014328993450831199 0 0.065731445842087566 0.014516913090881128 0 0.062131936590584615 0.018237564812283124 0 0.062613640341707508 0.017727575390011779 0 0.062441914926388675 0.01783665710233124 0 0.062283382950112265 0.017424487776717679 0 0.065387045898394058 0.015285620075517523 0 0.067757781450552362 0.013626876067752569 0 0.067720748492529459 0.012730615029070032 0 0.067107395805536055 0.013139288367002086 0 0.068407895330247895 0.01282908610241692 0 0.067757781450552362 0.013626876067752569 0 0.067720748492529459 0.012730615029070032 0 0.066875109681057948 0.013785328688483332 0 0.065387045898394058 0.015285620075517523 0 0.067469942709692129 0.013073192396429222 0 0.067074181332032495 0.014328993450831199 0 0.065995306415420826 0.014480760611069558 0 0.067848603943329783 0.011804772111589212 0 0.067062272619276886 0.012377082120964951 0 0.067110157317724267 0.011067257078304154 0 0.067720748492529459 0.012730615029070032 0 0.067848603943329783 0.011804772111589212 0 0.067062272619276886 0.012377082120964951 0 0.067720748492529459 0.012730615029070032 0 0.067848603943329783 0.011804772111589212 0 0.068394332626965565 0.012169829297032602 0 0.067848603943329783 0.011804772111589212 0 0.067965638063717623 0.010809323839688139 0 0.067110157317724267 0.011067257078304154 0 0.067965638063717623 0.010809323839688139 0 0.067110157317724267 0.011067257078304154 0 0.067442233959197878 0.0096499697185702237 0 0.067965638063717623 0.010809323839688139 0 0.068812288845023981 0.011315837948625373 0 0.068553807705664799 0.0096824452857560001 0 0.067848603943329783 0.011804772111589212 0 0.067965638063717623 0.010809323839688139 0 0.068812288845023981 0.011315837948625373 0 0.068812288845023981 0.011315837948625373 0 0.068394332626965565 0.012169829297032602 0 0.068876796809937205 0.012025019393075027 0 0.067848603943329783 0.011804772111589212 0 0.068812288845023981 0.011315837948625373 0 0.068394332626965565 0.012169829297032602 0 0.068407895330247895 0.01282908610241692 0 0.068394332626965565 0.012169829297032602 0 0.068876796809937205 0.012025019393075027 0 0.066875109681057948 0.013785328688483332 0 0.067400259591030798 0.013254673400459887 0 0.070077990588841899 0.012583368950510803 0 0.068920581889433744 0.012871381458814944 0 0.069412554130272155 0.012106689644349262 0 0.068920581889433744 0.012871381458814944 0 0.068876796809937205 0.012025019393075027 0 0.069412554130272155 0.012106689644349262 0 0.070077990588841899 0.012583368950510803 0 0.069412554130272155 0.012106689644349262 0 0.069875432941397433 0.011903676876608798 0 0.069412554130272155 0.012106689644349262 0 0.06957546877808729 0.01148731239510028 0 0.069875432941397433 0.011903676876608798 0 0.069412554130272155 0.012106689644349262 0 0.069182662450454874 0.011571102725748957 0 0.06957546877808729 0.01148731239510028 0 0.068876796809937205 0.012025019393075027 0 0.069412554130272155 0.012106689644349262 0 0.069182662450454874 0.011571102725748957 0 0.068812288845023981 0.011315837948625373 0 0.068876796809937205 0.012025019393075027 0 0.069182662450454874 0.011571102725748957 0 0.068812288845023981 0.011315837948625373 0 0.069182662450454874 0.011571102725748957 0 0.069430995182756458 0.011117333132651785 0 0.06596252459920883 0.008182266146692518 0 0.065436010954462137 0.0071374814071375929 0 0.068812288845023981 0.011315837948625373 0 0.069430995182756458 0.011117333132651785 0 0.069373067147046927 0.010460107427444847 0 0.069430995182756458 0.011117333132651785 0 0.069774269793516516 0.011172692934035373 0 0.069780758624765821 0.010834745782769653 0 0.069430995182756458 0.011117333132651785 0 0.069780758624765821 0.010834745782769653 0 0.069373067147046927 0.010460107427444847 0 0.069430995182756458 0.011117333132651785 0 0.06957546877808729 0.01148731239510028 0 0.069774269793516516 0.011172692934035373 0 0.069182662450454874 0.011571102725748957 0 0.069430995182756458 0.011117333132651785 0 0.06957546877808729 0.01148731239510028 0 0.06957546877808729 0.01148731239510028 0 0.069990763373925388 0.011415186024298167 0 0.069774269793516516 0.011172692934035373 0 0.069990763373925388 0.011415186024298167 0 0.069774269793516516 0.011172692934035373 0 0.070078365652759975 0.011036124893998214 0 0.069780758624765821 0.010834745782769653 0 0.070078365652759975 0.011036124893998214 0 0.069961562148433104 0.010517857933537768 0 0.069774269793516516 0.011172692934035373 0 0.069780758624765821 0.010834745782769653 0 0.070078365652759975 0.011036124893998214 0 0.070078365652759975 0.011036124893998214 0 0.070217927388848855 0.011096584201745106 0 0.069961562148433104 0.010517857933537768 0 0.037654841352682274 0.0061186416788858366 0 0.036851355762527724 0.005855906721677585 0 0.035163517496687641 -0.0010931024613623796 0 0.032908721886480675 0.0095059070932955597 0 0.038258202207546541 0.00011331209522536819 0 0.036851355762527724 0.005855906721677585 0 0.033340837771135862 0.0079811984926236902 0 0.036851355762527724 0.005855906721677585 0 0.031539935640600258 0.0041817043803867053 0 0.033340837771135862 0.0079811984926236902 0 0.031539935640600258 0.0041817043803867053 0 0.069990763373925388 0.011415186024298167 0 0.070276234896864853 0.01110927911380134 0 0.070252891067344128 0.011830974325961275 0 0.069990763373925388 0.011415186024298167 0 0.070078365652759975 0.011036124893998214 0 0.070276234896864853 0.01110927911380134 0 0.029834987265107488 0.0071797372643382443 0 0.02958551718492948 0.00837690656653374 0 0.032590324071142027 0.0059013896365805911 0 0.06957546877808729 0.01148731239510028 0 0.069990763373925388 0.011415186024298167 0 0.069875432941397433 0.011903676876608798 0 0.069990763373925388 0.011415186024298167 0 0.070252891067344128 0.011830974325961275 0 0.069875432941397433 0.011903676876608798 0 0.033031067212444545 0.012076503861425534 0 0.033920397658652547 0.010479141424847276 0 0.033708081105622775 0.011518795196311974 0 0.070077990588841899 0.012583368950510803 0 0.070252891067344128 0.011830974325961275 0 0.069875432941397433 0.011903676876608798 0 0.034032184574569246 0.011400531081097327 0 0.033340837771135862 0.0079811984926236902 0 0.034032184574569246 0.011400531081097327 0 0.030680073934320488 0.011015628294057235 0 0.012399247608826705 0.019909559842991378 0 0.012453705654807672 0.019964581986743914 0 0.012339279129225071 0.01997572027271572 0 0.033340837771135862 0.0079811984926236902 0 0.030680073934320488 0.011015628294057235 0 0.065338353732247056 0.013887282331679556 0 0.065720578303882449 0.013005447339725296 0 0.065172531776031425 0.013086189829779802 0 0.065338353732247056 0.013887282331679556 0 0.065720578303882449 0.013005447339725296 0 0.06571518507799623 0.014123730155036459 0 0.065338353732247056 0.013887282331679556 0 0.065148253168587272 0.014118949877362874 0 0.065172531776031425 0.013086189829779802 0 0.064274384474332286 0.013695191733893143 0 0.065148253168587272 0.014118949877362874 0 0.065172531776031425 0.013086189829779802 0 0.065338353732247056 0.013887282331679556 0 0.065148253168587272 0.014118949877362874 0 0.065174361369931891 0.014163954917861583 0 0.063159427134157176 0.016614033263868105 0 0.062949577174318469 0.017586080977544764 0 0.065148253168587272 0.014118949877362874 0 0.066408293116514791 0.017206598429567649 0 0.065451736771333355 0.017382459936321315 0 0.062949577174318469 0.017586080977544764 0 0.063134789415796339 0.01756115088144922 0 0.062949577174318469 0.017586080977544764 0 0.063711299295600918 0.016645659099097907 0 0.061401138871683116 0.018273186196105039 0 0.061023197619368981 0.018012861161273673 0 0.061522201012892921 0.017932524888110812 0 0.065338353732247056 0.013887282331679556 0 0.065174361369931891 0.014163954917861583 0 0.06571518507799623 0.014123730155036459 0 0.06571518507799623 0.014123730155036459 0 0.066664788485429491 0.013846118426822193 0 0.06639354236138241 0.013083779386146164 0 0.063711299295600918 0.016645659099097907 0 0.064456646187308619 0.015955666867418214 0 0.061522201012892921 0.017932524888110812 0 0.061895910073110301 0.018064954405322499 0 0.062030177931311922 0.017834734383331358 0 0.065387045898394058 0.015285620075517523 0 0.064456646187308619 0.015955666867418214 0 0.062613640341707508 0.017727575390011779 0 0.062441914926388675 0.01783665710233124 0 0.062030177931311922 0.017834734383331358 0 0.067757781450552362 0.013626876067752569 0 0.066664788485429491 0.013846118426822193 0 0.067107395805536055 0.013139288367002086 0 0.062088182822569608 0.018244243615824132 0 0.062441914926388675 0.01783665710233124 0 0.06211077075145488 0.017995855950722266 0 0.062441914926388675 0.01783665710233124 0 0.06211077075145488 0.017995855950722266 0 0.062030177931311922 0.017834734383331358 0 0.060582190952268043 0.018313929845234823 0 0.061099676303516426 0.017946951885594614 0 0.061895910073110301 0.018064954405322499 0 0.06211077075145488 0.017995855950722266 0 0.062030177931311922 0.017834734383331358 0 0.066664788485429491 0.013846118426822193 0 0.067107395805536055 0.013139288367002086 0 0.06639354236138241 0.013083779386146164 0 0.067107395805536055 0.013139288367002086 0 0.06639354236138241 0.013083779386146164 0 0.067062272619276886 0.012377082120964951 0 0.067720748492529459 0.012730615029070032 0 0.067107395805536055 0.013139288367002086 0 0.067062272619276886 0.012377082120964951 0 0.065720578303882449 0.013005447339725296 0 0.06571518507799623 0.014123730155036459 0 0.06639354236138241 0.013083779386146164 0 0.065720578303882449 0.013005447339725296 0 0.06639354236138241 0.013083779386146164 0 0.066218472172193996 0.012062519568393973 0 0.066218472172193996 0.012062519568393973 0 0.067062272619276886 0.012377082120964951 0 0.067110157317724267 0.011067257078304154 0 0.06639354236138241 0.013083779386146164 0 0.066218472172193996 0.012062519568393973 0 0.067062272619276886 0.012377082120964951 0 0.066218472172193996 0.012062519568393973 0 0.067110157317724267 0.011067257078304154 0 0.065819120977194501 0.010846232928555773 0 0.066218472172193996 0.012062519568393973 0 0.065819120977194501 0.010846232928555773 0 0.065461100874694506 0.011872359721810376 0 0.065819120977194501 0.010846232928555773 0 0.065461100874694506 0.011872359721810376 0 0.065146447469866586 0.010612509332635415 0 0.065720578303882449 0.013005447339725296 0 0.065461100874694506 0.011872359721810376 0 0.065172531776031425 0.013086189829779802 0 0.065720578303882449 0.013005447339725296 0 0.066218472172193996 0.012062519568393973 0 0.065461100874694506 0.011872359721810376 0 0.065461100874694506 0.011872359721810376 0 0.065172531776031425 0.013086189829779802 0 0.064396428916819598 0.011929564621374206 0 0.064274384474332286 0.013695191733893143 0 0.065172531776031425 0.013086189829779802 0 0.064396428916819598 0.011929564621374206 0 0.063613163389691835 0.010801790822328721 0 0.064396428916819598 0.011929564621374206 0 0.065146447469866586 0.010612509332635415 0 0.065461100874694506 0.011872359721810376 0 0.064396428916819598 0.011929564621374206 0 0.065146447469866586 0.010612509332635415 0 0.064068028516964109 0.010336496859259602 0 0.062745893902814917 0.0099861574273325156 0 0.063702315178556221 0.010220801983861513 0 0.063320391089449354 0.0092360381227251515 0 0.061881943858653705 0.0096641480489784177 0 0.063613163389691835 0.010801790822328721 0 0.065146447469866586 0.010612509332635415 0 0.063580865081136903 0.0097162550905484854 0 0.063320391089449354 0.0092360381227251515 0 0.064068942586543512 0.0082252242850209614 0 0.062044545583702468 0.0086962978445450263 0 0.06425952778397595 0.008115531346429632 0 0.062783655927455939 0.0088709015300858247 0 0.064259167589619581 0.007238582797461022 0 0.062788015666761024 0.0075808166283680197 0 0.06302449874094343 0.0065936089972705673 0 0.064068942586543512 0.0082252242850209614 0 0.064920216999428765 0.0092938358724926704 0 0.065877414691563968 0.0077422106829094454 0 0.063320391089449354 0.0092360381227251515 0 0.064068942586543512 0.0082252242850209614 0 0.064920216999428765 0.0092938358724926704 0 0.063702315178556221 0.010220801983861513 0 0.063320391089449354 0.0092360381227251515 0 0.064920216999428765 0.0092938358724926704 0 0.065819120977194501 0.010846232928555773 0 0.063702315178556221 0.010220801983861513 0 0.064920216999428765 0.0092938358724926704 0 0.064782125660697923 0.010540365396922 0 0.064068028516964109 0.010336496859259602 0 0.065819120977194501 0.010846232928555773 0 0.064920216999428765 0.0092938358724926704 0 0.066340910373372461 0.0094010204220900569 0 0.067110157317724267 0.011067257078304154 0 0.065819120977194501 0.010846232928555773 0 0.066340910373372461 0.0094010204220900569 0 0.067110157317724267 0.011067257078304154 0 0.066340910373372461 0.0094010204220900569 0 0.067442233959197878 0.0096499697185702237 0 0.066340910373372461 0.0094010204220900569 0 0.067007662957762226 0.0084549672530693752 0 0.067442233959197878 0.0096499697185702237 0 0.066340910373372461 0.0094010204220900569 0 0.067007662957762226 0.0084549672530693752 0 0.065877414691563968 0.0077422106829094454 0 0.064920216999428765 0.0092938358724926704 0 0.066340910373372461 0.0094010204220900569 0 0.065877414691563968 0.0077422106829094454 0 0.06425952778397595 0.008115531346429632 0 0.06578174525604423 0.007576031421955 0 0.064259167589619581 0.007238582797461022 0 0.065850941347258038 0.0069462098929606491 0 0.065491731271673875 0.0057279105036315689 0 0.06578174525604423 0.007576031421955 0 0.066623051959174409 0.007321340324538547 0 0.065850941347258038 0.0069462098929606491 0 0.065491731271673875 0.0057279105036315689 0 0.067470099235705752 0.0068633892152614789 0 0.067007662957762226 0.0084549672530693752 0 0.065877414691563968 0.0077422106829094454 0 0.067470099235705752 0.0068633892152614789 0 0.065491731271673875 0.0057279105036315689 0 0.067470099235705752 0.0068633892152614789 0 0.066378064412642115 0.0047994866019267328 0 0.065491731271673875 0.0057279105036315689 0 0.064055248803945614 0.0059644612382245797 0 0.064402015106510196 0.004978991434894056 0 0.064055248803945614 0.0059644612382245797 0 0.064402015106510196 0.004978991434894056 0 0.063157741307196591 0.0052534846796505781 0 0.064055248803945614 0.0059644612382245797 0 0.063157741307196591 0.0052534846796505781 0 0.06302449874094343 0.0065936089972705673 0 0.064259167589619581 0.007238582797461022 0 0.064055248803945614 0.0059644612382245797 0 0.06302449874094343 0.0065936089972705673 0 0.064259167589619581 0.007238582797461022 0 0.065491731271673875 0.0057279105036315689 0 0.064055248803945614 0.0059644612382245797 0 0.062776943708344635 0.0046839616102492187 0 0.065436010954462137 0.0071374814071375929 0 0.069898772919819732 0.0096021517656993578 0 0.069961562148433104 0.010517857933537768 0 0.07034622229197994 0.010128156920288093 0 0.070217927388848855 0.011096584201745106 0 0.069961562148433104 0.010517857933537768 0 0.07034622229197994 0.010128156920288093 0 0.069898772919819732 0.0096021517656993578 0 0.069961562148433104 0.010517857933537768 0 0.069373067147046927 0.010460107427444847 0 0.036851355762527724 0.005855906721677585 0 0.046515149909600581 0.0040139331962095615 0 0.069780758624765821 0.010834745782769653 0 0.069961562148433104 0.010517857933537768 0 0.069373067147046927 0.010460107427444847 0 0.070852318205773812 0.007863465775865797 0 0.069972503240939732 0.0095870702492213827 0 0.069900602824204877 0.0073284117909710213 0 0.069972503240939732 0.0095870702492213827 0 0.068999144154791262 0.0078705960366601858 0 0.069900602824204877 0.0073284117909710213 0 0.068999144154791262 0.0078705960366601858 0 0.067994691998278872 0.0085304677294817319 0 0.067470099235705752 0.0068633892152614789 0 0.068999144154791262 0.0078705960366601858 0 0.068553807705664799 0.0096824452857560001 0 0.067994691998278872 0.0085304677294817319 0 0.068812288845023981 0.011315837948625373 0 0.069972503240939732 0.0095870702492213827 0 0.068553807705664799 0.0096824452857560001 0 0.069972503240939732 0.0095870702492213827 0 0.068999144154791262 0.0078705960366601858 0 0.068553807705664799 0.0096824452857560001 0 0.068553807705664799 0.0096824452857560001 0 0.067442233959197878 0.0096499697185702237 0 0.067994691998278872 0.0085304677294817319 0 0.067965638063717623 0.010809323839688139 0 0.068553807705664799 0.0096824452857560001 0 0.067442233959197878 0.0096499697185702237 0 0.067007662957762226 0.0084549672530693752 0 0.067994691998278872 0.0085304677294817319 0 0.067470099235705752 0.0068633892152614789 0 0.067007662957762226 0.0084549672530693752 0 0.067442233959197878 0.0096499697185702237 0 0.067994691998278872 0.0085304677294817319 0 0.067470099235705752 0.0068633892152614789 0 0.067750784810842068 0.0052877975511320726 0 0.068652151297769914 0.0062908299652298045 0 0.067470099235705752 0.0068633892152614789 0 0.067750784810842068 0.0052877975511320726 0 0.066378064412642115 0.0047994866019267328 0 0.067750784810842068 0.0052877975511320726 0 0.068652151297769914 0.0062908299652298045 0 0.068594207371934793 0.0045420944641991938 0 0.068652151297769914 0.0062908299652298045 0 0.069609237572075724 0.0058286275584317083 0 0.068594207371934793 0.0045420944641991938 0 0.068999144154791262 0.0078705960366601858 0 0.067470099235705752 0.0068633892152614789 0 0.068652151297769914 0.0062908299652298045 0 0.068999144154791262 0.0078705960366601858 0 0.068652151297769914 0.0062908299652298045 0 0.069900602824204877 0.0073284117909710213 0 0.068652151297769914 0.0062908299652298045 0 0.069900602824204877 0.0073284117909710213 0 0.069609237572075724 0.0058286275584317083 0 0.069900602824204877 0.0073284117909710213 0 0.069609237572075724 0.0058286275584317083 0 0.070531648227758439 0.0065416996246076848 0 0.069609237572075724 0.0058286275584317083 0 0.070520824327991172 0.0054118653338036419 0 0.069666833117434865 0.0044422061245147143 0 0.069609237572075724 0.0058286275584317083 0 0.070520824327991172 0.0054118653338036419 0 0.070531648227758439 0.0065416996246076848 0 0.070520824327991172 0.0054118653338036419 0 0.070531648227758439 0.0065416996246076848 0 0.071722360724337866 0.006268002815370731 0 0.070520824327991172 0.0054118653338036419 0 0.07125970459383614 0.0046096135699802629 0 0.071722360724337866 0.006268002815370731 0 0.070852318205773812 0.007863465775865797 0 0.070531648227758439 0.0065416996246076848 0 0.071722360724337866 0.006268002815370731 0 0.070852318205773812 0.007863465775865797 0 0.069900602824204877 0.0073284117909710213 0 0.070531648227758439 0.0065416996246076848 0 0.062776943708344635 0.0046839616102492187 0 0.055088490012129787 0.0019474349486332105 0 0.052882066383630758 -0.0040276210334927575 0 0.052200341895716894 -0.0022987606235014375 0 0.060935639120123904 -0.0020687435294132286 0 0.056450591098704365 -0.00084505394755423724 0 0.061626179397598672 -0.010416389726105665 0 0.061050641890194816 -0.011109819556371052 0 0.060672305363440995 -0.01258537757865595 0 0.053437424170703934 -0.0028371038159474651 0 0.053132285099160112 -0.004382759229068783 0 0.053764765608069726 -0.0019623422088054423 0 0.070050566276558257 0.0024634799364389292 0 0.070236142501788404 0.0038338606954878424 0 0.07125970459383614 0.0046096135699802629 0 0.061626179397598672 -0.010416389726105665 0 0.061050641890194816 -0.011109819556371052 0 0.061409263852210308 -0.0095084417793786791 0 0.054734548844611979 -0.0037270463143597565 0 0.052882066383630758 -0.0040276210334927575 0 0.070050566276558257 0.0024634799364389292 0 0.069470105315874775 0.0028982914487426584 0 0.068218361887219678 0.0010308445830746393 0 0.069470105315874775 0.0028982914487426584 0 0.070236142501788404 0.0038338606954878424 0 0.06960079729975277 0.0036894469189782874 0 0.070050566276558257 0.0024634799364389292 0 0.069470105315874775 0.0028982914487426584 0 0.070236142501788404 0.0038338606954878424 0 0.07040070868810705 0.0045749010710051394 0 0.070236142501788404 0.0038338606954878424 0 0.07125970459383614 0.0046096135699802629 0 0.054734548844611979 -0.0037270463143597565 0 0.056450591098704365 -0.00084505394755423724 0 0.070520824327991172 0.0054118653338036419 0 0.07040070868810705 0.0045749010710051394 0 0.07125970459383614 0.0046096135699802629 0 0.070520824327991172 0.0054118653338036419 0 0.07040070868810705 0.0045749010710051394 0 0.069666833117434865 0.0044422061245147143 0 0.07040070868810705 0.0045749010710051394 0 0.070236142501788404 0.0038338606954878424 0 0.069666833117434865 0.0044422061245147143 0 0.070236142501788404 0.0038338606954878424 0 0.069666833117434865 0.0044422061245147143 0 0.06960079729975277 0.0036894469189782874 0 0.069666833117434865 0.0044422061245147143 0 0.06910926252067455 0.0036182506469214053 0 0.06960079729975277 0.0036894469189782874 0 0.069666833117434865 0.0044422061245147143 0 0.06910926252067455 0.0036182506469214053 0 0.068594207371934793 0.0045420944641991938 0 0.069609237572075724 0.0058286275584317083 0 0.069666833117434865 0.0044422061245147143 0 0.068594207371934793 0.0045420944641991938 0 0.068404278629051726 0.0024292417147291239 0 0.067288150955706422 0.0022325296175327155 0 0.069470105315874775 0.0028982914487426584 0 0.065385494896235768 0.0014528432321381964 0 0.068218361887219678 0.0010308445830746393 0 0.069470105315874775 0.0028982914487426584 0 0.06910926252067455 0.0036182506469214053 0 0.068486030497532407 0.0031093869980934052 0 0.069470105315874775 0.0028982914487426584 0 0.06910926252067455 0.0036182506469214053 0 0.06960079729975277 0.0036894469189782874 0 0.06910926252067455 0.0036182506469214053 0 0.068486030497532407 0.0031093869980934052 0 0.068594207371934793 0.0045420944641991938 0 0.068486030497532407 0.0031093869980934052 0 0.068594207371934793 0.0045420944641991938 0 0.067605249685315658 0.0040617121895112039 0 0.067750784810842068 0.0052877975511320726 0 0.067605249685315658 0.0040617121895112039 0 0.066378064412642115 0.0047994866019267328 0 0.067750784810842068 0.0052877975511320726 0 0.068594207371934793 0.0045420944641991938 0 0.067605249685315658 0.0040617121895112039 0 0.068486030497532407 0.0031093869980934052 0 0.067605249685315658 0.0040617121895112039 0 0.066868201633387622 0.0026332517199760871 0 0.067288150955706422 0.0022325296175327155 0 0.065850165703511571 0.0019575020867935596 0 0.065385494896235768 0.0014528432321381964 0 0.065081362851508659 0.00026346444373856568 0 0.064813283436506011 0.00076954682094936184 0 0.065081362851508659 0.00026346444373856568 0 0.064865392144550296 -0.00021300823885103242 0 0.064813283436506011 0.00076954682094936184 0 0.065081362851508659 0.00026346444373856568 0 0.064865392144550296 -0.00021300823885103242 0 0.065180416543204014 -0.0007743137080163027 0 0.064865392144550296 -0.00021300823885103242 0 0.065180416543204014 -0.0007743137080163027 0 0.064905328657971037 -0.0011183730772138434 0 0.065081362851508659 0.00026346444373856568 0 0.065180416543204014 -0.0007743137080163027 0 0.066222326285282213 -8.534251318260463e-05 0 0.065180416543204014 -0.0007743137080163027 0 0.065681635280885206 -0.0015275756892327338 0 0.064850753012665727 -0.0019466063194505414 0 0.065180416543204014 -0.0007743137080163027 0 0.066222326285282213 -8.534251318260463e-05 0 0.065681635280885206 -0.0015275756892327338 0 0.065385494896235768 0.0014528432321381964 0 0.065081362851508659 0.00026346444373856568 0 0.066222326285282213 -8.534251318260463e-05 0 0.065385494896235768 0.0014528432321381964 0 0.068218361887219678 0.0010308445830746393 0 0.066222326285282213 -8.534251318260463e-05 0 0.068218361887219678 0.0010308445830746393 0 0.067205401383263266 -0.0001624900063235552 0 0.067885986378838595 -0.00077672248226051265 0 0.068218361887219678 0.0010308445830746393 0 0.067205401383263266 -0.0001624900063235552 0 0.066222326285282213 -8.534251318260463e-05 0 0.066222326285282213 -8.534251318260463e-05 0 0.066720499913650116 -0.0006297612037801985 0 0.065681635280885206 -0.0015275756892327338 0 0.062809333909630588 -0.002595493462792618 0 0.063328223097220235 -0.0025120555344336788 0 0.065681635280885206 -0.0015275756892327338 0 0.067885986378838595 -0.00077672248226051265 0 0.064585535327891713 -0.0030504318869047004 0 0.067205401383263266 -0.0001624900063235552 0 0.066222326285282213 -8.534251318260463e-05 0 0.066720499913650116 -0.0006297612037801985 0 0.066720499913650116 -0.0006297612037801985 0 0.065681635280885206 -0.0015275756892327338 0 0.067885986378838595 -0.00077672248226051265 0 0.067205401383263266 -0.0001624900063235552 0 0.066720499913650116 -0.0006297612037801985 0 0.067885986378838595 -0.00077672248226051265 0 0.06180103410201112 -0.0086970286581697694 0 0.061457330296465482 -0.0071371816586739195 0 0.062486929271071225 -0.00470296512123786 0 0.062943123395760317 -0.0078524099671288504 0 0.061833835340577022 -0.0079857546083247615 0 0.062486929271071225 -0.00470296512123786 0 0.052424442480576948 -0.0035732586796020887 0 0.05373956557779834 -0.0038333536971615341 0 0.061078554415801296 -0.0063659347232786802 0 0.061457330296465482 -0.0071371816586739195 0 0.062486929271071225 -0.00470296512123786 0 0.060749477027817279 -0.0076146174110824924 0 0.060072042026606903 -0.0083259287825303771 0 0.060020632403181479 -0.0069031356231447636 0 0.061078554415801296 -0.0063659347232786802 0 0.060749477027817279 -0.0076146174110824924 0 0.060020632403181479 -0.0069031356231447636 0 0.061078554415801296 -0.0063659347232786802 0 0.061457330296465482 -0.0071371816586739195 0 0.060749477027817279 -0.0076146174110824924 0 0.061457330296465482 -0.0071371816586739195 0 0.060749477027817279 -0.0076146174110824924 0 0.061075258017133795 -0.0080389678504698241 0 0.060749477027817279 -0.0076146174110824924 0 0.061075258017133795 -0.0080389678504698241 0 0.060072042026606903 -0.0083259287825303771 0 0.06180103410201112 -0.0086970286581697694 0 0.061075258017133795 -0.0080389678504698241 0 0.060072042026606903 -0.0083259287825303771 0 0.06180103410201112 -0.0086970286581697694 0 0.061457330296465482 -0.0071371816586739195 0 0.061075258017133795 -0.0080389678504698241 0 0.052424442480576948 -0.0035732586796020887 0 0.052882066383630758 -0.0040276210334927575 0 0.061626179397598672 -0.010416389726105665 0 0.062943123395760317 -0.0078524099671288504 0 0.061409263852210308 -0.0095084417793786791 0 0.042288878073132224 -0.0031765106012716883 0 0.04238015391742387 -0.0027633772678819601 0 0.042901835671965621 -0.002835982673934043 0 0.070050566276558257 0.0024634799364389292 0 0.068218361887219678 0.0010308445830746393 0 0.067885986378838595 -0.00077672248226051265 0 0.060935639120123904 -0.0020687435294132286 0 0.062809333909630588 -0.002595493462792618 0 0.062943123395760317 -0.0078524099671288504 0 0.061833835340577022 -0.0079857546083247615 0 0.061409263852210308 -0.0095084417793786791 0 0.063934533582483258 0.0036807501551103035 0 0.06528965363456142 0.0039484463386187463 0 0.06476405495216743 0.0017971260200924585 0 0.063934533582483258 0.0036807501551103035 0 0.06476405495216743 0.0017971260200924585 0 0.063461206631051703 0.0021352857091955801 0 0.063934533582483258 0.0036807501551103035 0 0.063461206631051703 0.0021352857091955801 0 0.06286756319221834 0.0038624067947924784 0 0.063157741307196591 0.0052534846796505781 0 0.063934533582483258 0.0036807501551103035 0 0.06286756319221834 0.0038624067947924784 0 0.064402015106510196 0.004978991434894056 0 0.063157741307196591 0.0052534846796505781 0 0.063934533582483258 0.0036807501551103035 0 0.064402015106510196 0.004978991434894056 0 0.063934533582483258 0.0036807501551103035 0 0.06528965363456142 0.0039484463386187463 0 0.065491731271673875 0.0057279105036315689 0 0.064402015106510196 0.004978991434894056 0 0.06528965363456142 0.0039484463386187463 0 0.065491731271673875 0.0057279105036315689 0 0.06528965363456142 0.0039484463386187463 0 0.066378064412642115 0.0047994866019267328 0 0.06528965363456142 0.0039484463386187463 0 0.066378064412642115 0.0047994866019267328 0 0.066868201633387622 0.0026332517199760871 0 0.067605249685315658 0.0040617121895112039 0 0.066378064412642115 0.0047994866019267328 0 0.066868201633387622 0.0026332517199760871 0 0.06528965363456142 0.0039484463386187463 0 0.066868201633387622 0.0026332517199760871 0 0.06476405495216743 0.0017971260200924585 0 0.065850165703511571 0.0019575020867935596 0 0.065106258784216275 0.0018511411166104949 0 0.064813283436506011 0.00076954682094936184 0 0.064981736181475486 -1.5995521859061376e-06 0 0.06476405495216743 0.0017971260200924585 0 0.064865392144550296 -0.00021300823885103242 0 0.064813283436506011 0.00076954682094936184 0 0.064981736181475486 -1.5995521859061376e-06 0 0.064865392144550296 -0.00021300823885103242 0 0.064981736181475486 -1.5995521859061376e-06 0 0.064908759675519359 -0.00099959416663927283 0 0.064981736181475486 -1.5995521859061376e-06 0 0.064266125586580458 0.00042968858905690775 0 0.06476405495216743 0.0017971260200924585 0 0.064266125586580458 0.00042968858905690775 0 0.06476405495216743 0.0017971260200924585 0 0.063461206631051703 0.0021352857091955801 0 0.064266125586580458 0.00042968858905690775 0 0.063461206631051703 0.0021352857091955801 0 0.062796538370037583 0.00088226866600634086 0 0.062796538370037583 0.00088226866600634086 0 0.061224328823381843 0.0012466143476773806 0 0.062078398710657783 0.0024651682031437555 0 0.062796538370037583 0.00088226866600634086 0 0.061224328823381843 0.0012466143476773806 0 0.061928457952112381 -0.00021524050377573714 0 0.061224328823381843 0.0012466143476773806 0 0.062078398710657783 0.0024651682031437555 0 0.060911512053871006 0.0029301072594302047 0 0.063461206631051703 0.0021352857091955801 0 0.062796538370037583 0.00088226866600634086 0 0.062078398710657783 0.0024651682031437555 0 0.062078398710657783 0.0024651682031437555 0 0.061766188140644017 0.0041623713147012483 0 0.06286756319221834 0.0038624067947924784 0 0.063461206631051703 0.0021352857091955801 0 0.062078398710657783 0.0024651682031437555 0 0.06286756319221834 0.0038624067947924784 0 0.062078398710657783 0.0024651682031437555 0 0.061766188140644017 0.0041623713147012483 0 0.060911512053871006 0.0029301072594302047 0 0.061766188140644017 0.0041623713147012483 0 0.062177192563178489 0.0053488030007367831 0 0.061320793046300316 0.0054990566327021064 0 0.061766188140644017 0.0041623713147012483 0 0.06286756319221834 0.0038624067947924784 0 0.062177192563178489 0.0053488030007367831 0 0.063157741307196591 0.0052534846796505781 0 0.06286756319221834 0.0038624067947924784 0 0.062177192563178489 0.0053488030007367831 0 0.059999116643863794 0.0048737407807256218 0 0.059674820379843237 0.0036924839059883944 0 0.059161243438214259 0.0053444895650160236 0 0.059999116643863794 0.0048737407807256218 0 0.060673649506543498 0.0043892598774516326 0 0.060476982775379724 0.0057197628808544621 0 0.059999116643863794 0.0048737407807256218 0 0.059161243438214259 0.0053444895650160236 0 0.059658224323195737 0.0068092687276505512 0 0.060673649506543498 0.0043892598774516326 0 0.061320793046300316 0.0054990566327021064 0 0.060476982775379724 0.0057197628808544621 0 0.061766188140644017 0.0041623713147012483 0 0.060673649506543498 0.0043892598774516326 0 0.061320793046300316 0.0054990566327021064 0 0.061766188140644017 0.0041623713147012483 0 0.060673649506543498 0.0043892598774516326 0 0.060911512053871006 0.0029301072594302047 0 0.060673649506543498 0.0043892598774516326 0 0.059674820379843237 0.0036924839059883944 0 0.060911512053871006 0.0029301072594302047 0 0.059999116643863794 0.0048737407807256218 0 0.060673649506543498 0.0043892598774516326 0 0.059674820379843237 0.0036924839059883944 0 0.059674820379843237 0.0036924839059883944 0 0.060066644950713739 0.0020700909963906459 0 0.059241870679022271 0.0026124978463007331 0 0.059674820379843237 0.0036924839059883944 0 0.060066644950713739 0.0020700909963906459 0 0.060911512053871006 0.0029301072594302047 0 0.061224328823381843 0.0012466143476773806 0 0.060066644950713739 0.0020700909963906459 0 0.060911512053871006 0.0029301072594302047 0 0.061224328823381843 0.0012466143476773806 0 0.060066644950713739 0.0020700909963906459 0 0.060344540686784638 3.3369853179587321e-05 0 0.060066644950713739 0.0020700909963906459 0 0.058837168149887487 0.0015358884214875684 0 0.060344540686784638 3.3369853179587321e-05 0 0.058837168149887487 0.0015358884214875684 0 0.057456897730105712 0.0010847176382046545 0 0.057724425720895568 0.0022280796233074629 0 0.057456897730105712 0.0010847176382046545 0 0.057724425720895568 0.0022280796233074629 0 0.05670371106249434 0.0019953453590361627 0 0.058837168149887487 0.0015358884214875684 0 0.057724425720895568 0.0022280796233074629 0 0.058405884171490008 0.0032140040498451431 0 0.057724425720895568 0.0022280796233074629 0 0.057621698721682518 0.0034451859023567019 0 0.056818492248372127 0.0030650438710091953 0 0.057724425720895568 0.0022280796233074629 0 0.057621698721682518 0.0034451859023567019 0 0.058405884171490008 0.0032140040498451431 0 0.059674820379843237 0.0036924839059883944 0 0.058405884171490008 0.0032140040498451431 0 0.059241870679022271 0.0026124978463007331 0 0.060066644950713739 0.0020700909963906459 0 0.058837168149887487 0.0015358884214875684 0 0.059241870679022271 0.0026124978463007331 0 0.058837168149887487 0.0015358884214875684 0 0.058405884171490008 0.0032140040498451431 0 0.059241870679022271 0.0026124978463007331 0 0.054999985471921434 0.0012639684095748849 0 0.05615976942573609 0.0011157429512703464 0 0.05663589254290971 -0.0014013084139714986 0 0.055585111415779813 0.0017866735127063998 0 0.056405424915956126 0.00092931744278883384 0 0.05670371106249434 0.0019953453590361627 0 0.055585111415779813 0.0017866735127063998 0 0.05670371106249434 0.0019953453590361627 0 0.056163785874525689 0.0028220137602322391 0 0.057456897730105712 0.0010847176382046545 0 0.056405424915956126 0.00092931744278883384 0 0.05670371106249434 0.0019953453590361627 0 0.057724425720895568 0.0022280796233074629 0 0.05670371106249434 0.0019953453590361627 0 0.056818492248372127 0.0030650438710091953 0 0.056818492248372127 0.0030650438710091953 0 0.056163785874525689 0.0028220137602322391 0 0.056261524212041537 0.003672533201298212 0 0.05670371106249434 0.0019953453590361627 0 0.056818492248372127 0.0030650438710091953 0 0.056163785874525689 0.0028220137602322391 0 0.054999985471921434 0.0012639684095748849 0 0.05615976942573609 0.0011157429512703464 0 0.055565707143980091 0.003671225270313255 0 0.055585111415779813 0.0017866735127063998 0 0.056163785874525689 0.0028220137602322391 0 0.055565707143980091 0.003671225270313255 0 0.054999985471921434 0.0012639684095748849 0 0.054999643789928054 0.0045102951584077419 0 0.055565707143980091 0.003671225270313255 0 0.055900192031742714 0.00095282651209794178 0 0.055735137501232428 0.0019671565228532219 0 0.056163785874525689 0.0028220137602322391 0 0.055565707143980091 0.003671225270313255 0 0.056261524212041537 0.003672533201298212 0 0.054999643789928054 0.0045102951584077419 0 0.055942387162274461 0.0044219803685519336 0 0.055947390692634449 0.0059621890228545556 0 0.054999643789928054 0.0045102951584077419 0 0.055565707143980091 0.003671225270313255 0 0.055942387162274461 0.0044219803685519336 0 0.055565707143980091 0.003671225270313255 0 0.055942387162274461 0.0044219803685519336 0 0.056261524212041537 0.003672533201298212 0 0.055942387162274461 0.0044219803685519336 0 0.056860625649699952 0.0043660187999122737 0 0.055947390692634449 0.0059621890228545556 0 0.055942387162274461 0.0044219803685519336 0 0.056860625649699952 0.0043660187999122737 0 0.056261524212041537 0.003672533201298212 0 0.056818492248372127 0.0030650438710091953 0 0.056860625649699952 0.0043660187999122737 0 0.056261524212041537 0.003672533201298212 0 0.057621698721682518 0.0034451859023567019 0 0.056818492248372127 0.0030650438710091953 0 0.056860625649699952 0.0043660187999122737 0 0.056860625649699952 0.0043660187999122737 0 0.057402838930995133 0.0057489706344746325 0 0.057917295621641718 0.0043980988979987999 0 0.056860625649699952 0.0043660187999122737 0 0.057402838930995133 0.0057489706344746325 0 0.055947390692634449 0.0059621890228545556 0 0.057402838930995133 0.0057489706344746325 0 0.055947390692634449 0.0059621890228545556 0 0.056951881760954483 0.0070300940358196239 0 0.054999643789928054 0.0045102951584077419 0 0.055947390692634449 0.0059621890228545556 0 0.054999845774239137 0.0077556844063616489 0 0.059674820379843237 0.0036924839059883944 0 0.058405884171490008 0.0032140040498451431 0 0.058745631686862129 0.0043190012400716868 0 0.059674820379843237 0.0036924839059883944 0 0.058745631686862129 0.0043190012400716868 0 0.059161243438214259 0.0053444895650160236 0 0.058405884171490008 0.0032140040498451431 0 0.058745631686862129 0.0043190012400716868 0 0.057917295621641718 0.0043980988979987999 0 0.057621698721682518 0.0034451859023567019 0 0.058405884171490008 0.0032140040498451431 0 0.057917295621641718 0.0043980988979987999 0 0.057621698721682518 0.0034451859023567019 0 0.056860625649699952 0.0043660187999122737 0 0.057917295621641718 0.0043980988979987999 0 0.058745631686862129 0.0043190012400716868 0 0.057917295621641718 0.0043980988979987999 0 0.058321880749720979 0.005425581574107303 0 0.057402838930995133 0.0057489706344746325 0 0.058321880749720979 0.005425581574107303 0 0.058450583777979695 0.0068914464207182023 0 0.057402838930995133 0.0057489706344746325 0 0.057917295621641718 0.0043980988979987999 0 0.058321880749720979 0.005425581574107303 0 0.058321880749720979 0.005425581574107303 0 0.059161243438214259 0.0053444895650160236 0 0.058450583777979695 0.0068914464207182023 0 0.058745631686862129 0.0043190012400716868 0 0.058321880749720979 0.005425581574107303 0 0.059161243438214259 0.0053444895650160236 0 0.059161243438214259 0.0053444895650160236 0 0.058450583777979695 0.0068914464207182023 0 0.059658224323195737 0.0068092687276505512 0 0.058450583777979695 0.0068914464207182023 0 0.05752205535200134 0.0088288318767226204 0 0.058761855445830853 0.0081221201399885156 0 0.058732379776512703 0.0088698008510406778 0 0.059648802775718629 0.0090980109883604353 0 0.058450583777979695 0.0068914464207182023 0 0.058761855445830853 0.0081221201399885156 0 0.059658224323195737 0.0068092687276505512 0 0.058761855445830853 0.0081221201399885156 0 0.059958108145235549 0.0080033053434460846 0 0.059658224323195737 0.0068092687276505512 0 0.055947390692634449 0.0059621890228545556 0 0.054999845774239137 0.0077556844063616489 0 0.056951881760954483 0.0070300940358196239 0 0.057402838930995133 0.0057489706344746325 0 0.058450583777979695 0.0068914464207182023 0 0.056951881760954483 0.0070300940358196239 0 0.058450583777979695 0.0068914464207182023 0 0.056951881760954483 0.0070300940358196239 0 0.05752205535200134 0.0088288318767226204 0 0.054999845774239137 0.0077556844063616489 0 0.056951881760954483 0.0070300940358196239 0 0.05752205535200134 0.0088288318767226204 0 0.054999845774239137 0.0077556844063616489 0 0.05752205535200134 0.0088288318767226204 0 0.054999652659879349 0.011002306502958496 0 0.05752205535200134 0.0088288318767226204 0 0.054999652659879349 0.011002306502958496 0 0.057334908802238349 0.011643205445951134 0 0.05752205535200134 0.0088288318767226204 0 0.057334908802238349 0.011643205445951134 0 0.059030817643126191 0.010974908633346063 0 0.056355614349863629 0.013823166921542854 0 0.057334908802238349 0.011643205445951134 0 0.059318538766623734 0.013103777222015511 0 0.057976414245494691 0.012981080848774173 0 0.059346370796108605 0.012523255838711316 0 0.056355614349863629 0.013823166921542854 0 0.054999652659879349 0.011002306502958496 0 0.057334908802238349 0.011643205445951134 0 0.054999997212728725 0.014249381060510808 0 0.056355614349863629 0.013823166921542854 0 0.054999652659879349 0.011002306502958496 0 0.059648802775718629 0.0090980109883604353 0 0.061170706184956208 0.0095434141514095915 0 0.060959721985962709 0.011367005521765427 0 0.06254826092237277 0.012343561504362367 0 0.063277287515315334 0.010632603211838605 0 0.060959721985962709 0.011367005521765427 0 0.060552950446441295 0.0097957890266905431 0 0.063277287515315334 0.010632603211838605 0 0.05752205535200134 0.0088288318767226204 0 0.060552950446441295 0.0097957890266905431 0 0.059030817643126191 0.010974908633346063 0 0.060959721985962709 0.011367005521765427 0 0.060552950446441295 0.0097957890266905431 0 0.059030817643126191 0.010974908633346063 0 0.057334908802238349 0.011643205445951134 0 0.059030817643126191 0.010974908633346063 0 0.059318538766623734 0.013103777222015511 0 0.060959721985962709 0.011367005521765427 0 0.059030817643126191 0.010974908633346063 0 0.059318538766623734 0.013103777222015511 0 0.060301554248030277 0.014982880365955338 0 0.059159284395283965 0.013237425106240003 0 0.061849087553493054 0.01263475909541361 0 0.060959721985962709 0.011367005521765427 0 0.059318538766623734 0.013103777222015511 0 0.06254826092237277 0.012343561504362367 0 0.060301554248030277 0.014982880365955338 0 0.06240457232027468 0.013486488278431564 0 0.061849087553493054 0.01263475909541361 0 0.059346370796108605 0.012523255838711316 0 0.061504797099709997 0.011502710150822902 0 0.06240457232027468 0.013486488278431564 0 0.061849087553493054 0.01263475909541361 0 0.064475390846144134 0.012028815351298962 0 0.061504797099709997 0.011502710150822902 0 0.061988531082502359 0.010156733188830555 0 0.059379058787390304 0.010854098002307976 0 0.058512330275160521 0.010100158686293235 0 0.059950452119276881 0.010258682683107237 0 0.06254826092237277 0.012343561504362367 0 0.063277287515315334 0.010632603211838605 0 0.065654895196946797 0.011612891339307679 0 0.059958108145235549 0.0080033053434460846 0 0.060730486002344868 0.0075164610722228461 0 0.061216466059055355 0.0081970391314050307 0 0.063277287515315334 0.010632603211838605 0 0.065958400156082661 0.011402127841616419 0 0.065654895196946797 0.011612891339307679 0 0.061170706184956208 0.0095434141514095915 0 0.061985817348855381 0.0099417175732505973 0 0.060730486002344868 0.0075164610722228461 0 0.061216466059055355 0.0081970391314050307 0 0.061355061749661786 0.0073887003529634239 0 0.06085174241393921 0.0088079910723505329 0 0.061153837852670853 0.0090456128398797575 0 0.061371964855251045 0.0087181132859368571 0 0.061988531082502359 0.010156733188830555 0 0.061981535746999404 0.0099303539005858813 0 0.062062559361274867 0.010191445486083833 0 0.062180923078824071 0.010109623010764962 0 0.061955114992580489 0.010160602595382436 0 0.061985817348855381 0.0099417175732505973 0 0.061988531082502359 0.010156733188830555 0 0.058512330275160521 0.010100158686293235 0 0.06040380625708363 0.0095848643906046912 0 0.059950452119276881 0.010258682683107237 0 0.06085174241393921 0.0088079910723505329 0 0.060915397506545531 0.0092306435729888024 0 0.06040380625708363 0.0095848643906046912 0 0.060915397506545531 0.0092306435729888024 0 0.061153837852670853 0.0090456128398797575 0 0.061251415702561415 0.0094876224170805743 0 0.058512330275160521 0.010100158686293235 0 0.06085174241393921 0.0088079910723505329 0 0.06040380625708363 0.0095848643906046912 0 0.06085174241393921 0.0088079910723505329 0 0.060915397506545531 0.0092306435729888024 0 0.061153837852670853 0.0090456128398797575 0 0.060260907920297202 0.011843279064045916 0 0.061988531082502359 0.010156733188830555 0 0.060915397506545531 0.0092306435729888024 0 0.06040380625708363 0.0095848643906046912 0 0.061251415702561415 0.0094876224170805743 0 0.060796078232722615 0.010246463764375602 0 0.061434203111380883 0.010225681342719884 0 0.061251415702561415 0.0094876224170805743 0 0.06040380625708363 0.0095848643906046912 0 0.060796078232722615 0.010246463764375602 0 0.061251415702561415 0.0094876224170805743 0 0.06040380625708363 0.0095848643906046912 0 0.059950452119276881 0.010258682683107237 0 0.060796078232722615 0.010246463764375602 0 0.062291685733008494 0.010802506468869138 0 0.061434203111380883 0.010225681342719884 0 0.061912202261819156 0.0099804648601806486 0 0.061955714581659924 0.0093815090139103517 0 0.063580865081136903 0.0097162550905484854 0 0.061371964855251045 0.0087181132859368571 0 0.061386063343568047 0.010978900904731137 0 0.060796078232722615 0.010246463764375602 0 0.061434203111380883 0.010225681342719884 0 0.062608191759730217 0.0099797746162991995 0 0.061955714581659924 0.0093815090139103517 0 0.063580865081136903 0.0097162550905484854 0 0.062745893902814917 0.0099861574273325156 0 0.061981535746999404 0.0099303539005858813 0 0.061434203111380883 0.010225681342719884 0 0.061912202261819156 0.0099804648601806486 0 0.061251415702561415 0.0094876224170805743 0 0.062291685733008494 0.010802506468869138 0 0.061912202261819156 0.0099804648601806486 0 0.062608191759730217 0.0099797746162991995 0 0.061912202261819156 0.0099804648601806486 0 0.062608191759730217 0.0099797746162991995 0 0.061955714581659924 0.0093815090139103517 0 0.061153837852670853 0.0090456128398797575 0 0.061433723921551123 0.0091601907601784882 0 0.061371964855251045 0.0087181132859368571 0 0.061153837852670853 0.0090456128398797575 0 0.061433723921551123 0.0091601907601784882 0 0.061251415702561415 0.0094876224170805743 0 0.061955714581659924 0.0093815090139103517 0 0.061433723921551123 0.0091601907601784882 0 0.061251415702561415 0.0094876224170805743 0 0.061955714581659924 0.0093815090139103517 0 0.061433723921551123 0.0091601907601784882 0 0.061371964855251045 0.0087181132859368571 0 0.061912202261819156 0.0099804648601806486 0 0.061955714581659924 0.0093815090139103517 0 0.061251415702561415 0.0094876224170805743 0 0.063613163389691835 0.010801790822328721 0 0.062608191759730217 0.0099797746162991995 0 0.063580865081136903 0.0097162550905484854 0 0.063613163389691835 0.010801790822328721 0 0.062291685733008494 0.010802506468869138 0 0.062608191759730217 0.0099797746162991995 0 0.061881943858653705 0.0096641480489784177 0 0.062044545583702468 0.0086962978445450263 0 0.060091576630555227 0.0091507421239391869 0 0.062788015666761024 0.0075808166283680197 0 0.062102399295141553 0.0072400964050604788 0 0.06302449874094343 0.0065936089972705673 0 0.063320391089449354 0.0092360381227251515 0 0.061881943858653705 0.0096641480489784177 0 0.062044545583702468 0.0086962978445450263 0 0.062788015666761024 0.0075808166283680197 0 0.061318620300781529 0.0079246635913156026 0 0.062102399295141553 0.0072400964050604788 0 0.062783655927455939 0.0088709015300858247 0 0.061981535746999404 0.0099303539005858813 0 0.061181732663276631 0.007886267454754816 0 0.061318620300781529 0.0079246635913156026 0 0.062102399295141553 0.0072400964050604788 0 0.061985817348855381 0.0099417175732505973 0 0.061981535746999404 0.0099303539005858813 0 0.061985817348855381 0.0099417175732505973 0 0.062540053927204436 0.008799243369463302 0 0.061216466059055355 0.0081970391314050307 0 0.062137706136334667 0.0074567717705763493 0 0.061355061749661786 0.0073887003529634239 0 0.061355061749661786 0.0073887003529634239 0 0.0618770146089676 0.0065217400360492225 0 0.06096253834426419 0.0067413052978764114 0 0.062137706136334667 0.0074567717705763493 0 0.061355061749661786 0.0073887003529634239 0 0.0618770146089676 0.0065217400360492225 0 0.062137706136334667 0.0074567717705763493 0 0.0618770146089676 0.0065217400360492225 0 0.06302449874094343 0.0065936089972705673 0 0.0618770146089676 0.0065217400360492225 0 0.06302449874094343 0.0065936089972705673 0 0.062561589327976327 0.0059284515965887866 0 0.062540053927204436 0.008799243369463302 0 0.06283424517335022 0.0083588006929872331 0 0.0618770146089676 0.0065217400360492225 0 0.062177192563178489 0.0053488030007367831 0 0.062561589327976327 0.0059284515965887866 0 0.063157741307196591 0.0052534846796505781 0 0.06302449874094343 0.0065936089972705673 0 0.062561589327976327 0.0059284515965887866 0 0.063157741307196591 0.0052534846796505781 0 0.062177192563178489 0.0053488030007367831 0 0.062561589327976327 0.0059284515965887866 0 0.0618770146089676 0.0065217400360492225 0 0.061320793046300316 0.0054990566327021064 0 0.06096253834426419 0.0067413052978764114 0 0.0618770146089676 0.0065217400360492225 0 0.062177192563178489 0.0053488030007367831 0 0.061320793046300316 0.0054990566327021064 0 0.060476982775379724 0.0057197628808544621 0 0.060300901337756861 0.0070608240521140763 0 0.06096253834426419 0.0067413052978764114 0 0.061320793046300316 0.0054990566327021064 0 0.060476982775379724 0.0057197628808544621 0 0.06096253834426419 0.0067413052978764114 0 0.060476982775379724 0.0057197628808544621 0 0.059658224323195737 0.0068092687276505512 0 0.060300901337756861 0.0070608240521140763 0 0.059999116643863794 0.0048737407807256218 0 0.060476982775379724 0.0057197628808544621 0 0.059658224323195737 0.0068092687276505512 0 0.059958108145235549 0.0080033053434460846 0 0.059658224323195737 0.0068092687276505512 0 0.060300901337756861 0.0070608240521140763 0 0.059958108145235549 0.0080033053434460846 0 0.060730486002344868 0.0075164610722228461 0 0.060300901337756861 0.0070608240521140763 0 0.060730486002344868 0.0075164610722228461 0 0.060300901337756861 0.0070608240521140763 0 0.06096253834426419 0.0067413052978764114 0 0.060730486002344868 0.0075164610722228461 0 0.061355061749661786 0.0073887003529634239 0 0.06096253834426419 0.0067413052978764114 0 0.0075536751104333206 -0.010772209761369063 0 0.007134851080429605 -0.0095582714352250835 0 0.008741071510822403 -0.0091514423452032402 0 0.0075536751104333206 -0.010772209761369063 0 0.0058950247367620563 -0.0099379498214110292 0 0.007134851080429605 -0.0095582714352250835 0 0.01024203193685231 -0.0077765206443572545 0 0.012010228287863425 -0.0091140470860896269 0 0.0075536751104333206 -0.010772209761369063 0 0.0096253539978705636 -0.010851201170652575 0 0.008741071510822403 -0.0091514423452032402 0 0.0096253539978705636 -0.010851201170652575 0 0.008741071510822403 -0.0091514423452032402 0 0.01116990966030103 -0.01037290991832728 0 0.0075536751104333206 -0.010772209761369063 0 0.0086866135638854168 -0.011655509357178739 0 0.0096253539978705636 -0.010851201170652575 0 0.0086866135638854168 -0.011655509357178739 0 0.0096253539978705636 -0.010851201170652575 0 0.0095533551892171345 -0.012345947573462333 0 0.0096253539978705636 -0.010851201170652575 0 0.0095533551892171345 -0.012345947573462333 0 0.011235103689368151 -0.011644990211125077 0 0.0096253539978705636 -0.010851201170652575 0 0.01116990966030103 -0.01037290991832728 0 0.011235103689368151 -0.011644990211125077 0 0.0095533551892171345 -0.012345947573462333 0 0.011235103689368151 -0.011644990211125077 0 0.010621139442592608 -0.013296877024377225 0 0.0086866135638854168 -0.011655509357178739 0 0.0095533551892171345 -0.012345947573462333 0 0.0080801843910808108 -0.012924761454152457 0 0.0095533551892171345 -0.012345947573462333 0 0.0080801843910808108 -0.012924761454152457 0 0.0092229953233802786 -0.013809301887954123 0 0.0075536751104333206 -0.010772209761369063 0 0.0080801843910808108 -0.012924761454152457 0 0.005611873581916566 -0.012524363488369364 0 0.0075536751104333206 -0.010772209761369063 0 0.0086866135638854168 -0.011655509357178739 0 0.0080801843910808108 -0.012924761454152457 0 0.0067398619186362163 -0.01337666255385116 0 0.0050887405528090394 -0.012964332000718375 0 0.0058950247367620563 -0.0099379498214110292 0 0.0067398619186362163 -0.01337666255385116 0 0.0050887405528090394 -0.012964332000718375 0 0.0051765249174494481 -0.014968234917485959 0 0.0041541348134969142 -0.012051210585027504 0 0.0050887405528090394 -0.012964332000718375 0 0.0036253527551962563 -0.013954710269022372 0 0.0041541348134969142 -0.012051210585027504 0 0.0043322924223429485 -0.010397995047378301 0 0.0058950247367620563 -0.0099379498214110292 0 0.0041541348134969142 -0.012051210585027504 0 0.0050887405528090394 -0.012964332000718375 0 0.0058950247367620563 -0.0099379498214110292 0 0.0059697088848678585 -0.013709438914978278 0 0.0057785861578660731 -0.01193984566350015 0 0.0075536751104333206 -0.010772209761369063 0 0.005611873581916566 -0.012524363488369364 0 0.0058950247367620563 -0.0099379498214110292 0 0.0058950247367620563 -0.0099379498214110292 0 0.0042661127585681196 -0.0091979011073107641 0 0.0064443173577270656 -0.0084879349032506331 0 0.0058950247367620563 -0.0099379498214110292 0 0.0064443173577270656 -0.0084879349032506331 0 0.007134851080429605 -0.0095582714352250835 0 0.0043322924223429485 -0.010397995047378301 0 0.0058950247367620563 -0.0099379498214110292 0 0.0042661127585681196 -0.0091979011073107641 0 0.0042661127585681196 -0.0091979011073107641 0 0.0064443173577270656 -0.0084879349032506331 0 0.0045310323987888751 -0.0073384541980397342 0 0.0076001632383837737 -0.0056385364197933307 0 0.0053848901833139619 -0.0033876346789754163 0 0.010234019782613544 -0.00057278047322519715 0 0.0087435699068860936 0.0017742473536653226 0 0.0077740117379355243 -0.0032355011310486914 0 0.01079907538091362 -0.0032730225622152279 0 0.0080086307165213241 -0.0003172320515297274 0 0.0077740117379355243 -0.0032355011310486914 0 0.010858226107137296 -0.0060764539639819965 0 0.01079907538091362 -0.0032730225622152279 0 0.0076001632383837737 -0.0056385364197933307 0 0.01024203193685231 -0.0077765206443572545 0 0.0064443173577270656 -0.0084879349032506331 0 0.007134851080429605 -0.0095582714352250835 0 0.008741071510822403 -0.0091514423452032402 0 0.010858226107137296 -0.0060764539639819965 0 0.012195878366954033 -0.0050489797383728467 0 0.01079907538091362 -0.0032730225622152279 0 0.010858226107137296 -0.0060764539639819965 0 0.012195878366954033 -0.0050489797383728467 0 0.012606926101156228 -0.0072081143740096529 0 0.012195878366954033 -0.0050489797383728467 0 0.01079907538091362 -0.0032730225622152279 0 0.013188971785450679 -0.002891460558947909 0 0.01079907538091362 -0.0032730225622152279 0 0.013188971785450679 -0.002891460558947909 0 0.011286718986394873 0.0014103060162171963 0 0.012552719543764614 -0.0005503673877103204 0 0.013780497161734994 -0.00087916388219418259 0 0.013945197442848469 -0.0019174203491201035 0 0.012552719543764614 -0.0005503673877103204 0 0.013780497161734994 -0.00087916388219418259 0 0.013832787120326257 0.00060317066504109564 0 0.01439991797433181 -0.00065095181668167106 0 0.013910696032145745 0.00018147136833752975 0 0.012446093027816836 0.00057133709472648327 0 0.014932967304153669 -0.0015400050712169784 0 0.013780497161734994 -0.00087916388219418259 0 0.013832787120326257 0.00060317066504109564 0 0.014932967304153669 -0.0015400050712169784 0 0.01439991797433181 -0.00065095181668167106 0 0.012446093027816836 0.00057133709472648327 0 0.014127733313226865 0.00061441270121234421 0 0.013546146931573114 0.0015997481375406959 0 0.01439991797433181 -0.00065095181668167106 0 0.014510002864669198 -9.9258829618214747e-05 0 0.013910696032145745 0.00018147136833752975 0 0.014932967304153669 -0.0015400050712169784 0 0.013780497161734994 -0.00087916388219418259 0 0.013945197442848469 -0.0019174203491201035 0 0.014932967304153669 -0.0015400050712169784 0 0.01439991797433181 -0.00065095181668167106 0 0.016684895000673224 -0.0035608133074089381 0 0.014932967304153669 -0.0015400050712169784 0 0.013945197442848469 -0.0019174203491201035 0 0.016684895000673224 -0.0035608133074089381 0 0.013945197442848469 -0.0019174203491201035 0 0.013642072549591015 -0.0035330003421059734 0 0.016684895000673224 -0.0035608133074089381 0 0.012552719543764614 -0.0005503673877103204 0 0.013945197442848469 -0.0019174203491201035 0 0.013642072549591015 -0.0035330003421059734 0 0.012195878366954033 -0.0050489797383728467 0 0.013188971785450679 -0.002891460558947909 0 0.013455588958407677 -0.0057300483737937492 0 0.013188971785450679 -0.002891460558947909 0 0.015129155327344776 -0.0063088225964092384 0 0.013455588958407677 -0.0057300483737937492 0 0.015129155327344776 -0.0063088225964092384 0 0.013455588958407677 -0.0057300483737937492 0 0.014133645205838279 -0.0072261243134261856 0 0.012889016161022299 -0.0021460310971150812 0 0.014864291900077516 -0.0047877606456757753 0 0.012195878366954033 -0.0050489797383728467 0 0.013455588958407677 -0.0057300483737937492 0 0.012606926101156228 -0.0072081143740096529 0 -0.0058559530117672058 -0.0096539278964034424 0 -0.0062111225118805548 -0.0081482179972943904 0 0.015135572365790839 8.9824952711306356e-05 0 0.01479569687181591 -0.00073397039243503393 0 0.015430371335114455 -0.0011687377255419132 0 0.015135572365790839 8.9824952711306356e-05 0 0.015430371335114455 -0.0011687377255419132 0 0.016222884212509552 0.00036147211576845797 0 0.015135572365790839 8.9824952711306356e-05 0 0.01479569687181591 -0.00073397039243503393 0 0.014510002864669198 -9.9258829618214747e-05 0 0.01439991797433181 -0.00065095181668167106 0 0.014510002864669198 -9.9258829618214747e-05 0 0.014536508937714869 -0.00075686943451647019 0 0.01479569687181591 -0.00073397039243503393 0 0.014510002864669198 -9.9258829618214747e-05 0 0.014536508937714869 -0.00075686943451647019 0 0.003085953522280022 -0.0068880443902317743 0 0.0012866743371510124 -0.0083743448118233678 0 0.01479569687181591 -0.00073397039243503393 0 0.014419970294410127 -0.0013927348014252168 0 0.015430371335114455 -0.0011687377255419132 0 0.01439991797433181 -0.00065095181668167106 0 0.014536508937714869 -0.00075686943451647019 0 0.014419970294410127 -0.0013927348014252168 0 0.01479569687181591 -0.00073397039243503393 0 0.014536508937714869 -0.00075686943451647019 0 0.014419970294410127 -0.0013927348014252168 0 -0.028977634558956258 -0.016949803832409311 0 -0.02895819212989837 -0.016754551618784131 0 -0.028679495387061466 -0.016650215515174618 0 -0.0058559530117672058 -0.0096539278964034424 0 -0.0052040973570606115 -0.01219733084522796 0 -0.028977634558956258 -0.016949803832409311 0 -0.02895819212989837 -0.016754551618784131 0 -0.029162442507084458 -0.016840518429250304 0 -0.02895819212989837 -0.016754551618784131 0 -0.028889776811747338 -0.016581798555695814 0 -0.029043697624921185 -0.016668058215420889 0 -0.02895819212989837 -0.016754551618784131 0 -0.028679495387061466 -0.016650215515174618 0 -0.028889776811747338 -0.016581798555695814 0 0.0012866743371510124 -0.0083743448118233678 0 -0.0052040973570606115 -0.01219733084522796 0 0.016684895000673224 -0.0035608133074089381 0 0.018482925392803624 -0.0091073998450819978 0 0.017855920167497409 -0.0092815722566126253 0 0.014419970294410127 -0.0013927348014252168 0 0.015430371335114455 -0.0011687377255419132 0 0.014725091744084878 -0.0024274163407291792 0 -0.028004937854167238 -0.017869654652663203 0 -0.027498470415247743 -0.016815537049304836 0 -0.028397288011254351 -0.016950920798035184 0 -0.0052040973570606115 -0.01219733084522796 0 -0.0015015267835201116 -0.018038500621445578 0 0.017855920167497409 -0.0092815722566126253 0 0.016460447029370311 -0.0098296555537516796 0 0.01632777011908455 -0.013441146923027891 0 0.018482925392803624 -0.0091073998450819978 0 0.017855920167497409 -0.0092815722566126253 0 0.01632777011908455 -0.013441146923027891 0 -0.0052040973570606115 -0.01219733084522796 0 -0.014033456019621452 -0.012528575312977918 0 -0.028679495387061466 -0.016650215515174618 0 -0.028889776811747338 -0.016581798555695814 0 -0.028746749779596362 -0.016332835912647913 0 -0.028889776811747338 -0.016581798555695814 0 -0.028746749779596362 -0.016332835912647913 0 -0.029043899493126111 -0.016505307846640352 0 -0.028889776811747338 -0.016581798555695814 0 -0.029043697624921185 -0.016668058215420889 0 -0.029043899493126111 -0.016505307846640352 0 0.010858226107137296 -0.0060764539639819965 0 0.012606926101156228 -0.0072081143740096529 0 0.013214609526187363 -0.0099020279169125033 0 0.008741071510822403 -0.0091514423452032402 0 0.01116990966030103 -0.01037290991832728 0 0.013214609526187363 -0.0099020279169125033 0 0.01324810976603861 -0.008303750053000096 0 0.012606926101156228 -0.0072081143740096529 0 0.013214609526187363 -0.0099020279169125033 0 0.01324810976603861 -0.008303750053000096 0 0.013694113653031038 -0.0090751557131774473 0 0.014423133722694943 -0.0086566954539502427 0 0.013694113653031038 -0.0090751557131774473 0 0.013839279568776669 -0.0094990320430163727 0 0.014423133722694943 -0.0086566954539502427 0 0.013694113653031038 -0.0090751557131774473 0 0.013839279568776669 -0.0094990320430163727 0 0.013214609526187363 -0.0099020279169125033 0 0.01324810976603861 -0.008303750053000096 0 0.013694113653031038 -0.0090751557131774473 0 0.013214609526187363 -0.0099020279169125033 0 0.01324810976603861 -0.008303750053000096 0 0.014133645205838279 -0.0072261243134261856 0 0.014423133722694943 -0.0086566954539502427 0 0.01324810976603861 -0.008303750053000096 0 0.012606926101156228 -0.0072081143740096529 0 0.014133645205838279 -0.0072261243134261856 0 0.013455588958407677 -0.0057300483737937492 0 0.012606926101156228 -0.0072081143740096529 0 0.014133645205838279 -0.0072261243134261856 0 0.015129155327344776 -0.0063088225964092384 0 0.014889406248147271 -0.0076377626923776962 0 0.015852978636921086 -0.0084415266011129073 0 0.013642072549591015 -0.0035330003421059734 0 0.016684895000673224 -0.0035608133074089381 0 0.017855920167497409 -0.0092815722566126253 0 0.015129155327344776 -0.0063088225964092384 0 0.017855920167497409 -0.0092815722566126253 0 0.015852978636921086 -0.0084415266011129073 0 0.014864291900077516 -0.0047877606456757753 0 0.016340743294951627 -0.0066050107315522924 0 0.014133645205838279 -0.0072261243134261856 0 0.014889406248147271 -0.0076377626923776962 0 0.014423133722694943 -0.0086566954539502427 0 0.015129155327344776 -0.0063088225964092384 0 0.014133645205838279 -0.0072261243134261856 0 0.014889406248147271 -0.0076377626923776962 0 0.017855920167497409 -0.0092815722566126253 0 0.015852978636921086 -0.0084415266011129073 0 0.016460447029370311 -0.0098296555537516796 0 0.015852978636921086 -0.0084415266011129073 0 0.014423133722694943 -0.0086566954539502427 0 0.015201998373559424 -0.010050348699772175 0 0.014889406248147271 -0.0076377626923776962 0 0.015852978636921086 -0.0084415266011129073 0 0.014423133722694943 -0.0086566954539502427 0 0.014423133722694943 -0.0086566954539502427 0 0.014292756855937597 -0.0095867629772934254 0 0.015201998373559424 -0.010050348699772175 0 0.013839279568776669 -0.0094990320430163727 0 0.014423133722694943 -0.0086566954539502427 0 0.014292756855937597 -0.0095867629772934254 0 0.0031149154812584214 -0.017865537344137171 0 -0.0015015267835201116 -0.018038500621445578 0 0.014292756855937597 -0.0095867629772934254 0 0.015201998373559424 -0.010050348699772175 0 0.013688004030619063 -0.010167109203875747 0 0.015201998373559424 -0.010050348699772175 0 0.016460447029370311 -0.0098296555537516796 0 0.01632777011908455 -0.013441146923027891 0 0.013688004030619063 -0.010167109203875747 0 0.013886859154512958 -0.013074468398528147 0 0.016265921006827035 -0.014288040685627636 0 0.015201998373559424 -0.010050348699772175 0 0.013688004030619063 -0.010167109203875747 0 0.01632777011908455 -0.013441146923027891 0 0.015852978636921086 -0.0084415266011129073 0 0.015201998373559424 -0.010050348699772175 0 0.016460447029370311 -0.0098296555537516796 0 0.012838464999233601 -0.012307911033322688 0 0.013688004030619063 -0.010167109203875747 0 0.013886859154512958 -0.013074468398528147 0 0.012838464999233601 -0.012307911033322688 0 0.012890190277872136 -0.010906483385092029 0 0.012282298133364745 -0.011573400553356653 0 0.012838464999233601 -0.012307911033322688 0 0.012890190277872136 -0.010906483385092029 0 0.013688004030619063 -0.010167109203875747 0 0.012890190277872136 -0.010906483385092029 0 0.012157321178210983 -0.010878153153833073 0 0.012282298133364745 -0.011573400553356653 0 0.012890190277872136 -0.010906483385092029 0 0.013214609526187363 -0.0099020279169125033 0 0.012157321178210983 -0.010878153153833073 0 0.013839279568776669 -0.0094990320430163727 0 0.013214609526187363 -0.0099020279169125033 0 0.013688004030619063 -0.010167109203875747 0 0.012890190277872136 -0.010906483385092029 0 0.013214609526187363 -0.0099020279169125033 0 0.013688004030619063 -0.010167109203875747 0 0.013839279568776669 -0.0094990320430163727 0 0.014292756855937597 -0.0095867629772934254 0 0.013688004030619063 -0.010167109203875747 0 0.01116990966030103 -0.01037290991832728 0 0.012157321178210983 -0.010878153153833073 0 0.011235103689368151 -0.011644990211125077 0 0.01116990966030103 -0.01037290991832728 0 0.013214609526187363 -0.0099020279169125033 0 0.012157321178210983 -0.010878153153833073 0 0.012157321178210983 -0.010878153153833073 0 0.011235103689368151 -0.011644990211125077 0 0.012282298133364745 -0.011573400553356653 0 0.011235103689368151 -0.011644990211125077 0 0.011833819341054956 -0.012610343688705504 0 0.010621139442592608 -0.013296877024377225 0 0.011235103689368151 -0.011644990211125077 0 0.012282298133364745 -0.011573400553356653 0 0.011833819341054956 -0.012610343688705504 0 0.012838464999233601 -0.012307911033322688 0 0.012282298133364745 -0.011573400553356653 0 0.011833819341054956 -0.012610343688705504 0 0.011833819341054956 -0.012610343688705504 0 0.012051133597202269 -0.014095633747729482 0 0.010621139442592608 -0.013296877024377225 0 0.012838464999233601 -0.012307911033322688 0 0.011833819341054956 -0.012610343688705504 0 0.012051133597202269 -0.014095633747729482 0 0.012051133597202269 -0.014095633747729482 0 0.011719925109568288 -0.016639305896521839 0 0.010079470884884522 -0.015219305254441385 0 0.012051133597202269 -0.014095633747729482 0 0.013435723090045639 -0.015186589069372142 0 0.011719925109568288 -0.016639305896521839 0 0.012051133597202269 -0.014095633747729482 0 0.013435723090045639 -0.015186589069372142 0 0.013886859154512958 -0.013074468398528147 0 0.012838464999233601 -0.012307911033322688 0 0.012051133597202269 -0.014095633747729482 0 0.013886859154512958 -0.013074468398528147 0 0.013435723090045639 -0.015186589069372142 0 0.013886859154512958 -0.013074468398528147 0 0.016265921006827035 -0.014288040685627636 0 0.013435723090045639 -0.015186589069372142 0 0.016265921006827035 -0.014288040685627636 0 0.014036414658197943 -0.018216515488483468 0 -0.0015015267835201116 -0.018038500621445578 0 0.0011572993262266964 -0.023058047578304951 0 -0.0059745062569092153 -0.036784756467078426 0 -0.0043284070733112766 -0.033670069733108147 0 -0.0062658748948841263 -0.033523604469650463 0 0.013435723090045639 -0.015186589069372142 0 0.014036414658197943 -0.018216515488483468 0 0.011719925109568288 -0.016639305896521839 0 0.014036414658197943 -0.018216515488483468 0 0.011719925109568288 -0.016639305896521839 0 0.011266549309077748 -0.019149878827032871 0 -0.028746749779596362 -0.016332835912647913 0 -0.029081441044608594 -0.016321142106262298 0 -0.029034843179180488 -0.016088364724642635 0 -0.014033456019621452 -0.012528575312977918 0 -0.016610071964036983 -0.012695884052116154 0 -0.028746749779596362 -0.016332835912647913 0 -0.029043899493126111 -0.016505307846640352 0 -0.029081441044608594 -0.016321142106262298 0 -0.027498470415247743 -0.016815537049304836 0 -0.028397288011254351 -0.016950920798035184 0 -0.028274659089749635 -0.015978675013985769 0 -0.0059745062569092153 -0.036784756467078426 0 -0.007987717975943524 -0.034222992818621387 0 -0.0062658748948841263 -0.033523604469650463 0 -0.0015015267835201116 -0.018038500621445578 0 -0.01097988620130021 -0.020417514201087155 0 -0.028397288011254351 -0.016950920798035184 0 -0.028274659089749635 -0.015978675013985769 0 -0.02878404635788313 -0.016042590615460768 0 -0.028746749779596362 -0.016332835912647913 0 -0.02878404635788313 -0.016042590615460768 0 -0.029034843179180488 -0.016088364724642635 0 -0.028274659089749635 -0.015978675013985769 0 -0.02878404635788313 -0.016042590615460768 0 -0.028756496032017412 -0.015853061424576199 0 -0.02878404635788313 -0.016042590615460768 0 -0.028924890576066863 -0.015864498695126558 0 -0.028756496032017412 -0.015853061424576199 0 -0.02878404635788313 -0.016042590615460768 0 -0.028924890576066863 -0.015864498695126558 0 -0.028965861905841123 -0.015978598451440403 0 -0.02878404635788313 -0.016042590615460768 0 -0.028965861905841123 -0.015978598451440403 0 -0.029034843179180488 -0.016088364724642635 0 -0.007987717975943524 -0.034222992818621387 0 -0.010125264618756655 -0.031673931321837157 0 -0.0098984388333931729 -0.031786276365344542 0 -0.028274659089749635 -0.015978675013985769 0 -0.028869095775282193 -0.015626257475421818 0 -0.028756496032017412 -0.015853061424576199 0 -0.007987717975943524 -0.034222992818621387 0 -0.0098984388333931729 -0.031786276365344542 0 -0.0076526736713035323 -0.031931961201967875 0 -0.01097988620130021 -0.020417514201087155 0 -0.016332513723923903 -0.02136978498404957 0 -0.010144708870215891 -0.031684487683682615 0 -0.0098984388333931729 -0.031786276365344542 0 -0.0099801406145669826 -0.031135810651060896 0 -0.016332513723923903 -0.02136978498404957 0 -0.016290293325432019 -0.021401323451245641 0 -0.028869095775282193 -0.015626257475421818 0 -0.028881433050477467 -0.015769581560226124 0 -0.029003828724962297 -0.015728117849525824 0 -0.028881433050477467 -0.015769581560226124 0 -0.028924890576066863 -0.015864498695126558 0 -0.029003828724962297 -0.015728117849525824 0 -0.028869095775282193 -0.015626257475421818 0 -0.028881433050477467 -0.015769581560226124 0 -0.028756496032017412 -0.015853061424576199 0 -0.028881433050477467 -0.015769581560226124 0 -0.028924890576066863 -0.015864498695126558 0 -0.028756496032017412 -0.015853061424576199 0 -0.0098984388333931729 -0.031786276365344542 0 -0.0076526736713035323 -0.031931961201967875 0 -0.0092574250201764869 -0.030748890043505162 0 -0.007987717975943524 -0.034222992818621387 0 -0.0076526736713035323 -0.031931961201967875 0 -0.0062658748948841263 -0.033523604469650463 0 -0.0076526736713035323 -0.031931961201967875 0 -0.0062658748948841263 -0.033523604469650463 0 -0.0055101917379237961 -0.0313952298250244 0 -0.0074425383194685899 -0.030224309279853871 0 -0.0088314831388337737 -0.029268227641771474 0 -0.0059129407982938436 -0.028892052687904114 0 -0.0074425383194685899 -0.030224309279853871 0 -0.0055101917379237961 -0.0313952298250244 0 -0.0059129407982938436 -0.028892052687904114 0 -0.0076526736713035323 -0.031931961201967875 0 -0.0074425383194685899 -0.030224309279853871 0 -0.0055101917379237961 -0.0313952298250244 0 -0.0076526736713035323 -0.031931961201967875 0 -0.0074425383194685899 -0.030224309279853871 0 -0.0092574250201764869 -0.030748890043505162 0 -0.0092574250201764869 -0.030748890043505162 0 -0.0088314831388337737 -0.029268227641771474 0 -0.010344714509970926 -0.030223962861618762 0 -0.0074425383194685899 -0.030224309279853871 0 -0.0092574250201764869 -0.030748890043505162 0 -0.0088314831388337737 -0.029268227641771474 0 -0.0088314831388337737 -0.029268227641771474 0 -0.010344714509970926 -0.030223962861618762 0 -0.010835880229866184 -0.02893923952552498 0 -0.010344714509970926 -0.030223962861618762 0 -0.0099801406145669826 -0.031135810651060896 0 -0.010633714145939069 -0.031196986300988348 0 -0.0092574250201764869 -0.030748890043505162 0 -0.010344714509970926 -0.030223962861618762 0 -0.0099801406145669826 -0.031135810651060896 0 -0.0098984388333931729 -0.031786276365344542 0 -0.0092574250201764869 -0.030748890043505162 0 -0.0099801406145669826 -0.031135810651060896 0 -0.010144708870215891 -0.031684487683682615 0 -0.0099801406145669826 -0.031135810651060896 0 -0.010633714145939069 -0.031196986300988348 0 -0.016332513723923903 -0.02136978498404957 0 -0.016103741430254788 -0.021691780025055455 0 0.0011572993262266964 -0.023058047578304951 0 0.0026859563712943249 -0.02447266036433526 0 0.014036414658197943 -0.018216515488483468 0 0.011266549309077748 -0.019149878827032871 0 0.011902426502506617 -0.022264555524631326 0 -0.0043284070733112766 -0.033670069733108147 0 -0.0062658748948841263 -0.033523604469650463 0 -0.0055101917379237961 -0.0313952298250244 0 -0.0043284070733112766 -0.033670069733108147 0 -0.0055101917379237961 -0.0313952298250244 0 -0.0026405905226526403 -0.03047112980432615 0 0.0026859563712943249 -0.02447266036433526 0 -0.0028214295763458589 -0.025575465956603847 0 -0.0055101917379237961 -0.0313952298250244 0 -0.0026405905226526403 -0.03047112980432615 0 -0.0059129407982938436 -0.028892052687904114 0 0.00064941826039915549 -0.031604974390893562 0 -0.0044765498859030833 -0.02919290762309484 0 -0.0005512673289008159 -0.027814328360050603 0 0.0026859563712943249 -0.02447266036433526 0 0.0032078151896056894 -0.02433412551560242 0 0.0070738665896410112 -0.020967224621495265 0 0.0061325946370932582 -0.021277499994330224 0 0.0063600766283035456 -0.021994817481701821 0 0.0061325946370932582 -0.021277499994330224 0 0.0057841770859150127 -0.020986519678970483 0 0.0064592062905756481 -0.020506023418829889 0 0.0026859563712943249 -0.02447266036433526 0 0.004538724865513385 -0.02387373381558346 0 0.0070738665896410112 -0.020967224621495265 0 0.0061325946370932582 -0.021277499994330224 0 0.0064592062905756481 -0.020506023418829889 0 0.0057841770859150127 -0.020986519678970483 0 0.0051028120091000575 -0.021295620800744239 0 0.0053078877128618033 -0.021901168058425874 0 0.0061325946370932582 -0.021277499994330224 0 0.0057841770859150127 -0.020986519678970483 0 0.0053078877128618033 -0.021901168058425874 0 0.0063603805828979457 -0.018768532815091749 0 0.0062488735641004507 -0.016977096618936038 0 0.0057841770859150127 -0.020986519678970483 0 0.0063820347508528842 -0.019491842703301097 0 0.0064592062905756481 -0.020506023418829889 0 0.0057841770859150127 -0.020986519678970483 0 0.0063820347508528842 -0.019491842703301097 0 0.0056099299935208216 -0.017393277152858929 0 0.0047561861282314384 -0.023496110799731698 0 0.004538724865513385 -0.02387373381558346 0 0.0063820347508528842 -0.019491842703301097 0 0.0092817885020599188 -0.021012077841537583 0 0.0093460972408347942 -0.017675125676930026 0 0.011266549309077748 -0.019149878827032871 0 0.0092817885020599188 -0.021012077841537583 0 0.0093460972408347942 -0.017675125676930026 0 0.011266549309077748 -0.019149878827032871 0 0.011902426502506617 -0.022264555524631326 0 0.0092817885020599188 -0.021012077841537583 0 0.011719925109568288 -0.016639305896521839 0 0.011266549309077748 -0.019149878827032871 0 0.0093460972408347942 -0.017675125676930026 0 0.011719925109568288 -0.016639305896521839 0 0.0093460972408347942 -0.017675125676930026 0 0.010079470884884522 -0.015219305254441385 0 0.0093460972408347942 -0.017675125676930026 0 0.0078170374430452522 -0.015356391043896293 0 0.010079470884884522 -0.015219305254441385 0 0.0063820347508528842 -0.019491842703301097 0 0.0093460972408347942 -0.017675125676930026 0 0.007254711076760503 -0.017497027310189414 0 0.0063820347508528842 -0.019491842703301097 0 0.007254711076760503 -0.017497027310189414 0 0.0056099299935208216 -0.017393277152858929 0 0.007254711076760503 -0.017497027310189414 0 0.0078170374430452522 -0.015356391043896293 0 0.0056099299935208216 -0.017393277152858929 0 0.0093460972408347942 -0.017675125676930026 0 0.007254711076760503 -0.017497027310189414 0 0.0078170374430452522 -0.015356391043896293 0 0.0080801843910808108 -0.012924761454152457 0 0.005611873581916566 -0.012524363488369364 0 0.0078170374430452522 -0.015356391043896293 0 0.005611873581916566 -0.012524363488369364 0 0.0078170374430452522 -0.015356391043896293 0 0.0056099299935208216 -0.017393277152858929 0 0.0080801843910808108 -0.012924761454152457 0 0.0078170374430452522 -0.015356391043896293 0 0.0092229953233802786 -0.013809301887954123 0 0.012051133597202269 -0.014095633747729482 0 0.010621139442592608 -0.013296877024377225 0 0.010079470884884522 -0.015219305254441385 0 0.0092229953233802786 -0.013809301887954123 0 0.010621139442592608 -0.013296877024377225 0 0.010079470884884522 -0.015219305254441385 0 0.0095533551892171345 -0.012345947573462333 0 0.0092229953233802786 -0.013809301887954123 0 0.010621139442592608 -0.013296877024377225 0 0.0078170374430452522 -0.015356391043896293 0 0.0092229953233802786 -0.013809301887954123 0 0.010079470884884522 -0.015219305254441385 0 0.0050887405528090394 -0.012964332000718375 0 0.0051765249174494481 -0.014968234917485959 0 0.0036253527551962563 -0.013954710269022372 0 0.0051765249174494481 -0.014968234917485959 0 0.0036253527551962563 -0.013954710269022372 0 0.0037292625343023668 -0.015872523926215461 0 0.0067398619186362163 -0.01337666255385116 0 0.0051765249174494481 -0.014968234917485959 0 0.0069352643219499702 -0.017862676850959557 0 0.0059697088848678585 -0.013709438914978278 0 0.0062488735641004507 -0.016977096618936038 0 0.0051765249174494481 -0.014968234917485959 0 0.0069352643219499702 -0.017862676850959557 0 0.0050814336382093246 -0.018062558494957161 0 0.0059571509780206372 -0.017000923958169285 0 0.0057828346551904277 -0.018198356165018279 0 0.0051765249174494481 -0.014968234917485959 0 0.0050814336382093246 -0.018062558494957161 0 0.0034258658015470815 -0.018812039236367085 0 0.0048646269097128037 -0.020102847622340179 0 0.0040118223803984696 -0.020347700626226612 0 0.0034258658015470815 -0.018812039236367085 0 0.0050814336382093246 -0.018062558494957161 0 0.0048646269097128037 -0.020102847622340179 0 0.0034258658015470815 -0.018812039236367085 0 0.0057841770859150127 -0.020986519678970483 0 0.0069352643219499702 -0.017862676850959557 0 0.0048646269097128037 -0.020102847622340179 0 0.0069352643219499702 -0.017862676850959557 0 0.0050814336382093246 -0.018062558494957161 0 0.0048646269097128037 -0.020102847622340179 0 0.0048646269097128037 -0.020102847622340179 0 0.0051028120091000575 -0.021295620800744239 0 0.0046294230991930536 -0.021329407422000395 0 0.0057841770859150127 -0.020986519678970483 0 0.0048646269097128037 -0.020102847622340179 0 0.0051028120091000575 -0.021295620800744239 0 0.0048646269097128037 -0.020102847622340179 0 0.0040118223803984696 -0.020347700626226612 0 0.0046294230991930536 -0.021329407422000395 0 0.0040118223803984696 -0.020347700626226612 0 0.0041115388643592175 -0.021032745425722012 0 0.0046294230991930536 -0.021329407422000395 0 0.0023639174486498756 -0.017382359535584532 0 0.001149824504420876 -0.015687363574596661 0 0.0037292625343023668 -0.015872523926215461 0 0.0040118223803984696 -0.020347700626226612 0 0.0035935730684382048 -0.020584810274855442 0 0.0041115388643592175 -0.021032745425722012 0 0.0076226771137740635 -0.019500279519509955 0 0.0057828346551904277 -0.018198356165018279 0 0.0040118223803984696 -0.020347700626226612 0 0.0035935730684382048 -0.020584810274855442 0 0.0034258658015470815 -0.018812039236367085 0 0.0076226771137740635 -0.019500279519509955 0 0.018783691305950201 -0.014444375157764495 0 0.0023639174486498756 -0.017382359535584532 0 0.00017062908063537646 -0.017594773510149798 0 0.00099380746559680545 -0.018981901532858374 0 0.049195392598685175 -0.0086128617078031627 0 0.051282008215928918 -0.007886759037136308 0 0.050710006626216636 -0.011168233853847657 0 0.049195392598685175 -0.0086128617078031627 0 0.051282008215928918 -0.007886759037136308 0 0.049095682098800206 -0.0069973349433653078 0 0.022098950845019488 -0.013948431597857013 0 0.024039306678872965 -0.013116669741712416 0 0.00017062908063537646 -0.017594773510149798 0 0.001149824504420876 -0.015687363574596661 0 -0.00067905089900384852 -0.016161059878973108 0 0.0023639174486498756 -0.017382359535584532 0 0.00017062908063537646 -0.017594773510149798 0 0.001149824504420876 -0.015687363574596661 0 0.001149824504420876 -0.015687363574596661 0 -0.0001469173537943441 -0.015009744278711221 0 -0.00067905089900384852 -0.016161059878973108 0 0.001149824504420876 -0.015687363574596661 0 -0.0001469173537943441 -0.015009744278711221 0 0.00047588506773296578 -0.01347715139606975 0 -0.0001469173537943441 -0.015009744278711221 0 0.00047588506773296578 -0.01347715139606975 0 -0.0015065739097112273 -0.014696224663604531 0 0.008400925441283312 -0.01670295077504182 0 0.024871088628195086 -0.010787973728087742 0 0.001149824504420876 -0.015687363574596661 0 0.00047588506773296578 -0.01347715139606975 0 0.0022537644427145288 -0.014335569274577098 0 0.00047588506773296578 -0.01347715139606975 0 0.0022537644427145288 -0.014335569274577098 0 0.0021789216862810237 -0.012515810803464648 0 0.0022537644427145288 -0.014335569274577098 0 0.0036253527551962563 -0.013954710269022372 0 0.0021789216862810237 -0.012515810803464648 0 0.001149824504420876 -0.015687363574596661 0 0.0022537644427145288 -0.014335569274577098 0 0.0037292625343023668 -0.015872523926215461 0 0.0022537644427145288 -0.014335569274577098 0 0.0036253527551962563 -0.013954710269022372 0 0.0037292625343023668 -0.015872523926215461 0 0.04238015391742387 -0.0027633772678819601 0 0.042901835671965621 -0.002835982673934043 0 0.042737483708758281 -0.0024170527875043654 0 0.052424442480576948 -0.0035732586796020887 0 0.048634183443495516 -0.0047276225413162521 0 0.06180103410201112 -0.0086970286581697694 0 0.058347988402693937 -0.010538045681383971 0 0.060072042026606903 -0.0083259287825303771 0 0.058347988402693937 -0.010538045681383971 0 0.058632229099837112 -0.0077219361011080841 0 0.057072551004532686 -0.0082275525267822332 0 0.058347988402693937 -0.010538045681383971 0 0.060072042026606903 -0.0083259287825303771 0 0.058632229099837112 -0.0077219361011080841 0 0.060072042026606903 -0.0083259287825303771 0 0.060020632403181479 -0.0069031356231447636 0 0.058632229099837112 -0.0077219361011080841 0 0.060020632403181479 -0.0069031356231447636 0 0.058632229099837112 -0.0077219361011080841 0 0.059154811406751745 -0.0061003650283068984 0 0.058632229099837112 -0.0077219361011080841 0 0.059154811406751745 -0.0061003650283068984 0 0.057705050639154938 -0.0064710038499320877 0 0.058632229099837112 -0.0077219361011080841 0 0.057072551004532686 -0.0082275525267822332 0 0.057705050639154938 -0.0064710038499320877 0 0.057072551004532686 -0.0082275525267822332 0 0.055569822928265615 -0.0071288497569456767 0 0.055438186690436188 -0.0097758234061445445 0 0.057072551004532686 -0.0082275525267822332 0 0.055569822928265615 -0.0071288497569456767 0 0.057705050639154938 -0.0064710038499320877 0 0.058347988402693937 -0.010538045681383971 0 0.057072551004532686 -0.0082275525267822332 0 0.055438186690436188 -0.0097758234061445445 0 0.058347988402693937 -0.010538045681383971 0 0.055438186690436188 -0.0097758234061445445 0 0.055248607696552529 -0.012255461035133112 0 0.048634183443495516 -0.0047276225413162521 0 0.042561349253444049 -0.0057664668109442662 0 0.055438186690436188 -0.0097758234061445445 0 0.053211561510959453 -0.01113956406656263 0 0.055248607696552529 -0.012255461035133112 0 0.055438186690436188 -0.0097758234061445445 0 0.053211561510959453 -0.01113956406656263 0 0.05338723958316649 -0.008769783440512385 0 0.055569822928265615 -0.0071288497569456767 0 0.055438186690436188 -0.0097758234061445445 0 0.05338723958316649 -0.008769783440512385 0 0.055569822928265615 -0.0071288497569456767 0 0.05338723958316649 -0.008769783440512385 0 0.054020595308636239 -0.005755221588183734 0 0.05338723958316649 -0.008769783440512385 0 0.051282008215928918 -0.007886759037136308 0 0.054020595308636239 -0.005755221588183734 0 0.05338723958316649 -0.008769783440512385 0 0.051282008215928918 -0.007886759037136308 0 0.050710006626216636 -0.011168233853847657 0 0.053211561510959453 -0.01113956406656263 0 0.05338723958316649 -0.008769783440512385 0 0.050710006626216636 -0.011168233853847657 0 -0.0001469173537943441 -0.015009744278711221 0 -0.00067905089900384852 -0.016161059878973108 0 -0.0015065739097112273 -0.014696224663604531 0 0.024039306678872965 -0.013116669741712416 0 0.024871088628195086 -0.010787973728087742 0 0.053211561510959453 -0.01113956406656263 0 0.050710006626216636 -0.011168233853847657 0 0.052224383674330847 -0.013878318572767764 0 -0.001497029770247463 -0.014485710426612902 0 -0.0025276707479264951 -0.012752971611296128 0 -0.0012195026690681721 -0.01317191007313739 0 0.00047588506773296578 -0.01347715139606975 0 -0.001497029770247463 -0.014485710426612902 0 -0.0012195026690681721 -0.01317191007313739 0 0.024871088628195086 -0.010787973728087742 0 0.02287995410428666 -0.006558704488359858 0 0.044278040003994407 -0.0021328228257384229 0 0.043515202464667627 -0.0017900720938495535 0 0.043872534670461712 -0.0012705230955799307 0 0.044278040003994407 -0.0021328228257384229 0 0.043568845392684588 -0.0024968390572762886 0 0.043515202464667627 -0.0017900720938495535 0 0.024871088628195086 -0.010787973728087742 0 0.042561349253444049 -0.0057664668109442662 0 0.053211561510959453 -0.01113956406656263 0 0.052224383674330847 -0.013878318572767764 0 0.055248607696552529 -0.012255461035133112 0 0.043568845392684588 -0.0024968390572762886 0 0.04308565632452787 -0.0021534500901258091 0 0.043515202464667627 -0.0017900720938495535 0 0.042901835671965621 -0.002835982673934043 0 0.043568845392684588 -0.0024968390572762886 0 0.04308565632452787 -0.0021534500901258091 0 0.04308565632452787 -0.0021534500901258091 0 0.043515202464667627 -0.0017900720938495535 0 0.043030139152385169 -0.0015381110809592586 0 0.043030139152385169 -0.0015381110809592586 0 0.042547712487430986 -0.0019336518815719194 0 0.042730696450708289 -0.0012128435838913534 0 0.052200341895716894 -0.0022987606235014375 0 0.053761173893841274 0.00029180693562607339 0 0.053741366228450368 -0.0012910737766263657 0 0.053764765608069726 -0.0019623422088054423 0 0.054311820779088964 0.00016720868312881959 0 0.04308565632452787 -0.0021534500901258091 0 0.043030139152385169 -0.0015381110809592586 0 0.042547712487430986 -0.0019336518815719194 0 0.053437424170703934 -0.0028371038159474651 0 0.053741366228450368 -0.0012910737766263657 0 0.053764765608069726 -0.0019623422088054423 0 0.04308565632452787 -0.0021534500901258091 0 0.042547712487430986 -0.0019336518815719194 0 0.042737483708758281 -0.0024170527875043654 0 0.042901835671965621 -0.002835982673934043 0 0.04308565632452787 -0.0021534500901258091 0 0.042737483708758281 -0.0024170527875043654 0 0.04238015391742387 -0.0027633772678819601 0 0.042547712487430986 -0.0019336518815719194 0 0.042737483708758281 -0.0024170527875043654 0 0.069898772919819732 0.0096021517656993578 0 0.070521522992248953 0.0091532993814279085 0 0.070422542467517515 0.0087426666607901445 0 0.042434249403521876 -0.0002903467064825151 0 0.042640546968232905 -0.0002689851985887023 0 0.042515989058692395 0.00045709700904780851 0 0.042640546968232905 -0.0002689851985887023 0 0.042520030819653311 -0.00093602094496536027 0 0.043216326364052489 -0.00098193195071438581 0 0.052642737872443772 0.00020464932666496252 0 0.053651188490688791 0.0010788929714499644 0 0.042640546968232905 -0.0002689851985887023 0 0.042365326985794344 -0.0007551611240372339 0 0.042487649977146887 -0.00092105907282716564 0 0.042434249403521876 -0.0002903467064825151 0 0.042640546968232905 -0.0002689851985887023 0 0.042365326985794344 -0.0007551611240372339 0 0.051619570827994975 0.0021258749558950877 0 0.055088490012129787 0.0019474349486332105 0 0.055868431544067877 -0.00057184527170374205 0 0.05618406412840337 0.0010354673673495347 0 0.056309282005967631 0.00054885615237687047 0 0.056450591098704365 -0.00084505394755423724 0 0.055088490012129787 0.0019474349486332105 0 0.05618406412840337 0.0010354673673495347 0 0.056309282005967631 0.00054885615237687047 0 0.05636775322985 0.00077406322476000278 0 0.055088490012129787 0.0019474349486332105 0 0.053651188490688791 0.0010788929714499644 0 0.053761173893841274 0.00029180693562607339 0 0.053651188490688791 0.0010788929714499644 0 0.056450591098704365 -0.00084505394755423724 0 0.053761173893841274 0.00029180693562607339 0 0.043030139152385169 -0.0015381110809592586 0 0.042730696450708289 -0.0012128435838913534 0 0.04275881456880045 -0.0011202857452423298 0 0.052040398488453266 0.0016329882678940198 0 0.053651188490688791 0.0010788929714499644 0 0.043216326364052489 -0.00098193195071438581 0 0.043415066020928525 -0.00020668422776481607 0 0.043872534670461712 -0.0012705230955799307 0 0.043515202464667627 -0.0017900720938495535 0 0.043030139152385169 -0.0015381110809592586 0 0.043216326364052489 -0.00098193195071438581 0 0.043515202464667627 -0.0017900720938495535 0 0.043216326364052489 -0.00098193195071438581 0 0.043872534670461712 -0.0012705230955799307 0 0.043030139152385169 -0.0015381110809592586 0 0.042520030819653311 -0.00093602094496536027 0 0.043216326364052489 -0.00098193195071438581 0 0.042640546968232905 -0.0002689851985887023 0 0.043216326364052489 -0.00098193195071438581 0 0.043415066020928525 -0.00020668422776481607 0 0.042640546968232905 -0.0002689851985887023 0 0.043415066020928525 -0.00020668422776481607 0 0.042515989058692395 0.00045709700904780851 0 0.023109781137762103 -0.0038022203525260108 0 0.02287995410428666 -0.006558704488359858 0 -0.0036165176183089363 -0.010870499185069556 0 -0.0022338253190620355 -0.011375002087909159 0 -0.0016656417092719108 -0.01008280400167048 0 -0.0036165176183089363 -0.010870499185069556 0 -0.0022338253190620355 -0.011375002087909159 0 -0.0025276707479264951 -0.012752971611296128 0 -0.0022338253190620355 -0.011375002087909159 0 -0.0025276707479264951 -0.012752971611296128 0 -0.0011643648653850008 -0.011761264232597466 0 -0.0025276707479264951 -0.012752971611296128 0 -0.0012195026690681721 -0.01317191007313739 0 -0.0011643648653850008 -0.011761264232597466 0 -0.0011643648653850008 -0.011761264232597466 0 -0.0016656417092719108 -0.01008280400167048 0 0.0003448384478387957 -0.010953971092746142 0 -0.0022338253190620355 -0.011375002087909159 0 -0.0011643648653850008 -0.011761264232597466 0 -0.0016656417092719108 -0.01008280400167048 0 -0.00097460797867268201 -0.0084891360134916622 0 -0.00022632876807282925 -0.007568903884580592 0 -0.0019563088303223009 -0.0079166258956569566 0 0.00033449798469097097 -0.0084517092479517771 0 -0.00031901588155413174 -0.0065269622067310523 0 -0.0016656417092719108 -0.01008280400167048 0 -0.0019563088303223009 -0.0079166258956569566 0 0.00033449798469097097 -0.0084517092479517771 0 -0.0019563088303223009 -0.0079166258956569566 0 -0.0031216120831622151 -0.0092260662181198085 0 -0.0034310369110525174 -0.0080238194106270113 0 -0.0019563088303223009 -0.0079166258956569566 0 -0.0034310369110525174 -0.0080238194106270113 0 -0.0030530156913455495 -0.0069641166509443828 0 -0.0036165176183089363 -0.010870499185069556 0 -0.0016656417092719108 -0.01008280400167048 0 -0.0031216120831622151 -0.0092260662181198085 0 -0.0016656417092719108 -0.01008280400167048 0 -0.0019563088303223009 -0.0079166258956569566 0 -0.0031216120831622151 -0.0092260662181198085 0 0.043415066020928525 -0.00020668422776481607 0 0.042751530859272489 0.001165363338712998 0 0.042515989058692395 0.00045709700904780851 0 0.023109781137762103 -0.0038022203525260108 0 0.02536181391406591 -0.00045289876282578764 0 -0.0036165176183089363 -0.010870499185069556 0 -0.0031216120831622151 -0.0092260662181198085 0 -0.004769563688684815 -0.008789603509020227 0 -0.0034310369110525174 -0.0080238194106270113 0 -0.004769563688684815 -0.008789603509020227 0 -0.0041892322475362105 -0.0072560698205538223 0 -0.0031216120831622151 -0.0092260662181198085 0 -0.0034310369110525174 -0.0080238194106270113 0 -0.004769563688684815 -0.008789603509020227 0 0.041565218698937881 0.0026594323679635977 0 0.042034308787749407 0.001912866737175338 0 0.04195363815569033 0.0010582869931106676 0 0.02536181391406591 -0.00045289876282578764 0 0.031539935640600258 0.0041817043803867053 0 0.042751530859272489 0.001165363338712998 0 0.042034308787749407 0.001912866737175338 0 0.041862155843741124 0.0027763983671159403 0 -0.004769563688684815 -0.008789603509020227 0 -0.0058783470346172742 -0.0066768362629264985 0 -0.0041892322475362105 -0.0072560698205538223 0 0.042751530859272489 0.001165363338712998 0 0.042034308787749407 0.001912866737175338 0 0.04195363815569033 0.0010582869931106676 0 0.069898772919819732 0.0096021517656993578 0 0.070521522992248953 0.0091532993814279085 0 0.07034622229197994 0.010128156920288093 0 0.042381267734918841 -0.00038826460905474542 0 0.04195363815569033 0.0010582869931106676 0 0.042515989058692395 0.00045709700904780851 0 0.051619570827994975 0.0021258749558950877 0 0.046515149909600581 0.0040139331962095615 0 0.042751530859272489 0.001165363338712998 0 0.04195363815569033 0.0010582869931106676 0 0.042515989058692395 0.00045709700904780851 0 0.051619570827994975 0.0021258749558950877 0 0.050871891646665481 0.0013742428182243005 0 0.0021789216862810237 -0.012515810803464648 0 0.0003448384478387957 -0.010953971092746142 0 0.0027278044009519326 -0.010310080346279287 0 0.0041541348134969142 -0.012051210585027504 0 0.0043322924223429485 -0.010397995047378301 0 0.0027278044009519326 -0.010310080346279287 0 0.0041541348134969142 -0.012051210585027504 0 0.0021789216862810237 -0.012515810803464648 0 0.0027278044009519326 -0.010310080346279287 0 0.0041541348134969142 -0.012051210585027504 0 0.0036253527551962563 -0.013954710269022372 0 0.0021789216862810237 -0.012515810803464648 0 0.00047588506773296578 -0.01347715139606975 0 0.0021789216862810237 -0.012515810803464648 0 0.0003448384478387957 -0.010953971092746142 0 0.00047588506773296578 -0.01347715139606975 0 -0.0011643648653850008 -0.011761264232597466 0 0.0003448384478387957 -0.010953971092746142 0 0.00047588506773296578 -0.01347715139606975 0 -0.0012195026690681721 -0.01317191007313739 0 -0.0011643648653850008 -0.011761264232597466 0 0.0003448384478387957 -0.010953971092746142 0 0.0013097742831665914 -0.0091263119272709508 0 0.0027278044009519326 -0.010310080346279287 0 -0.0016656417092719108 -0.01008280400167048 0 0.0003448384478387957 -0.010953971092746142 0 -0.00036036665251021078 -0.00878749838204455 0 0.0003448384478387957 -0.010953971092746142 0 -0.00036036665251021078 -0.00878749838204455 0 0.0013097742831665914 -0.0091263119272709508 0 -0.00022632876807282925 -0.007568903884580592 0 0.0012623342384348887 -0.0053349760957761474 0 -0.00036036665251021078 -0.00878749838204455 0 0.0013097742831665914 -0.0091263119272709508 0 0.0011124832782608281 -0.0073372254126059409 0 0.0013097742831665914 -0.0091263119272709508 0 0.0027518241204436554 -0.0082094026740941444 0 0.0011124832782608281 -0.0073372254126059409 0 0.0013097742831665914 -0.0091263119272709508 0 0.0027518241204436554 -0.0082094026740941444 0 0.0027278044009519326 -0.010310080346279287 0 0.0042661127585681196 -0.0091979011073107641 0 0.0027518241204436554 -0.0082094026740941444 0 0.0027278044009519326 -0.010310080346279287 0 0.0043322924223429485 -0.010397995047378301 0 0.0042661127585681196 -0.0091979011073107641 0 0.0027278044009519326 -0.010310080346279287 0 0.0042661127585681196 -0.0091979011073107641 0 0.0027518241204436554 -0.0082094026740941444 0 0.0045310323987888751 -0.0073384541980397342 0 0.0027518241204436554 -0.0082094026740941444 0 0.0026380725653282525 -0.0059558108628317719 0 0.0045310323987888751 -0.0073384541980397342 0 0.0040288914717591133 -0.00084228110263950861 0 0.0053848901833139619 -0.0033876346789754163 0 0.0022306791360838024 0.0017172494457758838 0 0.0019606621627773629 0.0014811008019679232 0 0.0048031135196838432 -0.00079394878725858736 0 0.0038259537233953406 0.0021634659679098073 0 0.0022306791360838024 0.0017172494457758838 0 0.0048031135196838432 -0.00079394878725858736 0 0.0038259537233953406 0.0021634659679098073 0 0.0022306791360838024 0.0017172494457758838 0 0.0025700371517946253 0.0024597380948256716 0 0.0018848148922168291 0.0022038945096351722 0 0.0019740822466555643 0.0014958224268548977 0 0.0011180009132002208 0.00276727351686099 0 0.0021599444878493508 0.0023076634513578588 0 0.0022306791360838024 0.0017172494457758838 0 0.0025700371517946253 0.0024597380948256716 0 0.0018848148922168291 0.0022038945096351722 0 0.0021599444878493508 0.0023076634513578588 0 0.0022306791360838024 0.0017172494457758838 0 0.0018848148922168291 0.0022038945096351722 0 0.0022306791360838024 0.0017172494457758838 0 0.0019740822466555643 0.0014958224268548977 0 0.0040241775416624921 -0.00083248534206399095 0 0.0040288914717591133 -0.00084228110263950861 0 0.0027518241204436554 -0.0082094026740941444 0 0.0026380725653282525 -0.0059558108628317719 0 0.0011124832782608281 -0.0073372254126059409 0 0.0040288914717591133 -0.00084228110263950861 0 0.0012623342384348887 -0.0053349760957761474 0 0.0022241371565812182 -0.0068136663993062386 0 0.00094321189136840119 -0.0052735116943716529 0 -0.00031901588155413174 -0.0065269622067310523 0 0.00033449798469097097 -0.0084517092479517771 0 0.0022241371565812182 -0.0068136663993062386 0 -0.00031901588155413174 -0.0065269622067310523 0 0.00094321189136840119 -0.0052735116943716529 0 0.0018714528622853868 -0.0034693312533257137 0 -0.00082143788893501441 -0.0045572606862852218 0 0.00094321189136840119 -0.0052735116943716529 0 -0.00031901588155413174 -0.0065269622067310523 0 -0.00082143788893501441 -0.0045572606862852218 0 0.00094321189136840119 -0.0052735116943716529 0 0.0022270724541003585 -0.0051623508173413712 0 0.0018714528622853868 -0.0034693312533257137 0 0.0040994240288071736 -0.0051710961072459205 0 0.0022241371565812182 -0.0068136663993062386 0 0.0022270724541003585 -0.0051623508173413712 0 0.0040994240288071736 -0.0051710961072459205 0 0.0022270724541003585 -0.0051623508173413712 0 0.0018714528622853868 -0.0034693312533257137 0 0.0022241371565812182 -0.0068136663993062386 0 0.00094321189136840119 -0.0052735116943716529 0 0.0022270724541003585 -0.0051623508173413712 0 0.0055123649834583777 0.0078665822716613137 0 0.0063875600567114294 0.010386057141717489 0 -0.00069550131217476266 0.0035777066622913944 0 0.0011180009132002208 0.00276727351686099 0 0.0011649630075657074 0.0043048275276579102 0 0.011445239341525292 0.019845036360538505 0 0.011589620510744561 0.019764402041046309 0 0.011709282414707685 0.019842215076492996 0 0.011445239341525292 0.019845036360538505 0 0.011728518017526016 0.019977863451869648 0 0.011709282414707685 0.019842215076492996 0 0.0055123649834583777 0.0078665822716613137 0 0.0065815268279501961 0.0065112559150260112 0 0.0055123649834583777 0.0078665822716613137 0 0.0056762082342641058 0.0094207573634702366 0 0.011589620510744561 0.019764402041046309 0 0.011573522346977666 0.019728630928889983 0 0.011605290297186042 0.019723482539405656 0 0.011569127830500261 0.019740847276524455 0 0.011589620510744561 0.019764402041046309 0 0.011573522346977666 0.019728630928889983 0 0.011569127830500261 0.019740847276524455 0 0.011573522346977666 0.019728630928889983 0 0.011555174944378457 0.019725760089880615 0 0.011573522346977666 0.019728630928889983 0 0.011555174944378457 0.019725760089880615 0 0.011559858327768834 0.019687416680367997 0 0.011519627854154831 0.019704527383244273 0 0.011555174944378457 0.019725760089880615 0 0.011559858327768834 0.019687416680367997 0 0.0068270936412653258 0.012352167511753852 0 0.0063875600567114294 0.010386057141717489 0 0.0068270936412653258 0.012352167511753852 0 0.0069396614891214575 0.01340206103730859 0 0.011450599264673997 0.019677695403989781 0 0.011466952888054684 0.019596074771302572 0 0.011145972673220315 0.019385168640574709 0 0.0068270936412653258 0.012352167511753852 0 0.0079562124387397831 0.014505233364425222 0 0.0038259537233953406 0.0021634659679098073 0 0.0027000907062936091 0.0033737220797949853 0 0.0054763364914319369 0.0024193279072559069 0 0.003047653588970078 0.0050587611964910458 0 0.0027000907062936091 0.0033737220797949853 0 0.0054763364914319369 0.0024193279072559069 0 0.0068270936412653258 0.012352167511753852 0 0.006581427414057971 0.0065807435520463991 0 0.0038259537233953406 0.0021634659679098073 0 0.0027000907062936091 0.0033737220797949853 0 0.0025700371517946253 0.0024597380948256716 0 0.0027000907062936091 0.0033737220797949853 0 0.0025700371517946253 0.0024597380948256716 0 0.0019535523277600078 0.0028482505971974786 0 0.0040288914717591133 -0.00084228110263950861 0 0.0055123649834583777 0.0078665822716613137 0 0.0019740822466555643 0.0014958224268548977 0 -0.00069550131217476266 0.0035777066622913944 0 0.0011180009132002208 0.00276727351686099 0 0.0021599444878493508 0.0023076634513578588 0 0.0025700371517946253 0.0024597380948256716 0 0.0019535523277600078 0.0028482505971974786 0 0.0018848148922168291 0.0022038945096351722 0 0.0021599444878493508 0.0023076634513578588 0 0.0019535523277600078 0.0028482505971974786 0 0.0018848148922168291 0.0022038945096351722 0 0.0019535523277600078 0.0028482505971974786 0 0.0011180009132002208 0.00276727351686099 0 0.0019535523277600078 0.0028482505971974786 0 0.0011180009132002208 0.00276727351686099 0 0.0011649630075657074 0.0043048275276579102 0 0.003047653588970078 0.0050587611964910458 0 0.0027000907062936091 0.0033737220797949853 0 0.0011649630075657074 0.0043048275276579102 0 0.0027000907062936091 0.0033737220797949853 0 0.0019535523277600078 0.0028482505971974786 0 0.0011649630075657074 0.0043048275276579102 0 0.012453705654807672 0.019964581986743914 0 0.012339279129225071 0.01997572027271572 0 0.012251907249177836 0.020117057516331232 0 0.030680073934320488 0.011015628294057235 0 0.021032712471830778 0.0057965505834974762 0 0.012255481912133328 0.019976292718019675 0 0.012251907249177836 0.020117057516331232 0 0.012129312072451732 0.019977689799822701 0 0.012339279129225071 0.01997572027271572 0 0.012255481912133328 0.019976292718019675 0 0.012322120981886885 0.019910761013017881 0 0.012339279129225071 0.01997572027271572 0 0.012255481912133328 0.019976292718019675 0 0.012251907249177836 0.020117057516331232 0 0.029834987265107488 0.0071797372643382443 0 0.030921684618894201 0.0052497161866746894 0 0.032590324071142027 0.0059013896365805911 0 -0.0058783470346172742 -0.0066768362629264985 0 -0.0049226089457788461 -0.0062994970870320832 0 -0.0041892322475362105 -0.0072560698205538223 0 0.031539935640600258 0.0041817043803867053 0 0.021032712471830778 0.0057965505834974762 0 0.041565218698937881 0.0026594323679635977 0 0.042034308787749407 0.001912866737175338 0 0.041862155843741124 0.0027763983671159403 0 -0.0041892322475362105 -0.0072560698205538223 0 -0.0034235192727881895 -0.0056645740366774704 0 -0.0030530156913455495 -0.0069641166509443828 0 -0.0049226089457788461 -0.0062994970870320832 0 -0.0041892322475362105 -0.0072560698205538223 0 -0.0034235192727881895 -0.0056645740366774704 0 -0.0034310369110525174 -0.0080238194106270113 0 -0.0041892322475362105 -0.0072560698205538223 0 -0.0030530156913455495 -0.0069641166509443828 0 0.021032712471830778 0.0057965505834974762 0 0.010849651210965986 0.0051483715278268548 0 0.012056869797808137 0.020072162975401379 0 0.012129312072451732 0.019977689799822701 0 0.011972055305019385 0.01989808262708348 0 0.012251907249177836 0.020117057516331232 0 0.012056869797808137 0.020072162975401379 0 0.012129312072451732 0.019977689799822701 0 0.010849651210965986 0.0051483715278268548 0 0.0065815268279501961 0.0065112559150260112 0 -0.0034235192727881895 -0.0056645740366774704 0 -0.0019289937675942507 -0.0063181243550420579 0 -0.00082143788893501441 -0.0045572606862852218 0 0.012056869797808137 0.020072162975401379 0 0.011728518017526016 0.019977863451869648 0 0.011972055305019385 0.01989808262708348 0 -0.0034235192727881895 -0.0056645740366774704 0 -0.0019289937675942507 -0.0063181243550420579 0 -0.0030530156913455495 -0.0069641166509443828 0 -0.0019563088303223009 -0.0079166258956569566 0 -0.0019289937675942507 -0.0063181243550420579 0 -0.0030530156913455495 -0.0069641166509443828 0 -0.0019563088303223009 -0.0079166258956569566 0 -0.0019289937675942507 -0.0063181243550420579 0 -0.00031901588155413174 -0.0065269622067310523 0 -0.0019289937675942507 -0.0063181243550420579 0 -0.00031901588155413174 -0.0065269622067310523 0 -0.00082143788893501441 -0.0045572606862852218 0 0.011709282414707685 0.019842215076492996 0 0.011781232380906411 0.019773377959034381 0 0.011972055305019385 0.01989808262708348 0 0.011728518017526016 0.019977863451869648 0 0.011709282414707685 0.019842215076492996 0 0.011972055305019385 0.01989808262708348 0 0.011589620510744561 0.019764402041046309 0 0.011709282414707685 0.019842215076492996 0 0.011781232380906411 0.019773377959034381 0 0.011589620510744561 0.019764402041046309 0 0.011781232380906411 0.019773377959034381 0 0.011605290297186042 0.019723482539405656 0 0.011781232380906411 0.019773377959034381 0 0.011997484602043005 0.019784486177126109 0 0.011972055305019385 0.01989808262708348 0 0.011781232380906411 0.019773377959034381 0 0.011862464323064847 0.019708251177323954 0 0.011723168006375342 0.019704378052883116 0 0.011781232380906411 0.019773377959034381 0 0.011997484602043005 0.019784486177126109 0 0.011862464323064847 0.019708251177323954 0 0.011997484602043005 0.019784486177126109 0 0.012080486275930741 0.019651224860904398 0 0.011862464323064847 0.019708251177323954 0 0.012129312072451732 0.019977689799822701 0 0.011972055305019385 0.01989808262708348 0 0.012100705184056523 0.01985448248821628 0 0.012129312072451732 0.019977689799822701 0 0.012100705184056523 0.01985448248821628 0 0.012216681572687937 0.019893341678594901 0 0.012255481912133328 0.019976292718019675 0 0.012129312072451732 0.019977689799822701 0 0.012216681572687937 0.019893341678594901 0 0.012100705184056523 0.01985448248821628 0 0.012171655710192837 0.019773748351395667 0 0.012216681572687937 0.019893341678594901 0 0.011997484602043005 0.019784486177126109 0 0.011972055305019385 0.01989808262708348 0 0.012100705184056523 0.01985448248821628 0 0.011997484602043005 0.019784486177126109 0 0.012100705184056523 0.01985448248821628 0 0.012171655710192837 0.019773748351395667 0 0.011997484602043005 0.019784486177126109 0 0.012171655710192837 0.019773748351395667 0 0.012080486275930741 0.019651224860904398 0 0.012171655710192837 0.019773748351395667 0 0.012274021034723406 0.019750774273015522 0 0.012211655557213239 0.019641112637422947 0 0.012171655710192837 0.019773748351395667 0 0.012274021034723406 0.019750774273015522 0 0.012294228029510731 0.019834556056445265 0 0.012360161640589633 0.019780013281077459 0 0.012274021034723406 0.019750774273015522 0 0.01232173882379122 0.019696362358181629 0 0.012360161640589633 0.019780013281077459 0 0.012274021034723406 0.019750774273015522 0 0.012294228029510731 0.019834556056445265 0 0.012385262806572716 0.019845762473548193 0 0.012360161640589633 0.019780013281077459 0 0.012294228029510731 0.019834556056445265 0 0.012385262806572716 0.019845762473548193 0 0.012294228029510731 0.019834556056445265 0 0.012322120981886885 0.019910761013017881 0 0.012171655710192837 0.019773748351395667 0 0.012294228029510731 0.019834556056445265 0 0.012216681572687937 0.019893341678594901 0 0.012294228029510731 0.019834556056445265 0 0.012216681572687937 0.019893341678594901 0 0.012322120981886885 0.019910761013017881 0 0.012255481912133328 0.019976292718019675 0 0.012216681572687937 0.019893341678594901 0 0.012322120981886885 0.019910761013017881 0 0.012399247608826705 0.019909559842991378 0 0.012339279129225071 0.01997572027271572 0 0.012322120981886885 0.019910761013017881 0 0.012275092529453906 0.019590964946967212 0 0.012211655557213239 0.019641112637422947 0 0.012219640131318345 0.019545859089800697 0 0.012324828707181762 0.019576958052728192 0 0.012275092529453906 0.019590964946967212 0 0.012227297956885106 0.019505440319060683 0 0.012275092529453906 0.019590964946967212 0 0.012219640131318345 0.019545859089800697 0 0.012227297956885106 0.019505440319060683 0 0.012275092529453906 0.019590964946967212 0 0.01232173882379122 0.019696362358181629 0 0.012211655557213239 0.019641112637422947 0 0.012274021034723406 0.019750774273015522 0 0.01232173882379122 0.019696362358181629 0 0.012211655557213239 0.019641112637422947 0 0.012171655710192837 0.019773748351395667 0 0.012211655557213239 0.019641112637422947 0 0.012080486275930741 0.019651224860904398 0 0.012211655557213239 0.019641112637422947 0 0.012080486275930741 0.019651224860904398 0 0.01216774627425936 0.01957336850830519 0 0.012219640131318345 0.019545859089800697 0 0.01216774627425936 0.01957336850830519 0 0.012310889336036475 0.019524019307105414 0 0.012211655557213239 0.019641112637422947 0 0.012219640131318345 0.019545859089800697 0 0.01216774627425936 0.01957336850830519 0 0.013108609342245652 0.021506845261086639 0 0.012976262415776683 0.021407498093812188 0 0.013144532332658906 0.021298559563052544 0 0.012362409865881907 0.020156839398933313 0 0.012576917236571363 0.020435261840860745 0 0.01216774627425936 0.01957336850830519 0 0.012137335359885527 0.019583035089964604 0 0.012310889336036475 0.019524019307105414 0 0.012080486275930741 0.019651224860904398 0 0.01216774627425936 0.01957336850830519 0 0.012137335359885527 0.019583035089964604 0 0.012259678092337342 0.020049322475034333 0 0.012362409865881907 0.020156839398933313 0 0.012080486275930741 0.019651224860904398 0 0.011862464323064847 0.019708251177323954 0 0.01178930067489729 0.019614149110829468 0 0.011862464323064847 0.019708251177323954 0 0.01178930067489729 0.019614149110829468 0 0.011723168006375342 0.019704378052883116 0 0.011781232380906411 0.019773377959034381 0 0.011723168006375342 0.019704378052883116 0 0.011605290297186042 0.019723482539405656 0 0.01178930067489729 0.019614149110829468 0 0.011723168006375342 0.019704378052883116 0 0.011646734509101489 0.019692446143574877 0 0.011723168006375342 0.019704378052883116 0 0.011646734509101489 0.019692446143574877 0 0.011605290297186042 0.019723482539405656 0 0.012362409865881907 0.020156839398933313 0 0.012377496827526445 0.02044773489590904 0 0.011646734509101489 0.019692446143574877 0 0.011529863508009094 0.019761478313018395 0 0.011570066263352564 0.019735222142971017 0 0.01178930067489729 0.019614149110829468 0 0.011646734509101489 0.019692446143574877 0 0.011529863508009094 0.019761478313018395 0 0.012976262415776683 0.021407498093812188 0 0.013050061260158704 0.021232799803927355 0 0.013144532332658906 0.021298559563052544 0 0.013050061260158704 0.021232799803927355 0 0.013119031549733434 0.021156116371939926 0 0.013066644364395672 0.021107404878122817 0 0.012576917236571363 0.020435261840860745 0 0.012724580128842602 0.020626056764213859 0 0.013050061260158704 0.021232799803927355 0 0.013144532332658906 0.021298559563052544 0 0.013119031549733434 0.021156116371939926 0 0.012219640131318345 0.019545859089800697 0 0.012310889336036475 0.019524019307105414 0 0.012227297956885106 0.019505440319060683 0 0.012310889336036475 0.019524019307105414 0 0.012227297956885106 0.019505440319060683 0 0.012569572741109099 0.019601524321176522 0 0.012227297956885106 0.019505440319060683 0 0.011969740322634826 0.019575401154132217 0 0.012569572741109099 0.019601524321176522 0 0.012241730958167975 0.019593881005074205 0 0.012227297956885106 0.019505440319060683 0 0.011969740322634826 0.019575401154132217 0 0.011643941649322202 0.019776593902654061 0 0.011826510988100947 0.020134225626417673 0 0.0116619352080991 0.019890760285136869 0 0.011643941649322202 0.019776593902654061 0 0.011466952888054684 0.019596074771302572 0 0.0116619352080991 0.019890760285136869 0 0.011466952888054684 0.019596074771302572 0 0.0116619352080991 0.019890760285136869 0 0.01122278170658202 0.019443051879179604 0 0.011450599264673997 0.019677695403989781 0 0.011466952888054684 0.019596074771302572 0 0.011559858327768834 0.019687416680367997 0 0.011643941649322202 0.019776593902654061 0 0.011559858327768834 0.019687416680367997 0 0.011582616643251536 0.019718348959518527 0 0.011643941649322202 0.019776593902654061 0 0.011466952888054684 0.019596074771302572 0 0.011559858327768834 0.019687416680367997 0 0.011643941649322202 0.019776593902654061 0 0.011582616643251536 0.019718348959518527 0 0.011572697716616365 0.019733813711313511 0 0.011573522346977666 0.019728630928889983 0 0.011559858327768834 0.019687416680367997 0 0.011582616643251536 0.019718348959518527 0 0.011573522346977666 0.019728630928889983 0 0.011582616643251536 0.019718348959518527 0 0.011572697716616365 0.019733813711313511 0 0.011573522346977666 0.019728630928889983 0 0.011572697716616365 0.019733813711313511 0 0.011605290297186042 0.019723482539405656 0 0.011572697716616365 0.019733813711313511 0 0.011605290297186042 0.019723482539405656 0 0.011570066263352564 0.019735222142971017 0 0.011646734509101489 0.019692446143574877 0 0.011605290297186042 0.019723482539405656 0 0.011570066263352564 0.019735222142971017 0 0.011529863508009094 0.019761478313018395 0 0.011570066263352564 0.019735222142971017 0 0.011562535999423629 0.019841211460033478 0 0.011572697716616365 0.019733813711313511 0 0.011570066263352564 0.019735222142971017 0 0.011562535999423629 0.019841211460033478 0 0.011643941649322202 0.019776593902654061 0 0.011562535999423629 0.019841211460033478 0 0.011826510988100947 0.020134225626417673 0 0.011643941649322202 0.019776593902654061 0 0.011572697716616365 0.019733813711313511 0 0.011562535999423629 0.019841211460033478 0 0.011493255813393088 0.020115017820285346 0 0.012089843126901284 0.020799068226967692 0 0.011826510988100947 0.020134225626417673 0 0.011562535999423629 0.019841211460033478 0 0.011493255813393088 0.020115017820285346 0 0.011826510988100947 0.020134225626417673 0 0.011529863508009094 0.019761478313018395 0 0.011562535999423629 0.019841211460033478 0 0.011493255813393088 0.020115017820285346 0 0.012377496827526445 0.02044773489590904 0 0.012306310361532666 0.020565678576210462 0 0.012976262415776683 0.021407498093812188 0 0.013050061260158704 0.021232799803927355 0 0.012763054873046444 0.021293121745897512 0 0.013050061260158704 0.021232799803927355 0 0.012763054873046444 0.021293121745897512 0 0.013066644364395672 0.021107404878122817 0 0.012763054873046444 0.021293121745897512 0 0.013066644364395672 0.021107404878122817 0 0.012719276076875492 0.020955297155764732 0 0.012306310361532666 0.020565678576210462 0 0.012275366029764364 0.020604174344436971 0 0.012763054873046444 0.021293121745897512 0 0.012089843126901284 0.020799068226967692 0 0.012719276076875492 0.020955297155764732 0 0.012089843126901284 0.020799068226967692 0 0.011826510988100947 0.020134225626417673 0 0.011920068379469533 0.020482432014184388 0 0.011826510988100947 0.020134225626417673 0 0.0116619352080991 0.019890760285136869 0 0.011920068379469533 0.020482432014184388 0 0.0116619352080991 0.019890760285136869 0 0.011920068379469533 0.020482432014184388 0 0.011710640877079006 0.020082916800912343 0 0.011920068379469533 0.020482432014184388 0 0.011963869543850076 0.020429413032889476 0 0.011710640877079006 0.020082916800912343 0 0.011963869543850076 0.020429413032889476 0 0.011782907240867205 0.020070572425262119 0 0.011710640877079006 0.020082916800912343 0 0.012032122923519578 0.020266866411342226 0 0.012167976760361264 0.020420777101060886 0 0.011963869543850076 0.020429413032889476 0 0.011782907240867205 0.020070572425262119 0 0.012381623950355407 0.020467100592007174 0 0.011782907240867205 0.020070572425262119 0 0.01122278170658202 0.019443051879179604 0 0.011485769051071822 0.019706116612488792 0 0.011782907240867205 0.020070572425262119 0 0.01187231653312977 0.019930661678218952 0 0.011485769051071822 0.019706116612488792 0 0.011782907240867205 0.020070572425262119 0 0.011710640877079006 0.020082916800912343 0 0.01122278170658202 0.019443051879179604 0 0.0116619352080991 0.019890760285136869 0 0.011710640877079006 0.020082916800912343 0 0.01122278170658202 0.019443051879179604 0 0.012014774364915581 0.020074618049286876 0 0.012293261447937217 0.020188425394392535 0 0.012177984901613946 0.020365217141732037 0 0.012014774364915581 0.020074618049286876 0 0.012177984901613946 0.020365217141732037 0 0.011952213683198593 0.020296776193744627 0 0.011782907240867205 0.020070572425262119 0 0.012014774364915581 0.020074618049286876 0 0.011952213683198593 0.020296776193744627 0 0.011782907240867205 0.020070572425262119 0 0.01187231653312977 0.019930661678218952 0 0.012014774364915581 0.020074618049286876 0 0.01187231653312977 0.019930661678218952 0 0.012014774364915581 0.020074618049286876 0 0.012034890013734409 0.019921419389545322 0 0.012014774364915581 0.020074618049286876 0 0.012157274495032693 0.01986565170956784 0 0.012293261447937217 0.020188425394392535 0 0.010469526087082926 0.012489251951663371 0 0.010545508203024381 0.015119985323171048 0 0.012014774364915581 0.020074618049286876 0 0.012034890013734409 0.019921419389545322 0 0.012157274495032693 0.01986565170956784 0 0.010288427850679543 0.011544940236695429 0 0.010813693619265279 0.012235595483930606 0 0.010469526087082926 0.012489251951663371 0 0.010813693619265279 0.012235595483930606 0 0.010048325578100151 0.012410749548238708 0 0.0099591125148984928 0.011999441731997055 0 0.010715935064279477 0.012175204070810278 0 0.012034890013734409 0.019921419389545322 0 0.012157274495032693 0.01986565170956784 0 0.011963876870402332 0.019883061762477023 0 0.010288427850679543 0.011544940236695429 0 0.010469526087082926 0.012489251951663371 0 0.0039127159022363384 0.0094548217038573894 0 0.0041984974439520728 0.010961997674743781 0 0.0052850094072677579 0.009768908146564028 0 0.015396884996977823 0.019456651111334374 0 0.011963876870402332 0.019883061762477023 0 0.012257811989758957 0.018534889607094852 0 0.01187231653312977 0.019930661678218952 0 0.012034890013734409 0.019921419389545322 0 0.011963876870402332 0.019883061762477023 0 0.01187231653312977 0.019930661678218952 0 0.011963876870402332 0.019883061762477023 0 0.011485769051071822 0.019706116612488792 0 0.011963876870402332 0.019883061762477023 0 0.012257811989758957 0.018534889607094852 0 0.011152780934095954 0.019274179815903271 0 0.011963876870402332 0.019883061762477023 0 0.011485769051071822 0.019706116612488792 0 0.011152780934095954 0.019274179815903271 0 0.012257811989758957 0.018534889607094852 0 0.011475907628081159 0.014550920591585689 0 0.015106362687858175 0.015268070438616521 0 0.012257811989758957 0.018534889607094852 0 0.010165456843113112 0.018247889415036009 0 0.011475907628081159 0.014550920591585689 0 0.012257811989758957 0.018534889607094852 0 0.011152780934095954 0.019274179815903271 0 0.010165456843113112 0.018247889415036009 0 0.015396884996977823 0.019456651111334374 0 0.012257811989758957 0.018534889607094852 0 0.015106362687858175 0.015268070438616521 0 0.011013258322417866 0.0060303363813773722 0 0.010706100776586873 0.0046401885792241243 0 0.011727645060919738 0.004879458060063695 0 0.010288427850679543 0.011544940236695429 0 0.011390615019165603 0.0093858987779986951 0 0.01122278170658202 0.019443051879179604 0 0.011485769051071822 0.019706116612488792 0 0.011152780934095954 0.019274179815903271 0 0.01122278170658202 0.019443051879179604 0 0.011152780934095954 0.019274179815903271 0 0.010165456843113112 0.018247889415036009 0 0.0089026810152292996 0.015352575217034032 0 0.0079562124387397831 0.014505233364425222 0 0.01122278170658202 0.019443051879179604 0 0.010165456843113112 0.018247889415036009 0 0.011145972673220315 0.019385168640574709 0 0.011466952888054684 0.019596074771302572 0 0.01122278170658202 0.019443051879179604 0 0.011145972673220315 0.019385168640574709 0 0.0029065729863542683 0.01568651373281622 0 0.0073970287243766602 0.012147702653690038 0 0.0030397020347353344 0.0065685792395539684 0 -0.0031162750829223517 0.013318651495312419 0 0.0029065729863542683 0.01568651373281622 0 0.0030397020347353344 0.0065685792395539684 0 0.0072525362047629787 0.0079734183310978257 0 0.0073970287243766602 0.012147702653690038 0 0.0030397020347353344 0.0065685792395539684 0 0.0072525362047629787 0.0079734183310978257 0 0.0099689629181845332 0.010136194431311207 0 0.009841205154027555 0.0068452381566186556 0 0.0072525362047629787 0.0079734183310978257 0 0.0073970287243766602 0.012147702653690038 0 0.0099689629181845332 0.010136194431311207 0 0.0073970287243766602 0.012147702653690038 0 0.011475907628081159 0.014550920591585689 0 0.0099689629181845332 0.010136194431311207 0 0.010165456843113112 0.018247889415036009 0 0.0029065729863542683 0.01568651373281622 0 0.0073970287243766602 0.012147702653690038 0 0.010165456843113112 0.018247889415036009 0 0.0073970287243766602 0.012147702653690038 0 0.011475907628081159 0.014550920591585689 0 0.011475907628081159 0.014550920591585689 0 0.015106362687858175 0.015268070438616521 0 0.012892631011320623 0.010866962763023116 0 0.011475907628081159 0.014550920591585689 0 0.0099689629181845332 0.010136194431311207 0 0.012892631011320623 0.010866962763023116 0 0.010706100776586873 0.0046401885792241243 0 0.011032691671485226 0.0036773947115227726 0 0.010380895664535737 0.003234051757246577 0 0.015106362687858175 0.015268070438616521 0 0.014165860842086968 0.0093242577849879053 0 0.012892631011320623 0.010866962763023116 0 0.010706100776586873 0.0046401885792241243 0 0.011719093954410913 0.0037956847338418628 0 0.011727645060919738 0.004879458060063695 0 0.011390615019165603 0.0093858987779986951 0 0.01179666008377607 0.0063249846897542837 0 0.010706100776586873 0.0046401885792241243 0 0.011032691671485226 0.0036773947115227726 0 0.011719093954410913 0.0037956847338418628 0 0.010380895664535737 0.003234051757246577 0 0.011328240034294682 0.0030313918005751626 0 0.011383243491179317 0.0019369361176892409 0 0.011032691671485226 0.0036773947115227726 0 0.011328240034294682 0.0030313918005751626 0 0.011719093954410913 0.0037956847338418628 0 0.011032691671485226 0.0036773947115227726 0 0.010380895664535737 0.003234051757246577 0 0.011328240034294682 0.0030313918005751626 0 0.014066753496120169 0.0089814093051427662 0 0.011660612108383289 0.0080831520841575261 0 0.011465937587357228 0.0038515167660290624 0 0.0099689629181845332 0.010136194431311207 0 0.012892631011320623 0.010866962763023116 0 0.011660612108383289 0.0080831520841575261 0 0.014066753496120169 0.0089814093051427662 0 0.012892631011320623 0.010866962763023116 0 0.011660612108383289 0.0080831520841575261 0 0.01179666008377607 0.0063249846897542837 0 0.011740588285166545 0.0065031028357667537 0 0.0099689629181845332 0.010136194431311207 0 0.011660612108383289 0.0080831520841575261 0 0.009841205154027555 0.0068452381566186556 0 0.01179666008377607 0.0063249846897542837 0 0.011786073279768827 0.0060703407047128935 0 0.011465937587357228 0.0038515167660290624 0 0.011286718986394873 0.0014103060162171963 0 0.0087385372730171829 0.0044882292650320569 0 0.009841205154027555 0.0068452381566186556 0 0.011465937587357228 0.0038515167660290624 0 0.0087385372730171829 0.0044882292650320569 0 0.011660612108383289 0.0080831520841575261 0 0.009841205154027555 0.0068452381566186556 0 0.011465937587357228 0.0038515167660290624 0 0.011767998693849828 0.0052300525316988002 0 0.011465937587357228 0.0038515167660290624 0 0.013024260044908602 0.0030731846639271742 0 0.01179666008377607 0.0063249846897542837 0 0.012709390273779455 0.0035246649274575537 0 0.011465937587357228 0.0038515167660290624 0 0.011286718986394873 0.0014103060162171963 0 0.013024260044908602 0.0030731846639271742 0 0.012889016161022299 -0.0021460310971150812 0 0.011808198942892091 -0.00068232290843488023 0 0.012552719543764614 -0.0005503673877103204 0 0.011286718986394873 0.0014103060162171963 0 0.012676085637766557 0.0010856881494926576 0 0.011286718986394873 0.0014103060162171963 0 0.012676085637766557 0.0010856881494926576 0 0.013024260044908602 0.0030731846639271742 0 0.01079907538091362 -0.0032730225622152279 0 0.011286718986394873 0.0014103060162171963 0 0.0080727230099912322 0.0012655183165061047 0 0.011286718986394873 0.0014103060162171963 0 0.0080727230099912322 0.0012655183165061047 0 0.0087385372730171829 0.0044882292650320569 0 0.0077740117379355243 -0.0032355011310486914 0 0.0080086307165213241 -0.0003172320515297274 0 0.0048031135196838432 -0.00079394878725858736 0 0.0080086307165213241 -0.0003172320515297274 0 0.0048031135196838432 -0.00079394878725858736 0 0.0054763364914319369 0.0024193279072559069 0 0.0038259537233953406 0.0021634659679098073 0 0.0048031135196838432 -0.00079394878725858736 0 0.0054763364914319369 0.0024193279072559069 0 0.0080727230099912322 0.0012655183165061047 0 0.0030397020347353344 0.0065685792395539684 0 0.0087385372730171829 0.0044882292650320569 0 0.0072525362047629787 0.0079734183310978257 0 0.0030397020347353344 0.0065685792395539684 0 0.0087385372730171829 0.0044882292650320569 0 0.0087435699068860936 0.0017742473536653226 0 0.006581427414057971 0.0065807435520463991 0 0.0072525362047629787 0.0079734183310978257 0 0.009841205154027555 0.0068452381566186556 0 0.0087385372730171829 0.0044882292650320569 0 0.014462581231103652 0.0017552302558114673 0 0.013662610741871119 0.0023050627627099608 0 0.014043402218140631 0.0030428600577737451 0 0.014462581231103652 0.0017552302558114673 0 0.013943316125995963 0.00097413810506728521 0 0.013662610741871119 0.0023050627627099608 0 0.014462581231103652 0.0017552302558114673 0 0.014856385211604468 0.0023690686725941672 0 0.014043402218140631 0.0030428600577737451 0 0.015380103483706791 0.0014147109461742577 0 0.015572119864301976 0.0026902305165686269 0 0.016124376244580994 0.0019284200102508899 0 0.014856385211604468 0.0023690686725941672 0 0.015380103483706791 0.0014147109461742577 0 0.015572119864301976 0.0026902305165686269 0 0.014462581231103652 0.0017552302558114673 0 0.014856385211604468 0.0023690686725941672 0 0.015380103483706791 0.0014147109461742577 0 0.015135572365790839 8.9824952711306356e-05 0 0.015380103483706791 0.0014147109461742577 0 0.016222884212509552 0.00036147211576845797 0 0.015380103483706791 0.0014147109461742577 0 0.016222884212509552 0.00036147211576845797 0 0.016124376244580994 0.0019284200102508899 0 0.015135572365790839 8.9824952711306356e-05 0 0.015380103483706791 0.0014147109461742577 0 0.014654527346789424 0.00089271864559378462 0 0.015135572365790839 8.9824952711306356e-05 0 0.014510002864669198 -9.9258829618214747e-05 0 0.014654527346789424 0.00089271864559378462 0 0.014462581231103652 0.0017552302558114673 0 0.015380103483706791 0.0014147109461742577 0 0.014654527346789424 0.00089271864559378462 0 0.014462581231103652 0.0017552302558114673 0 0.014654527346789424 0.00089271864559378462 0 0.013943316125995963 0.00097413810506728521 0 0.014510002864669198 -9.9258829618214747e-05 0 0.013910696032145745 0.00018147136833752975 0 0.013943316125995963 0.00097413810506728521 0 0.014510002864669198 -9.9258829618214747e-05 0 0.014654527346789424 0.00089271864559378462 0 0.013943316125995963 0.00097413810506728521 0 0.013910696032145745 0.00018147136833752975 0 0.013943316125995963 0.00097413810506728521 0 0.012446093027816836 0.00057133709472648327 0 0.013943316125995963 0.00097413810506728521 0 0.012446093027816836 0.00057133709472648327 0 0.012850723704885625 0.0019478854674341195 0 0.013546146931573114 0.0015997481375406959 0 0.012709390273779455 0.0035246649274575537 0 0.012446093027816836 0.00057133709472648327 0 0.011383243491179317 0.0019369361176892409 0 0.012850723704885625 0.0019478854674341195 0 0.012676085637766557 0.0010856881494926576 0 0.013832787120326257 0.00060317066504109564 0 0.013024260044908602 0.0030731846639271742 0 0.012552719543764614 -0.0005503673877103204 0 0.012676085637766557 0.0010856881494926576 0 0.013832787120326257 0.00060317066504109564 0 0.011383243491179317 0.0019369361176892409 0 0.012850723704885625 0.0019478854674341195 0 0.012103168220539274 0.0027423246342301844 0 0.011328240034294682 0.0030313918005751626 0 0.011383243491179317 0.0019369361176892409 0 0.012103168220539274 0.0027423246342301844 0 0.013662610741871119 0.0023050627627099608 0 0.012850723704885625 0.0019478854674341195 0 0.012900505299790055 0.0032538621513048191 0 0.013943316125995963 0.00097413810506728521 0 0.013662610741871119 0.0023050627627099608 0 0.012850723704885625 0.0019478854674341195 0 0.012850723704885625 0.0019478854674341195 0 0.012900505299790055 0.0032538621513048191 0 0.012103168220539274 0.0027423246342301844 0 0.013662610741871119 0.0023050627627099608 0 0.012900505299790055 0.0032538621513048191 0 0.014043402218140631 0.0030428600577737451 0 0.012900505299790055 0.0032538621513048191 0 0.013564742801664149 0.0039877576855482134 0 0.014043402218140631 0.0030428600577737451 0 0.012900505299790055 0.0032538621513048191 0 0.012103168220539274 0.0027423246342301844 0 0.011719093954410913 0.0037956847338418628 0 0.011328240034294682 0.0030313918005751626 0 0.012103168220539274 0.0027423246342301844 0 0.011719093954410913 0.0037956847338418628 0 0.012900505299790055 0.0032538621513048191 0 0.011719093954410913 0.0037956847338418628 0 0.012697563358327458 0.0044508909373782816 0 0.011719093954410913 0.0037956847338418628 0 0.012697563358327458 0.0044508909373782816 0 0.011727645060919738 0.004879458060063695 0 0.012697563358327458 0.0044508909373782816 0 0.013564742801664149 0.0039877576855482134 0 0.013853629360021663 0.0049301778071224314 0 0.012900505299790055 0.0032538621513048191 0 0.012697563358327458 0.0044508909373782816 0 0.013564742801664149 0.0039877576855482134 0 0.013564742801664149 0.0039877576855482134 0 0.014381912971389995 0.0041874433932493037 0 0.013853629360021663 0.0049301778071224314 0 0.014043402218140631 0.0030428600577737451 0 0.014797371669369629 0.0031750595316827226 0 0.014381912971389995 0.0041874433932493037 0 0.013564742801664149 0.0039877576855482134 0 0.014043402218140631 0.0030428600577737451 0 0.014381912971389995 0.0041874433932493037 0 0.014856385211604468 0.0023690686725941672 0 0.014043402218140631 0.0030428600577737451 0 0.014797371669369629 0.0031750595316827226 0 0.015572119864301976 0.0026902305165686269 0 0.015527949110826561 0.0034361849142277631 0 0.016346987318577734 0.0030104167190325246 0 0.015572119864301976 0.0026902305165686269 0 0.014797371669369629 0.0031750595316827226 0 0.015527949110826561 0.0034361849142277631 0 0.014856385211604468 0.0023690686725941672 0 0.015572119864301976 0.0026902305165686269 0 0.014797371669369629 0.0031750595316827226 0 0.014797371669369629 0.0031750595316827226 0 0.015527949110826561 0.0034361849142277631 0 0.014381912971389995 0.0041874433932493037 0 0.014381912971389995 0.0041874433932493037 0 0.014942885128198252 0.0047487032373859884 0 0.013853629360021663 0.0049301778071224314 0 0.013388941237468713 0.0067146025241381548 0 0.01230068326796872 0.007423609709901656 0 0.012772298222901267 0.0014674495976199379 0 0.010365425123476076 0.00087608878652843875 0 0.014381912971389995 0.0041874433932493037 0 0.014942885128198252 0.0047487032373859884 0 0.016205293235359786 0.0040987733146581858 0 0.015527949110826561 0.0034361849142277631 0 0.014381912971389995 0.0041874433932493037 0 0.01639422105111563 0.0041351569401376041 0 0.014942885128198252 0.0047487032373859884 0 0.014493101201056133 0.0066783970348076828 0 0.0098030324368023128 0.0066010537362711733 0 0.014942885128198252 0.0047487032373859884 0 0.014493101201056133 0.0066783970348076828 0 0.016306048814662522 0.0059918085765407504 0 0.014493101201056133 0.0066783970348076828 0 0.013523587272672414 0.0083633895004021665 0 0.0098030324368023128 0.0066010537362711733 0 0.014493101201056133 0.0066783970348076828 0 0.013523587272672414 0.0083633895004021665 0 0.016945136337672931 0.0078250018543613124 0 0.013523587272672414 0.0083633895004021665 0 0.011019826322471412 0.0087952887544933533 0 0.012567119652945965 0.009939963715146995 0 0.0098030324368023128 0.0066010537362711733 0 0.011019826322471412 0.0087952887544933533 0 0.0089094974608061785 0.010617917965044871 0 0.013523587272672414 0.0083633895004021665 0 0.0098030324368023128 0.0066010537362711733 0 0.011019826322471412 0.0087952887544933533 0 0.011019826322471412 0.0087952887544933533 0 0.0089094974608061785 0.010617917965044871 0 0.012567119652945965 0.009939963715146995 0 0.0089094974608061785 0.010617917965044871 0 0.0083213197788124475 0.011623180790931319 0 0.0086108674666142172 0.01119394098231127 0 0.0096886283292057888 0.010795295319285777 0 0.010074999015633756 0.010847902805957425 0 0.0089094974608061785 0.010617917965044871 0 0.0080728921445154828 0.011574532625546268 0 0.0086108674666142172 0.01119394098231127 0 0.0089094974608061785 0.010617917965044871 0 0.014179330538014158 0.011978335669983584 0 0.012567119652945965 0.009939963715146995 0 0.013523587272672414 0.0083633895004021665 0 0.012567119652945965 0.009939963715146995 0 0.015049365764707995 0.0099609041931320395 0 0.014179330538014158 0.011978335669983584 0 0.012567119652945965 0.009939963715146995 0 0.015049365764707995 0.0099609041931320395 0 0.010288427850679543 0.011544940236695429 0 0.010757218065297818 0.00908145028333073 0 0.011013258322417866 0.0060303363813773722 0 0.011727645060919738 0.004879458060063695 0 0.01248451969537248 0.0054799288239289505 0 0.0039127159022363384 0.0094548217038573894 0 0.0064965374712635405 0.0083776029251745494 0 0.0052850094072677579 0.009768908146564028 0 0.012697563358327458 0.0044508909373782816 0 0.011727645060919738 0.004879458060063695 0 0.01248451969537248 0.0054799288239289505 0 0.012697563358327458 0.0044508909373782816 0 0.013853629360021663 0.0049301778071224314 0 0.01248451969537248 0.0054799288239289505 0 0.01230068326796872 0.007423609709901656 0 0.010757218065297818 0.00908145028333073 0 0.0098030324368023128 0.0066010537362711733 0 0.0089094974608061785 0.010617917965044871 0 0.0064965374712635405 0.0083776029251745494 0 0.0089094974608061785 0.010617917965044871 0 0.0065245102464571592 0.010333754941925132 0 0.0080728921445154828 0.011574532625546268 0 0.0089094974608061785 0.010617917965044871 0 0.0064965374712635405 0.0083776029251745494 0 0.0065245102464571592 0.010333754941925132 0 0.0041984974439520728 0.010961997674743781 0 0.0065245102464571592 0.010333754941925132 0 0.0080728921445154828 0.011574532625546268 0 0.0041984974439520728 0.010961997674743781 0 0.0065245102464571592 0.010333754941925132 0 0.0052850094072677579 0.009768908146564028 0 0.0064965374712635405 0.0083776029251745494 0 0.0065245102464571592 0.010333754941925132 0 0.0052850094072677579 0.009768908146564028 0 0.010713474291254112 0.011749489926666124 0 0.010218838568029718 0.011236958881300295 0 0.010461384605173691 0.010566291990334256 0 0.010713474291254112 0.011749489926666124 0 0.010218838568029718 0.011236958881300295 0 0.009551329513033455 0.011461478048575831 0 0.010469526087082926 0.012489251951663371 0 0.0087192335283095279 0.011760435640279565 0 0.010218838568029718 0.011236958881300295 0 0.009551329513033455 0.011461478048575831 0 0.0097885998043081377 0.010807010680643273 0 0.009551329513033455 0.011461478048575831 0 0.0097885998043081377 0.010807010680643273 0 0.0091397161255922336 0.010720454406907642 0 0.0097885998043081377 0.010807010680643273 0 0.0091397161255922336 0.010720454406907642 0 0.009592075492339671 0.010009187628228063 0 0.0097885998043081377 0.010807010680643273 0 0.010461384605173691 0.010566291990334256 0 0.009592075492339671 0.010009187628228063 0 0.010218838568029718 0.011236958881300295 0 0.0097885998043081377 0.010807010680643273 0 0.010461384605173691 0.010566291990334256 0 0.0085106418010430594 0.011269698262956476 0 0.0078498332761640557 0.01139026132313207 0 0.0079642032780417957 0.010865457732569641 0 0.0083213197788124475 0.011623180790931319 0 0.0085106418010430594 0.011269698262956476 0 0.0078498332761640557 0.01139026132313207 0 0.0083213197788124475 0.011623180790931319 0 0.0085106418010430594 0.011269698262956476 0 0.0086108674666142172 0.01119394098231127 0 0.0080728921445154828 0.011574532625546268 0 0.0085106418010430594 0.011269698262956476 0 0.0086108674666142172 0.01119394098231127 0 0.0087192335283095279 0.011760435640279565 0 0.0085370882734152644 0.011610601836251956 0 0.009551329513033455 0.011461478048575831 0 0.0085106418010430594 0.011269698262956476 0 0.0091397161255922336 0.010720454406907642 0 0.0085106418010430594 0.011269698262956476 0 0.0091397161255922336 0.010720454406907642 0 0.0085428106670907451 0.010642579631610005 0 0.0091397161255922336 0.010720454406907642 0 0.0085428106670907451 0.010642579631610005 0 0.0087775443509496252 0.0098907813403267143 0 0.0085106418010430594 0.011269698262956476 0 0.0085428106670907451 0.010642579631610005 0 0.0079642032780417957 0.010865457732569641 0 0.0085428106670907451 0.010642579631610005 0 0.0080975252323469016 0.010194849679623818 0 0.0079642032780417957 0.010865457732569641 0 0.0080975252323469016 0.010194849679623818 0 0.0087775443509496252 0.0098907813403267143 0 0.0079709558536475988 0.0093784384762765592 0 0.0085428106670907451 0.010642579631610005 0 0.0080975252323469016 0.010194849679623818 0 0.0087775443509496252 0.0098907813403267143 0 0.0087775443509496252 0.0098907813403267143 0 0.0090745086721864664 0.0093474349187041682 0 0.009592075492339671 0.010009187628228063 0 0.0091397161255922336 0.010720454406907642 0 0.0087775443509496252 0.0098907813403267143 0 0.009592075492339671 0.010009187628228063 0 0.0087775443509496252 0.0098907813403267143 0 0.0090745086721864664 0.0093474349187041682 0 0.0086086721095336837 0.0090817721085143365 0 0.0090745086721864664 0.0093474349187041682 0 0.0086086721095336837 0.0090817721085143365 0 0.0092263792051712132 0.008905559605044782 0 0.0086086721095336837 0.0090817721085143365 0 0.0079709558536475988 0.0093784384762765592 0 0.0080023894323761526 0.0085018619778262292 0 0.0087775443509496252 0.0098907813403267143 0 0.0086086721095336837 0.0090817721085143365 0 0.0079709558536475988 0.0093784384762765592 0 0.0086086721095336837 0.0090817721085143365 0 0.0080023894323761526 0.0085018619778262292 0 0.0087876780589676053 0.0085383714668553715 0 0.0086086721095336837 0.0090817721085143365 0 0.0087876780589676053 0.0085383714668553715 0 0.0092263792051712132 0.008905559605044782 0 0.0087876780589676053 0.0085383714668553715 0 0.0092360978738955657 0.0083362439880071346 0 0.0092263792051712132 0.008905559605044782 0 0.0087876780589676053 0.0085383714668553715 0 0.0088476212225023897 0.0079384565054146667 0 0.0092360978738955657 0.0083362439880071346 0 0.0088476212225023897 0.0079384565054146667 0 0.0093369616588383723 0.007969574713184149 0 0.0092360978738955657 0.0083362439880071346 0 -0.01852136491607562 0.043080404431570025 0 -0.01630576825419611 0.041085208555460634 0 -0.019128408049980228 0.041071369019045463 0 0.0080023894323761526 0.0085018619778262292 0 0.0087876780589676053 0.0085383714668553715 0 0.0088476212225023897 0.0079384565054146667 0 -0.0042360371121262404 0.026732192214560271 0 -0.0011299856880693767 0.027093733778893698 0 0.012611153098837305 0.02099217248132846 0 0.012661787232649621 0.021005504574779035 0 0.012589889577859673 0.020944516363126549 0 0.012593708221147602 0.020958435861933071 0 0.012606303201824817 0.021005293648263562 0 0.012593231603654649 0.021007941119731453 0 0.012611153098837305 0.02099217248132846 0 0.012593708221147602 0.020958435861933071 0 0.012606303201824817 0.021005293648263562 0 0.012611153098837305 0.02099217248132846 0 0.012589889577859673 0.020944516363126549 0 0.012593708221147602 0.020958435861933071 0 0.012606303201824817 0.021005293648263562 0 0.012593231603654649 0.021007941119731453 0 0.012608904378553809 0.021038425608803337 0 0.012611153098837305 0.02099217248132846 0 0.012661787232649621 0.021005504574779035 0 0.012634043853070105 0.021030638266021858 0 0.012606303201824817 0.021005293648263562 0 0.012634043853070105 0.021030638266021858 0 0.012608904378553809 0.021038425608803337 0 0.012611153098837305 0.02099217248132846 0 0.012606303201824817 0.021005293648263562 0 0.012634043853070105 0.021030638266021858 0 0.0097610659456569618 0.0082395896011364985 0 0.0093369616588383723 0.007969574713184149 0 0.0092360978738955657 0.0083362439880071346 0 0.0097610659456569618 0.0082395896011364985 0 0.0092360978738955657 0.0083362439880071346 0 0.0095004565324585729 0.008626482316200796 0 0.0092360978738955657 0.0083362439880071346 0 0.0095004565324585729 0.008626482316200796 0 0.0092263792051712132 0.008905559605044782 0 0.0097610659456569618 0.0082395896011364985 0 0.0095004565324585729 0.008626482316200796 0 0.0096818143888879118 0.0089264719688622891 0 0.0095004565324585729 0.008626482316200796 0 0.0092263792051712132 0.008905559605044782 0 0.0096818143888879118 0.0089264719688622891 0 0.0097610659456569618 0.0082395896011364985 0 0.0096818143888879118 0.0089264719688622891 0 0.010150755310777863 0.0093375249479762459 0 0.0073353392546611166 0.017368426995107392 0 0.0095454766657115785 0.015595146886000831 0 0.012589889577859673 0.020944516363126549 0 0.012479485234493871 0.020578750023605371 0 0.012209488534122039 0.020610568931951467 0 0.01245290909083737 0.020770204777246233 0 0.012356076335762337 0.020647562934480428 0 0.012661787232649621 0.021005504574779035 0 0.012589889577859673 0.020944516363126549 0 0.012479485234493871 0.020578750023605371 0 0.012589889577859673 0.020944516363126549 0 0.012593708221147602 0.020958435861933071 0 0.012617015220201229 0.020784216753579159 0 0.0090745086721864664 0.0093474349187041682 0 0.0095628209961911292 0.0093230060565877761 0 0.009592075492339671 0.010009187628228063 0 0.010150755310777863 0.0093375249479762459 0 0.0095628209961911292 0.0093230060565877761 0 0.009592075492339671 0.010009187628228063 0 0.0092263792051712132 0.008905559605044782 0 0.0096818143888879118 0.0089264719688622891 0 0.0095628209961911292 0.0093230060565877761 0 0.0090745086721864664 0.0093474349187041682 0 0.0092263792051712132 0.008905559605044782 0 0.0095628209961911292 0.0093230060565877761 0 0.0096818143888879118 0.0089264719688622891 0 0.010150755310777863 0.0093375249479762459 0 0.0095628209961911292 0.0093230060565877761 0 0.012293261447937217 0.020188425394392535 0 0.012479485234493871 0.020578750023605371 0 0.012177984901613946 0.020365217141732037 0 0.010545508203024381 0.015119985323171048 0 0.0095454766657115785 0.015595146886000831 0 0.010461384605173691 0.010566291990334256 0 0.010150755310777863 0.0093375249479762459 0 0.009592075492339671 0.010009187628228063 0 0.012177984901613946 0.020365217141732037 0 0.011952213683198593 0.020296776193744627 0 0.012209488534122039 0.020610568931951467 0 0.012167976760361264 0.020420777101060886 0 0.012356076335762337 0.020647562934480428 0 0.012381623950355407 0.020467100592007174 0 0.012434316706229119 0.02073392386722055 0 0.012216753400760587 0.020676685426787588 0 0.012434316706229119 0.02073392386722055 0 0.012216753400760587 0.020676685426787588 0 0.012415271558205015 0.020827571969690834 0 0.012381623950355407 0.020467100592007174 0 0.012434316706229119 0.02073392386722055 0 0.012617015220201229 0.020784216753579159 0 0.012479485234493871 0.020578750023605371 0 0.012177984901613946 0.020365217141732037 0 0.012209488534122039 0.020610568931951467 0 0.012434316706229119 0.02073392386722055 0 0.012617015220201229 0.020784216753579159 0 0.012531907613343453 0.020859457490965114 0 0.011920068379469533 0.020482432014184388 0 0.011963869543850076 0.020429413032889476 0 0.012037736172690227 0.020662870667762203 0 0.011963869543850076 0.020429413032889476 0 0.012037736172690227 0.020662870667762203 0 0.012216753400760587 0.020676685426787588 0 0.011963869543850076 0.020429413032889476 0 0.012381623950355407 0.020467100592007174 0 0.012216753400760587 0.020676685426787588 0 0.012216753400760587 0.020676685426787588 0 0.012207057695362011 0.020795909024818128 0 0.012415271558205015 0.020827571969690834 0 0.012037736172690227 0.020662870667762203 0 0.012207057695362011 0.020795909024818128 0 0.012107362111353145 0.02073548579548129 0 0.012037736172690227 0.020662870667762203 0 0.012216753400760587 0.020676685426787588 0 0.012207057695362011 0.020795909024818128 0 0.012207057695362011 0.020795909024818128 0 0.012107362111353145 0.02073548579548129 0 0.012060614654667455 0.020908281065722394 0 0.012207057695362011 0.020795909024818128 0 0.012443882277864643 0.020923925468425655 0 0.012415271558205015 0.020827571969690834 0 0.012345269468697653 0.021017640326124572 0 0.012443882277864643 0.020923925468425655 0 0.012647693975992335 0.021057778720822061 0 0.012345269468697653 0.021017640326124572 0 0.012647693975992335 0.021057778720822061 0 0.012782446652135078 0.021303640812245762 0 0.012207057695362011 0.020795909024818128 0 0.012345269468697653 0.021017640326124572 0 0.012443882277864643 0.020923925468425655 0 0.012207057695362011 0.020795909024818128 0 0.012345269468697653 0.021017640326124572 0 0.012060614654667455 0.020908281065722394 0 0.012593708221147602 0.020958435861933071 0 0.012617015220201229 0.020784216753579159 0 0.01258191084772896 0.020941122335500228 0 0.012617015220201229 0.020784216753579159 0 0.01258191084772896 0.020941122335500228 0 0.012531907613343453 0.020859457490965114 0 0.01258191084772896 0.020941122335500228 0 0.012531907613343453 0.020859457490965114 0 0.012570506468059944 0.020966323365718506 0 0.012434316706229119 0.02073392386722055 0 0.012531907613343453 0.020859457490965114 0 0.012415271558205015 0.020827571969690834 0 0.012443882277864643 0.020923925468425655 0 0.012415271558205015 0.020827571969690834 0 0.012570506468059944 0.020966323365718506 0 0.012531907613343453 0.020859457490965114 0 0.012415271558205015 0.020827571969690834 0 0.012570506468059944 0.020966323365718506 0 0.012570506468059944 0.020966323365718506 0 0.012647693975992335 0.021057778720822061 0 0.012587330191426719 0.021015913935659557 0 0.012443882277864643 0.020923925468425655 0 0.012570506468059944 0.020966323365718506 0 0.012647693975992335 0.021057778720822061 0 0.012647693975992335 0.021057778720822061 0 0.012587330191426719 0.021015913935659557 0 0.012589511815572814 0.021040137093868653 0 0.012587330191426719 0.021015913935659557 0 0.012590103816792639 0.021034288659736462 0 0.012589511815572814 0.021040137093868653 0 0.01258191084772896 0.020941122335500228 0 0.012570506468059944 0.020966323365718506 0 0.012587330191426719 0.021015913935659557 0 0.01258191084772896 0.020941122335500228 0 0.012587330191426719 0.021015913935659557 0 0.012593231603654649 0.021007941119731453 0 0.012593708221147602 0.020958435861933071 0 0.01258191084772896 0.020941122335500228 0 0.012593231603654649 0.021007941119731453 0 0.012587330191426719 0.021015913935659557 0 0.012593231603654649 0.021007941119731453 0 0.012590103816792639 0.021034288659736462 0 0.012593231603654649 0.021007941119731453 0 0.012597272123751764 0.021042743397093448 0 0.012590103816792639 0.021034288659736462 0 0.012597272123751764 0.021042743397093448 0 0.012590103816792639 0.021034288659736462 0 0.012589472513905551 0.021059978424517348 0 0.012597272123751764 0.021042743397093448 0 0.012589472513905551 0.021059978424517348 0 0.012602704199029299 0.021070327755019436 0 0.012589472513905551 0.021059978424517348 0 0.012584261273720162 0.021059802817159023 0 0.012589511815572814 0.021040137093868653 0 0.012590103816792639 0.021034288659736462 0 0.012589472513905551 0.021059978424517348 0 0.012589511815572814 0.021040137093868653 0 0.0092086543344996347 0.024420213244339111 0 0.008927464361997383 0.026135197496686378 0 0.012647693975992335 0.021057778720822061 0 0.012782446652135078 0.021303640812245762 0 0.012933582816018351 0.021422342923263425 0 0.012647693975992335 0.021057778720822061 0 0.012589511815572814 0.021040137093868653 0 0.012582324581184608 0.021049547807636106 0 0.0090645319978369335 0.02595405881912875 0 0.008927464361997383 0.026135197496686378 0 0.012584261273720162 0.021059802817159023 0 0.012589511815572814 0.021040137093868653 0 0.012582324581184608 0.021049547807636106 0 0.012782446652135078 0.021303640812245762 0 0.013304670813446802 0.021659385831063603 0 0.013319637392847267 0.022301763614347235 0 0.013304670813446802 0.021659385831063603 0 0.013319637392847267 0.022301763614347235 0 0.013506591965818633 0.02248929769248335 0 0.0085151506418508424 0.028587430593989445 0 0.0095776318083650325 0.029532212112663894 0 0.0087752834791313909 0.030346097212826422 0 0.008927464361997383 0.026135197496686378 0 0.0093211663180055755 0.028525851510325759 0 0.012577281599443733 0.021095914810545378 0 0.012592806878904182 0.021137925585948587 0 0.012597118537237804 0.021102134273570956 0 0.0083364971804221338 0.028668918906584955 0 0.0071639469197019318 0.032128390130513294 0 0.012589472513905551 0.021059978424517348 0 0.012577281599443733 0.021095914810545378 0 0.012597118537237804 0.021102134273570956 0 0.012584261273720162 0.021059802817159023 0 0.012582324581184608 0.021049547807636106 0 0.012577281599443733 0.021095914810545378 0 0.008927464361997383 0.026135197496686378 0 0.0083364971804221338 0.028668918906584955 0 0.012589472513905551 0.021059978424517348 0 0.012584261273720162 0.021059802817159023 0 0.012577281599443733 0.021095914810545378 0 0.013156589111933955 0.021874790619457515 0 0.013103687577381246 0.021656495013492073 0 0.012345269468697653 0.021017640326124572 0 0.012228717365782417 0.021420975034107725 0 0.012060614654667455 0.020908281065722394 0 0.013789060026543979 0.022579859552497816 0 0.013872929726855745 0.022504701600739759 0 0.014095681449541162 0.02243257840801657 0 0.012345269468697653 0.021017640326124572 0 0.012782446652135078 0.021303640812245762 0 0.012228717365782417 0.021420975034107725 0 0.013319637392847267 0.022301763614347235 0 0.013789060026543979 0.022579859552497816 0 0.01366619722441097 0.022405264343828179 0 0.012782446652135078 0.021303640812245762 0 0.013319637392847267 0.022301763614347235 0 0.012228717365782417 0.021420975034107725 0 0.013248700903408104 0.022009696156715091 0 0.013156589111933955 0.021874790619457515 0 0.013789060026543979 0.022579859552497816 0 0.01366619722441097 0.022405264343828179 0 0.013872929726855745 0.022504701600739759 0 0.013872929726855745 0.022504701600739759 0 0.013821446453602376 0.022400964039977937 0 0.014001315748433468 0.022526692462699088 0 0.01366619722441097 0.022405264343828179 0 0.013821446453602376 0.022400964039977937 0 0.013659527157687692 0.022373179090971463 0 0.01366619722441097 0.022405264343828179 0 0.013872929726855745 0.022504701600739759 0 0.013821446453602376 0.022400964039977937 0 0.01366619722441097 0.022405264343828179 0 0.013659527157687692 0.022373179090971463 0 0.013511269517392635 0.022389948563223846 0 0.013319637392847267 0.022301763614347235 0 0.01366619722441097 0.022405264343828179 0 0.013511269517392635 0.022389948563223846 0 0.013659527157687692 0.022373179090971463 0 0.013511269517392635 0.022389948563223846 0 0.013561565803008607 0.022388998035876056 0 0.013659527157687692 0.022373179090971463 0 0.013652492186508635 0.022346125179659022 0 0.01376082182497214 0.022351516451202424 0 0.013659527157687692 0.022373179090971463 0 0.013652492186508635 0.022346125179659022 0 0.013561565803008607 0.022388998035876056 0 0.013821446453602376 0.022400964039977937 0 0.01376082182497214 0.022351516451202424 0 0.013836791530656284 0.02236628933540535 0 0.013821446453602376 0.022400964039977937 0 0.013659527157687692 0.022373179090971463 0 0.01376082182497214 0.022351516451202424 0 0.0095055261275466991 0.030612535182646592 0 0.0087752834791313909 0.030346097212826422 0 0.00903599808744791 0.032098524165407677 0 0.0094342906316507349 0.034754639545869638 0 0.0071639469197019318 0.032128390130513294 0 0.0095055261275466991 0.030612535182646592 0 0.00903599808744791 0.032098524165407677 0 0.010633262226040663 0.030472294138233432 0 0.0095776318083650325 0.029532212112663894 0 0.0095055261275466991 0.030612535182646592 0 0.010633262226040663 0.030472294138233432 0 0.0095776318083650325 0.029532212112663894 0 0.0095055261275466991 0.030612535182646592 0 0.0087752834791313909 0.030346097212826422 0 0.0093211663180055755 0.028525851510325759 0 0.0094342906316507349 0.034754639545869638 0 0.013506591965818633 0.02248929769248335 0 0.013561565803008607 0.022388998035876056 0 0.013497224672072339 0.022370120032261048 0 0.013319637392847267 0.022301763614347235 0 0.013506591965818633 0.02248929769248335 0 0.013511269517392635 0.022389948563223846 0 0.013506591965818633 0.02248929769248335 0 0.013511269517392635 0.022389948563223846 0 0.013561565803008607 0.022388998035876056 0 0.013652492186508635 0.022346125179659022 0 0.013561565803008607 0.022388998035876056 0 0.013497224672072339 0.022370120032261048 0 0.0034337735334615542 0.044139799635404139 0 0.0037362047488291635 0.044141925701224931 0 0.0037267341648849817 0.043810861790302608 0 0.0034337735334615542 0.044139799635404139 0 0.0037362047488291635 0.044141925701224931 0 0.0035920909301240781 0.044311227920007815 0 0.0037362047488291635 0.044141925701224931 0 0.0037267341648849817 0.043810861790302608 0 0.0039329494892290243 0.044008146164152002 0 0.0037362047488291635 0.044141925701224931 0 0.0039250644603356375 0.044231311098692605 0 0.0038026809396174937 0.044370633940005448 0 0.0037362047488291635 0.044141925701224931 0 0.0039329494892290243 0.044008146164152002 0 0.0039250644603356375 0.044231311098692605 0 0.0071639469197019318 0.032128390130513294 0 0.006310174459363483 0.036010289352253082 0 0.0031845893068632673 0.033790096069152335 0 0.0043402231897202896 0.033425799399835109 0 0.0044368718973535927 0.034905177008608429 0 0.0027215459569506738 0.039591414862244385 0 0.003632015645959458 0.039768891244259044 0 0.0024127063837617018 0.03814520210784754 0 0.0043402231897202896 0.033425799399835109 0 0.0052967706543328224 0.034180690243027938 0 0.0048966987823686157 0.03234401838809705 0 0.0043402231897202896 0.033425799399835109 0 0.0052967706543328224 0.034180690243027938 0 0.0044368718973535927 0.034905177008608429 0 0.006310174459363483 0.036010289352253082 0 0.005526884313159371 0.03856455126957016 0 0.0046269796254908065 0.035415824797951093 0 0.005526884313159371 0.03856455126957016 0 0.0052967706543328224 0.034180690243027938 0 0.0044368718973535927 0.034905177008608429 0 0.005696248450735005 0.036026236010251858 0 0.0039329494892290243 0.044008146164152002 0 0.0039250644603356375 0.044231311098692605 0 0.00414944097290414 0.044210787675619603 0 0.0030498041209631437 0.04099897256278625 0 0.0036049698405399289 0.041104650756291085 0 0.0038732107867172488 0.040668628785974013 0 0.0030498041209631437 0.04099897256278625 0 0.0038732107867172488 0.040668628785974013 0 0.003632015645959458 0.039768891244259044 0 0.0038732107867172488 0.040668628785974013 0 0.0045708249961563911 0.040028717680063775 0 0.004068995439706311 0.041733771901591166 0 0.0027215459569506738 0.039591414862244385 0 0.0030498041209631437 0.04099897256278625 0 0.003632015645959458 0.039768891244259044 0 0.0036049698405399289 0.041104650756291085 0 0.0038732107867172488 0.040668628785974013 0 0.004068995439706311 0.041733771901591166 0 0.0038732107867172488 0.040668628785974013 0 0.0045708249961563911 0.040028717680063775 0 0.003632015645959458 0.039768891244259044 0 0.0046089898955143536 0.041185161972696185 0 0.0044833120907661183 0.04199387256996405 0 0.0048010490158434411 0.041129150481012053 0 0.0045708249961563911 0.040028717680063775 0 0.0041396800644365678 0.041911414405279492 0 0.0052138497229728478 0.041277597053197515 0 0.0048010490158434411 0.041129150481012053 0 0.0053187412745494397 0.040390822769752581 0 0.0048010490158434411 0.041129150481012053 0 0.0053187412745494397 0.040390822769752581 0 0.0045708249961563911 0.040028717680063775 0 0.0053187412745494397 0.040390822769752581 0 0.004335906488855591 0.03917118900326963 0 0.0062956371775791864 0.040217809961409341 0 0.0053187412745494397 0.040390822769752581 0 0.0045708249961563911 0.040028717680063775 0 0.004335906488855591 0.03917118900326963 0 -0.0048284450958655436 0.036694560600689936 0 -0.0094448492559425206 0.043273550025784847 0 0.004335906488855591 0.03917118900326963 0 0.003632015645959458 0.039768891244259044 0 0.0024127063837617018 0.03814520210784754 0 0.0045708249961563911 0.040028717680063775 0 0.004335906488855591 0.03917118900326963 0 0.003632015645959458 0.039768891244259044 0 -0.017064957255933547 0.03733847763392676 0 -0.015961014808734623 0.039093907689881642 0 -0.014222226475559133 0.038719942436057732 0 -0.0048284450958655436 0.036694560600689936 0 0.0035859167290336526 0.030192206190007866 0 -0.017064957255933547 0.03733847763392676 0 -0.01802882357710742 0.039330692352479817 0 -0.019154998965064018 0.038057444957020362 0 -0.017064957255933547 0.03733847763392676 0 -0.015961014808734623 0.039093907689881642 0 -0.01802882357710742 0.039330692352479817 0 -0.01630576825419611 0.041085208555460634 0 -0.01802882357710742 0.039330692352479817 0 -0.019128408049980228 0.041071369019045463 0 -0.0011299856880693767 0.027093733778893698 0 0.0037977623359033486 0.029208325946813087 0 -0.01630576825419611 0.041085208555460634 0 -0.015961014808734623 0.039093907689881642 0 -0.01802882357710742 0.039330692352479817 0 -0.01630576825419611 0.041085208555460634 0 -0.015961014808734623 0.039093907689881642 0 -0.014161373498027563 0.038993798995712974 0 0.0097610659456569618 0.0082395896011364985 0 0.0093369616588383723 0.007969574713184149 0 0.0094981979015169304 0.0073817803099638637 0 0.012661787232649621 0.021005504574779035 0 0.012634043853070105 0.021030638266021858 0 0.012617898324009511 0.021101467922140626 0 0.0073353392546611166 0.017368426995107392 0 0.0037977623359033486 0.029208325946813087 0 0.0088476212225023897 0.0079384565054146667 0 0.0093369616588383723 0.007969574713184149 0 0.0094981979015169304 0.0073817803099638637 0 0.012634043853070105 0.021030638266021858 0 0.012623025448319749 0.021054292127982425 0 0.012617898324009511 0.021101467922140626 0 0.012634043853070105 0.021030638266021858 0 0.012623025448319749 0.021054292127982425 0 0.012608904378553809 0.021038425608803337 0 0.012623025448319749 0.021054292127982425 0 0.012608904378553809 0.021038425608803337 0 0.01261118265434869 0.021056855254977084 0 0.012597272123751764 0.021042743397093448 0 0.01261118265434869 0.021056855254977084 0 0.012602704199029299 0.021070327755019436 0 0.012593231603654649 0.021007941119731453 0 0.012597272123751764 0.021042743397093448 0 0.012608904378553809 0.021038425608803337 0 0.012597272123751764 0.021042743397093448 0 0.012608904378553809 0.021038425608803337 0 0.01261118265434869 0.021056855254977084 0 0.012623025448319749 0.021054292127982425 0 0.012614769937324502 0.021074730868781654 0 0.012617898324009511 0.021101467922140626 0 0.01261118265434869 0.021056855254977084 0 0.012602704199029299 0.021070327755019436 0 0.012614769937324502 0.021074730868781654 0 0.012623025448319749 0.021054292127982425 0 0.01261118265434869 0.021056855254977084 0 0.012614769937324502 0.021074730868781654 0 0.012602704199029299 0.021070327755019436 0 0.012608471459416411 0.021082167212541705 0 0.012614769937324502 0.021074730868781654 0 0.012608471459416411 0.021082167212541705 0 0.012614769937324502 0.021074730868781654 0 0.01261305579773596 0.02109125661867714 0 0.0031845893068632673 0.033790096069152335 0 0.0043402231897202896 0.033425799399835109 0 0.0047041749468398212 0.032245475817595994 0 0.01261305579773596 0.02109125661867714 0 0.012597118537237804 0.021102134273570956 0 0.012619598710535897 0.021102056336674418 0 0.0071639469197019318 0.032128390130513294 0 0.0039735326354451948 0.029730029569158056 0 0.012608471459416411 0.021082167212541705 0 0.01261305579773596 0.02109125661867714 0 0.012597118537237804 0.021102134273570956 0 0.012592806878904182 0.021137925585948587 0 0.012597118537237804 0.021102134273570956 0 0.012619598710535897 0.021102056336674418 0 0.012589472513905551 0.021059978424517348 0 0.012602704199029299 0.021070327755019436 0 0.012597118537237804 0.021102134273570956 0 0.012602704199029299 0.021070327755019436 0 0.012608471459416411 0.021082167212541705 0 0.012597118537237804 0.021102134273570956 0 0.0043402231897202896 0.033425799399835109 0 0.0048966987823686157 0.03234401838809705 0 0.0047041749468398212 0.032245475817595994 0 -0.015961014808734623 0.039093907689881642 0 -0.014161373498027563 0.038993798995712974 0 -0.014222226475559133 0.038719942436057732 0 0.0046269796254908065 0.035415824797951093 0 0.0035859167290336526 0.030192206190007866 0 0.012614769937324502 0.021074730868781654 0 0.01261305579773596 0.02109125661867714 0 0.012617898324009511 0.021101467922140626 0 0.0037977623359033486 0.029208325946813087 0 0.0039735326354451948 0.029730029569158056 0 0.0042777095532789411 0.029668375008903836 0 0.0039735326354451948 0.029730029569158056 0 0.01261305579773596 0.02109125661867714 0 0.012617898324009511 0.021101467922140626 0 0.01261548243284219 0.02110319156545723 0 0.0037977623359033486 0.029208325946813087 0 0.0035859167290336526 0.030192206190007866 0 0.0015295301044301528 0.032653202005024404 0 0.00080577778712423887 0.029313821622027496 0 0.0034825380839147249 0.030679599716443556 0 0.0035859167290336526 0.030192206190007866 0 0.0039735326354451948 0.029730029569158056 0 0.01129298165020203 0.021274719174611607 0 0.010924711669215419 0.02236076320574908 0 0.011849524362237776 0.022298183402308075 0 0.011849524362237776 0.022298183402308075 0 0.012947650241121622 0.021894856312393195 0 0.012754049911305401 0.023209048254823315 0 0.01129298165020203 0.021274719174611607 0 0.011849524362237776 0.022298183402308075 0 0.012947650241121622 0.021894856312393195 0 0.010924711669215419 0.02236076320574908 0 0.011849524362237776 0.022298183402308075 0 0.011257473544025315 0.023339099840965681 0 0.012766497528487049 0.021409418012255686 0 0.012777753422835656 0.021051449184188262 0 0.012947650241121622 0.021894856312393195 0 0.012008375378814171 0.020282267270387382 0 0.012812891250908561 0.02047706141109638 0 0.012947650241121622 0.021894856312393195 0 0.013078389241123018 0.021365191368716282 0 0.013423646256778103 0.021809990103644449 0 0.01129298165020203 0.021274719174611607 0 0.012947650241121622 0.021894856312393195 0 0.012008375378814171 0.020282267270387382 0 0.012008375378814171 0.020282267270387382 0 0.011969740322634826 0.019575401154132217 0 0.012569572741109099 0.019601524321176522 0 0.012777753422835656 0.021051449184188262 0 0.012724580128842602 0.020626056764213859 0 0.012008375378814171 0.020282267270387382 0 0.012812891250908561 0.02047706141109638 0 0.012569572741109099 0.019601524321176522 0 0.013078389241123018 0.021365191368716282 0 0.013119031549733434 0.021156116371939926 0 0.013273451865259292 0.021349625662058263 0 0.013119031549733434 0.021156116371939926 0 0.013066644364395672 0.021107404878122817 0 0.013273451865259292 0.021349625662058263 0 0.013273451865259292 0.021349625662058263 0 0.013423646256778103 0.021809990103644449 0 0.013623284038556043 0.02208445197558136 0 0.013423646256778103 0.021809990103644449 0 0.013623284038556043 0.02208445197558136 0 0.014455162491121465 0.023171884477860304 0 0.012947650241121622 0.021894856312393195 0 0.013423646256778103 0.021809990103644449 0 0.014455162491121465 0.023171884477860304 0 0.013078389241123018 0.021365191368716282 0 0.013273451865259292 0.021349625662058263 0 0.013423646256778103 0.021809990103644449 0 0.013623284038556043 0.02208445197558136 0 0.013797775773654351 0.022255593626069766 0 0.013857041740511163 0.022594564732262335 0 0.013797775773654351 0.022255593626069766 0 0.014086555786671444 0.021960962671403381 0 0.014011651105792448 0.02247294043693697 0 0.013087093822318952 0.021370846163888953 0 0.013094494888386167 0.021457630149376804 0 0.013797775773654351 0.022255593626069766 0 0.013185207399554949 0.021118425579542757 0 0.014086555786671444 0.021960962671403381 0 0.013273451865259292 0.021349625662058263 0 0.013623284038556043 0.02208445197558136 0 0.013185207399554949 0.021118425579542757 0 0.013623284038556043 0.02208445197558136 0 0.013797775773654351 0.022255593626069766 0 0.013185207399554949 0.021118425579542757 0 0.013066644364395672 0.021107404878122817 0 0.013273451865259292 0.021349625662058263 0 0.013185207399554949 0.021118425579542757 0 0.013066644364395672 0.021107404878122817 0 0.012719276076875492 0.020955297155764732 0 0.013185207399554949 0.021118425579542757 0 0.012089843126901284 0.020799068226967692 0 0.012719276076875492 0.020955297155764732 0 0.012250934326384754 0.020869481145328245 0 0.013185207399554949 0.021118425579542757 0 0.012250934326384754 0.020869481145328245 0 0.012279863805521114 0.020635527959618989 0 0.012719276076875492 0.020955297155764732 0 0.013185207399554949 0.021118425579542757 0 0.012250934326384754 0.020869481145328245 0 0.012089843126901284 0.020799068226967692 0 0.011920068379469533 0.020482432014184388 0 0.012250934326384754 0.020869481145328245 0 0.011920068379469533 0.020482432014184388 0 0.012037736172690227 0.020662870667762203 0 0.012250934326384754 0.020869481145328245 0 0.012037736172690227 0.020662870667762203 0 0.012250934326384754 0.020869481145328245 0 0.012107362111353145 0.02073548579548129 0 0.012107362111353145 0.02073548579548129 0 0.012279863805521114 0.020635527959618989 0 0.012060614654667455 0.020908281065722394 0 0.012250934326384754 0.020869481145328245 0 0.012107362111353145 0.02073548579548129 0 0.012279863805521114 0.020635527959618989 0 0.014086555786671444 0.021960962671403381 0 0.014095681449541162 0.02243257840801657 0 0.014011651105792448 0.02247294043693697 0 0.013094494888386167 0.021457630149376804 0 0.013103687577381246 0.021656495013492073 0 0.013872929726855745 0.022504701600739759 0 0.014095681449541162 0.02243257840801657 0 0.014001315748433468 0.022526692462699088 0 0.014095681449541162 0.02243257840801657 0 0.014011651105792448 0.02247294043693697 0 0.014001315748433468 0.022526692462699088 0 0.014011651105792448 0.02247294043693697 0 0.014001315748433468 0.022526692462699088 0 0.013995662656079721 0.022628024214464342 0 0.015943279029491622 0.024764514214290587 0 0.016036048302094597 0.026805723168966091 0 0.013821446453602376 0.022400964039977937 0 0.014001315748433468 0.022526692462699088 0 0.013897043534400882 0.022397402943447362 0 0.013821446453602376 0.022400964039977937 0 0.013897043534400882 0.022397402943447362 0 0.013836791530656284 0.02236628933540535 0 0.013897043534400882 0.022397402943447362 0 0.013836791530656284 0.02236628933540535 0 0.013873664550599242 0.022356705886557218 0 0.016036048302094597 0.026805723168966091 0 0.015328703597979023 0.036228964061634346 0 0.01407419820875779 0.022716986004922338 0 0.014030868536880906 0.022765549652388677 0 0.014069346640748128 0.022846006432178538 0 0.013118187646571354 0.031899896665018704 0 0.015328703597979023 0.036228964061634346 0 0.014030868536880906 0.022765549652388677 0 0.014050758363770276 0.022853659011093926 0 0.014141513849236479 0.022883375809043163 0 0.014001315748433468 0.022526692462699088 0 0.01407419820875779 0.022716986004922338 0 0.013995662656079721 0.022628024214464342 0 0.01407419820875779 0.022716986004922338 0 0.013995662656079721 0.022628024214464342 0 0.014030868536880906 0.022765549652388677 0 0.013995662656079721 0.022628024214464342 0 0.013970463934552558 0.022696862516778989 0 0.014030868536880906 0.022765549652388677 0 0.014030868536880906 0.022765549652388677 0 0.013991143516749845 0.022810447407815054 0 0.014050758363770276 0.022853659011093926 0 0.013970463934552558 0.022696862516778989 0 0.014030868536880906 0.022765549652388677 0 0.013991143516749845 0.022810447407815054 0 0.013991143516749845 0.022810447407815054 0 0.013942592349539871 0.022700173114022247 0 0.013949163843249929 0.022760492970974509 0 0.013970463934552558 0.022696862516778989 0 0.013991143516749845 0.022810447407815054 0 0.013942592349539871 0.022700173114022247 0 0.013970463934552558 0.022696862516778989 0 0.013942592349539871 0.022700173114022247 0 0.013910276099638687 0.022629644427899661 0 0.013942592349539871 0.022700173114022247 0 0.013910276099638687 0.022629644427899661 0 0.013954957605876948 0.022724347002999988 0 0.013910276099638687 0.022629644427899661 0 0.013857041740511163 0.022594564732262335 0 0.013954957605876948 0.022724347002999988 0 0.014011651105792448 0.02247294043693697 0 0.013995662656079721 0.022628024214464342 0 0.013910276099638687 0.022629644427899661 0 0.013995662656079721 0.022628024214464342 0 0.013970463934552558 0.022696862516778989 0 0.013910276099638687 0.022629644427899661 0 0.013797775773654351 0.022255593626069766 0 0.014011651105792448 0.02247294043693697 0 0.013910276099638687 0.022629644427899661 0 0.013797775773654351 0.022255593626069766 0 0.013910276099638687 0.022629644427899661 0 0.013857041740511163 0.022594564732262335 0 0.013623284038556043 0.02208445197558136 0 0.013857041740511163 0.022594564732262335 0 0.014455162491121465 0.023171884477860304 0 0.01529595945602652 0.025296144094540899 0 0.015468220158105457 0.026429431027856644 0 0.014455162491121465 0.023171884477860304 0 0.013954957605876948 0.022724347002999988 0 0.014084182423432101 0.022662813806977281 0 0.014455162491121465 0.023171884477860304 0 0.017225926674197384 0.026805149687706184 0 0.013541177500854013 0.024933542939883448 0 0.013857041740511163 0.022594564732262335 0 0.014455162491121465 0.023171884477860304 0 0.013954957605876948 0.022724347002999988 0 0.013942592349539871 0.022700173114022247 0 0.013949163843249929 0.022760492970974509 0 0.014084182423432101 0.022662813806977281 0 0.013942592349539871 0.022700173114022247 0 0.013954957605876948 0.022724347002999988 0 0.014084182423432101 0.022662813806977281 0 0.013949163843249929 0.022760492970974509 0 0.013894014596185842 0.022794217420971694 0 0.014084182423432101 0.022662813806977281 0 0.015643746667477584 0.029493837927671893 0 0.015468220158105457 0.026429431027856644 0 0.020166026481744374 0.032097238357632958 0 0.017225926674197384 0.026805149687706184 0 0.016348073917041014 0.030202543170738921 0 0.020166026481744374 0.032097238357632958 0 0.016348073917041014 0.030202543170738921 0 0.016524821770983911 0.033545592909920381 0 0.017225926674197384 0.026805149687706184 0 0.013595967304855138 0.028536363277871676 0 0.013541177500854013 0.024933542939883448 0 0.017225926674197384 0.026805149687706184 0 0.013595967304855138 0.028536363277871676 0 0.016348073917041014 0.030202543170738921 0 0.013595967304855138 0.028536363277871676 0 0.016348073917041014 0.030202543170738921 0 0.014362330074906112 0.031070802102550261 0 0.016348073917041014 0.030202543170738921 0 0.014362330074906112 0.031070802102550261 0 0.016524821770983911 0.033545592909920381 0 0.013595967304855138 0.028536363277871676 0 0.014362330074906112 0.031070802102550261 0 0.011281098694172488 0.032076187258998787 0 0.010552382388664948 0.028689311945988148 0 0.013595967304855138 0.028536363277871676 0 0.011281098694172488 0.032076187258998787 0 0.013595967304855138 0.028536363277871676 0 0.01162965328338726 0.026176859894916232 0 0.013541177500854013 0.024933542939883448 0 0.010552382388664948 0.028689311945988148 0 0.013595967304855138 0.028536363277871676 0 0.01162965328338726 0.026176859894916232 0 0.010518400726243739 0.024837707484243691 0 0.01162965328338726 0.026176859894916232 0 0.012004908795804105 0.024431171029145181 0 0.010518400726243739 0.024837707484243691 0 0.012004908795804105 0.024431171029145181 0 0.011257473544025315 0.023339099840965681 0 0.01162965328338726 0.026176859894916232 0 0.012004908795804105 0.024431171029145181 0 0.013541177500854013 0.024933542939883448 0 0.014455162491121465 0.023171884477860304 0 0.013541177500854013 0.024933542939883448 0 0.012754049911305401 0.023209048254823315 0 0.012004908795804105 0.024431171029145181 0 0.013541177500854013 0.024933542939883448 0 0.012754049911305401 0.023209048254823315 0 0.012947650241121622 0.021894856312393195 0 0.014455162491121465 0.023171884477860304 0 0.012754049911305401 0.023209048254823315 0 0.011849524362237776 0.022298183402308075 0 0.012754049911305401 0.023209048254823315 0 0.011257473544025315 0.023339099840965681 0 0.012004908795804105 0.024431171029145181 0 0.012754049911305401 0.023209048254823315 0 0.011257473544025315 0.023339099840965681 0 0.021076295982136031 0.054654200921312797 0 0.019157517210300564 0.056641585162529838 0 0.0018086868775513691 0.059403659436747497 0 0.0072642735690772791 0.055478042542694665 0 0.010839732566733696 0.061056105239209527 0 0.0072642735690772791 0.055478042542694665 0 0.011505527127530706 0.055316448084515635 0 0.008974382220544275 0.051428492913488999 0 0.0018086868775513691 0.059403659436747497 0 0.0072642735690772791 0.055478042542694665 0 0.0044845766577087491 0.0543204380390001 0 0.0072642735690772791 0.055478042542694665 0 0.011505527127530706 0.055316448084515635 0 0.010839732566733696 0.061056105239209527 0 0.014594817747074216 0.057973258787530547 0 0.011505527127530706 0.055316448084515635 0 0.010839732566733696 0.061056105239209527 0 0.014594817747074216 0.057973258787530547 0 0.01965348507977142 0.061117517746092413 0 0.010839732566733696 0.061056105239209527 0 0.014594817747074216 0.057973258787530547 0 0.017907708393082797 0.058506669238365547 0 0.01965348507977142 0.061117517746092413 0 0.017907708393082797 0.058506669238365547 0 0.015266206588905989 0.054424494233471503 0 0.017961797509085529 0.054456291247248184 0 0.014594817747074216 0.057973258787530547 0 0.017907708393082797 0.058506669238365547 0 0.015266206588905989 0.054424494233471503 0 0.014594817747074216 0.057973258787530547 0 0.015266206588905989 0.054424494233471503 0 0.011505527127530706 0.055316448084515635 0 0.015266206588905989 0.054424494233471503 0 0.011505527127530706 0.055316448084515635 0 0.012334377036334991 0.05160374352527225 0 0.015266206588905989 0.054424494233471503 0 0.012334377036334991 0.05160374352527225 0 0.014995689392605744 0.049230349794682805 0 0.012334377036334991 0.05160374352527225 0 0.011451066314446309 0.047361025207572634 0 0.008974382220544275 0.051428492913488999 0 0.015266206588905989 0.054424494233471503 0 0.014995689392605744 0.049230349794682805 0 0.018344678426752609 0.05141798395425335 0 0.015266206588905989 0.054424494233471503 0 0.018344678426752609 0.05141798395425335 0 0.017961797509085529 0.054456291247248184 0 0.014995689392605744 0.049230349794682805 0 0.011451066314446309 0.047361025207572634 0 0.015752602987000378 0.043420756493849626 0 0.014995689392605744 0.049230349794682805 0 0.018781142147974193 0.047282497983322125 0 0.018344678426752609 0.05141798395425335 0 0.014995689392605744 0.049230349794682805 0 0.015752602987000378 0.043420756493849626 0 0.018781142147974193 0.047282497983322125 0 0.012334377036334991 0.05160374352527225 0 0.014995689392605744 0.049230349794682805 0 0.011451066314446309 0.047361025207572634 0 0.011451066314446309 0.047361025207572634 0 0.007861785828808367 0.048211638352893924 0 0.008974382220544275 0.051428492913488999 0 0.011505527127530706 0.055316448084515635 0 0.012334377036334991 0.05160374352527225 0 0.008974382220544275 0.051428492913488999 0 0.007861785828808367 0.048211638352893924 0 0.008974382220544275 0.051428492913488999 0 0.0055964358580586774 0.051097724054335776 0 0.0072642735690772791 0.055478042542694665 0 0.0044845766577087491 0.0543204380390001 0 0.0055964358580586774 0.051097724054335776 0 0.0072642735690772791 0.055478042542694665 0 0.008974382220544275 0.051428492913488999 0 0.0055964358580586774 0.051097724054335776 0 0.0032462203735853733 0.051326116384884601 0 0.0044845766577087491 0.0543204380390001 0 0.0055964358580586774 0.051097724054335776 0 0.0026281300090876861 0.05001066577917905 0 0.0055964358580586774 0.051097724054335776 0 0.0049993588243133135 0.04771484555176915 0 0.007861785828808367 0.048211638352893924 0 0.0055964358580586774 0.051097724054335776 0 0.0049993588243133135 0.04771484555176915 0 0.0030986854792020469 0.04518084388349522 0 0.0049993588243133135 0.04771484555176915 0 0.0079980942477060751 0.044055297242050942 0 0.007861785828808367 0.048211638352893924 0 0.0049993588243133135 0.04771484555176915 0 0.0079980942477060751 0.044055297242050942 0 0.011451066314446309 0.047361025207572634 0 0.007861785828808367 0.048211638352893924 0 0.0079980942477060751 0.044055297242050942 0 0.0074202182735431136 0.043358981311512584 0 0.0073218682747313475 0.039123962052406272 0 0.011400610934178738 0.037931033121351675 0 0.0034742760989302517 0.040590507619671964 0 0.0074202182735431136 0.043358981311512584 0 0.0073218682747313475 0.039123962052406272 0 0.0034742760989302517 0.040590507619671964 0 0.0073218682747313475 0.039123962052406272 0 0.0056940999440441894 0.033726136219560068 0 0.0073218682747313475 0.039123962052406272 0 0.0056940999440441894 0.033726136219560068 0 0.011400610934178738 0.037931033121351675 0 0.010544819765381306 0.034900972614632576 0 0.012873446276439205 0.034563469696148472 0 0.0056940999440441894 0.033726136219560068 0 0.016524821770983911 0.033545592909920381 0 0.011400610934178738 0.037931033121351675 0 0.014362330074906112 0.031070802102550261 0 0.011281098694172488 0.032076187258998787 0 0.016524821770983911 0.033545592909920381 0 0.016524821770983911 0.033545592909920381 0 0.011400610934178738 0.037931033121351675 0 0.017778999403708744 0.037959761784396785 0 0.011451066314446309 0.047361025207572634 0 0.0079980942477060751 0.044055297242050942 0 0.015752602987000378 0.043420756493849626 0 0.011100400839810311 0.044290403967319196 0 0.012006940541217481 0.04417346249740698 0 0.011400610934178738 0.037931033121351675 0 0.015752602987000378 0.043420756493849626 0 0.017778999403708744 0.037959761784396785 0 0.0074202182735431136 0.043358981311512584 0 0.011400610934178738 0.037931033121351675 0 0.015752602987000378 0.043420756493849626 0 0.015752602987000378 0.043420756493849626 0 0.023006188836215066 0.042135198186037372 0 0.018781142147974193 0.047282497983322125 0 0.015752602987000378 0.043420756493849626 0 0.023006188836215066 0.042135198186037372 0 0.017778999403708744 0.037959761784396785 0 0.023006188836215066 0.042135198186037372 0 0.021181555818854583 0.049590641273680534 0 0.018781142147974193 0.047282497983322125 0 0.013894014596185842 0.022794217420971694 0 0.013802925013468883 0.023015403945068649 0 0.013908089639427478 0.022878944375110243 0 0.020166026481744374 0.032097238357632958 0 0.023006188836215066 0.042135198186037372 0 0.017778999403708744 0.037959761784396785 0 0.015643746667477584 0.029493837927671893 0 0.015287818299764219 0.034871149582502814 0 0.020166026481744374 0.032097238357632958 0 0.016524821770983911 0.033545592909920381 0 0.017778999403708744 0.037959761784396785 0 0.013949163843249929 0.022760492970974509 0 0.013908089639427478 0.022878944375110243 0 0.013955117556119626 0.022876379481406549 0 0.013949163843249929 0.022760492970974509 0 0.013894014596185842 0.022794217420971694 0 0.013908089639427478 0.022878944375110243 0 0.013908089639427478 0.022878944375110243 0 0.013925595861864497 0.022990214810031089 0 0.013955117556119626 0.022876379481406549 0 0.013802925013468883 0.023015403945068649 0 0.013908089639427478 0.022878944375110243 0 0.013925595861864497 0.022990214810031089 0 0.013802925013468883 0.023015403945068649 0 0.013925595861864497 0.022990214810031089 0 0.013882422326465773 0.023106212952382538 0 0.013925595861864497 0.022990214810031089 0 0.013882422326465773 0.023106212952382538 0 0.013989207951469417 0.023106931205446629 0 0.013802925013468883 0.023015403945068649 0 0.013882422326465773 0.023106212952382538 0 0.013804163554889686 0.023313874577790786 0 0.018744257414361146 0.059529861438529522 0 0.019103246917552507 0.059593029786786066 0 0.018262786059377999 0.060029011765848558 0 0.013742762692780694 0.04431966209829289 0 0.015230049491796292 0.041570661781295197 0 0.013882422326465773 0.023106212952382538 0 0.013804163554889686 0.023313874577790786 0 0.013989207951469417 0.023106931205446629 0 0.023006188836215066 0.042135198186037372 0 0.021181555818854583 0.049590641273680534 0 0.024698657398784962 0.053172182612046107 0 0.015287818299764219 0.034871149582502814 0 0.013742762692780694 0.04431966209829289 0 0.021181555818854583 0.049590641273680534 0 0.018781142147974193 0.047282497983322125 0 0.018344678426752609 0.05141798395425335 0 0.021181555818854583 0.049590641273680534 0 0.018344678426752609 0.05141798395425335 0 0.020343713965857692 0.053569189837881649 0 0.018344678426752609 0.05141798395425335 0 0.020343713965857692 0.053569189837881649 0 0.017961797509085529 0.054456291247248184 0 0.021181555818854583 0.049590641273680534 0 0.020343713965857692 0.053569189837881649 0 0.024698657398784962 0.053172182612046107 0 0.019040201788463849 0.059604959079582791 0 0.019067791390321984 0.059913966185826006 0 0.018911954745264966 0.060446672288478422 0 0.013742762692780694 0.04431966209829289 0 0.013815617487858641 0.044795395234497264 0 0.017907708393082797 0.058506669238365547 0 0.019061110361098591 0.05952539225889953 0 0.019040201788463849 0.059604959079582791 0 0.017907708393082797 0.058506669238365547 0 0.019040201788463849 0.059604959079582791 0 0.019067791390321984 0.059913966185826006 0 0.017907708393082797 0.058506669238365547 0 0.020343713965857692 0.053569189837881649 0 0.017961797509085529 0.054456291247248184 0 0.013505641928520587 0.046705281856830386 0 0.013742762692780694 0.04431966209829289 0 0.017907708393082797 0.058506669238365547 0 0.020343713965857692 0.053569189837881649 0 0.024698657398784962 0.053172182612046107 0 0.017907708393082797 0.058506669238365547 0 0.019067791390321984 0.059913966185826006 0 0.01965348507977142 0.061117517746092413 0 0.019639297032073597 0.05960823016634989 0 0.0200370453083204 0.059186318559547653 0 0.018744257414361146 0.059529861438529522 0 0.01815339633482662 0.059046148105114798 0 0.018530132312363733 0.05871698608872896 0 0.018744257414361146 0.059529861438529522 0 0.019040201788463849 0.059604959079582791 0 0.018911954745264966 0.060446672288478422 0 0.018744257414361146 0.059529861438529522 0 0.018530132312363733 0.05871698608872896 0 0.019044812661851124 0.058555637058690067 0 0.018744257414361146 0.059529861438529522 0 0.019103246917552507 0.059593029786786066 0 0.019040201788463849 0.059604959079582791 0 0.017680524855135847 0.059280191349528617 0 0.01815339633482662 0.059046148105114798 0 0.018121330818757775 0.059586280131291129 0 0.018744257414361146 0.059529861438529522 0 0.01815339633482662 0.059046148105114798 0 0.018121330818757775 0.059586280131291129 0 0.01815339633482662 0.059046148105114798 0 0.017703726954280883 0.058888900133770503 0 0.018087239290068002 0.05844742872398833 0 0.017680524855135847 0.059280191349528617 0 0.01815339633482662 0.059046148105114798 0 0.017703726954280883 0.058888900133770503 0 0.017680524855135847 0.059280191349528617 0 0.017703726954280883 0.058888900133770503 0 0.017347128734152922 0.059032596762569257 0 0.017703726954280883 0.058888900133770503 0 0.017347128734152922 0.059032596762569257 0 0.017286101113244089 0.058599729438616542 0 0.017347128734152922 0.059032596762569257 0 0.016876087182071332 0.059037387156610339 0 0.017286101113244089 0.058599729438616542 0 0.017347128734152922 0.059032596762569257 0 0.017198662369085387 0.059436968782306393 0 0.016876087182071332 0.059037387156610339 0 0.017680524855135847 0.059280191349528617 0 0.017347128734152922 0.059032596762569257 0 0.017198662369085387 0.059436968782306393 0 0.017680524855135847 0.059280191349528617 0 0.017198662369085387 0.059436968782306393 0 0.017435729175295889 0.059843888525736091 0 0.017198662369085387 0.059436968782306393 0 0.017435729175295889 0.059843888525736091 0 0.016756009450342359 0.059997113477437185 0 0.017435729175295889 0.059843888525736091 0 0.018121330818757775 0.059586280131291129 0 0.018262786059377999 0.060029011765848558 0 0.017680524855135847 0.059280191349528617 0 0.017435729175295889 0.059843888525736091 0 0.018121330818757775 0.059586280131291129 0 0.018744257414361146 0.059529861438529522 0 0.018121330818757775 0.059586280131291129 0 0.018262786059377999 0.060029011765848558 0 0.013925595861864497 0.022990214810031089 0 0.013989207951469417 0.023106931205446629 0 0.013993558130716342 0.022959804545705901 0 0.013989207951469417 0.023106931205446629 0 0.013993558130716342 0.022959804545705901 0 0.014053354115768317 0.022962661570988117 0 0.015230049491796292 0.041570661781295197 0 0.014997277850986004 0.039703469588515665 0 0.013991143516749845 0.022810447407815054 0 0.013949163843249929 0.022760492970974509 0 0.013955117556119626 0.022876379481406549 0 0.013991143516749845 0.022810447407815054 0 0.013993558130716342 0.022959804545705901 0 0.013955117556119626 0.022876379481406549 0 0.013991143516749845 0.022810447407815054 0 0.013993558130716342 0.022959804545705901 0 0.014053354115768317 0.022962661570988117 0 0.013925595861864497 0.022990214810031089 0 0.013993558130716342 0.022959804545705901 0 0.013955117556119626 0.022876379481406549 0 0.013991143516749845 0.022810447407815054 0 0.014050758363770276 0.022853659011093926 0 0.014053354115768317 0.022962661570988117 0 0.014050758363770276 0.022853659011093926 0 0.014053354115768317 0.022962661570988117 0 0.014141513849236479 0.022883375809043163 0 0.017435729175295889 0.059843888525736091 0 0.017312648038421009 0.060468445067736923 0 0.016756009450342359 0.059997113477437185 0 0.017435729175295889 0.059843888525736091 0 0.018262786059377999 0.060029011765848558 0 0.017312648038421009 0.060468445067736923 0 0.017312648038421009 0.060468445067736923 0 0.016614311192963041 0.060844303071552593 0 0.016756009450342359 0.059997113477437185 0 0.016741540021760894 0.052192864696873426 0 0.018035170394078995 0.053848361864952184 0 0.016304552714765323 0.054908561260808231 0 0.015328703597979023 0.036228964061634346 0 0.014878487735933386 0.053324518345214011 0 0.014997277850986004 0.039703469588515665 0 0.015328703597979023 0.036228964061634346 0 0.013873664550599242 0.022356705886557218 0 0.013812065977100906 0.022339045108607628 0 0.013810247137603879 0.022315849565336748 0 0.015328703597979023 0.036228964061634346 0 0.014048455241340671 0.040753726607321995 0 0.01376082182497214 0.022351516451202424 0 0.013836791530656284 0.02236628933540535 0 0.013812065977100906 0.022339045108607628 0 0.013836791530656284 0.02236628933540535 0 0.013873664550599242 0.022356705886557218 0 0.013812065977100906 0.022339045108607628 0 0.013812065977100906 0.022339045108607628 0 0.013810247137603879 0.022315849565336748 0 0.013751378286674018 0.022316361788590221 0 0.018035170394078995 0.053848361864952184 0 0.018103344509393351 0.055019592621095063 0 0.016304552714765323 0.054908561260808231 0 0.018035170394078995 0.053848361864952184 0 0.018103344509393351 0.055019592621095063 0 0.019167607992060649 0.055301667590099843 0 0.014048455241340671 0.040753726607321995 0 0.012931914394146123 0.04652418470716168 0 0.018103344509393351 0.055019592621095063 0 0.018390528504416762 0.056089388445922053 0 0.019167607992060649 0.055301667590099843 0 0.018390528504416762 0.056089388445922053 0 0.017287784123426971 0.055716256972940678 0 0.016831908970406692 0.056864489157216237 0 0.018103344509393351 0.055019592621095063 0 0.017287784123426971 0.055716256972940678 0 0.016304552714765323 0.054908561260808231 0 0.018103344509393351 0.055019592621095063 0 0.018390528504416762 0.056089388445922053 0 0.017287784123426971 0.055716256972940678 0 0.014878487735933386 0.053324518345214011 0 0.015327275422499892 0.056684161235206941 0 0.017198662369085387 0.059436968782306393 0 0.016756009450342359 0.059997113477437185 0 0.016876087182071332 0.059037387156610339 0 0.017287784123426971 0.055716256972940678 0 0.016304552714765323 0.054908561260808231 0 0.016831908970406692 0.056864489157216237 0 0.016304552714765323 0.054908561260808231 0 0.016831908970406692 0.056864489157216237 0 0.016054591478586192 0.057286412944467666 0 0.016054591478586192 0.057286412944467666 0 0.016795494074377915 0.057375810977881754 0 0.016375751391850282 0.057718276835300286 0 0.016831908970406692 0.056864489157216237 0 0.016054591478586192 0.057286412944467666 0 0.016795494074377915 0.057375810977881754 0 0.01322628678923473 0.049124679188634064 0 0.013207389505311478 0.051248498940061511 0 0.01790425242348239 0.056312357502219405 0 0.016831908970406692 0.056864489157216237 0 0.016795494074377915 0.057375810977881754 0 0.01322628678923473 0.049124679188634064 0 0.013776043152739271 0.049996824796759605 0 0.017460074150553135 0.05662628831027669 0 0.016795494074377915 0.057375810977881754 0 0.017203949801820384 0.057310030151081798 0 0.017460074150553135 0.05662628831027669 0 0.017203949801820384 0.057310030151081798 0 0.01793558490196993 0.056407715180527535 0 0.013007049909702618 0.054055428523741775 0 0.012671521571557523 0.048212851372200161 0 0.015085089187144034 0.059549023755241015 0 0.01392816047229182 0.059710153927371154 0 0.014305467825515037 0.059031133940977067 0 0.015085089187144034 0.059549023755241015 0 0.015019799899644084 0.058451872912675673 0 0.016369452992603731 0.058046350390637401 0 0.015019799899644084 0.058451872912675673 0 0.014457162466583916 0.057699679328128639 0 0.013978303794642113 0.058351977497445986 0 0.015019799899644084 0.058451872912675673 0 0.013978303794642113 0.058351977497445986 0 0.014305467825515037 0.059031133940977067 0 0.015085089187144034 0.059549023755241015 0 0.015019799899644084 0.058451872912675673 0 0.014305467825515037 0.059031133940977067 0 0.016795494074377915 0.057375810977881754 0 0.017203949801820384 0.057310030151081798 0 0.016369452992603731 0.058046350390637401 0 0.016795494074377915 0.057375810977881754 0 0.016375751391850282 0.057718276835300286 0 0.016369452992603731 0.058046350390637401 0 0.015019799899644084 0.058451872912675673 0 0.016369452992603731 0.058046350390637401 0 0.015602573093576419 0.05794969856693246 0 0.013007049909702618 0.054055428523741775 0 0.013526222517116038 0.05521270417989585 0 0.016375751391850282 0.057718276835300286 0 0.016369452992603731 0.058046350390637401 0 0.01669512251959222 0.057981145136047151 0 0.016369452992603731 0.058046350390637401 0 0.015602573093576419 0.05794969856693246 0 0.01608189467425683 0.057406418254404942 0 0.016369452992603731 0.058046350390637401 0 0.01608189467425683 0.057406418254404942 0 0.01669512251959222 0.057981145136047151 0 0.015602573093576419 0.05794969856693246 0 0.01608189467425683 0.057406418254404942 0 0.015230276709053067 0.057201296964959895 0 0.015602573093576419 0.05794969856693246 0 0.015230276709053067 0.057201296964959895 0 0.013692410033906153 0.057055723554084462 0 0.015602573093576419 0.05794969856693246 0 0.014457162466583916 0.057699679328128639 0 0.014135542493001287 0.056263279780589655 0 0.014220850235156882 0.057316591541116159 0 0.013271824391562489 0.056540081966037298 0 0.015019799899644084 0.058451872912675673 0 0.015602573093576419 0.05794969856693246 0 0.014457162466583916 0.057699679328128639 0 0.015230276709053067 0.057201296964959895 0 0.01546949757335541 0.056280555931574223 0 0.013692410033906153 0.057055723554084462 0 0.013914013001268433 0.054999524160916337 0 0.01546949757335541 0.056280555931574223 0 0.016547804439719243 0.05499992479363025 0 0.013914013001268433 0.054999524160916337 0 0.01546949757335541 0.056280555931574223 0 0.013692410033906153 0.057055723554084462 0 0.01546949757335541 0.056280555931574223 0 0.016547804439719243 0.05499992479363025 0 0.017553979153493573 0.057060737903566645 0 0.01608189467425683 0.057406418254404942 0 0.015230276709053067 0.057201296964959895 0 0.01546949757335541 0.056280555931574223 0 0.016948224254859937 0.056535195765111582 0 0.017595410705219996 0.056709365766889314 0 0.01608189467425683 0.057406418254404942 0 0.01546949757335541 0.056280555931574223 0 0.016651567432796166 0.056607499471206447 0 0.016651567432796166 0.056607499471206447 0 0.017253322596876754 0.057454147344388529 0 0.016668620580557448 0.057364290901285059 0 0.01608189467425683 0.057406418254404942 0 0.016651567432796166 0.056607499471206447 0 0.016668620580557448 0.057364290901285059 0 0.016651567432796166 0.056607499471206447 0 0.017742239578618646 0.056943121815799927 0 0.017253322596876754 0.057454147344388529 0 0.017595410705219996 0.056709365766889314 0 0.018884181955032352 0.057002659182791487 0 0.016547804439719243 0.05499992479363025 0 0.017553979153493573 0.057060737903566645 0 0.019182269374498222 0.054999977490704573 0 0.017553979153493573 0.057060737903566645 0 0.019182269374498222 0.054999977490704573 0 0.019574873275905506 0.057727292905399068 0 0.019181568402779507 0.055002279248360118 0 0.018884181955032352 0.057002659182791487 0 0.019182403006576892 0.055000101453572564 0 0.01964215562895193 0.057751343164158316 0 0.021050576920466909 0.056560621872684819 0 0.018884181955032352 0.057002659182791487 0 0.020121636586614255 0.057496270045967732 0 0.017880988573326338 0.056989211900314633 0 0.017990302079968035 0.057712219519891479 0 0.018703440608279002 0.057260095139459163 0 0.017880002450681151 0.057764422021340037 0 0.017253322596876754 0.057454147344388529 0 0.017422851616719765 0.058106593797382713 0 0.018884181955032352 0.057002659182791487 0 0.018722131366009958 0.057421288302967714 0 0.017742239578618646 0.056943121815799927 0 0.017880002450681151 0.057764422021340037 0 0.017253322596876754 0.057454147344388529 0 0.017253322596876754 0.057454147344388529 0 0.016668620580557448 0.057364290901285059 0 0.01669512251959222 0.057981145136047151 0 0.01608189467425683 0.057406418254404942 0 0.016668620580557448 0.057364290901285059 0 0.01669512251959222 0.057981145136047151 0 0.017253322596876754 0.057454147344388529 0 0.01669512251959222 0.057981145136047151 0 0.017422851616719765 0.058106593797382713 0 0.01669512251959222 0.057981145136047151 0 0.017422851616719765 0.058106593797382713 0 0.017286101113244089 0.058599729438616542 0 0.016876087182071332 0.059037387156610339 0 0.01669512251959222 0.057981145136047151 0 0.017286101113244089 0.058599729438616542 0 0.015327275422499892 0.056684161235206941 0 0.015564808208882537 0.057210728311394024 0 0.016054591478586192 0.057286412944467666 0 0.016375751391850282 0.057718276835300286 0 0.01669512251959222 0.057981145136047151 0 0.017703726954280883 0.058888900133770503 0 0.017286101113244089 0.058599729438616542 0 0.018087239290068002 0.05844742872398833 0 0.01815339633482662 0.059046148105114798 0 0.018087239290068002 0.05844742872398833 0 0.018530132312363733 0.05871698608872896 0 0.017990302079968035 0.057712219519891479 0 0.018087239290068002 0.05844742872398833 0 0.018654471119493591 0.057981690595429125 0 0.018722131366009958 0.057421288302967714 0 0.018686630325015125 0.057642773594292263 0 0.017880002450681151 0.057764422021340037 0 0.017422851616719765 0.058106593797382713 0 0.018087239290068002 0.05844742872398833 0 0.017422851616719765 0.058106593797382713 0 0.017286101113244089 0.058599729438616542 0 0.018087239290068002 0.05844742872398833 0 0.018087239290068002 0.05844742872398833 0 0.018530132312363733 0.05871698608872896 0 0.018654471119493591 0.057981690595429125 0 0.018530132312363733 0.05871698608872896 0 0.019044812661851124 0.058555637058690067 0 0.018654471119493591 0.057981690595429125 0 0.019044812661851124 0.058555637058690067 0 0.019516171019739771 0.057531535587235158 0 0.018654471119493591 0.057981690595429125 0 0.018911954745264966 0.060446672288478422 0 0.019607920182610646 0.05783384391492296 0 0.020768242466455977 0.059444227803628472 0 0.019067791390321984 0.059913966185826006 0 0.018911954745264966 0.060446672288478422 0 0.01965348507977142 0.061117517746092413 0 0.018911954745264966 0.060446672288478422 0 0.01965348507977142 0.061117517746092413 0 0.020768242466455977 0.059444227803628472 0 0.0200370453083204 0.059186318559547653 0 0.021309955383134394 0.057889632759651158 0 0.021309955383134394 0.057889632759651158 0 0.020121636586614255 0.057496270045967732 0 0.019516171019739771 0.057531535587235158 0 0.018654471119493591 0.057981690595429125 0 0.018703440608279002 0.057260095139459163 0 0.017990302079968035 0.057712219519891479 0 0.018654471119493591 0.057981690595429125 0 0.018703440608279002 0.057260095139459163 0 0.01964215562895193 0.057751343164158316 0 0.021479720746965962 0.058344582270116019 0 0.021050576920466909 0.056560621872684819 0 0.021479720746965962 0.058344582270116019 0 0.021050576920466909 0.056560621872684819 0 0.022451297427447267 0.057160309347635684 0 0.022200336264905623 0.054999717965266461 0 0.021050576920466909 0.056560621872684819 0 0.022451297427447267 0.057160309347635684 0 0.019182403006576892 0.055000101453572564 0 0.022200336264905623 0.054999717965266461 0 0.021050576920466909 0.056560621872684819 0 0.022200336264905623 0.054999717965266461 0 0.024210172739380743 0.056984578232736185 0 0.025117167477738598 0.054883576439258688 0 0.022200336264905623 0.054999717965266461 0 0.022451297427447267 0.057160309347635684 0 0.024210172739380743 0.056984578232736185 0 0.021309955383134394 0.057889632759651158 0 0.022511058871832398 0.056789388307959654 0 0.023324856696706791 0.05894616941566462 0 0.022451297427447267 0.057160309347635684 0 0.024210172739380743 0.056984578232736185 0 0.023324856696706791 0.05894616941566462 0 0.021479720746965962 0.058344582270116019 0 0.022451297427447267 0.057160309347635684 0 0.02283461675659364 0.058306454992791454 0 0.023616265437689077 0.056738362534136909 0 0.023792000313936509 0.057908911704351966 0 0.023616265437689077 0.056738362534136909 0 0.025143195991372502 0.056016238982915911 0 0.025395835126490778 0.057591117115273517 0 0.023616265437689077 0.056738362534136909 0 0.025395835126490778 0.057591117115273517 0 0.023792000313936509 0.057908911704351966 0 0.023616265437689077 0.056738362534136909 0 0.025143195991372502 0.056016238982915911 0 0.025115907638313839 0.054883137441634582 0 0.022511058871832398 0.056789388307959654 0 0.023028487510149524 0.056148180718245538 0 0.025143195991372502 0.056016238982915911 0 0.025115907638313839 0.054883137441634582 0 0.026395637141730887 0.056063592249950736 0 0.028236475433144146 0.054999510545754374 0 0.025115907638313839 0.054883137441634582 0 0.026395637141730887 0.056063592249950736 0 0.025143195991372502 0.056016238982915911 0 0.026395637141730887 0.056063592249950736 0 0.025395835126490778 0.057591117115273517 0 0.028197470479962079 0.057011617371700837 0 0.026395637141730887 0.056063592249950736 0 0.025395835126490778 0.057591117115273517 0 0.027677338047197953 0.059368725134734526 0 0.025395835126490778 0.057591117115273517 0 0.02576786150815194 0.060152960933114903 0 0.025395835126490778 0.057591117115273517 0 0.023738584526940373 0.058865490439315715 0 0.02576786150815194 0.060152960933114903 0 0.02283461675659364 0.058306454992791454 0 0.023792000313936509 0.057908911704351966 0 0.023738584526940373 0.058865490439315715 0 0.021309955383134394 0.057889632759651158 0 0.022075013111229318 0.058166464412253448 0 0.025395835126490778 0.057591117115273517 0 0.023792000313936509 0.057908911704351966 0 0.023738584526940373 0.058865490439315715 0 0.019607920182610646 0.05783384391492296 0 0.020768242466455977 0.059444227803628472 0 0.023738584526940373 0.058865490439315715 0 0.020768242466455977 0.059444227803628472 0 0.023738584526940373 0.058865490439315715 0 0.024313813589550318 0.062258976025521114 0 0.019147614092340295 0.057299898579030756 0 0.019157517210300564 0.056641585162529838 0 0.01965348507977142 0.061117517746092413 0 0.020768242466455977 0.059444227803628472 0 0.024313813589550318 0.062258976025521114 0 0.023738584526940373 0.058865490439315715 0 0.02576786150815194 0.060152960933114903 0 0.024313813589550318 0.062258976025521114 0 0.027526125719884394 0.062682578495729238 0 0.02576786150815194 0.060152960933114903 0 0.024313813589550318 0.062258976025521114 0 0.0039852207881844199 0.044950008823049836 0 0.0037305946629580425 0.044905529199063966 0 0.0038654036727500253 0.045132709307067594 0 0.0039852207881844199 0.044950008823049836 0 0.0037305946629580425 0.044905529199063966 0 0.0038832778185925051 0.044706472637698343 0 0.0039852207881844199 0.044950008823049836 0 0.0042382353593558028 0.044848883170332254 0 0.004079101385547226 0.044724875790725704 0 0.0037305946629580425 0.044905529199063966 0 0.0036667282299822348 0.0451399562800925 0 0.0035484407416226799 0.044978417254618333 0 0.0037305946629580425 0.044905529199063966 0 0.0036667282299822348 0.0451399562800925 0 0.0038654036727500253 0.045132709307067594 0 0.0036667282299822348 0.0451399562800925 0 0.0038654036727500253 0.045132709307067594 0 0.0038181592739826393 0.045359093146371987 0 0.0036667282299822348 0.0451399562800925 0 0.0038181592739826393 0.045359093146371987 0 0.0036926104209394268 0.04543312124946703 0 0.0039852207881844199 0.044950008823049836 0 0.0038654036727500253 0.045132709307067594 0 0.0040666257820853036 0.045223330721780856 0 0.0038654036727500253 0.045132709307067594 0 0.0040666257820853036 0.045223330721780856 0 0.0038181592739826393 0.045359093146371987 0 -0.00287178803150863 0.044827759124976926 0 -0.0017975265537794828 0.045478690676921521 0 -0.0083852021173388813 0.046035080610456913 0 -0.0082870437776681356 0.046786683827940406 0 -0.0075286489979647132 0.045328345123741239 0 0.0037777080991247282 0.044713075023558209 0 0.0040697718239412007 0.044115381235899823 0 0.004026168305233749 0.045085941548564032 0 0.0045412461399914322 0.043943119177489783 0 0.0040697718239412007 0.044115381235899823 0 0.004026168305233749 0.045085941548564032 0 -0.0082170040641761609 0.045426881658292319 0 -0.0083852021173388813 0.046035080610456913 0 -0.0075286489979647132 0.045328345123741239 0 -0.0010368211878072427 0.053282369325734422 0 -0.0045592350915193858 0.051758572315779239 0 0.0012466716186106586 0.048742191741331403 0 0.0009195171544128174 0.04796142369734608 0 -0.00067060613639869867 0.050112267244076004 0 -0.0082170040641761609 0.045426881658292319 0 -0.0083852021173388813 0.046035080610456913 0 -0.0091253179670409516 0.046092282093605864 0 -0.0029479679306034802 0.04845836934179041 0 -0.0045592350915193858 0.051758572315779239 0 -0.0083852021173388813 0.046035080610456913 0 -0.0087426114967377368 0.046535193883078141 0 -0.0091253179670409516 0.046092282093605864 0 -0.0083852021173388813 0.046035080610456913 0 -0.0087426114967377368 0.046535193883078141 0 -0.0082870437776681356 0.046786683827940406 0 -0.0087426114967377368 0.046535193883078141 0 -0.0082870437776681356 0.046786683827940406 0 -0.0087742061501160217 0.047049998756453201 0 -0.0087426114967377368 0.046535193883078141 0 -0.0087742061501160217 0.047049998756453201 0 -0.0091367992086740252 0.046877245015615257 0 0.0040977272502302348 0.044510750789074571 0 0.0044716766768126606 0.043244382263190356 0 0.0039852207881844199 0.044950008823049836 0 0.0040666257820853036 0.045223330721780856 0 0.0042382353593558028 0.044848883170332254 0 0.0037777080991247282 0.044713075023558209 0 0.0040697718239412007 0.044115381235899823 0 0.0039590935248827426 0.043702545129396017 0 0.0045412461399914322 0.043943119177489783 0 0.0040697718239412007 0.044115381235899823 0 0.0038415019774812576 0.043590600854324736 0 0.0044661641686975463 0.043318103310886487 0 0.0044716766768126606 0.043244382263190356 0 0.0044716766768126606 0.043244382263190356 0 0.0049740021622862911 0.041748332798296414 0 0.003615467796789252 0.043356843061498139 0 0.0033613361509476107 0.042192029746635815 0 0.004068995439706311 0.041733771901591166 0 0.0042382353593558028 0.044848883170332254 0 0.0042014332109203897 0.044530145509253279 0 0.004079101385547226 0.044724875790725704 0 0.0038415019774812576 0.043590600854324736 0 0.004519392791081875 0.042786108657670151 0 0.0041396800644365678 0.041911414405279492 0 0.0044716766768126606 0.043244382263190356 0 0.0044833120907661183 0.04199387256996405 0 0.0045412461399914322 0.043943119177489783 0 0.0038415019774812576 0.043590600854324736 0 0.004519392791081875 0.042786108657670151 0 -0.0082870437776681356 0.046786683827940406 0 -0.0087742061501160217 0.047049998756453201 0 -0.0090470403393934692 0.048076806554146936 0 0.0045412461399914322 0.043943119177489783 0 0.004519392791081875 0.042786108657670151 0 0.0053822444925432835 0.042181832009547796 0 -0.00287178803150863 0.044827759124976926 0 -0.0047849527383406632 0.043952855625407766 0 -0.0087742061501160217 0.047049998756453201 0 -0.0090470403393934692 0.048076806554146936 0 -0.0090506554685028714 0.047322965770118304 0 0.004519392791081875 0.042786108657670151 0 0.0047826138768735545 0.042046491612082217 0 0.0053822444925432835 0.042181832009547796 0 0.004519392791081875 0.042786108657670151 0 0.0047826138768735545 0.042046491612082217 0 0.0041396800644365678 0.041911414405279492 0 0.0047826138768735545 0.042046491612082217 0 0.0047343370252336935 0.041682100267552757 0 0.0041396800644365678 0.041911414405279492 0 0.0048010490158434411 0.041129150481012053 0 0.0047343370252336935 0.041682100267552757 0 0.0041396800644365678 0.041911414405279492 0 0.0052138497229728478 0.041277597053197515 0 0.0047826138768735545 0.042046491612082217 0 0.0053822444925432835 0.042181832009547796 0 0.0052138497229728478 0.041277597053197515 0 0.0047826138768735545 0.042046491612082217 0 0.0047343370252336935 0.041682100267552757 0 0.0052138497229728478 0.041277597053197515 0 0.0048010490158434411 0.041129150481012053 0 0.0047343370252336935 0.041682100267552757 0 0.0031080348863640438 0.041017143693831762 0 0.0033613361509476107 0.042192029746635815 0 0.0036709993218689086 0.041522559892726581 0 0.005526884313159371 0.03856455126957016 0 0.0049740021622862911 0.041748332798296414 0 0.0033613361509476107 0.042192029746635815 0 0.004068995439706311 0.041733771901591166 0 0.0036709993218689086 0.041522559892726581 0 0.0036049698405399289 0.041104650756291085 0 0.004068995439706311 0.041733771901591166 0 0.0036709993218689086 0.041522559892726581 0 0.0030498041209631437 0.04099897256278625 0 0.0036049698405399289 0.041104650756291085 0 0.0036709993218689086 0.041522559892726581 0 0.005526884313159371 0.03856455126957016 0 0.0054519672959677168 0.03872949193710374 0 0.0040145175897340164 0.044432439689226638 0 0.0038832778185925051 0.044706472637698343 0 0.0038026809396174937 0.044370633940005448 0 0.0039250644603356375 0.044231311098692605 0 0.00414944097290414 0.044210787675619603 0 0.0040145175897340164 0.044432439689226638 0 0.00414944097290414 0.044210787675619603 0 0.0042014332109203897 0.044530145509253279 0 0.0040145175897340164 0.044432439689226638 0 0.0039250644603356375 0.044231311098692605 0 0.0040145175897340164 0.044432439689226638 0 0.0038026809396174937 0.044370633940005448 0 0.0040145175897340164 0.044432439689226638 0 0.0038832778185925051 0.044706472637698343 0 0.004079101385547226 0.044724875790725704 0 0.0042014332109203897 0.044530145509253279 0 0.0040145175897340164 0.044432439689226638 0 0.004079101385547226 0.044724875790725704 0 0.0039852207881844199 0.044950008823049836 0 0.0038832778185925051 0.044706472637698343 0 0.004079101385547226 0.044724875790725704 0 0.0038832778185925051 0.044706472637698343 0 0.0036565425227519 0.044670457703320877 0 0.0038026809396174937 0.044370633940005448 0 0.0037305946629580425 0.044905529199063966 0 0.0036565425227519 0.044670457703320877 0 0.0035693599411529605 0.044831609317467006 0 0.0037305946629580425 0.044905529199063966 0 0.0038832778185925051 0.044706472637698343 0 0.0036565425227519 0.044670457703320877 0 0.0037362047488291635 0.044141925701224931 0 0.0038026809396174937 0.044370633940005448 0 0.0035920909301240781 0.044311227920007815 0 0.0038026809396174937 0.044370633940005448 0 0.0035920909301240781 0.044311227920007815 0 0.0034972176368217819 0.044493745094949848 0 0.0094342906316507349 0.034754639545869638 0 0.0074538475477921792 0.04259159354691739 0 0.0036565425227519 0.044670457703320877 0 0.0038026809396174937 0.044370633940005448 0 0.0034361565848177334 0.044622473306500335 0 0.0052431343869938059 0.043688121931694822 0 0.0074538475477921792 0.04259159354691739 0 0.0034337735334615542 0.044139799635404139 0 0.0035920909301240781 0.044311227920007815 0 0.0034972176368217819 0.044493745094949848 0 0.011927066436388124 0.041337183277509133 0 0.012113094005658548 0.04258355588937672 0 0.010865348333494725 0.04246066576187324 0 0.0094342906316507349 0.034754639545869638 0 0.013554939764490579 0.036182256269876562 0 0.013652492186508635 0.022346125179659022 0 0.013497224672072339 0.022370120032261048 0 0.013657877109638015 0.022306284341838394 0 0.012113094005658548 0.04258355588937672 0 0.010865348333494725 0.04246066576187324 0 0.010871070917882496 0.042720702611832223 0 0.0074538475477921792 0.04259159354691739 0 0.0087086413447885619 0.045194305384309887 0 0.012113094005658548 0.04258355588937672 0 0.010871070917882496 0.042720702611832223 0 0.011083658591511347 0.043121406324094606 0 0.0033577984258431805 0.044814621208549357 0 0.0034576808852500424 0.044671271469577341 0 0.003226567386423121 0.044796600206804219 0 0.0033577984258431805 0.044814621208549357 0 0.0034620525077963 0.044736994478164128 0 0.003461827061680692 0.044864591090541153 0 0.0034620525077963 0.044736994478164128 0 0.0035693599411529605 0.044831609317467006 0 0.003461827061680692 0.044864591090541153 0 0.0036565425227519 0.044670457703320877 0 0.0034620525077963 0.044736994478164128 0 0.0035693599411529605 0.044831609317467006 0 0.0036565425227519 0.044670457703320877 0 0.0034620525077963 0.044736994478164128 0 0.0034361565848177334 0.044622473306500335 0 0.0033577984258431805 0.044814621208549357 0 0.0034620525077963 0.044736994478164128 0 0.0034576808852500424 0.044671271469577341 0 0.007403545254149181 0.042686674116732375 0 0.0074538475477921792 0.04259159354691739 0 0.01376082182497214 0.022351516451202424 0 0.013812065977100906 0.022339045108607628 0 0.013751378286674018 0.022316361788590221 0 0.013652492186508635 0.022346125179659022 0 0.01376082182497214 0.022351516451202424 0 0.013751378286674018 0.022316361788590221 0 0.013652492186508635 0.022346125179659022 0 0.013751378286674018 0.022316361788590221 0 0.013657877109638015 0.022306284341838394 0 0.010871070917882496 0.042720702611832223 0 0.011083658591511347 0.043121406324094606 0 0.010023866314522433 0.043682496687676202 0 0.010865348333494725 0.04246066576187324 0 0.010871070917882496 0.042720702611832223 0 0.0098736164684350893 0.043556905736244642 0 0.012403982739410657 0.046047799573583618 0 0.012118191374493497 0.04761312846269207 0 0.013810247137603879 0.022315849565336748 0 0.013751378286674018 0.022316361788590221 0 0.013763637840736042 0.022296668244109665 0 0.013554939764490579 0.036182256269876562 0 0.012931914394146123 0.04652418470716168 0 0.013751378286674018 0.022316361788590221 0 0.013657877109638015 0.022306284341838394 0 0.013763637840736042 0.022296668244109665 0 0.010871070917882496 0.042720702611832223 0 0.0098736164684350893 0.043556905736244642 0 0.010108822256468515 0.043635335872270482 0 0.014446320904787506 0.048700006661134887 0 0.012763411470317855 0.050398295917606556 0 0.012133457418718352 0.049618303276814046 0 0.01322628678923473 0.049124679188634064 0 0.012931914394146123 0.04652418470716168 0 0.01322628678923473 0.049124679188634064 0 0.012671521571557523 0.048212851372200161 0 0.0098736164684350893 0.043556905736244642 0 0.010108822256468515 0.043635335872270482 0 0.010019693179598487 0.043735555020408788 0 0.012931914394146123 0.04652418470716168 0 0.012671521571557523 0.048212851372200161 0 0.012118191374493497 0.04761312846269207 0 0.012671521571557523 0.048212851372200161 0 0.002654303736101306 0.044999709998635909 0 0.0025648786898189988 0.045078043315575175 0 0.0030221038508975451 0.045064026721099555 0 0.0087086413447885619 0.045194305384309887 0 0.012118191374493497 0.04761312846269207 0 0.0025648786898189988 0.045078043315575175 0 0.0030221038508975451 0.045064026721099555 0 0.0030368777041007481 0.045908308758012537 0 0.003226567386423121 0.044796600206804219 0 0.002654303736101306 0.044999709998635909 0 0.0030221038508975451 0.045064026721099555 0 0.0030221038508975451 0.045064026721099555 0 0.0032555137479967459 0.044990541444254441 0 0.0033002069829989999 0.045220178380936039 0 0.003226567386423121 0.044796600206804219 0 0.0030221038508975451 0.045064026721099555 0 0.0032555137479967459 0.044990541444254441 0 0.0030368777041007481 0.045908308758012537 0 0.0040318917934048532 0.04590456611021243 0 0.003773495675725391 0.04690792538640786 0 0.0030221038508975451 0.045064026721099555 0 0.0030368777041007481 0.045908308758012537 0 0.0040318917934048532 0.04590456611021243 0 0.0031979900638363472 0.046154082363818835 0 0.0036111566357501603 0.04675671526465186 0 0.013790775420091928 0.060927061062006543 0 0.012843965659688872 0.059782413984131873 0 0.01392816047229182 0.059710153927371154 0 0.012671521571557523 0.048212851372200161 0 0.010326455720076984 0.050603286100147714 0 0.015085089187144034 0.059549023755241015 0 0.013790775420091928 0.060927061062006543 0 0.01392816047229182 0.059710153927371154 0 0.012843965659688872 0.059782413984131873 0 0.01392816047229182 0.059710153927371154 0 0.013516692348321433 0.059086964243887645 0 0.01392816047229182 0.059710153927371154 0 0.014305467825515037 0.059031133940977067 0 0.013516692348321433 0.059086964243887645 0 0.0035484407416226799 0.044978417254618333 0 0.0033935025274340388 0.045003378420324959 0 0.0034801862292184347 0.045154833860292558 0 0.0036667282299822348 0.0451399562800925 0 0.0035484407416226799 0.044978417254618333 0 0.0034801862292184347 0.045154833860292558 0 0.0037305946629580425 0.044905529199063966 0 0.0035693599411529605 0.044831609317467006 0 0.0035484407416226799 0.044978417254618333 0 0.0035693599411529605 0.044831609317467006 0 0.0035484407416226799 0.044978417254618333 0 0.003461827061680692 0.044864591090541153 0 0.0035484407416226799 0.044978417254618333 0 0.003461827061680692 0.044864591090541153 0 0.0033935025274340388 0.045003378420324959 0 0.0032555137479967459 0.044990541444254441 0 0.0033935025274340388 0.045003378420324959 0 0.0033002069829989999 0.045220178380936039 0 0.0033577984258431805 0.044814621208549357 0 0.0032555137479967459 0.044990541444254441 0 0.0033935025274340388 0.045003378420324959 0 0.0033577984258431805 0.044814621208549357 0 0.003461827061680692 0.044864591090541153 0 0.0033935025274340388 0.045003378420324959 0 0.0033577984258431805 0.044814621208549357 0 0.003226567386423121 0.044796600206804219 0 0.0032555137479967459 0.044990541444254441 0 0.0033935025274340388 0.045003378420324959 0 0.0033002069829989999 0.045220178380936039 0 0.0034801862292184347 0.045154833860292558 0 0.0052190085939865611 0.047318034261107353 0 0.0050643269304164974 0.048886213296387433 0 0.0033002069829989999 0.045220178380936039 0 0.0034801862292184347 0.045154833860292558 0 0.0035236290979931257 0.045425476957921818 0 0.0036667282299822348 0.0451399562800925 0 0.0034801862292184347 0.045154833860292558 0 0.0035236290979931257 0.045425476957921818 0 0.0050643269304164974 0.048886213296387433 0 0.0042960643810106463 0.050712217564068629 0 0.0051124910336339041 0.046895846538874839 0 0.003773495675725391 0.04690792538640786 0 0.0045734976047683553 0.047917828839175683 0 0.0036111566357501603 0.04675671526465186 0 0.0050643269304164974 0.048886213296387433 0 0.0040318917934048532 0.04590456611021243 0 0.0051124910336339041 0.046895846538874839 0 0.003773495675725391 0.04690792538640786 0 0.01187346502370017 0.05861680501862556 0 0.01184564630604156 0.057105137321455737 0 0.010904348510777933 0.057431472052818504 0 0.0085441926309220793 0.051913913413819825 0 0.0068283565299925757 0.052712666025935571 0 0.01184564630604156 0.057105137321455737 0 0.010904348510777933 0.057431472052818504 0 0.011517131778990298 0.056292150026864149 0 0.0055018459334068683 0.052830959241288396 0 0.0055653563415080862 0.052719632376779811 0 0.0053981455807135008 0.052742194242321468 0 0.0055653563415080862 0.052719632376779811 0 0.0054883232342783205 0.052627901898185329 0 0.0053981455807135008 0.052742194242321468 0 0.0068283565299925757 0.052712666025935571 0 0.006728829415652675 0.053568621867485754 0 0.0050643269304164974 0.048886213296387433 0 0.0068283565299925757 0.052712666025935571 0 0.013978303794642113 0.058351977497445986 0 0.014305467825515037 0.059031133940977067 0 0.013516692348321433 0.059086964243887645 0 0.013978303794642113 0.058351977497445986 0 0.013516692348321433 0.059086964243887645 0 0.012865994017915387 0.058396811163966278 0 0.010326455720076984 0.050603286100147714 0 0.0085441926309220793 0.051913913413819825 0 0.012843965659688872 0.059782413984131873 0 0.01187346502370017 0.05861680501862556 0 0.012865994017915387 0.058396811163966278 0 0.012843965659688872 0.059782413984131873 0 0.013516692348321433 0.059086964243887645 0 0.012865994017915387 0.058396811163966278 0 0.01187346502370017 0.05861680501862556 0 0.012865994017915387 0.058396811163966278 0 0.012646525945843392 0.057472968576953394 0 0.01187346502370017 0.05861680501862556 0 0.01184564630604156 0.057105137321455737 0 0.012646525945843392 0.057472968576953394 0 0.01184564630604156 0.057105137321455737 0 0.012646525945843392 0.057472968576953394 0 0.012377029261551572 0.056748163780651201 0 0.012646525945843392 0.057472968576953394 0 0.013536342736400159 0.057433001793979387 0 0.012971109408445602 0.056504506928639314 0 0.012865994017915387 0.058396811163966278 0 0.012646525945843392 0.057472968576953394 0 0.013536342736400159 0.057433001793979387 0 0.014457162466583916 0.057699679328128639 0 0.013536342736400159 0.057433001793979387 0 0.014135542493001287 0.056263279780589655 0 0.013978303794642113 0.058351977497445986 0 0.012865994017915387 0.058396811163966278 0 0.013536342736400159 0.057433001793979387 0 0.014457162466583916 0.057699679328128639 0 0.013978303794642113 0.058351977497445986 0 0.013536342736400159 0.057433001793979387 0 0.014135542493001287 0.056263279780589655 0 0.012971109408445602 0.056504506928639314 0 0.012569049598520208 0.055556272402878457 0 0.013536342736400159 0.057433001793979387 0 0.014135542493001287 0.056263279780589655 0 0.012971109408445602 0.056504506928639314 0 0.012971109408445602 0.056504506928639314 0 0.01247317035086835 0.056263048335885815 0 0.012569049598520208 0.055556272402878457 0 0.012646525945843392 0.057472968576953394 0 0.012971109408445602 0.056504506928639314 0 0.012377029261551572 0.056748163780651201 0 0.01184564630604156 0.057105137321455737 0 0.012377029261551572 0.056748163780651201 0 0.011975556942626909 0.056241924653750781 0 0.012971109408445602 0.056504506928639314 0 0.012377029261551572 0.056748163780651201 0 0.01247317035086835 0.056263048335885815 0 0.012377029261551572 0.056748163780651201 0 0.01247317035086835 0.056263048335885815 0 0.011975556942626909 0.056241924653750781 0 0.01247317035086835 0.056263048335885815 0 0.012569049598520208 0.055556272402878457 0 0.011975556942626909 0.056241924653750781 0 0.012569049598520208 0.055556272402878457 0 0.011975556942626909 0.056241924653750781 0 0.01151283888277733 0.056293510629847894 0 0.014135542493001287 0.056263279780589655 0 0.012569049598520208 0.055556272402878457 0 0.012647097368550195 0.054650980906274516 0 0.012569049598520208 0.055556272402878457 0 0.012385269364832908 0.054666063620809238 0 0.01151283888277733 0.056293510629847894 0 0.012569049598520208 0.055556272402878457 0 0.012385269364832908 0.054666063620809238 0 0.012647097368550195 0.054650980906274516 0 0.010943263301524621 0.054999568888272385 0 0.01089118480921695 0.055096317116787655 0 0.011228221064116686 0.054848405630677145 0 0.010765285238505541 0.054892589479856611 0 0.011178462639868275 0.054986801854788631 0 0.010938134617136087 0.054997210361139602 0 0.010765285238505541 0.054892589479856611 0 0.013914013001268433 0.054999524160916337 0 0.013692410033906153 0.057055723554084462 0 0.011228702288171728 0.054848535591012 0 0.013271824391562489 0.056540081966037298 0 0.011178462639868275 0.054986801854788631 0 0.0071052143876149691 0.054959549938785823 0 0.0080510769115240115 0.054853716392813626 0 0.0074808828032425752 0.054459650991301199 0 0.006728829415652675 0.053568621867485754 0 0.0083079684574695958 0.053894345788262042 0 0.0069089431809140865 0.054717472844208331 0 0.0074808828032425752 0.054459650991301199 0 0.0068790394684371398 0.054299980795210881 0 0.0069089431809140865 0.054717472844208331 0 0.0071052143876149691 0.054959549938785823 0 0.0074808828032425752 0.054459650991301199 0 0.0067623476422009185 0.053623884860218858 0 0.006728829415652675 0.053568621867485754 0 0.0068283565299925757 0.052712666025935571 0 0.0083079684574695958 0.053894345788262042 0 0.0073065107479399483 0.054002328011077322 0 0.0072411090373587384 0.053922989642292182 0 0.0073582409739204801 0.053909962296627041 0 0.01184564630604156 0.057105137321455737 0 0.011975556942626909 0.056241924653750781 0 0.011517131778990298 0.056292150026864149 0 0.0084959831139750901 0.053913725589108771 0 0.0083079684574695958 0.053894345788262042 0 0.0086377984270706552 0.053771971124161856 0 0.0074714687986351955 0.053835626293534521 0 0.0074808828032425752 0.054459650991301199 0 0.010943032801305182 0.054999997169029084 0 0.010849944476067627 0.05517305893469409 0 0.008583341597666232 0.054999998013127549 0 0.010765285238505541 0.054892589479856611 0 0.0081649346272337289 0.054831445388120875 0 0.010849944476067627 0.05517305893469409 0 0.008583341597666232 0.054999998013127549 0 0.008331656356496563 0.055315340735750396 0 0.0086377984270706552 0.053771971124161856 0 0.0080510769115240115 0.054853716392813626 0 0.0074808828032425752 0.054459650991301199 0 0.010765285238505541 0.054892589479856611 0 0.0083079684574695958 0.053894345788262042 0 0.008583341597666232 0.054999998013127549 0 0.008331656356496563 0.055315340735750396 0 0.006223655129657826 0.054999995571900565 0 0.0081649346272337289 0.054831445388120875 0 0.0061520412834000539 0.054859522734117573 0 0.0074714687986351955 0.053835626293534521 0 0.0068790394684371398 0.054299980795210881 0 0.0063064064954089973 0.053900698170821021 0 0.0074714687986351955 0.053835626293534521 0 0.0074808828032425752 0.054459650991301199 0 0.0068790394684371398 0.054299980795210881 0 0.008331656356496563 0.055315340735750396 0 0.006223655129657826 0.054999995571900565 0 0.0058136529585403511 0.055457336494245883 0 0.0063064064954089973 0.053900698170821021 0 0.0054721007620368942 0.054828114380695181 0 0.0062286605572090927 0.054586260824435733 0 0.0062228294456363985 0.054998973295425677 0 0.0061520412834000539 0.054859522734117573 0 0.0062235259538033659 0.055000025732590989 0 0.0058917117544708547 0.05499996836913109 0 0.0058272588513406595 0.055379235696330867 0 0.0068790394684371398 0.054299980795210881 0 0.0063064064954089973 0.053900698170821021 0 0.0062286605572090927 0.054586260824435733 0 0.0058917117544708547 0.05499996836913109 0 0.0058272588513406595 0.055379235696330867 0 0.0035282300560755793 0.056261013315095317 0 0.0058272588513406595 0.055379235696330867 0 0.0043505782622000611 0.057021222017505757 0 0.0035282300560755793 0.056261013315095317 0 0.0058892066386142207 0.055000073837704763 0 0.00364949885849947 0.055388407381555517 0 0.0058915808667127298 0.055000002334950948 0 0.002998051188358517 0.056533193549906942 0 0.0027677402509219055 0.054999985597619705 0 0.0061520412834000539 0.054859522734117573 0 0.0040663288760631865 0.054564982360545362 0 0.0040663288760631865 0.054564982360545362 0 0.00364949885849947 0.055388407381555517 0 0.0054721007620368942 0.054828114380695181 0 0.0057751351349887544 0.05510824040586846 0 0.0062286605572090927 0.054586260824435733 0 0.0040663288760631865 0.054564982360545362 0 0.0042201342282795718 0.053733824212874461 0 0.004056470462310233 0.053675875078705873 0 0.0040976309436747309 0.053713045676518412 0 0.0040131774535089549 0.053723678379206177 0 0.0038433821632729835 0.045535898772564261 0 0.0037323902258372 0.045658400969321646 0 0.0032521234599097175 0.04532988098854316 0 0.0042201342282795718 0.053733824212874461 0 0.0032568871291518918 0.054551500430625684 0 0.0040663288760631865 0.054564982360545362 0 0.0032568871291518918 0.054551500430625684 0 0.0036514192315071142 0.055480703503434849 0 0.0031930960392170349 0.05599330838239136 0 0.0030806772757874293 0.055483668679393396 0 0.0069089431809140865 0.054717472844208331 0 0.0071035278704389485 0.054957490120777441 0 0.0057751351349887544 0.05510824040586846 0 0.0069089431809140865 0.054717472844208331 0 0.0057751351349887544 0.05510824040586846 0 0.0062286605572090927 0.054586260824435733 0 0.006728829415652675 0.053568621867485754 0 0.0042201342282795718 0.053733824212874461 0 0.0069089431809140865 0.054717472844208331 0 0.0068790394684371398 0.054299980795210881 0 0.0062286605572090927 0.054586260824435733 0 0.0054883232342783205 0.052627901898185329 0 0.0052939228445441164 0.052652676352034244 0 0.0053981455807135008 0.052742194242321468 0 0.0037049626457531918 0.045581272095928806 0 0.0037678178154193615 0.045572049003105318 0 0.0036926104209394268 0.04543312124946703 0 0.0038433821632729835 0.045535898772564261 0 0.0037049626457531918 0.045581272095928806 0 0.0037678178154193615 0.045572049003105318 0 0.0042201342282795718 0.053733824212874461 0 0.0042960643810106463 0.050712217564068629 0 -0.00061498039675712162 0.045328855537326608 0 -0.0014900531452085629 0.045837133504577056 0 0.0037323902258372 0.045658400969321646 0 0.0038250695399904915 0.045500392464655787 0 0.0039677585312113076 0.04540592704492822 0 0.0037323902258372 0.045658400969321646 0 0.0030788854708732731 0.047413733755877062 0 0.0031099471015207823 0.046044535480460301 0 0.0038433821632729835 0.045535898772564261 0 0.0037323902258372 0.045658400969321646 0 0.0037678178154193615 0.045572049003105318 0 0.0037323902258372 0.045658400969321646 0 0.0031099471015207823 0.046044535480460301 0 0.0032521234599097175 0.04532988098854316 0 0.0037323902258372 0.045658400969321646 0 0.0037678178154193615 0.045572049003105318 0 0.0038250695399904915 0.045500392464655787 0 0.0040977272502302348 0.044510750789074571 0 0.0039877050793701236 0.044897219555186982 0 0.0037678178154193615 0.045572049003105318 0 0.0038250695399904915 0.045500392464655787 0 0.0038181592739826393 0.045359093146371987 0 0.0040666257820853036 0.045223330721780856 0 0.0038250695399904915 0.045500392464655787 0 0.0038181592739826393 0.045359093146371987 0 0.0037678178154193615 0.045572049003105318 0 0.0038181592739826393 0.045359093146371987 0 0.0036926104209394268 0.04543312124946703 0 0.0036667282299822348 0.0451399562800925 0 0.0035146392205000791 0.045442327293455931 0 0.0036926104209394268 0.04543312124946703 0 0.0035146392205000791 0.045442327293455931 0 0.0037049626457531918 0.045581272095928806 0 0.0036926104209394268 0.04543312124946703 0 3.2173695882990973e-05 0.060723389153304691 0 -0.00095239955512765797 0.05961369964599899 0 -0.0016526896986056672 0.060427192595997645 0 3.2173695882990973e-05 0.060723389153304691 0 0.00083075265772880732 0.059488730016615157 0 -1.1095133679195966e-05 0.059561376586389103 0 3.2173695882990973e-05 0.060723389153304691 0 -1.1095133679195966e-05 0.059561376586389103 0 -0.00095239955512765797 0.05961369964599899 0 0.0012466716186106586 0.048742191741331403 0 0.0009195171544128174 0.04796142369734608 0 0.0030788854708732731 0.047413733755877062 0 0.0037777080991247282 0.044713075023558209 0 0.0038250695399904915 0.045500392464655787 0 0.004026168305233749 0.045085941548564032 0 0.0009195171544128174 0.04796142369734608 0 0.0030788854708732731 0.047413733755877062 0 0.0024355439111307894 0.045966952648785607 0 -0.0029479679306034802 0.04845836934179041 0 -0.0014900531452085629 0.045837133504577056 0 -0.0082170040641761609 0.045426881658292319 0 -0.0075286489979647132 0.045328345123741239 0 -0.0072514672504276866 0.044769569183331505 0 -0.0017975265537794828 0.045478690676921521 0 -0.0014900531452085629 0.045837133504577056 0 0.0038250695399904915 0.045500392464655787 0 0.004026168305233749 0.045085941548564032 0 0.0039677585312113076 0.04540592704492822 0 -0.0010368211878072427 0.053282369325734422 0 0.0018253451588117931 0.05433180388083815 0 0.0013165285768655304 0.058953604534074729 0 4.6358697636791732e-05 0.058416431661367015 0 0.0020035283717508689 0.058177588285262892 0 3.2173695882990973e-05 0.060723389153304691 0 0.00083075265772880732 0.059488730016615157 0 0.0013205630418246656 0.058953916152815318 0 0.0016285895997223685 0.054639311686915201 0 0.0018253451588117931 0.05433180388083815 0 0.0030788854708732731 0.047413733755877062 0 0.0031099471015207823 0.046044535480460301 0 0.0024355439111307894 0.045966952648785607 0 0.0018253451588117931 0.05433180388083815 0 0.0032568871291518918 0.054551500430625684 0 0.0031099471015207823 0.046044535480460301 0 0.0024355439111307894 0.045966952648785607 0 0.0032521234599097175 0.04532988098854316 0 0.00083075265772880732 0.059488730016615157 0 0.0013165285768655304 0.058953604534074729 0 4.6358697636791732e-05 0.058416431661367015 0 0.00083075265772880732 0.059488730016615157 0 4.6358697636791732e-05 0.058416431661367015 0 -1.1095133679195966e-05 0.059561376586389103 0 4.6358697636791732e-05 0.058416431661367015 0 -1.1095133679195966e-05 0.059561376586389103 0 -0.00095239955512765797 0.05961369964599899 0 0.001690533669951028 0.056168678869309298 0 0.0015807628434614503 0.055595710970362762 0 0.00017905899666922421 0.056344300245228664 0 0.001690533669951028 0.056168678869309298 0 0.0015807628434614503 0.055595710970362762 0 0.0025027058329661137 0.05560718008328349 0 0.0009192729101377609 0.057617627652221212 0 0.0011392223530394359 0.056169561647415198 0 -0.00023407779349946737 0.057074959706569901 0 0.0015807628434614503 0.055595710970362762 0 0.0025027058329661137 0.05560718008328349 0 0.0029746766041178745 0.054853461584939679 0 0.0014044044083673689 0.056385917180941755 0 0.00364949885849947 0.055388407381555517 0 0.001690533669951028 0.056168678869309298 0 0.0031930960392170349 0.05599330838239136 0 0.0025027058329661137 0.05560718008328349 0 0.0009192729101377609 0.057617627652221212 0 0.0029965196080476335 0.056532245244600092 0 0.0025983852473587701 0.056164068884124757 0 0.0011063559685161261 0.056082898111941636 0 0.0032568871291518918 0.054551500430625684 0 0.0031930960392170349 0.05599330838239136 0 0.0025027058329661137 0.05560718008328349 0 0.0030806772757874293 0.055483668679393396 0 0.0025027058329661137 0.05560718008328349 0 0.0030806772757874293 0.055483668679393396 0 0.0029746766041178745 0.054853461584939679 0 0.0036514192315071142 0.055480703503434849 0 0.0030806772757874293 0.055483668679393396 0 0.0029746766041178745 0.054853461584939679 0 0.002998051188358517 0.056533193549906942 0 0.0025983852473587701 0.056164068884124757 0 0.0027677402509219055 0.054999985597619705 0 0.00364949885849947 0.055388407381555517 0 0.003639295896664476 0.055395903157430662 0 0.0025983852473587701 0.056164068884124757 0 0.0027677402509219055 0.054999985597619705 0 0.0011392223530394359 0.056169561647415198 0 0.0011392223530394359 0.056169561647415198 0 -0.00035613464904779736 0.054999963707878366 0 -0.00023407779349946737 0.057074959706569901 0 0.0027677402509219055 0.054999985597619705 0 0.0011392223530394359 0.056169561647415198 0 -0.00035613464904779736 0.054999963707878366 0 0.0009192729101377609 0.057617627652221212 0 0.0025983852473587701 0.056164068884124757 0 0.0011392223530394359 0.056169561647415198 0 -0.00035613464904779736 0.054999963707878366 0 -0.0016422588208179179 0.056508732568841154 0 -0.00023407779349946737 0.057074959706569901 0 -0.0016422588208179179 0.056508732568841154 0 -0.0028810746360765508 0.057638330272901772 0 -0.00348003544466737 0.054999956597391118 0 -0.00035613464904779736 0.054999963707878366 0 -0.0016422588208179179 0.056508732568841154 0 -0.00348003544466737 0.054999956597391118 0 -0.0016422588208179179 0.056508732568841154 0 -0.0028810746360765508 0.057638330272901772 0 -0.001547368257875925 0.057803267538377417 0 -0.0028810746360765508 0.057638330272901772 0 -0.0020591738887191387 0.058271481551321606 0 -0.001547368257875925 0.057803267538377417 0 0.0009192729101377609 0.057617627652221212 0 -0.00023407779349946737 0.057074959706569901 0 -0.0011894715529127185 0.058691793994451867 0 -0.001547368257875925 0.057803267538377417 0 -0.00023407779349946737 0.057074959706569901 0 -0.0011894715529127185 0.058691793994451867 0 -0.0020591738887191387 0.058271481551321606 0 -0.001547368257875925 0.057803267538377417 0 -0.0011894715529127185 0.058691793994451867 0 0.0014044044083673689 0.056385917180941755 0 -0.00046994699598103468 0.057133186978665096 0 -0.0016422588208179179 0.056508732568841154 0 -0.001547368257875925 0.057803267538377417 0 -0.00023407779349946737 0.057074959706569901 0 -0.0066037586524898533 0.054999996749374856 0 -0.0048907066199809796 0.057347822290821138 0 -0.0070001249624747318 0.057087274522514608 0 -0.0028810746360765508 0.057638330272901772 0 -0.00348003544466737 0.054999956597391118 0 -0.0048907066199809796 0.057347822290821138 0 -0.0066037586524898533 0.054999996749374856 0 -0.00348003544466737 0.054999956597391118 0 -0.0048907066199809796 0.057347822290821138 0 -0.0028810746360765508 0.057638330272901772 0 -0.0048907066199809796 0.057347822290821138 0 -0.0041606782398435219 0.058793295480064144 0 -0.0048907066199809796 0.057347822290821138 0 -0.0055379327227594336 0.059123053435579623 0 -0.0070001249624747318 0.057087274522514608 0 -0.0055379327227594336 0.059123053435579623 0 -0.0070450091369172749 0.059147492834243677 0 -0.0070001249624747318 0.057087274522514608 0 -0.0055379327227594336 0.059123053435579623 0 -0.0052152132464745836 0.06087466263856009 0 -0.0070450091369172749 0.059147492834243677 0 -0.0048907066199809796 0.057347822290821138 0 -0.0055379327227594336 0.059123053435579623 0 -0.0041606782398435219 0.058793295480064144 0 -0.0055379327227594336 0.059123053435579623 0 -0.0041606782398435219 0.058793295480064144 0 -0.0045037245732954118 0.060146665511017751 0 -0.0041606782398435219 0.058793295480064144 0 -0.0045037245732954118 0.060146665511017751 0 -0.0028259062842191595 0.059467199033228758 0 -0.0027785739624736202 0.058648025458090058 0 -0.0021328464381675377 0.058238666585980599 0 -0.0055379327227594336 0.059123053435579623 0 -0.0045037245732954118 0.060146665511017751 0 -0.0052152132464745836 0.06087466263856009 0 -0.0045037245732954118 0.060146665511017751 0 -0.0042639464539026579 0.061089624388011195 0 -0.0031299137345244194 0.060577921567032129 0 -0.0045037245732954118 0.060146665511017751 0 -0.0042639464539026579 0.061089624388011195 0 -0.0052152132464745836 0.06087466263856009 0 -0.0042639464539026579 0.061089624388011195 0 -0.0052152132464745836 0.06087466263856009 0 -0.0052012773641131804 0.061898270646978233 0 -0.0052152132464745836 0.06087466263856009 0 -0.0070259196889489025 0.060857339494444704 0 -0.0072774170257831807 0.058978722833345598 0 -0.0052152132464745836 0.06087466263856009 0 -0.0070259196889489025 0.060857339494444704 0 -0.006496521421918768 0.06195030821385035 0 -0.0064228518482851351 0.05978421957686484 0 -0.0073771116541579375 0.058885579442883182 0 4.6358697636791732e-05 0.058416431661367015 0 -0.00095239955512765797 0.05961369964599899 0 -0.0018856902352805413 0.058662331128432617 0 0.0011063559685161261 0.056082898111941636 0 -0.00046994699598103468 0.057133186978665096 0 -0.0022498193671175526 0.059608504064614508 0 -0.00095239955512765797 0.05961369964599899 0 -0.0018856902352805413 0.058662331128432617 0 -0.0020591738887191387 0.058271481551321606 0 -0.0011894715529127185 0.058691793994451867 0 -0.0028259062842191595 0.059467199033228758 0 -0.00046994699598103468 0.057133186978665096 0 -0.0021328464381675377 0.058238666585980599 0 -0.0028810746360765508 0.057638330272901772 0 -0.0020591738887191387 0.058271481551321606 0 -0.0028259062842191595 0.059467199033228758 0 -0.0028810746360765508 0.057638330272901772 0 -0.0041606782398435219 0.058793295480064144 0 -0.0028259062842191595 0.059467199033228758 0 -0.0022498193671175526 0.059608504064614508 0 -0.0018856902352805413 0.058662331128432617 0 -0.0032205654271117066 0.059409357256144685 0 -0.0022498193671175526 0.059608504064614508 0 -0.0032205654271117066 0.059409357256144685 0 -0.0031299137345244194 0.060577921567032129 0 -0.0045037245732954118 0.060146665511017751 0 -0.0032205654271117066 0.059409357256144685 0 -0.0031299137345244194 0.060577921567032129 0 -0.0042639464539026579 0.061089624388011195 0 -0.0031299137345244194 0.060577921567032129 0 -0.0033561973668172485 0.061544621324008904 0 -0.0031299137345244194 0.060577921567032129 0 -0.0018845682139283966 0.061507463382965366 0 -0.0033561973668172485 0.061544621324008904 0 3.2173695882990973e-05 0.060723389153304691 0 -0.0016526896986056672 0.060427192595997645 0 -0.0018845682139283966 0.061507463382965366 0 -0.0031299137345244194 0.060577921567032129 0 -0.0016526896986056672 0.060427192595997645 0 -0.0018845682139283966 0.061507463382965366 0 -0.0022498193671175526 0.059608504064614508 0 -0.0031299137345244194 0.060577921567032129 0 -0.0016526896986056672 0.060427192595997645 0 -0.0022498193671175526 0.059608504064614508 0 -0.00095239955512765797 0.05961369964599899 0 -0.0016526896986056672 0.060427192595997645 0 3.2173695882990973e-05 0.060723389153304691 0 -0.0018845682139283966 0.061507463382965366 0 -0.0012408501971525154 0.062449254664535332 0 -0.0012408501971525154 0.062449254664535332 0 -0.0024740118003249169 0.063294059416436149 0 -0.0027214695678989599 0.062197814913486964 0 -0.0018845682139283966 0.061507463382965366 0 -0.0012408501971525154 0.062449254664535332 0 -0.0027214695678989599 0.062197814913486964 0 -0.0087426114967377368 0.046535193883078141 0 -0.0091253179670409516 0.046092282093605864 0 -0.0091367992086740252 0.046877245015615257 0 -0.0095633204148158398 0.046967865758148465 0 -0.0099359142973314534 0.047414385771563622 0 -0.0099527444456327802 0.04720766648453853 0 -0.0091253179670409516 0.046092282093605864 0 -0.0097626607350910048 0.047015824985064472 0 -0.0091367992086740252 0.046877245015615257 0 -0.0045592350915193858 0.051758572315779239 0 -0.0063323689283904666 0.050033927954885447 0 -0.0045592350915193858 0.051758572315779239 0 -0.0059737330685207162 0.054631874379675475 0 -0.0097626607350910048 0.047015824985064472 0 -0.0091367992086740252 0.046877245015615257 0 -0.0094264426692788148 0.047310836490020533 0 -0.0087742061501160217 0.047049998756453201 0 -0.0091367992086740252 0.046877245015615257 0 -0.0090506554685028714 0.047322965770118304 0 -0.0036435423022194696 0.064114792142010948 0 -0.0024740118003249169 0.063294059416436149 0 -0.0027214695678989599 0.062197814913486964 0 -0.0069886039996806884 0.057117603562569008 0 -0.0067498519489379702 0.059503355920119828 0 -0.0037768784641681293 0.06440963040028197 0 -0.0038619838053760504 0.06309105400023432 0 -0.0027214695678989599 0.062197814913486964 0 -0.0099359142973314534 0.047414385771563622 0 -0.010361672064051959 0.047450547634690275 0 -0.0099527444456327802 0.04720766648453853 0 -0.0069886039996806884 0.057117603562569008 0 -0.0059737330685207162 0.054631874379675475 0 -0.0038619838053760504 0.06309105400023432 0 -0.0037194558266860074 0.062247031728940395 0 -0.0027214695678989599 0.062197814913486964 0 -0.0018845682139283966 0.061507463382965366 0 -0.0027214695678989599 0.062197814913486964 0 -0.0033561973668172485 0.061544621324008904 0 -0.0037194558266860074 0.062247031728940395 0 -0.0027214695678989599 0.062197814913486964 0 -0.0033561973668172485 0.061544621324008904 0 -0.0037194558266860074 0.062247031728940395 0 -0.0033561973668172485 0.061544621324008904 0 -0.0041502872792163869 0.061848386864616293 0 -0.0042639464539026579 0.061089624388011195 0 -0.0041502872792163869 0.061848386864616293 0 -0.0052012773641131804 0.061898270646978233 0 -0.0041502872792163869 0.061848386864616293 0 -0.0052012773641131804 0.061898270646978233 0 -0.0045143075795788523 0.062567733844776957 0 -0.0042639464539026579 0.061089624388011195 0 -0.0033561973668172485 0.061544621324008904 0 -0.0041502872792163869 0.061848386864616293 0 -0.0052012773641131804 0.061898270646978233 0 -0.0045143075795788523 0.062567733844776957 0 -0.0054085743370711819 0.063063689819307794 0 -0.0037194558266860074 0.062247031728940395 0 -0.0041502872792163869 0.061848386864616293 0 -0.0045143075795788523 0.062567733844776957 0 -0.0038619838053760504 0.06309105400023432 0 -0.0037194558266860074 0.062247031728940395 0 -0.0045143075795788523 0.062567733844776957 0 -0.0052012773641131804 0.061898270646978233 0 -0.006496521421918768 0.06195030821385035 0 -0.0059461931938023958 0.062538444739939913 0 -0.0052152132464745836 0.06087466263856009 0 -0.0052012773641131804 0.061898270646978233 0 -0.006496521421918768 0.06195030821385035 0 -0.0052012773641131804 0.061898270646978233 0 -0.0059461931938023958 0.062538444739939913 0 -0.0054085743370711819 0.063063689819307794 0 -0.006496521421918768 0.06195030821385035 0 -0.0066731197129840424 0.063232586212226355 0 -0.0079183263393033509 0.062005184139858678 0 -0.006496521421918768 0.06195030821385035 0 -0.0059461931938023958 0.062538444739939913 0 -0.0066731197129840424 0.063232586212226355 0 -0.0066731197129840424 0.063232586212226355 0 -0.0056602540643654912 0.064248049243671251 0 -0.0069367607840438508 0.065091015875115968 0 -0.0059461931938023958 0.062538444739939913 0 -0.0066731197129840424 0.063232586212226355 0 -0.0054085743370711819 0.063063689819307794 0 -0.0066731197129840424 0.063232586212226355 0 -0.0056602540643654912 0.064248049243671251 0 -0.0054085743370711819 0.063063689819307794 0 -0.0038619838053760504 0.06309105400023432 0 -0.0045143075795788523 0.062567733844776957 0 -0.0045984365890864584 0.063854328244701899 0 -0.0045143075795788523 0.062567733844776957 0 -0.0054085743370711819 0.063063689819307794 0 -0.0045984365890864584 0.063854328244701899 0 -0.0056602540643654912 0.064248049243671251 0 -0.0045984365890864584 0.063854328244701899 0 -0.0049811313722497542 0.064499105260909517 0 -0.0056602540643654912 0.064248049243671251 0 -0.0054085743370711819 0.063063689819307794 0 -0.0045984365890864584 0.063854328244701899 0 -0.0045984365890864584 0.063854328244701899 0 -0.0043337607717922663 0.0647927840704174 0 -0.0049811313722497542 0.064499105260909517 0 -0.0037768784641681293 0.06440963040028197 0 -0.0045984365890864584 0.063854328244701899 0 -0.0043337607717922663 0.0647927840704174 0 -0.0037768784641681293 0.06440963040028197 0 -0.0038619838053760504 0.06309105400023432 0 -0.0045984365890864584 0.063854328244701899 0 -0.0069886039996806884 0.057117603562569008 0 -0.0070244326780527404 0.057310238949141529 0 -0.0069886039996806884 0.057117603562569008 0 -0.0099259187323398525 0.055096848034313473 0 -0.010361672064051959 0.047450547634690275 0 -0.010717351805027116 0.048010461934789063 0 -0.010327630973518858 0.047903995304431908 0 -0.0037957736236744377 0.06440833931753448 0 -0.0043337607717922663 0.0647927840704174 0 -0.0046807426070499319 0.066186116522168909 0 -0.0043337607717922663 0.0647927840704174 0 -0.0049811313722497542 0.064499105260909517 0 -0.005347765088923314 0.065293113314939741 0 -0.0056602540643654912 0.064248049243671251 0 -0.0049811313722497542 0.064499105260909517 0 -0.005347765088923314 0.065293113314939741 0 -0.0043337607717922663 0.0647927840704174 0 -0.005347765088923314 0.065293113314939741 0 -0.0046807426070499319 0.066186116522168909 0 -0.0056602540643654912 0.064248049243671251 0 -0.005347765088923314 0.065293113314939741 0 -0.0069367607840438508 0.065091015875115968 0 -0.005347765088923314 0.065293113314939741 0 -0.0069367607840438508 0.065091015875115968 0 -0.0061555714166156251 0.066566003768354073 0 -0.0069367607840438508 0.065091015875115968 0 -0.0061555714166156251 0.066566003768354073 0 -0.0075062871566842848 0.066530499205226273 0 -0.0061555714166156251 0.066566003768354073 0 -0.0055574329393432579 0.06795573725730264 0 -0.0067050786649258953 0.068004364227803996 0 -0.0061555714166156251 0.066566003768354073 0 -0.0075062871566842848 0.066530499205226273 0 -0.0067050786649258953 0.068004364227803996 0 -0.010717351805027116 0.048010461934789063 0 -0.010717858664716645 0.048428022805879038 0 -0.011119423362618779 0.048780614375632837 0 -0.0099259187323398525 0.055096848034313473 0 -0.013129600549437194 0.051361371484382946 0 -0.0061555714166156251 0.066566003768354073 0 -0.0046807426070499319 0.066186116522168909 0 -0.0055574329393432579 0.06795573725730264 0 -0.010717351805027116 0.048010461934789063 0 -0.010558600002560172 0.04823515321322009 0 -0.010327630973518858 0.047903995304431908 0 -0.010717351805027116 0.048010461934789063 0 -0.010558600002560172 0.04823515321322009 0 -0.010717858664716645 0.048428022805879038 0 -0.005347765088923314 0.065293113314939741 0 -0.0061555714166156251 0.066566003768354073 0 -0.0046807426070499319 0.066186116522168909 0 -0.010717858664716645 0.048428022805879038 0 -0.01049308263494117 0.0485260535092219 0 -0.011119423362618779 0.048780614375632837 0 -0.010558600002560172 0.04823515321322009 0 -0.01049308263494117 0.0485260535092219 0 -0.010327162854424034 0.048300890335890662 0 -0.010558600002560172 0.04823515321322009 0 -0.010717858664716645 0.048428022805879038 0 -0.01049308263494117 0.0485260535092219 0 -0.01049308263494117 0.0485260535092219 0 -0.010327162854424034 0.048300890335890662 0 -0.010060936569201958 0.048380812361188935 0 -0.010060936569201958 0.048380812361188935 0 -0.0093038478563578532 0.048325027817415295 0 -0.010290108543298241 0.048761177940671974 0 -0.01049308263494117 0.0485260535092219 0 -0.010060936569201958 0.048380812361188935 0 -0.010290108543298241 0.048761177940671974 0 -0.010327162854424034 0.048300890335890662 0 -0.010081909489037292 0.048137800832485998 0 -0.010060936569201958 0.048380812361188935 0 -0.010327162854424034 0.048300890335890662 0 -0.010081909489037292 0.048137800832485998 0 -0.010327630973518858 0.047903995304431908 0 -0.010558600002560172 0.04823515321322009 0 -0.010327162854424034 0.048300890335890662 0 -0.010327630973518858 0.047903995304431908 0 -0.0098684841340933322 0.04790160448446807 0 -0.010081909489037292 0.048137800832485998 0 -0.010327630973518858 0.047903995304431908 0 -0.010081909489037292 0.048137800832485998 0 -0.0098094434748165673 0.048195980636660585 0 -0.010060936569201958 0.048380812361188935 0 -0.0098684841340933322 0.04790160448446807 0 -0.010081909489037292 0.048137800832485998 0 -0.0098094434748165673 0.048195980636660585 0 -0.0098094434748165673 0.048195980636660585 0 -0.010060936569201958 0.048380812361188935 0 -0.0093038478563578532 0.048325027817415295 0 -0.0093038478563578532 0.048325027817415295 0 -0.0090470403393934692 0.048076806554146936 0 -0.0096341580236264102 0.049022062861787653 0 -0.0093038478563578532 0.048325027817415295 0 -0.0090470403393934692 0.048076806554146936 0 -0.0093208518707604063 0.047965250986053608 0 -0.0090470403393934692 0.048076806554146936 0 -0.0093208518707604063 0.047965250986053608 0 -0.0092750824960162598 0.047681436296245584 0 -0.0093038478563578532 0.048325027817415295 0 -0.0093208518707604063 0.047965250986053608 0 -0.009577605864577933 0.048030755187655136 0 -0.0098094434748165673 0.048195980636660585 0 -0.0093038478563578532 0.048325027817415295 0 -0.009577605864577933 0.048030755187655136 0 -0.0093208518707604063 0.047965250986053608 0 -0.009577605864577933 0.048030755187655136 0 -0.00954775656715506 0.04772252237042883 0 -0.0098684841340933322 0.04790160448446807 0 -0.0098094434748165673 0.048195980636660585 0 -0.009577605864577933 0.048030755187655136 0 -0.0098684841340933322 0.04790160448446807 0 -0.00954775656715506 0.04772252237042883 0 -0.0097884469343232378 0.04757330101856521 0 -0.0098684841340933322 0.04790160448446807 0 -0.009577605864577933 0.048030755187655136 0 -0.00954775656715506 0.04772252237042883 0 -0.00954775656715506 0.04772252237042883 0 -0.0092750824960162598 0.047681436296245584 0 -0.0094264426692788148 0.047310836490020533 0 -0.00954775656715506 0.04772252237042883 0 -0.0094264426692788148 0.047310836490020533 0 -0.0097884469343232378 0.04757330101856521 0 -0.0090470403393934692 0.048076806554146936 0 -0.0092750824960162598 0.047681436296245584 0 -0.0090506554685028714 0.047322965770118304 0 -0.0093208518707604063 0.047965250986053608 0 -0.00954775656715506 0.04772252237042883 0 -0.0092750824960162598 0.047681436296245584 0 -0.0091367992086740252 0.046877245015615257 0 -0.0090506554685028714 0.047322965770118304 0 -0.0094264426692788148 0.047310836490020533 0 -0.0092750824960162598 0.047681436296245584 0 -0.0090506554685028714 0.047322965770118304 0 -0.0094264426692788148 0.047310836490020533 0 -0.0097626607350910048 0.047015824985064472 0 -0.0094264426692788148 0.047310836490020533 0 -0.0097884469343232378 0.04757330101856521 0 -0.0063323689283904666 0.050033927954885447 0 -0.007001325172608471 0.049727272485505403 0 -0.0099359142973314534 0.047414385771563622 0 -0.010361672064051959 0.047450547634690275 0 -0.010327630973518858 0.047903995304431908 0 -0.0097626607350910048 0.047015824985064472 0 -0.010327630973518858 0.047903995304431908 0 -0.0097884469343232378 0.04757330101856521 0 -0.0098684841340933322 0.04790160448446807 0 -0.010327630973518858 0.047903995304431908 0 -0.0097884469343232378 0.04757330101856521 0 -0.028084516499146239 0.049790832781983978 0 -0.028225021183670526 0.049814146467150718 0 -0.028103697209666361 0.049916436570552475 0 -0.028084516499146239 0.049790832781983978 0 -0.028156099286725491 0.04970251637084859 0 -0.028225021183670526 0.049814146467150718 0 -0.024678856683936767 0.049417255588135797 0 -0.027171276525498455 0.048951545766056898 0 -0.028473918127302576 0.048700800619572999 0 -0.027969497525053524 0.048828867699347966 0 -0.028107218641976954 0.048499284613341104 0 -0.028369604448239036 0.049220324694667965 0 -0.028752073390512469 0.048682440342670844 0 -0.027969497525053524 0.048828867699347966 0 -0.026548430340434061 0.048928261806326957 0 -0.024678856683936767 0.049417255588135797 0 -0.028156099286725491 0.04970251637084859 0 -0.028225021183670526 0.049814146467150718 0 -0.028212047142388785 0.04969584241315677 0 -0.0084622527000026808 0.065545582881518891 0 -0.010152305669595303 0.064974965762282649 0 -0.0091569093572316587 0.067539814467276763 0 -0.024678856683936767 0.049417255588135797 0 -0.018034198911715198 0.052393526320143664 0 -0.018329108526194949 0.056121134973781295 0 -0.018034198911715198 0.052393526320143664 0 -0.0075062871566842848 0.066530499205226273 0 -0.0067050786649258953 0.068004364227803996 0 -0.0091569093572316587 0.067539814467276763 0 -0.0075062871566842848 0.066530499205226273 0 -0.0084622527000026808 0.065545582881518891 0 -0.0091569093572316587 0.067539814467276763 0 -0.0069367607840438508 0.065091015875115968 0 -0.0084622527000026808 0.065545582881518891 0 -0.0083327098196731147 0.063786627862239736 0 -0.0069367607840438508 0.065091015875115968 0 -0.0075062871566842848 0.066530499205226273 0 -0.0084622527000026808 0.065545582881518891 0 -0.0084622527000026808 0.065545582881518891 0 -0.010152305669595303 0.064974965762282649 0 -0.0083327098196731147 0.063786627862239736 0 -0.010152305669595303 0.064974965762282649 0 -0.0083327098196731147 0.063786627862239736 0 -0.0094692733427124611 0.062179737744196655 0 -0.0066731197129840424 0.063232586212226355 0 -0.0083327098196731147 0.063786627862239736 0 -0.0079183263393033509 0.062005184139858678 0 -0.0066731197129840424 0.063232586212226355 0 -0.0069367607840438508 0.065091015875115968 0 -0.0083327098196731147 0.063786627862239736 0 -0.0079183263393033509 0.062005184139858678 0 -0.0094692733427124611 0.062179737744196655 0 -0.0081934296471689681 0.060427860072763413 0 -0.0083327098196731147 0.063786627862239736 0 -0.0079183263393033509 0.062005184139858678 0 -0.0094692733427124611 0.062179737744196655 0 -0.0070259196889489025 0.060857339494444704 0 -0.006496521421918768 0.06195030821385035 0 -0.0079183263393033509 0.062005184139858678 0 -0.0094692733427124611 0.062179737744196655 0 -0.01120019821347871 0.062394017958624037 0 -0.010714560261896294 0.060806976051266295 0 -0.028225021183670526 0.049814146467150718 0 -0.02826331206023058 0.050093489979682118 0 -0.028103697209666361 0.049916436570552475 0 -0.018329108526194949 0.056121134973781295 0 -0.019188331097450551 0.055807267763803979 0 -0.010152305669595303 0.064974965762282649 0 -0.0094692733427124611 0.062179737744196655 0 -0.01120019821347871 0.062394017958624037 0 -0.028084516499146239 0.049790832781983978 0 -0.028103697209666361 0.049916436570552475 0 -0.027907151188647446 0.049864380009439394 0 -0.026548430340434061 0.048928261806326957 0 -0.026887497775664786 0.049045078911515154 0 -0.028103697209666361 0.049916436570552475 0 -0.028025834775110621 0.050078198068454337 0 -0.027907151188647446 0.049864380009439394 0 -0.02826331206023058 0.050093489979682118 0 -0.028103697209666361 0.049916436570552475 0 -0.028025834775110621 0.050078198068454337 0 -0.02826331206023058 0.050093489979682118 0 -0.028025834775110621 0.050078198068454337 0 -0.028025423770924426 0.050333260071005588 0 -0.028025834775110621 0.050078198068454337 0 -0.028025423770924426 0.050333260071005588 0 -0.027813116807347028 0.050244190644587169 0 -0.028025423770924426 0.050333260071005588 0 -0.028172526581047887 0.050668123409464881 0 -0.027818959548647017 0.050581886934427875 0 -0.02826331206023058 0.050093489979682118 0 -0.028025423770924426 0.050333260071005588 0 -0.028172526581047887 0.050668123409464881 0 -0.019858984748073728 0.05437836510408716 0 -0.019989654457058279 0.054309948377697308 0 -0.01120019821347871 0.062394017958624037 0 -0.012010187849026931 0.059930739010163971 0 -0.010714560261896294 0.060806976051266295 0 -0.01120019821347871 0.062394017958624037 0 -0.012010187849026931 0.059930739010163971 0 -0.012303915936114414 0.059799538196447705 0 -0.019188331097450551 0.055807267763803979 0 -0.019989654457058279 0.054309948377697308 0 -0.010714560261896294 0.060806976051266295 0 -0.010569502979029132 0.060063990557266231 0 -0.011284192592355344 0.059853929374711762 0 -0.010714560261896294 0.060806976051266295 0 -0.010569502979029132 0.060063990557266231 0 -0.0097620974129719058 0.060407753627975659 0 -0.012010187849026931 0.059930739010163971 0 -0.010714560261896294 0.060806976051266295 0 -0.011284192592355344 0.059853929374711762 0 -0.012010187849026931 0.059930739010163971 0 -0.011284192592355344 0.059853929374711762 0 -0.011999915664436126 0.059516881498137129 0 -0.011284192592355344 0.059853929374711762 0 -0.011518045015770143 0.059071564286026924 0 -0.011999915664436126 0.059516881498137129 0 -0.011284192592355344 0.059853929374711762 0 -0.011518045015770143 0.059071564286026924 0 -0.010915480661307308 0.059348203666978544 0 -0.011518045015770143 0.059071564286026924 0 -0.012329507419069323 0.058811928471322931 0 -0.011999915664436126 0.059516881498137129 0 -0.010915480661307308 0.059348203666978544 0 -0.010794494689141383 0.058402099160225991 0 -0.010125786257989046 0.059542115054970472 0 -0.010569502979029132 0.060063990557266231 0 -0.010915480661307308 0.059348203666978544 0 -0.010125786257989046 0.059542115054970472 0 -0.010569502979029132 0.060063990557266231 0 -0.011284192592355344 0.059853929374711762 0 -0.010915480661307308 0.059348203666978544 0 -0.011518045015770143 0.059071564286026924 0 -0.010915480661307308 0.059348203666978544 0 -0.010794494689141383 0.058402099160225991 0 -0.011518045015770143 0.059071564286026924 0 -0.010794494689141383 0.058402099160225991 0 -0.011796471485221333 0.058456302294925135 0 -0.011518045015770143 0.059071564286026924 0 -0.011796471485221333 0.058456302294925135 0 -0.012329507419069323 0.058811928471322931 0 -0.019989654457058279 0.054309948377697308 0 -0.021083609566214401 0.054392512202549349 0 -0.012329507419069323 0.058811928471322931 0 -0.012470712612498934 0.059524344971104363 0 -0.013205580248679037 0.058201378922217356 0 -0.011796471485221333 0.058456302294925135 0 -0.012329507419069323 0.058811928471322931 0 -0.012491300865481612 0.058098559856506485 0 -0.012329507419069323 0.058811928471322931 0 -0.013205580248679037 0.058201378922217356 0 -0.012491300865481612 0.058098559856506485 0 -0.012470712612498934 0.059524344971104363 0 -0.012344733471791736 0.059844246581067191 0 -0.014847946935463388 0.058803211266528911 0 -0.012470712612498934 0.059524344971104363 0 -0.013205580248679037 0.058201378922217356 0 -0.014847946935463388 0.058803211266528911 0 -0.012010187849026931 0.059930739010163971 0 -0.011999915664436126 0.059516881498137129 0 -0.012328412570135889 0.059815232251575347 0 -0.012470712612498934 0.059524344971104363 0 -0.011999915664436126 0.059516881498137129 0 -0.012328412570135889 0.059815232251575347 0 -0.019924957188338411 0.054420112463485736 0 -0.019989654457058279 0.054309948377697308 0 -0.012329507419069323 0.058811928471322931 0 -0.012470712612498934 0.059524344971104363 0 -0.011999915664436126 0.059516881498137129 0 -0.0070259196889489025 0.060857339494444704 0 -0.0081934296471689681 0.060427860072763413 0 -0.0072774170257831807 0.058978722833345598 0 -0.0070259196889489025 0.060857339494444704 0 -0.0079183263393033509 0.062005184139858678 0 -0.0081934296471689681 0.060427860072763413 0 -0.0094692733427124611 0.062179737744196655 0 -0.010714560261896294 0.060806976051266295 0 -0.0097620974129719058 0.060407753627975659 0 -0.0094692733427124611 0.062179737744196655 0 -0.0081934296471689681 0.060427860072763413 0 -0.0097620974129719058 0.060407753627975659 0 -0.0081934296471689681 0.060427860072763413 0 -0.0097620974129719058 0.060407753627975659 0 -0.0091875883011993849 0.059066706363536371 0 -0.010569502979029132 0.060063990557266231 0 -0.0097620974129719058 0.060407753627975659 0 -0.010125786257989046 0.059542115054970472 0 -0.0097620974129719058 0.060407753627975659 0 -0.010125786257989046 0.059542115054970472 0 -0.0091875883011993849 0.059066706363536371 0 -0.010794494689141383 0.058402099160225991 0 -0.010125786257989046 0.059542115054970472 0 -0.0091875883011993849 0.059066706363536371 0 -0.0091875883011993849 0.059066706363536371 0 -0.0072774170257831807 0.058978722833345598 0 -0.0092632427566695843 0.057155772941394997 0 -0.0081934296471689681 0.060427860072763413 0 -0.0091875883011993849 0.059066706363536371 0 -0.0072774170257831807 0.058978722833345598 0 -0.0070450091369172749 0.059147492834243677 0 -0.0070001249624747318 0.057087274522514608 0 -0.009132600108537928 0.057252787098297196 0 -0.0073771116541579375 0.058885579442883182 0 -0.0090072106651883366 0.057353763976434546 0 -0.010794494689141383 0.058402099160225991 0 -0.0091875883011993849 0.059066706363536371 0 -0.0092632427566695843 0.057155772941394997 0 -0.0070001249624747318 0.057087274522514608 0 -0.009132600108537928 0.057252787098297196 0 -0.0097275636850627789 0.054999980275727223 0 -0.0090072106651883366 0.057353763976434546 0 -0.0099874096412022172 0.056429208994341985 0 -0.009132600108537928 0.057252787098297196 0 -0.0097275636850627789 0.054999980275727223 0 -0.011245423853797296 0.05528267706400064 0 -0.0066037586524898533 0.054999996749374856 0 -0.0070001249624747318 0.057087274522514608 0 -0.0097275636850627789 0.054999980275727223 0 -0.012812772645063746 0.057284046738839453 0 -0.012286389447307273 0.056224562175310841 0 -0.014295722922878751 0.056666545917118991 0 -0.012812772645063746 0.057284046738839453 0 -0.011866086114215472 0.057602163975509123 0 -0.012286389447307273 0.056224562175310841 0 -0.012812772645063746 0.057284046738839453 0 -0.013205580248679037 0.058201378922217356 0 -0.014295722922878751 0.056666545917118991 0 -0.012812772645063746 0.057284046738839453 0 -0.012491300865481612 0.058098559856506485 0 -0.011866086114215472 0.057602163975509123 0 -0.011796471485221333 0.058456302294925135 0 -0.012491300865481612 0.058098559856506485 0 -0.011866086114215472 0.057602163975509123 0 -0.012812772645063746 0.057284046738839453 0 -0.013205580248679037 0.058201378922217356 0 -0.012491300865481612 0.058098559856506485 0 -0.010794494689141383 0.058402099160225991 0 -0.011866086114215472 0.057602163975509123 0 -0.011081109184254867 0.056919110883647123 0 -0.010794494689141383 0.058402099160225991 0 -0.0092632427566695843 0.057155772941394997 0 -0.011081109184254867 0.056919110883647123 0 -0.010794494689141383 0.058402099160225991 0 -0.011796471485221333 0.058456302294925135 0 -0.011866086114215472 0.057602163975509123 0 -0.011866086114215472 0.057602163975509123 0 -0.011081109184254867 0.056919110883647123 0 -0.012286389447307273 0.056224562175310841 0 -0.011081109184254867 0.056919110883647123 0 -0.011245423853797296 0.05528267706400064 0 -0.012286389447307273 0.056224562175310841 0 -0.0092632427566695843 0.057155772941394997 0 -0.011081109184254867 0.056919110883647123 0 -0.011245423853797296 0.05528267706400064 0 -0.0097275636850627789 0.054999980275727223 0 -0.011245423853797296 0.05528267706400064 0 -0.012851413357433379 0.054999945356906291 0 -0.011245423853797296 0.05528267706400064 0 -0.012851413357433379 0.054999945356906291 0 -0.012286389447307273 0.056224562175310841 0 -0.012851413357433379 0.054999945356906291 0 -0.012286389447307273 0.056224562175310841 0 -0.014295722922878751 0.056666545917118991 0 -0.012851413357433379 0.054999945356906291 0 -0.014295722922878751 0.056666545917118991 0 -0.01597520194621407 0.054999936446288006 0 -0.013205580248679037 0.058201378922217356 0 -0.014295722922878751 0.056666545917118991 0 -0.014847946935463388 0.058803211266528911 0 -0.014295722922878751 0.056666545917118991 0 -0.017342385686092802 0.057707382556367169 0 -0.014847946935463388 0.058803211266528911 0 -0.022193129121819331 0.054159466241636027 0 -0.021083609566214401 0.054392512202549349 0 -0.014295722922878751 0.056666545917118991 0 -0.01597520194621407 0.054999936446288006 0 -0.017342385686092802 0.057707382556367169 0 -0.01597520194621407 0.054999936446288006 0 -0.019099048463773558 0.055000004193263612 0 -0.017342385686092802 0.057707382556367169 0 -0.019101736998991863 0.055001847454909908 0 -0.022193129121819331 0.054159466241636027 0 -0.019099183423946439 0.05500003455949868 0 -0.019194959033682627 0.055830834522461542 0 -0.017544516181504516 0.057580852081222551 0 -0.02298150806487443 0.054742103727860661 0 -0.022911810832735382 0.055055956610320478 0 -0.020115055858281054 0.055672734821639779 0 -0.019099183423946439 0.05500003455949868 0 -0.021206578082745842 0.05499995909741609 0 -0.020115055858281054 0.055672734821639779 0 -0.019410891360339477 0.056776294678468488 0 -0.021354610617761761 0.055901161731293843 0 -0.020115055858281054 0.055672734821639779 0 -0.019099183423946439 0.05500003455949868 0 -0.019194959033682627 0.055830834522461542 0 -0.022878212359655599 0.054828166951675063 0 -0.02298150806487443 0.054742103727860661 0 -0.020115055858281054 0.055672734821639779 0 -0.019194959033682627 0.055830834522461542 0 -0.019410891360339477 0.056776294678468488 0 -0.024203697775268158 0.055507769927880389 0 -0.024352986452253506 0.055355478925547076 0 -0.024173226305173767 0.055470957874393378 0 -0.02298150806487443 0.054742103727860661 0 -0.024599843166379566 0.0532664443302499 0 -0.019194959033682627 0.055830834522461542 0 -0.019399893762182718 0.056699825651838065 0 -0.017544516181504516 0.057580852081222551 0 -0.02298150806487443 0.054742103727860661 0 -0.022193129121819331 0.054159466241636027 0 -0.026379179147793912 0.051996930050016252 0 -0.027007184089930872 0.051700265381362132 0 -0.026811576309608624 0.051100354360208711 0 -0.026379179147793912 0.051996930050016252 0 -0.026811576309608624 0.051100354360208711 0 -0.02618132194822034 0.051060249267879838 0 -0.02618132194822034 0.051060249267879838 0 -0.026476488221160496 0.050524974852633374 0 -0.025982525512459304 0.050144764536671695 0 -0.024599843166379566 0.0532664443302499 0 -0.025706425194553153 0.051661556083136412 0 -0.026811576309608624 0.051100354360208711 0 -0.02618132194822034 0.051060249267879838 0 -0.026476488221160496 0.050524974852633374 0 -0.026811576309608624 0.051100354360208711 0 -0.026476488221160496 0.050524974852633374 0 -0.026972988449033886 0.050487051878630063 0 -0.026972988449033886 0.050487051878630063 0 -0.027429731943841296 0.050440784489520843 0 -0.027449628507312623 0.050972890171966906 0 -0.026811576309608624 0.051100354360208711 0 -0.026972988449033886 0.050487051878630063 0 -0.027449628507312623 0.050972890171966906 0 -0.025480623251069298 0.051051701923443965 0 -0.026269707088886748 0.050400373506932224 0 -0.028025423770924426 0.050333260071005588 0 -0.027818959548647017 0.050581886934427875 0 -0.027813116807347028 0.050244190644587169 0 -0.027429731943841296 0.050440784489520843 0 -0.027449628507312623 0.050972890171966906 0 -0.027813116807347028 0.050244190644587169 0 -0.027818959548647017 0.050581886934427875 0 -0.027419399937958042 0.050696340108783121 0 -0.027813116807347028 0.050244190644587169 0 -0.028172526581047887 0.050668123409464881 0 -0.027818959548647017 0.050581886934427875 0 -0.02766779602883335 0.05097265673705545 0 -0.027818959548647017 0.050581886934427875 0 -0.02766779602883335 0.05097265673705545 0 -0.027419399937958042 0.050696340108783121 0 -0.027007184089930872 0.051700265381362132 0 -0.026811576309608624 0.051100354360208711 0 -0.027449628507312623 0.050972890171966906 0 -0.027029135318712687 0.051294230201317008 0 -0.02766779602883335 0.05097265673705545 0 -0.027419399937958042 0.050696340108783121 0 -0.022193129121819331 0.054159466241636027 0 -0.025480623251069298 0.051051701923443965 0 -0.024783205468325225 0.0555987802386518 0 -0.024922469394241972 0.05567761230386914 0 -0.02491824917915483 0.055325715942987415 0 -0.024686587104098445 0.055719996427403461 0 -0.024922469394241972 0.05567761230386914 0 -0.02511709299120729 0.055928781373332188 0 -0.024686587104098445 0.055719996427403461 0 -0.024783205468325225 0.0555987802386518 0 -0.024922469394241972 0.05567761230386914 0 -0.026077134536942388 0.055699909600712486 0 -0.027145912751488973 0.055757688162991238 0 -0.026189551536078048 0.05499927867975022 0 -0.024815193878254486 0.055655348516227353 0 -0.028002606108283187 0.05618593245367888 0 -0.024783205468325225 0.0555987802386518 0 -0.024815193878254486 0.055655348516227353 0 -0.02491824917915483 0.055325715942987415 0 -0.026189551536078048 0.05499927867975022 0 -0.024815193878254486 0.055655348516227353 0 -0.023317220836400462 0.055000632876458545 0 -0.024815193878254486 0.055655348516227353 0 -0.024412620214461684 0.055668961497270429 0 -0.023883813873411999 0.055512177810315165 0 -0.024783205468325225 0.0555987802386518 0 -0.024815193878254486 0.055655348516227353 0 -0.024412620214461684 0.055668961497270429 0 -0.024686587104098445 0.055719996427403461 0 -0.024783205468325225 0.0555987802386518 0 -0.024412620214461684 0.055668961497270429 0 -0.024686587104098445 0.055719996427403461 0 -0.024412620214461684 0.055668961497270429 0 -0.024349445999376763 0.055687256031962257 0 -0.024412620214461684 0.055668961497270429 0 -0.024116300379411579 0.055563464042228179 0 -0.024349445999376763 0.055687256031962257 0 -0.024116300379411579 0.055563464042228179 0 -0.023883813873411999 0.055512177810315165 0 -0.023948642025208439 0.055486684366880104 0 -0.024412620214461684 0.055668961497270429 0 -0.024116300379411579 0.055563464042228179 0 -0.023883813873411999 0.055512177810315165 0 -0.024815193878254486 0.055655348516227353 0 -0.023317220836400462 0.055000632876458545 0 -0.023883813873411999 0.055512177810315165 0 -0.023317220836400462 0.055000632876458545 0 -0.023883813873411999 0.055512177810315165 0 -0.023948642025208439 0.055486684366880104 0 -0.023313642515641202 0.05499996887391697 0 -0.022911810832735382 0.055055956610320478 0 -0.023314158787402898 0.055000017881285133 0 -0.021206578082745842 0.05499995909741609 0 -0.021354610617761761 0.055901161731293843 0 -0.020115055858281054 0.055672734821639779 0 -0.021206578082745842 0.05499995909741609 0 -0.021354610617761761 0.055901161731293843 0 -0.024203697775268158 0.055507769927880389 0 -0.023948642025208439 0.055486684366880104 0 -0.024173226305173767 0.055470957874393378 0 -0.024116300379411579 0.055563464042228179 0 -0.023948642025208439 0.055486684366880104 0 -0.024173226305173767 0.055470957874393378 0 -0.024116300379411579 0.055563464042228179 0 -0.024173226305173767 0.055470957874393378 0 -0.024300371493072792 0.055402118097578543 0 -0.024352986452253506 0.055355478925547076 0 -0.024173226305173767 0.055470957874393378 0 -0.024300371493072792 0.055402118097578543 0 -0.024352986452253506 0.055355478925547076 0 -0.024404110195150871 0.055110091661658582 0 -0.024436930312699449 0.055119921509908701 0 -0.024352986452253506 0.055355478925547076 0 -0.024300371493072792 0.055402118097578543 0 -0.024404110195150871 0.055110091661658582 0 -0.024534067835327703 0.053055191830120169 0 -0.024911317170816495 0.052692815834596965 0 -0.024409718881780861 0.055245340015054399 0 -0.024303524108103821 0.054605714885261537 0 -0.024404110195150871 0.055110091661658582 0 -0.024409718881780861 0.055245340015054399 0 -0.024300371493072792 0.055402118097578543 0 -0.024404110195150871 0.055110091661658582 0 -0.024409718881780861 0.055245340015054399 0 -0.024280031432149168 0.055584113416462903 0 -0.024232820162054594 0.055754897846049638 0 -0.024409718881780861 0.055245340015054399 0 -0.024300371493072792 0.055402118097578543 0 -0.024280031432149168 0.055584113416462903 0 -0.024116300379411579 0.055563464042228179 0 -0.024300371493072792 0.055402118097578543 0 -0.024280031432149168 0.055584113416462903 0 -0.024116300379411579 0.055563464042228179 0 -0.024280031432149168 0.055584113416462903 0 -0.024349445999376763 0.055687256031962257 0 -0.024686587104098445 0.055719996427403461 0 -0.024349445999376763 0.055687256031962257 0 -0.024783713568878502 0.055956202325866122 0 -0.024349445999376763 0.055687256031962257 0 -0.024232820162054594 0.055754897846049638 0 -0.024783713568878502 0.055956202325866122 0 -0.024280031432149168 0.055584113416462903 0 -0.024349445999376763 0.055687256031962257 0 -0.024232820162054594 0.055754897846049638 0 -0.024409718881780861 0.055245340015054399 0 -0.024232820162054594 0.055754897846049638 0 -0.024303524108103821 0.054605714885261537 0 -0.024303524108103821 0.054605714885261537 0 -0.022673298490424997 0.054169071471928301 0 -0.023633960498492427 0.053275879963666714 0 -0.024231573196145464 0.055152757301991769 0 -0.024058631514952303 0.054853521579054779 0 -0.024232820162054594 0.055754897846049638 0 -0.024303524108103821 0.054605714885261537 0 -0.022673298490424997 0.054169071471928301 0 -0.024863928642896747 0.056564119936051011 0 -0.025066372885479218 0.056295091698121455 0 -0.025297639903370306 0.056459739340579809 0 -0.024863928642896747 0.056564119936051011 0 -0.025066372885479218 0.056295091698121455 0 -0.024783713568878502 0.055956202325866122 0 -0.024232820162054594 0.055754897846049638 0 -0.024863928642896747 0.056564119936051011 0 -0.024783713568878502 0.055956202325866122 0 -0.025066372885479218 0.056295091698121455 0 -0.024783713568878502 0.055956202325866122 0 -0.025256581290902382 0.056162922680623228 0 -0.024783713568878502 0.055956202325866122 0 -0.02511709299120729 0.055928781373332188 0 -0.025256581290902382 0.056162922680623228 0 -0.024686587104098445 0.055719996427403461 0 -0.024783713568878502 0.055956202325866122 0 -0.02511709299120729 0.055928781373332188 0 -0.022960605033748402 0.051959131495266209 0 -0.022976226892729303 0.050149144229875112 0 -0.021715334868170542 0.050506141576457463 0 -0.022960605033748402 0.051959131495266209 0 -0.02418715761030622 0.050602758175272898 0 -0.022976226892729303 0.050149144229875112 0 -0.022673298490424997 0.054169071471928301 0 -0.022960605033748402 0.051959131495266209 0 -0.021376355106482163 0.052315074140540291 0 -0.022673298490424997 0.054169071471928301 0 -0.022960605033748402 0.051959131495266209 0 -0.023633960498492427 0.053275879963666714 0 -0.022960605033748402 0.051959131495266209 0 -0.023633960498492427 0.053275879963666714 0 -0.024645989544845044 0.052413686166923587 0 -0.024303524108103821 0.054605714885261537 0 -0.023633960498492427 0.053275879963666714 0 -0.024645989544845044 0.052413686166923587 0 -0.022960605033748402 0.051959131495266209 0 -0.024645989544845044 0.052413686166923587 0 -0.02418715761030622 0.050602758175272898 0 -0.024645989544845044 0.052413686166923587 0 -0.025654670532226011 0.050753269081415427 0 -0.02418715761030622 0.050602758175272898 0 -0.024645989544845044 0.052413686166923587 0 -0.025654670532226011 0.050753269081415427 0 -0.026359527385393412 0.052160992292690271 0 -0.024303524108103821 0.054605714885261537 0 -0.024645989544845044 0.052413686166923587 0 -0.026057960324972505 0.053624191685485462 0 -0.024645989544845044 0.052413686166923587 0 -0.026057960324972505 0.053624191685485462 0 -0.026359527385393412 0.052160992292690271 0 -0.026057960324972505 0.053624191685485462 0 -0.027660677711138806 0.052885755748401882 0 -0.026359527385393412 0.052160992292690271 0 -0.024911317170816495 0.052692815834596965 0 -0.025706425194553153 0.051661556083136412 0 -0.025706425194553153 0.051661556083136412 0 -0.025936768353276476 0.050761721426490714 0 -0.027660677711138806 0.052885755748401882 0 -0.026359527385393412 0.052160992292690271 0 -0.027118750003087895 0.050973015369172814 0 -0.025654670532226011 0.050753269081415427 0 -0.026359527385393412 0.052160992292690271 0 -0.027118750003087895 0.050973015369172814 0 -0.025654670532226011 0.050753269081415427 0 -0.027118750003087895 0.050973015369172814 0 -0.026344924734949319 0.049121418452031732 0 -0.025936768353276476 0.050761721426490714 0 -0.025950989808324033 0.050299302279557326 0 -0.026493295157303431 0.04952863757238922 0 -0.026344924734949319 0.049121418452031732 0 -0.026870928778615483 0.049198205416789556 0 -0.025184961880640767 0.049360358560144896 0 -0.023984899133101034 0.048801807027356869 0 -0.025655546008750901 0.047515526314503252 0 -0.026344924734949319 0.049121418452031732 0 -0.025184961880640767 0.049360358560144896 0 -0.025655546008750901 0.047515526314503252 0 -0.025654670532226011 0.050753269081415427 0 -0.025184961880640767 0.049360358560144896 0 -0.02418715761030622 0.050602758175272898 0 -0.025654670532226011 0.050753269081415427 0 -0.026344924734949319 0.049121418452031732 0 -0.025184961880640767 0.049360358560144896 0 -0.02418715761030622 0.050602758175272898 0 -0.023984899133101034 0.048801807027356869 0 -0.022976226892729303 0.050149144229875112 0 -0.025184961880640767 0.049360358560144896 0 -0.02418715761030622 0.050602758175272898 0 -0.023984899133101034 0.048801807027356869 0 -0.022979635992341371 0.048078727104332711 0 -0.022307422830449133 0.048989442471785591 0 -0.022207284344200488 0.04712724526080752 0 -0.023984899133101034 0.048801807027356869 0 -0.022979635992341371 0.048078727104332711 0 -0.022307422830449133 0.048989442471785591 0 -0.023984899133101034 0.048801807027356869 0 -0.022307422830449133 0.048989442471785591 0 -0.022976226892729303 0.050149144229875112 0 -0.022307422830449133 0.048989442471785591 0 -0.022976226892729303 0.050149144229875112 0 -0.021715334868170542 0.050506141576457463 0 -0.02765803738420574 0.049542030015118893 0 -0.027455653351477531 0.050081065342243943 0 -0.02679824093165295 0.049830393527815028 0 -0.027348469509925713 0.050223284298113194 0 -0.026943836986982207 0.050553104515612513 0 -0.02765803738420574 0.049542030015118893 0 -0.02717685723438246 0.049727188723264017 0 -0.027333756630940884 0.049287790355685687 0 -0.02765803738420574 0.049542030015118893 0 -0.027907151188647446 0.049864380009439394 0 -0.027896345903901637 0.049288433863445898 0 -0.02765803738420574 0.049542030015118893 0 -0.027907151188647446 0.049864380009439394 0 -0.027455653351477531 0.050081065342243943 0 -0.027907151188647446 0.049864380009439394 0 -0.027813116807347028 0.050244190644587169 0 -0.027455653351477531 0.050081065342243943 0 -0.028025834775110621 0.050078198068454337 0 -0.027907151188647446 0.049864380009439394 0 -0.027813116807347028 0.050244190644587169 0 -0.027429731943841296 0.050440784489520843 0 -0.027813116807347028 0.050244190644587169 0 -0.027455653351477531 0.050081065342243943 0 -0.026972988449033886 0.050487051878630063 0 -0.027429731943841296 0.050440784489520843 0 -0.027455653351477531 0.050081065342243943 0 -0.026972988449033886 0.050487051878630063 0 -0.027455653351477531 0.050081065342243943 0 -0.02679824093165295 0.049830393527815028 0 -0.026476488221160496 0.050524974852633374 0 -0.026972988449033886 0.050487051878630063 0 -0.02679824093165295 0.049830393527815028 0 -0.025706425194553153 0.051661556083136412 0 -0.026943836986982207 0.050553104515612513 0 -0.026476488221160496 0.050524974852633374 0 -0.025982525512459304 0.050144764536671695 0 -0.02679824093165295 0.049830393527815028 0 -0.026493295157303431 0.04952863757238922 0 -0.02717685723438246 0.049727188723264017 0 -0.026870928778615483 0.049198205416789556 0 -0.026598787336731673 0.049973823989379433 0 -0.026493295157303431 0.04952863757238922 0 -0.02717685723438246 0.049727188723264017 0 -0.027333756630940884 0.049287790355685687 0 -0.026870928778615483 0.049198205416789556 0 -0.027298406882294471 0.048842755469581882 0 -0.02717685723438246 0.049727188723264017 0 -0.027333756630940884 0.049287790355685687 0 -0.026870928778615483 0.049198205416789556 0 -0.026870928778615483 0.049198205416789556 0 -0.027298406882294471 0.048842755469581882 0 -0.026931375219916502 0.048112126751046785 0 -0.026344924734949319 0.049121418452031732 0 -0.026870928778615483 0.049198205416789556 0 -0.026931375219916502 0.048112126751046785 0 -0.027632328147029536 0.049076148723154592 0 -0.027969497525053524 0.048828867699347966 0 -0.027540582460649502 0.048391843555823523 0 -0.027298406882294471 0.048842755469581882 0 -0.027632328147029536 0.049076148723154592 0 -0.027540582460649502 0.048391843555823523 0 -0.027333756630940884 0.049287790355685687 0 -0.027298406882294471 0.048842755469581882 0 -0.027632328147029536 0.049076148723154592 0 -0.02765803738420574 0.049542030015118893 0 -0.027333756630940884 0.049287790355685687 0 -0.027632328147029536 0.049076148723154592 0 -0.027632328147029536 0.049076148723154592 0 -0.027896345903901637 0.049288433863445898 0 -0.027969497525053524 0.048828867699347966 0 -0.028369604448239036 0.049220324694667965 0 -0.027907151188647446 0.049864380009439394 0 -0.027896345903901637 0.049288433863445898 0 -0.028369604448239036 0.049220324694667965 0 -0.027896345903901637 0.049288433863445898 0 -0.027969497525053524 0.048828867699347966 0 -0.02765803738420574 0.049542030015118893 0 -0.027632328147029536 0.049076148723154592 0 -0.027896345903901637 0.049288433863445898 0 -0.027969497525053524 0.048828867699347966 0 -0.027540582460649502 0.048391843555823523 0 -0.028107218641976954 0.048499284613341104 0 -0.025275615066275917 0.047203059103132772 0 -0.025137452928691472 0.04773130831133348 0 -0.023001176189728873 0.044894767662029919 0 -0.023468108959368617 0.045082799073911356 0 -0.022995980415931098 0.044791811451380073 0 -0.023231803972569541 0.044893154217436955 0 -0.023281568848200051 0.04486674123431824 0 -0.023001176189728873 0.044894767662029919 0 -0.0233373233793422 0.045226217102076451 0 -0.023380222598182669 0.045669861079927446 0 -0.023001176189728873 0.044894767662029919 0 -0.022768877038738665 0.044253639519991686 0 -0.023021485997343008 0.044466054862404465 0 -0.023001176189728873 0.044894767662029919 0 -0.0233373233793422 0.045226217102076451 0 -0.023468108959368617 0.045082799073911356 0 -0.0233373233793422 0.045226217102076451 0 -0.023468108959368617 0.045082799073911356 0 -0.023743615103701227 0.045604715533522841 0 -0.027298406882294471 0.048842755469581882 0 -0.027540582460649502 0.048391843555823523 0 -0.026931375219916502 0.048112126751046785 0 -0.025275615066275917 0.047203059103132772 0 -0.025018504856644724 0.046998823682004934 0 -0.023890713461930894 0.045543050236449674 0 -0.023743615103701227 0.045604715533522841 0 -0.02394609479283161 0.045802448911340415 0 -0.023468108959368617 0.045082799073911356 0 -0.023890713461930894 0.045543050236449674 0 -0.023743615103701227 0.045604715533522841 0 -0.023743615103701227 0.045604715533522841 0 -0.023672803221823292 0.045926331957957818 0 -0.023380222598182669 0.045669861079927446 0 -0.023743615103701227 0.045604715533522841 0 -0.02394609479283161 0.045802448911340415 0 -0.023925376565165569 0.045790805002547223 0 -0.023397053136163248 0.044724544546863226 0 -0.023443413345652774 0.045097035700513523 0 -0.023743615103701227 0.045604715533522841 0 -0.023672803221823292 0.045926331957957818 0 -0.023925376565165569 0.045790805002547223 0 -0.023541623984366999 0.044668938205292691 0 -0.023791297723717166 0.044701604823360774 0 -0.023377684862749153 0.044862013046775465 0 -0.023541623984366999 0.044668938205292691 0 -0.023377684862749153 0.044862013046775465 0 -0.023394417044503742 0.044628868407269144 0 -0.023397053136163248 0.044724544546863226 0 -0.023388824954207937 0.044720682164115545 0 -0.022949930423641667 0.043987768997470748 0 -0.022768877038738665 0.044253639519991686 0 -0.022883101324314176 0.04396654931867993 0 -0.022845701198182022 0.043944101282711673 0 -0.022768877038738665 0.044253639519991686 0 -0.022883101324314176 0.04396654931867993 0 -0.022819691925821586 0.043951892324370058 0 -0.022845701198182022 0.043944101282711673 0 -0.022768877038738665 0.044253639519991686 0 -0.023397053136163248 0.044724544546863226 0 -0.023281568848200051 0.04486674123431824 0 -0.022949930423641667 0.043987768997470748 0 -0.023003298121574606 0.044223215200729166 0 -0.022768877038738665 0.044253639519991686 0 -0.022949930423641667 0.043987768997470748 0 -0.023003298121574606 0.044223215200729166 0 -0.023080234514970471 0.044116771469637682 0 -0.023003298121574606 0.044223215200729166 0 -0.022768877038738665 0.044253639519991686 0 -0.023021485997343008 0.044466054862404465 0 -0.0233373233793422 0.045226217102076451 0 -0.023743615103701227 0.045604715533522841 0 -0.023380222598182669 0.045669861079927446 0 -0.02323019261056803 0.046977010639177447 0 -0.022894838242505273 0.045820285679845231 0 -0.022207284344200488 0.04712724526080752 0 -0.022894838242505273 0.045820285679845231 0 -0.022207284344200488 0.04712724526080752 0 -0.021911968407156004 0.045849879732632194 0 -0.022979635992341371 0.048078727104332711 0 -0.02323019261056803 0.046977010639177447 0 -0.022207284344200488 0.04712724526080752 0 -0.023984899133101034 0.048801807027356869 0 -0.022979635992341371 0.048078727104332711 0 -0.02323019261056803 0.046977010639177447 0 -0.023984899133101034 0.048801807027356869 0 -0.02323019261056803 0.046977010639177447 0 -0.025655546008750901 0.047515526314503252 0 -0.023730864551605124 0.046903935985768024 0 -0.024353170839795511 0.046920940304077702 0 -0.02323019261056803 0.046977010639177447 0 -0.023620838478906479 0.04614961054854682 0 -0.022894838242505273 0.045820285679845231 0 -0.02323019261056803 0.046977010639177447 0 -0.023620838478906479 0.04614961054854682 0 -0.023873749747743742 0.046127855798427424 0 -0.023620838478906479 0.04614961054854682 0 -0.023873749747743742 0.046127855798427424 0 -0.02394609479283161 0.045802448911340415 0 -0.025018504856644724 0.046998823682004934 0 -0.024353170839795511 0.046920940304077702 0 -0.026344924734949319 0.049121418452031732 0 -0.026931375219916502 0.048112126751046785 0 -0.025655546008750901 0.047515526314503252 0 -0.023890713461930894 0.045543050236449674 0 -0.023873749747743742 0.046127855798427424 0 -0.02394609479283161 0.045802448911340415 0 -0.023443413345652774 0.045097035700513523 0 -0.023241423072413444 0.045358837324305686 0 -0.02394609479283161 0.045802448911340415 0 -0.023925376565165569 0.045790805002547223 0 -0.023803472470467133 0.045708170662824017 0 -0.023377684862749153 0.044862013046775465 0 -0.023175761921535202 0.045173398441553374 0 -0.023209379325148969 0.044665805742421634 0 -0.023377684862749153 0.044862013046775465 0 -0.023209379325148969 0.044665805742421634 0 -0.023394417044503742 0.044628868407269144 0 -0.023175761921535202 0.045173398441553374 0 -0.022957301144009689 0.04491524002335133 0 -0.023209379325148969 0.044665805742421634 0 -0.023620838478906479 0.04614961054854682 0 -0.02394609479283161 0.045802448911340415 0 -0.023803472470467133 0.045708170662824017 0 -0.023620838478906479 0.04614961054854682 0 -0.023803472470467133 0.045708170662824017 0 -0.022894838242505273 0.045820285679845231 0 -0.023241423072413444 0.045358837324305686 0 -0.023005795994971358 0.045512264578235165 0 -0.023175761921535202 0.045173398441553374 0 -0.022957301144009689 0.04491524002335133 0 -0.022894838242505273 0.045820285679845231 0 -0.022957301144009689 0.04491524002335133 0 -0.022396831157016007 0.045038469751529517 0 -0.022894838242505273 0.045820285679845231 0 -0.022957301144009689 0.04491524002335133 0 -0.022396831157016007 0.045038469751529517 0 -0.022669825486051724 0.044621976196561504 0 -0.022396831157016007 0.045038469751529517 0 -0.022894838242505273 0.045820285679845231 0 -0.021911968407156004 0.045849879732632194 0 -0.022572025728995432 0.044259998583653398 0 -0.022669825486051724 0.044621976196561504 0 -0.022125362662587651 0.044548840807028312 0 -0.022396831157016007 0.045038469751529517 0 -0.022669825486051724 0.044621976196561504 0 -0.022125362662587651 0.044548840807028312 0 -0.022572025728995432 0.044259998583653398 0 -0.022669825486051724 0.044621976196561504 0 -0.023110244799045478 0.044450746075303103 0 -0.022957301144009689 0.04491524002335133 0 -0.022669825486051724 0.044621976196561504 0 -0.023110244799045478 0.044450746075303103 0 -0.022507782691132083 0.04419684374892003 0 -0.022885129533499964 0.044265902278847594 0 -0.022460421470532781 0.044090560735959058 0 -0.022730326994589649 0.044120944492402898 0 -0.022681266880248605 0.043844792284666215 0 -0.022730326994589649 0.044120944492402898 0 -0.022968432115255538 0.044038520456953813 0 -0.022915311537239788 0.043854261441536244 0 -0.022957301144009689 0.04491524002335133 0 -0.023110244799045478 0.044450746075303103 0 -0.023209379325148969 0.044665805742421634 0 -0.022885129533499964 0.044265902278847594 0 -0.02309787232331614 0.044304336800349869 0 -0.023110244799045478 0.044450746075303103 0 -0.023209379325148969 0.044665805742421634 0 -0.023249867186904728 0.044356016998895881 0 -0.023209379325148969 0.044665805742421634 0 -0.023394417044503742 0.044628868407269144 0 -0.023249867186904728 0.044356016998895881 0 -0.022968432115255538 0.044038520456953813 0 -0.023249867186904728 0.044356016998895881 0 -0.023168940536435541 0.04401150017999518 0 -0.022730326994589649 0.044120944492402898 0 -0.022968432115255538 0.044038520456953813 0 -0.023249867186904728 0.044356016998895881 0 -0.022968432115255538 0.044038520456953813 0 -0.023036212613951116 0.043898526888431176 0 -0.023168940536435541 0.04401150017999518 0 -0.023036212613951116 0.043898526888431176 0 -0.022915311537239788 0.043854261441536244 0 -0.023005912964098374 0.043761304835914255 0 -0.022968432115255538 0.044038520456953813 0 -0.023036212613951116 0.043898526888431176 0 -0.022915311537239788 0.043854261441536244 0 -0.022915311537239788 0.043854261441536244 0 -0.022882416333741201 0.043651062816600153 0 -0.023005912964098374 0.043761304835914255 0 -0.022882416333741201 0.043651062816600153 0 -0.023005912964098374 0.043761304835914255 0 -0.022990442801027904 0.043580425682402717 0 -0.022915311537239788 0.043854261441536244 0 -0.022882416333741201 0.043651062816600153 0 -0.022681266880248605 0.043844792284666215 0 -0.022730326994589649 0.044120944492402898 0 -0.022915311537239788 0.043854261441536244 0 -0.022681266880248605 0.043844792284666215 0 -0.022460421470532781 0.044090560735959058 0 -0.022681266880248605 0.043844792284666215 0 -0.022485990714327823 0.043788258012128246 0 -0.022681266880248605 0.043844792284666215 0 -0.022591622007695104 0.043590159601968624 0 -0.022485990714327823 0.043788258012128246 0 -0.022882416333741201 0.043651062816600153 0 -0.022681266880248605 0.043844792284666215 0 -0.022591622007695104 0.043590159601968624 0 -0.022591622007695104 0.043590159601968624 0 -0.022397401002257972 0.043623045787212281 0 -0.022485990714327823 0.043788258012128246 0 -0.022397401002257972 0.043623045787212281 0 -0.022485990714327823 0.043788258012128246 0 -0.022285102588275724 0.043795677032846668 0 -0.022460421470532781 0.044090560735959058 0 -0.022485990714327823 0.043788258012128246 0 -0.022285102588275724 0.043795677032846668 0 -0.022938330994462203 0.043873541366254369 0 -0.022981425551895796 0.043869987960967638 0 -0.022971178273246986 0.043803874207299871 0 -0.022911624022500118 0.043891246237167843 0 -0.022938330994462203 0.043873541366254369 0 -0.022971178273246986 0.043803874207299871 0 -0.022983838080738114 0.043844852477429849 0 -0.022911624022500118 0.043891246237167843 0 -0.022971178273246986 0.043803874207299871 0 -0.022983838080738114 0.043844852477429849 0 -0.022971178273246986 0.043803874207299871 0 -0.02302405143303704 0.043771128871675592 0 -0.022949930423641667 0.043987768997470748 0 -0.022983838080738114 0.043844852477429849 0 -0.022911624022500118 0.043891246237167843 0 -0.022949930423641667 0.043987768997470748 0 -0.022883101324314176 0.04396654931867993 0 -0.022911624022500118 0.043891246237167843 0 -0.022845701198182022 0.043944101282711673 0 -0.022883101324314176 0.04396654931867993 0 -0.022911624022500118 0.043891246237167843 0 -0.022866906204155241 0.043921961709660874 0 -0.022845701198182022 0.043944101282711673 0 -0.022905939006357404 0.043897265916353449 0 -0.022911624022500118 0.043891246237167843 0 -0.022905939006357404 0.043897265916353449 0 -0.022938330994462203 0.043873541366254369 0 -0.022845701198182022 0.043944101282711673 0 -0.022911624022500118 0.043891246237167843 0 -0.022905939006357404 0.043897265916353449 0 -0.023397053136163248 0.044724544546863226 0 -0.023257353253549915 0.044453248553901391 0 -0.023541623984366999 0.044668938205292691 0 -0.023791297723717166 0.044701604823360774 0 -0.023611829153521086 0.044448179807144293 0 -0.022866906204155241 0.043921961709660874 0 -0.022905939006357404 0.043897265916353449 0 -0.022977496693434876 0.043859376722761884 0 -0.022905939006357404 0.043897265916353449 0 -0.022977496693434876 0.043859376722761884 0 -0.022950740512512415 0.043890330879173559 0 -0.022905939006357404 0.043897265916353449 0 -0.022938330994462203 0.043873541366254369 0 -0.022950740512512415 0.043890330879173559 0 -0.023541623984366999 0.044668938205292691 0 -0.023394417044503742 0.044628868407269144 0 -0.023611829153521086 0.044448179807144293 0 -0.023611829153521086 0.044448179807144293 0 -0.023249867186904728 0.044356016998895881 0 -0.023168940536435541 0.04401150017999518 0 -0.023394417044503742 0.044628868407269144 0 -0.023611829153521086 0.044448179807144293 0 -0.023249867186904728 0.044356016998895881 0 -0.023257353253549915 0.044453248553901391 0 -0.023206389708359899 0.044359181176547927 0 -0.022977496693434876 0.043859376722761884 0 -0.023168940536435541 0.04401150017999518 0 -0.023017617449701898 0.043927592769627266 0 -0.023168940536435541 0.04401150017999518 0 -0.023017617449701898 0.043927592769627266 0 -0.023040843849104781 0.043886619499275289 0 -0.023017617449701898 0.043927592769627266 0 -0.022981425551895796 0.043869987960967638 0 -0.023040843849104781 0.043886619499275289 0 -0.023036212613951116 0.043898526888431176 0 -0.023168940536435541 0.04401150017999518 0 -0.023040843849104781 0.043886619499275289 0 -0.022938330994462203 0.043873541366254369 0 -0.022950740512512415 0.043890330879173559 0 -0.022981425551895796 0.043869987960967638 0 -0.022977496693434876 0.043859376722761884 0 -0.023017617449701898 0.043927592769627266 0 -0.022950740512512415 0.043890330879173559 0 -0.023017617449701898 0.043927592769627266 0 -0.022950740512512415 0.043890330879173559 0 -0.022981425551895796 0.043869987960967638 0 -0.022981425551895796 0.043869987960967638 0 -0.022995759924962018 0.04378184150756826 0 -0.023040843849104781 0.043886619499275289 0 -0.022981425551895796 0.043869987960967638 0 -0.022995759924962018 0.04378184150756826 0 -0.022971178273246986 0.043803874207299871 0 -0.022995759924962018 0.04378184150756826 0 -0.023040843849104781 0.043886619499275289 0 -0.023005912964098374 0.043761304835914255 0 -0.023036212613951116 0.043898526888431176 0 -0.023040843849104781 0.043886619499275289 0 -0.023005912964098374 0.043761304835914255 0 -0.022995759924962018 0.04378184150756826 0 -0.023005912964098374 0.043761304835914255 0 -0.022977102318478985 0.04365307447772717 0 -0.022995759924962018 0.04378184150756826 0 -0.022990912088694578 0.043711158783204043 0 -0.022977102318478985 0.04365307447772717 0 -0.022995759924962018 0.04378184150756826 0 -0.022990912088694578 0.043711158783204043 0 -0.022971178273246986 0.043803874207299871 0 -0.022990912088694578 0.043711158783204043 0 -0.022971178273246986 0.043803874207299871 0 -0.023016753312134517 0.043699737207301283 0 -0.022971178273246986 0.043803874207299871 0 -0.023016753312134517 0.043699737207301283 0 -0.02302405143303704 0.043771128871675592 0 -0.022990912088694578 0.043711158783204043 0 -0.023016753312134517 0.043699737207301283 0 -0.022998894594637144 0.04358604836922262 0 -0.023016753312134517 0.043699737207301283 0 -0.023031565712293527 0.043667160389159784 0 -0.023034885515614768 0.043728846117280402 0 -0.023031565712293527 0.043667160389159784 0 -0.023034885515614768 0.043728846117280402 0 -0.023042397994502559 0.043645357501007107 0 -0.023034885515614768 0.043728846117280402 0 -0.023044054156248869 0.043750813934490408 0 -0.022994073574691378 0.043763510650239978 0 -0.023034885515614768 0.043728846117280402 0 -0.02302405143303704 0.043771128871675592 0 -0.023044054156248869 0.043750813934490408 0 -0.023016753312134517 0.043699737207301283 0 -0.023034885515614768 0.043728846117280402 0 -0.02302405143303704 0.043771128871675592 0 -0.022983838080738114 0.043844852477429849 0 -0.02302405143303704 0.043771128871675592 0 -0.023057482949987735 0.043812721662270029 0 -0.02302405143303704 0.043771128871675592 0 -0.023044054156248869 0.043750813934490408 0 -0.023057482949987735 0.043812721662270029 0 -0.023044054156248869 0.043750813934490408 0 -0.023057482949987735 0.043812721662270029 0 -0.02300590170963028 0.043673380841473271 0 -0.023029348153535328 0.043836990486116771 0 -0.023041971763808254 0.04376710756867401 0 -0.022949930423641667 0.043987768997470748 0 -0.022983838080738114 0.043844852477429849 0 -0.023057482949987735 0.043812721662270029 0 -0.022971000042620586 0.043882014688923436 0 -0.023029348153535328 0.043836990486116771 0 -0.02340931069504365 0.043763194113942964 0 -0.023350845017856517 0.043903328365519273 0 -0.023393242235699701 0.043933265357193496 0 -0.02340931069504365 0.043763194113942964 0 -0.023350845017856517 0.043903328365519273 0 -0.023277273417018643 0.043803639266104789 0 -0.023126554315608141 0.043966148109264885 0 -0.023277273417018643 0.043803639266104789 0 -0.023285600435321831 0.043977026324908977 0 -0.023350845017856517 0.043903328365519273 0 -0.023277273417018643 0.043803639266104789 0 -0.023285600435321831 0.043977026324908977 0 -0.023044054156248869 0.043750813934490408 0 -0.02300590170963028 0.043673380841473271 0 -0.022994073574691378 0.043763510650239978 0 -0.02300590170963028 0.043673380841473271 0 -0.022691240610152888 0.043735738519647752 0 -0.022562200319044014 0.04367267241904281 0 -0.023041971763808254 0.04376710756867401 0 -0.022796887381833716 0.043770762523647776 0 -0.02340931069504365 0.043763194113942964 0 -0.023277273417018643 0.043803639266104789 0 -0.023566971963095658 0.043657551846569977 0 -0.02300590170963028 0.043673380841473271 0 -0.022994073574691378 0.043763510650239978 0 -0.022691240610152888 0.043735738519647752 0 -0.022994073574691378 0.043763510650239978 0 -0.022974694844153147 0.043765749160068729 0 -0.022691240610152888 0.043735738519647752 0 -0.021297557676685661 0.043597664882297174 0 -0.021644639902978022 0.043806878305645822 0 -0.023034885515614768 0.043728846117280402 0 -0.023032365763112007 0.043704843966116382 0 -0.023042397994502559 0.043645357501007107 0 -0.023034885515614768 0.043728846117280402 0 -0.022994073574691378 0.043763510650239978 0 -0.023032365763112007 0.043704843966116382 0 -0.021297557676685661 0.043597664882297174 0 -0.019733103384601203 0.041332758116278644 0 -0.023032365763112007 0.043704843966116382 0 -0.022974694844153147 0.043765749160068729 0 -0.023097368004483459 0.043625205895866367 0 -0.022994073574691378 0.043763510650239978 0 -0.023032365763112007 0.043704843966116382 0 -0.022974694844153147 0.043765749160068729 0 -0.021868302483023131 0.044900140083008945 0 -0.022333129517361588 0.044273955097553705 0 -0.022420399358591019 0.044860832314982425 0 -0.022641848857201146 0.044568703998118332 0 -0.022333129517361588 0.044273955097553705 0 -0.022420399358591019 0.044860832314982425 0 -0.021868302483023131 0.044900140083008945 0 -0.021750694470408657 0.044431087023908453 0 -0.022333129517361588 0.044273955097553705 0 -0.021750694470408657 0.044431087023908453 0 -0.022333129517361588 0.044273955097553705 0 -0.02150181673454413 0.043926354637985714 0 -0.022333129517361588 0.044273955097553705 0 -0.02150181673454413 0.043926354637985714 0 -0.022562200319044014 0.04367267241904281 0 -0.022641848857201146 0.044568703998118332 0 -0.022333129517361588 0.044273955097553705 0 -0.022691240610152888 0.043735738519647752 0 0.0080975252323469016 0.010194849679623818 0 0.0079709558536475988 0.0093784384762765592 0 0.0071876735537880088 0.010193735206720395 0 0.0079709558536475988 0.0093784384762765592 0 0.0071876735537880088 0.010193735206720395 0 0.006879712438261105 0.0090670276251883734 0 0.005056143009940858 0.009885470937447011 0 0.0071876735537880088 0.010193735206720395 0 0.006879712438261105 0.0090670276251883734 0 -0.021868302483023131 0.044900140083008945 0 -0.021750694470408657 0.044431087023908453 0 -0.020711988627035147 0.044511429578026458 0 -0.008691473817587789 0.027443128168205586 0 -0.0065851346947222141 0.027007703475988139 0 -0.020711988627035147 0.044511429578026458 0 -0.020448088699433927 0.043315703460834583 0 -0.02150181673454413 0.043926354637985714 0 -0.021750694470408657 0.044431087023908453 0 -0.020711988627035147 0.044511429578026458 0 -0.02150181673454413 0.043926354637985714 0 0.0079709558536475988 0.0093784384762765592 0 0.0080023894323761526 0.0085018619778262292 0 0.006879712438261105 0.0090670276251883734 0 -0.01852136491607562 0.043080404431570025 0 -0.020711988627035147 0.044511429578026458 0 -0.020448088699433927 0.043315703460834583 0 -0.01852136491607562 0.043080404431570025 0 -0.020448088699433927 0.043315703460834583 0 -0.020121772151929843 0.042269964430072471 0 -0.0042360371121262404 0.026732192214560271 0 -0.0065851346947222141 0.027007703475988139 0 -0.020448088699433927 0.043315703460834583 0 -0.021214985744488383 0.04265173607310447 0 -0.020121772151929843 0.042269964430072471 0 -0.020448088699433927 0.043315703460834583 0 -0.02150181673454413 0.043926354637985714 0 -0.021214985744488383 0.04265173607310447 0 -0.02150181673454413 0.043926354637985714 0 -0.021214985744488383 0.04265173607310447 0 -0.021999281753580915 0.043018059250906834 0 -0.021214985744488383 0.04265173607310447 0 -0.020874178067388879 0.041276066207214891 0 -0.022388715227718858 0.041814756753398109 0 -0.020874178067388879 0.041276066207214891 0 -0.022388715227718858 0.041814756753398109 0 -0.021730083971955923 0.040373617702819553 0 -0.021214985744488383 0.04265173607310447 0 -0.020874178067388879 0.041276066207214891 0 -0.020121772151929843 0.042269964430072471 0 -0.020874178067388879 0.041276066207214891 0 -0.019128408049980228 0.041071369019045463 0 -0.020121772151929843 0.042269964430072471 0 -0.01852136491607562 0.043080404431570025 0 -0.019128408049980228 0.041071369019045463 0 -0.020121772151929843 0.042269964430072471 0 -0.022333129517361588 0.044273955097553705 0 -0.022691240610152888 0.043735738519647752 0 -0.022562200319044014 0.04367267241904281 0 -0.023566971963095658 0.043657551846569977 0 -0.022959024404099741 0.043494189963523118 0 -0.023284117714656116 0.04357478730032302 0 -0.023566971963095658 0.043657551846569977 0 -0.023284117714656116 0.04357478730032302 0 -0.023427715285806727 0.043664580844713322 0 -0.02340931069504365 0.043763194113942964 0 -0.023566971963095658 0.043657551846569977 0 -0.023427715285806727 0.043664580844713322 0 -0.02150181673454413 0.043926354637985714 0 -0.023566971963095658 0.043657551846569977 0 -0.022959024404099741 0.043494189963523118 0 -0.022340717191595062 0.043868501934381694 0 -0.022796887381833716 0.043770762523647776 0 -0.02150181673454413 0.043926354637985714 0 -0.021999281753580915 0.043018059250906834 0 -0.022959024404099741 0.043494189963523118 0 -0.021999281753580915 0.043018059250906834 0 -0.022959024404099741 0.043494189963523118 0 -0.022388715227718858 0.041814756753398109 0 -0.022959024404099741 0.043494189963523118 0 -0.023509320225156314 0.043717776597467582 0 -0.023284117714656116 0.04357478730032302 0 -0.019214002160860073 0.04427250281976719 0 -0.018655064908423745 0.044108379762666988 0 -0.021214985744488383 0.04265173607310447 0 -0.021999281753580915 0.043018059250906834 0 -0.022388715227718858 0.041814756753398109 0 -0.023509320225156314 0.043717776597467582 0 -0.023383099791945611 0.043738588814736294 0 -0.023487516036602155 0.043912816173836036 0 -0.02340931069504365 0.043763194113942964 0 -0.023383099791945611 0.043738588814736294 0 -0.023393242235699701 0.043933265357193496 0 -0.023509320225156314 0.043717776597467582 0 -0.023383099791945611 0.043738588814736294 0 -0.023284117714656116 0.04357478730032302 0 -0.023383099791945611 0.043738588814736294 0 -0.023284117714656116 0.04357478730032302 0 -0.023427715285806727 0.043664580844713322 0 -0.02340931069504365 0.043763194113942964 0 -0.023383099791945611 0.043738588814736294 0 -0.023427715285806727 0.043664580844713322 0 -0.023456299396771928 0.044022003093830663 0 -0.023487516036602155 0.043912816173836036 0 -0.023520350722094411 0.04411620769459499 0 -0.023393242235699701 0.043933265357193496 0 -0.023456299396771928 0.044022003093830663 0 -0.023487516036602155 0.043912816173836036 0 -0.023383099791945611 0.043738588814736294 0 -0.023393242235699701 0.043933265357193496 0 -0.023487516036602155 0.043912816173836036 0 -0.023393242235699701 0.043933265357193496 0 -0.02342080340209966 0.044070998230198472 0 -0.023456299396771928 0.044022003093830663 0 -0.023487516036602155 0.043912816173836036 0 -0.023645570798160369 0.04394056546472519 0 -0.023520350722094411 0.04411620769459499 0 -0.023509320225156314 0.043717776597467582 0 -0.023487516036602155 0.043912816173836036 0 -0.023645570798160369 0.04394056546472519 0 -0.018655064908423745 0.044108379762666988 0 -0.016896393659167376 0.043757230533952779 0 -0.016896393659167376 0.043757230533952779 0 -0.016704838479209883 0.046306063174823033 0 -0.010793763577049632 0.049816029531737041 0 -0.01005914564513426 0.049616674218230988 0 -0.010546079149956294 0.049339389387793905 0 -0.010387066182514056 0.050245853669307401 0 -0.010793763577049632 0.049816029531737041 0 -0.01005914564513426 0.049616674218230988 0 -0.010793763577049632 0.049816029531737041 0 -0.010866035941787479 0.049404467415705942 0 -0.010546079149956294 0.049339389387793905 0 -0.010793763577049632 0.049816029531737041 0 -0.011216317093028502 0.04937566494680496 0 -0.010866035941787479 0.049404467415705942 0 -0.016704838479209883 0.046306063174823033 0 -0.016509061043874434 0.048515693442169591 0 -0.023520350722094411 0.04411620769459499 0 -0.023446447999809498 0.044129808701295181 0 -0.023428908648318484 0.044240236207085414 0 -0.023413189761966085 0.044184607062274235 0 -0.023446447999809498 0.044129808701295181 0 -0.023415214827150803 0.04414889592442154 0 -0.023413189761966085 0.044184607062274235 0 -0.023446447999809498 0.044129808701295181 0 -0.023428908648318484 0.044240236207085414 0 -0.02342080340209966 0.044070998230198472 0 -0.023446447999809498 0.044129808701295181 0 -0.023415214827150803 0.04414889592442154 0 -0.02342080340209966 0.044070998230198472 0 -0.023456299396771928 0.044022003093830663 0 -0.023446447999809498 0.044129808701295181 0 -0.023456299396771928 0.044022003093830663 0 -0.023520350722094411 0.04411620769459499 0 -0.023446447999809498 0.044129808701295181 0 -0.020874178067388879 0.041276066207214891 0 -0.019128408049980228 0.041071369019045463 0 -0.020004898927882611 0.039586389639509424 0 -0.01802882357710742 0.039330692352479817 0 -0.019128408049980228 0.041071369019045463 0 -0.020004898927882611 0.039586389639509424 0 -0.020874178067388879 0.041276066207214891 0 -0.02186137073067089 0.04020751566083626 0 -0.020004898927882611 0.039586389639509424 0 -0.017800980587885599 0.042912084069275915 0 -0.016896393659167376 0.043757230533952779 0 -0.016896393659167376 0.043757230533952779 0 -0.013756598692257227 0.043966371987141269 0 -0.02186137073067089 0.04020751566083626 0 -0.020004898927882611 0.039586389639509424 0 -0.020848797509078823 0.038073260348717108 0 -0.020004898927882611 0.039586389639509424 0 -0.020848797509078823 0.038073260348717108 0 -0.019154998965064018 0.038057444957020362 0 -0.01802882357710742 0.039330692352479817 0 -0.020004898927882611 0.039586389639509424 0 -0.019154998965064018 0.038057444957020362 0 -0.020848797509078823 0.038073260348717108 0 -0.019154998965064018 0.038057444957020362 0 -0.019827087661392087 0.03596639185349404 0 -0.017064957255933547 0.03733847763392676 0 -0.019154998965064018 0.038057444957020362 0 -0.019827087661392087 0.03596639185349404 0 -0.013756598692257227 0.043966371987141269 0 -0.0094448492559425206 0.043273550025784847 0 -0.01005914564513426 0.049616674218230988 0 -0.010202389466458876 0.049092385911285605 0 -0.010546079149956294 0.049339389387793905 0 -0.01005914564513426 0.049616674218230988 0 -0.010202389466458876 0.049092385911285605 0 -0.0097039738593958265 0.048973150630263612 0 -0.010202389466458876 0.049092385911285605 0 -0.010295307304421691 0.048938746399701048 0 -0.010487438025620755 0.049007269151328955 0 -0.0093038478563578532 0.048325027817415295 0 -0.010429065931865489 0.048951760372996013 0 -0.010290108543298241 0.048761177940671974 0 -0.0093038478563578532 0.048325027817415295 0 -0.010312452776886067 0.04874015639523447 0 -0.0099351834704887905 0.048859902983241055 0 -0.010546649099430108 0.047933100548560786 0 -0.011552290593246731 0.048117259727124599 0 -0.010180458920533359 0.048906845294303683 0 -0.010312452776886067 0.04874015639523447 0 -0.0099351834704887905 0.048859902983241055 0 -0.010202389466458876 0.049092385911285605 0 -0.010295307304421691 0.048938746399701048 0 -0.010180458920533359 0.048906845294303683 0 -0.010202389466458876 0.049092385911285605 0 -0.010180458920533359 0.048906845294303683 0 -0.0099351834704887905 0.048859902983241055 0 -0.010295307304421691 0.048938746399701048 0 -0.010180458920533359 0.048906845294303683 0 -0.010312452776886067 0.04874015639523447 0 -0.010202389466458876 0.049092385911285605 0 -0.0099351834704887905 0.048859902983241055 0 -0.0097039738593958265 0.048973150630263612 0 -0.0092981221965467986 0.043516865031189365 0 -0.0094448492559425206 0.043273550025784847 0 -0.0093038478563578532 0.048325027817415295 0 -0.0099351834704887905 0.048859902983241055 0 -0.0096341580236264102 0.049022062861787653 0 -0.0047849527383406632 0.043952855625407766 0 -0.0094448492559425206 0.043273550025784847 0 0.0052138497229728478 0.041277597053197515 0 0.0053822444925432835 0.042181832009547796 0 0.0062956371775791864 0.040217809961409341 0 0.0052138497229728478 0.041277597053197515 0 0.0053187412745494397 0.040390822769752581 0 0.0062956371775791864 0.040217809961409341 0 -0.011111733324436492 0.049157722087091418 0 -0.010866035941787479 0.049404467415705942 0 -0.010734648958820571 0.049119989538294266 0 -0.015657465216665691 0.050857242542764539 0 -0.015766159592096853 0.050912603351181272 0 -0.015758785845956684 0.050733008389189795 0 -0.015341053747676402 0.048859066146968597 0 -0.016918941615783275 0.048774445616261312 0 -0.016185551277450878 0.050190127728597128 0 -0.015577607433568966 0.048903629921989711 0 -0.014970479159196646 0.049556810558300073 0 -0.015341053747676402 0.048859066146968597 0 -0.016509061043874434 0.048515693442169591 0 -0.023411334183247444 0.044201823279966038 0 -0.023406811458610493 0.044204223953102681 0 -0.02340867992349633 0.044195563866273817 0 -0.016509061043874434 0.048515693442169591 0 -0.016918941615783275 0.048774445616261312 0 -0.016658081755547671 0.048342272073867626 0 -0.016509061043874434 0.048515693442169591 0 -0.023413189761966085 0.044184607062274235 0 -0.023411334183247444 0.044201823279966038 0 -0.02340867992349633 0.044195563866273817 0 -0.011111733324436492 0.049157722087091418 0 -0.011216317093028502 0.04937566494680496 0 -0.010866035941787479 0.049404467415705942 0 -0.010866035941787479 0.049404467415705942 0 -0.010546079149956294 0.049339389387793905 0 -0.010734648958820571 0.049119989538294266 0 -0.010312452776886067 0.04874015639523447 0 -0.011111733324436492 0.049157722087091418 0 -0.010734648958820571 0.049119989538294266 0 -0.010202389466458876 0.049092385911285605 0 -0.010546079149956294 0.049339389387793905 0 -0.010487438025620755 0.049007269151328955 0 -0.010546079149956294 0.049339389387793905 0 -0.010734648958820571 0.049119989538294266 0 -0.010487438025620755 0.049007269151328955 0 -0.010429065931865489 0.048951760372996013 0 -0.011805332812798528 0.049661333064154031 0 -0.011072394143468299 0.048985942023777984 0 -0.012002100693089511 0.050969206875764436 0 -0.013129600549437194 0.051361371484382946 0 -0.011552290593246731 0.048117259727124599 0 -0.015341053747676402 0.048859066146968597 0 -0.010290108543298241 0.048761177940671974 0 -0.011072394143468299 0.048985942023777984 0 -0.011369787833478437 0.048781714870040148 0 -0.01049308263494117 0.0485260535092219 0 -0.010290108543298241 0.048761177940671974 0 -0.011119423362618779 0.048780614375632837 0 -0.010295307304421691 0.048938746399701048 0 -0.010312452776886067 0.04874015639523447 0 -0.010487438025620755 0.049007269151328955 0 -0.010312452776886067 0.04874015639523447 0 -0.010734648958820571 0.049119989538294266 0 -0.010487438025620755 0.049007269151328955 0 -0.010429065931865489 0.048951760372996013 0 -0.010290108543298241 0.048761177940671974 0 -0.011072394143468299 0.048985942023777984 0 -0.011072394143468299 0.048985942023777984 0 -0.011369787833478437 0.048781714870040148 0 -0.011434626736609251 0.048917415478826311 0 -0.013369037220768137 0.051002567694027813 0 -0.013502084088129572 0.051020963995001688 0 -0.013129600549437194 0.051361371484382946 0 -0.014027413513624909 0.051533737152617436 0 -0.013502084088129572 0.051020963995001688 0 -0.014027413513624909 0.051533737152617436 0 -0.013185510674669011 0.051776113628572096 0 -0.013253025294672713 0.051918306655410952 0 -0.01386118199943967 0.051802811281159399 0 -0.013129600549437194 0.051361371484382946 0 -0.013502084088129572 0.051020963995001688 0 -0.015341053747676402 0.048859066146968597 0 -0.013502084088129572 0.051020963995001688 0 -0.015657465216665691 0.050857242542764539 0 -0.015548008733626339 0.050635244290248876 0 -0.015758785845956684 0.050733008389189795 0 -0.011805332812798528 0.049661333064154031 0 -0.011072394143468299 0.048985942023777984 0 -0.01144667293262306 0.048914107983817436 0 -0.015548008733626339 0.050635244290248876 0 -0.015758785845956684 0.050733008389189795 0 -0.015726983964058746 0.050601945655004393 0 -0.016918941615783275 0.048774445616261312 0 -0.017880305151967008 0.050217974340108371 0 -0.015758785845956684 0.050733008389189795 0 -0.015726983964058746 0.050601945655004393 0 -0.016049838670605741 0.050616206452923487 0 -0.014414437147458048 0.051483648151186383 0 -0.018363234441422203 0.051642738699222666 0 -0.018661911010237123 0.051322658077001163 0 -0.018043534337919415 0.05007081256716539 0 -0.018355192759671544 0.048608291303990928 0 -0.017811592812017312 0.050061949055718938 0 -0.014414437147458048 0.051483648151186383 0 -0.018661911010237123 0.051322658077001163 0 -0.019601158106460161 0.05050286915044943 0 -0.015766159592096853 0.050912603351181272 0 -0.015758785845956684 0.050733008389189795 0 -0.016049838670605741 0.050616206452923487 0 -0.014027413513624909 0.051533737152617436 0 -0.018034198911715198 0.052393526320143664 0 -0.014027413513624909 0.051533737152617436 0 -0.017880305151967008 0.050217974340108371 0 -0.017880305151967008 0.050217974340108371 0 -0.017879996581057191 0.050221680795605059 0 -0.023566770657558817 0.04437627854989161 0 -0.023341920944104512 0.044454790156828128 0 -0.02327293360743456 0.045298110062783448 0 -0.018465570466168126 0.048200821955576567 0 -0.018966976626823309 0.050129654981456377 0 -0.019056931384842404 0.048974411222379353 0 -0.018043534337919415 0.05007081256716539 0 -0.018355192759671544 0.048608291303990928 0 -0.023443715126062904 0.044332850752336665 0 -0.023341920944104512 0.044454790156828128 0 -0.023344042311881825 0.04433107188299807 0 -0.023443715126062904 0.044332850752336665 0 -0.023566770657558817 0.04437627854989161 0 -0.023341920944104512 0.044454790156828128 0 -0.018512163401670619 0.048200222670631357 0 -0.018465570466168126 0.048200821955576567 0 -0.023406811458610493 0.044204223953102681 0 -0.023406630985545032 0.044199213859866929 0 -0.02340867992349633 0.044195563866273817 0 -0.016918941615783275 0.048774445616261312 0 -0.018465570466168126 0.048200821955576567 0 -0.024078213374263392 0.046880179359693304 0 -0.023281981861093395 0.048971218187281979 0 -0.023341920944104512 0.044454790156828128 0 -0.023252400355462548 0.044752815587340178 0 -0.023243550137439492 0.044541190795348261 0 -0.023289167938822377 0.044410708049911124 0 -0.023341920944104512 0.044454790156828128 0 -0.023243550137439492 0.044541190795348261 0 -0.023289167938822377 0.044410708049911124 0 -0.023243550137439492 0.044541190795348261 0 -0.023242564385650265 0.044428282902121065 0 -0.023289167938822377 0.044410708049911124 0 -0.023341920944104512 0.044454790156828128 0 -0.023344042311881825 0.04433107188299807 0 -0.022491660838289781 0.05004760130684275 0 -0.020307505987377666 0.050458929793576544 0 -0.021656598066986589 0.05117186463850746 0 -0.023341920944104512 0.044454790156828128 0 -0.02327293360743456 0.045298110062783448 0 -0.022738284074888503 0.045285360671683386 0 -0.018363799243248886 0.051641977221252501 0 -0.018661911010237123 0.051322658077001163 0 -0.019159202553769454 0.051674518193353981 0 -0.017880305151967008 0.050217974340108371 0 -0.018966976626823309 0.050129654981456377 0 -0.018966976626823309 0.050129654981456377 0 -0.018034198911715198 0.052393526320143664 0 -0.018661911010237123 0.051322658077001163 0 -0.019159202553769454 0.051674518193353981 0 -0.019601158106460161 0.05050286915044943 0 -0.020061601960283303 0.051107566057872519 0 -0.020307505987377666 0.050458929793576544 0 -0.021656598066986589 0.05117186463850746 0 -0.018966976626823309 0.050129654981456377 0 -0.023281981861093395 0.048971218187281979 0 -0.023281981861093395 0.048971218187281979 0 -0.025137452928691472 0.04773130831133348 0 -0.024678856683936767 0.049417255588135797 0 -0.023281981861093395 0.048971218187281979 0 -0.023252400355462548 0.044752815587340178 0 -0.023123890716010734 0.044705187040940411 0 -0.023243550137439492 0.044541190795348261 0 -0.023252400355462548 0.044752815587340178 0 -0.023123890716010734 0.044705187040940411 0 -0.022995980415931098 0.044791811451380073 0 -0.028473918127302576 0.048700800619572999 0 -0.028591300225261684 0.048533518392302827 0 -0.028107218641976954 0.048499284613341104 0 -0.023123890716010734 0.044705187040940411 0 -0.022995980415931098 0.044791811451380073 0 -0.023044053340385316 0.044767837655345692 0 -0.023001176189728873 0.044894767662029919 0 -0.022995980415931098 0.044791811451380073 0 -0.023044053340385316 0.044767837655345692 0 -0.023001176189728873 0.044894767662029919 0 -0.023044053340385316 0.044767837655345692 0 -0.023096880812653618 0.044630813249039614 0 -0.023123890716010734 0.044705187040940411 0 -0.023044053340385316 0.044767837655345692 0 -0.023096880812653618 0.044630813249039614 0 -0.023096880812653618 0.044630813249039614 0 -0.023173871035620987 0.044484970781695859 0 -0.023119562035832302 0.04433783889090423 0 -0.023001176189728873 0.044894767662029919 0 -0.023096880812653618 0.044630813249039614 0 -0.023021485997343008 0.044466054862404465 0 -0.023123890716010734 0.044705187040940411 0 -0.023243550137439492 0.044541190795348261 0 -0.023173871035620987 0.044484970781695859 0 -0.023123890716010734 0.044705187040940411 0 -0.023096880812653618 0.044630813249039614 0 -0.023173871035620987 0.044484970781695859 0 -0.023243550137439492 0.044541190795348261 0 -0.023173871035620987 0.044484970781695859 0 -0.023242564385650265 0.044428282902121065 0 -0.023173871035620987 0.044484970781695859 0 -0.023242564385650265 0.044428282902121065 0 -0.023216827113074944 0.044297845537895848 0 -0.023173871035620987 0.044484970781695859 0 -0.023216827113074944 0.044297845537895848 0 -0.023119562035832302 0.04433783889090423 0 -0.023216827113074944 0.044297845537895848 0 -0.023119562035832302 0.04433783889090423 0 -0.023161547363977002 0.044155287925056699 0 -0.023096880812653618 0.044630813249039614 0 -0.023021485997343008 0.044466054862404465 0 -0.023119562035832302 0.04433783889090423 0 -0.023003298121574606 0.044223215200729166 0 -0.023119562035832302 0.04433783889090423 0 -0.023080234514970471 0.044116771469637682 0 -0.023003298121574606 0.044223215200729166 0 -0.023021485997343008 0.044466054862404465 0 -0.023119562035832302 0.04433783889090423 0 -0.022949930423641667 0.043987768997470748 0 -0.023126554315608141 0.043966148109264885 0 -0.023080234514970471 0.044116771469637682 0 -0.023126554315608141 0.043966148109264885 0 -0.023080234514970471 0.044116771469637682 0 -0.023161547363977002 0.044155287925056699 0 -0.023119562035832302 0.04433783889090423 0 -0.023080234514970471 0.044116771469637682 0 -0.023161547363977002 0.044155287925056699 0 -0.023126554315608141 0.043966148109264885 0 -0.023161547363977002 0.044155287925056699 0 -0.0232542838338297 0.044123891621026257 0 -0.023126554315608141 0.043966148109264885 0 -0.0232542838338297 0.044123891621026257 0 -0.023285600435321831 0.043977026324908977 0 -0.023216827113074944 0.044297845537895848 0 -0.023161547363977002 0.044155287925056699 0 -0.0232542838338297 0.044123891621026257 0 -0.0232542838338297 0.044123891621026257 0 -0.023329171922968451 0.044130014667002282 0 -0.023285600435321831 0.043977026324908977 0 -0.023329171922968451 0.044130014667002282 0 -0.023285600435321831 0.043977026324908977 0 -0.023356596329123167 0.044014685237646282 0 -0.023350845017856517 0.043903328365519273 0 -0.023285600435321831 0.043977026324908977 0 -0.023356596329123167 0.044014685237646282 0 -0.023350845017856517 0.043903328365519273 0 -0.023393242235699701 0.043933265357193496 0 -0.023356596329123167 0.044014685237646282 0 -0.023393242235699701 0.043933265357193496 0 -0.023356596329123167 0.044014685237646282 0 -0.023389866390380643 0.044109561103366106 0 -0.023393242235699701 0.043933265357193496 0 -0.02342080340209966 0.044070998230198472 0 -0.023389866390380643 0.044109561103366106 0 -0.023329171922968451 0.044130014667002282 0 -0.023356596329123167 0.044014685237646282 0 -0.023389866390380643 0.044109561103366106 0 -0.023389866390380643 0.044109561103366106 0 -0.02341624177521889 0.04420368584952105 0 -0.023375014704089734 0.044226702638657987 0 -0.023329171922968451 0.044130014667002282 0 -0.023389866390380643 0.044109561103366106 0 -0.023375014704089734 0.044226702638657987 0 -0.023415214827150803 0.04414889592442154 0 -0.023389866390380643 0.044109561103366106 0 -0.02341624177521889 0.04420368584952105 0 -0.02342080340209966 0.044070998230198472 0 -0.023415214827150803 0.04414889592442154 0 -0.023389866390380643 0.044109561103366106 0 -0.023413189761966085 0.044184607062274235 0 -0.023415214827150803 0.04414889592442154 0 -0.02341624177521889 0.04420368584952105 0 -0.023413189761966085 0.044184607062274235 0 -0.02340867992349633 0.044195563866273817 0 -0.02341624177521889 0.04420368584952105 0 -0.023406630985545032 0.044199213859866929 0 -0.02340867992349633 0.044195563866273817 0 -0.02341624177521889 0.04420368584952105 0 -0.023443715126062904 0.044332850752336665 0 -0.02341624177521889 0.04420368584952105 0 -0.023375014704089734 0.044226702638657987 0 -0.023443715126062904 0.044332850752336665 0 -0.023460276869281524 0.044340513431200698 0 -0.02341624177521889 0.04420368584952105 0 -0.018465570466168126 0.048200821955576567 0 -0.018745208421195116 0.047708869569306783 0 -0.023443715126062904 0.044332850752336665 0 -0.023375014704089734 0.044226702638657987 0 -0.023344042311881825 0.04433107188299807 0 -0.023375014704089734 0.044226702638657987 0 -0.023344042311881825 0.04433107188299807 0 -0.023295319222175145 0.044282620208364341 0 -0.023289167938822377 0.044410708049911124 0 -0.023344042311881825 0.04433107188299807 0 -0.023295319222175145 0.044282620208364341 0 -0.023289167938822377 0.044410708049911124 0 -0.023242564385650265 0.044428282902121065 0 -0.023295319222175145 0.044282620208364341 0 -0.023242564385650265 0.044428282902121065 0 -0.023216827113074944 0.044297845537895848 0 -0.023295319222175145 0.044282620208364341 0 -0.023216827113074944 0.044297845537895848 0 -0.0232542838338297 0.044123891621026257 0 -0.023295319222175145 0.044282620208364341 0 -0.0232542838338297 0.044123891621026257 0 -0.023329171922968451 0.044130014667002282 0 -0.023295319222175145 0.044282620208364341 0 -0.023329171922968451 0.044130014667002282 0 -0.023375014704089734 0.044226702638657987 0 -0.023295319222175145 0.044282620208364341 0 -0.056821596437003186 0.04294150220246188 0 -0.054997802061511461 0.046394022739826846 0 -0.054999404527275919 0.04004296455335854 0 -0.056821596437003186 0.04294150220246188 0 -0.059057881678268982 0.040741132590717176 0 -0.057280323474937084 0.040654633731354167 0 -0.057185702561481436 0.043603711092757722 0 -0.057531077480310423 0.042324170689402127 0 -0.056821596437003186 0.04294150220246188 0 -0.059089880437919275 0.043867910213608252 0 -0.059057881678268982 0.040741132590717176 0 -0.059948934818064306 0.041462571170049846 0 -0.059375920554293853 0.042289425169523331 0 -0.059057881678268982 0.040741132590717176 0 -0.059948934818064306 0.041462571170049846 0 -0.059375920554293853 0.042289425169523331 0 -0.060397123382295581 0.042677748212908935 0 -0.056821596437003186 0.04294150220246188 0 -0.059089880437919275 0.043867910213608252 0 -0.056799262685487656 0.046145407021200145 0 -0.059089880437919275 0.043867910213608252 0 -0.058855175726141462 0.046948064162743774 0 -0.056799262685487656 0.046145407021200145 0 -0.05961792256629652 0.04355032376033386 0 -0.060271210312641869 0.043629507257125541 0 -0.060397123382295581 0.042677748212908935 0 -0.057185702561481436 0.043603711092757722 0 -0.055793798043151967 0.046530088821263464 0 -0.059375920554293853 0.042289425169523331 0 -0.05961792256629652 0.04355032376033386 0 -0.060397123382295581 0.042677748212908935 0 -0.058855175726141462 0.046948064162743774 0 -0.05699422833911328 0.048775974555487066 0 -0.05890209429849106 0.051039849067570579 0 -0.055793798043151967 0.046530088821263464 0 -0.052664752479034578 0.052939028196784886 0 -0.05961792256629652 0.04355032376033386 0 -0.060070318042487622 0.044013219064106365 0 -0.059886507268350028 0.0444345302064654 0 -0.05961792256629652 0.04355032376033386 0 -0.060070318042487622 0.044013219064106365 0 -0.060271210312641869 0.043629507257125541 0 -0.058855175726141462 0.046948064162743774 0 -0.05699422833911328 0.048775974555487066 0 -0.056799262685487656 0.046145407021200145 0 -0.056799262685487656 0.046145407021200145 0 -0.054997802061511461 0.046394022739826846 0 -0.05562828253633794 0.049285007743952121 0 -0.05699422833911328 0.048775974555487066 0 -0.056799262685487656 0.046145407021200145 0 -0.05562828253633794 0.049285007743952121 0 -0.056821596437003186 0.04294150220246188 0 -0.056799262685487656 0.046145407021200145 0 -0.054997802061511461 0.046394022739826846 0 -0.054997802061511461 0.046394022739826846 0 -0.05562828253633794 0.049285007743952121 0 -0.054195094847052809 0.0536920373479551 0 -0.054997802061511461 0.046394022739826846 0 -0.054994127320128892 0.054998771528337903 0 -0.054195094847052809 0.0536920373479551 0 -0.05562828253633794 0.049285007743952121 0 -0.054195094847052809 0.0536920373479551 0 -0.055812017956549977 0.051162925160883402 0 -0.054994127320128892 0.054998771528337903 0 -0.054195094847052809 0.0536920373479551 0 -0.048501485665434184 0.054994732757320357 0 -0.054195094847052809 0.0536920373479551 0 -0.052781702819283301 0.053501581633719618 0 -0.054400455983853124 0.052627696686406253 0 -0.054195094847052809 0.0536920373479551 0 -0.048501485665434184 0.054994732757320357 0 -0.052781702819283301 0.053501581633719618 0 -0.048484730381775087 0.054999993767476628 0 -0.048790438082221901 0.057742244050078245 0 -0.047068155988344247 0.056958669219856387 0 -0.048488871442323486 0.054998500358086601 0 -0.050604138094299068 0.054460947949012947 0 -0.052781702819283301 0.053501581633719618 0 -0.054400455983853124 0.052627696686406253 0 -0.055178583701584349 0.051997436999707346 0 -0.050604138094299068 0.054460947949012947 0 -0.052664752479034578 0.052939028196784886 0 -0.048790438082221901 0.057742244050078245 0 -0.049123131172251977 0.060425978686132753 0 -0.047919266685555739 0.058953265376719168 0 -0.049123131172251977 0.060425978686132753 0 -0.047891934061195095 0.060428053920375917 0 -0.047919266685555739 0.058953265376719168 0 -0.054195094847052809 0.0536920373479551 0 -0.054400455983853124 0.052627696686406253 0 -0.055812017956549977 0.051162925160883402 0 -0.054400455983853124 0.052627696686406253 0 -0.055812017956549977 0.051162925160883402 0 -0.055178583701584349 0.051997436999707346 0 -0.053542558475254819 0.052805273863077359 0 -0.052664752479034578 0.052939028196784886 0 -0.05699422833911328 0.048775974555487066 0 -0.055812017956549977 0.051162925160883402 0 -0.05890209429849106 0.051039849067570579 0 -0.05699422833911328 0.048775974555487066 0 -0.05562828253633794 0.049285007743952121 0 -0.055812017956549977 0.051162925160883402 0 -0.059886507268350028 0.0444345302064654 0 -0.060224064671316635 0.04426454752437723 0 -0.060334274286977241 0.044412493695497011 0 -0.052664752479034578 0.052939028196784886 0 -0.051426021348000235 0.053735498544465299 0 -0.060070318042487622 0.044013219064106365 0 -0.059886507268350028 0.0444345302064654 0 -0.060224064671316635 0.04426454752437723 0 -0.060164927517078588 0.044281543344174661 0 -0.060438332441640388 0.044281784979682749 0 -0.059545039266948055 0.044013928467165786 0 -0.051426021348000235 0.053735498544465299 0 -0.051600505227540568 0.052937105067820907 0 -0.060274903456790187 0.044121330064432682 0 -0.060164927517078588 0.044281543344174661 0 -0.060438332441640388 0.044281784979682749 0 -0.060070318042487622 0.044013219064106365 0 -0.060224064671316635 0.04426454752437723 0 -0.060274903456790187 0.044121330064432682 0 -0.060224064671316635 0.04426454752437723 0 -0.060274903456790187 0.044121330064432682 0 -0.060438332441640388 0.044281784979682749 0 -0.051468705258827151 0.053607064447901469 0 -0.051426021348000235 0.053735498544465299 0 -0.060164927517078588 0.044281543344174661 0 -0.059545039266948055 0.044013928467165786 0 -0.059640298709682162 0.045951906700725492 0 -0.045494817901954816 0.060438695836901903 0 -0.046333150173385226 0.058621265243543996 0 -0.044073851342357993 0.058815067612211801 0 -0.051426021348000235 0.053735498544465299 0 -0.048633041528303077 0.055824255163307579 0 -0.047783361404032422 0.060429803292686587 0 -0.045494817901954816 0.060438695836901903 0 -0.046333150173385226 0.058621265243543996 0 -0.047891934061195095 0.060428053920375917 0 -0.046448268516701322 0.058650323498790832 0 -0.047919266685555739 0.058953265376719168 0 -0.048790438082221901 0.057742244050078245 0 -0.047919266685555739 0.058953265376719168 0 -0.047068155988344247 0.056958669219856387 0 -0.046448268516701322 0.058650323498790832 0 -0.047919266685555739 0.058953265376719168 0 -0.047068155988344247 0.056958669219856387 0 -0.046333150173385226 0.058621265243543996 0 -0.044884430360074008 0.056812459322699439 0 -0.044073851342357993 0.058815067612211801 0 -0.048633041528303077 0.055824255163307579 0 -0.045939098387641646 0.055754266272325805 0 -0.046448268516701322 0.058650323498790832 0 -0.047068155988344247 0.056958669219856387 0 -0.044961505261829827 0.056845797498228462 0 -0.044961505261829827 0.056845797498228462 0 -0.045969060540952705 0.054999975670612718 0 -0.043453222095116081 0.054999996366797255 0 -0.047068155988344247 0.056958669219856387 0 -0.044961505261829827 0.056845797498228462 0 -0.045969060540952705 0.054999975670612718 0 -0.048484730381775087 0.054999993767476628 0 -0.047068155988344247 0.056958669219856387 0 -0.045969060540952705 0.054999975670612718 0 -0.041439085154714228 0.056226456021829352 0 -0.043453123729522473 0.054999991996888736 0 -0.042474562956330009 0.057311882196151923 0 -0.041439085154714228 0.056226456021829352 0 -0.043453123729522473 0.054999991996888736 0 -0.040576197966707125 0.054999906034396563 0 -0.044884430360074008 0.056812459322699439 0 -0.043453123729522473 0.054999991996888736 0 -0.042474562956330009 0.057311882196151923 0 -0.045939098387641646 0.055754266272325805 0 -0.043457250182029006 0.054999984340163899 0 -0.044884430360074008 0.056812459322699439 0 -0.042474562956330009 0.057311882196151923 0 -0.044073851342357993 0.058815067612211801 0 -0.041439085154714228 0.056226456021829352 0 -0.042474562956330009 0.057311882196151923 0 -0.04007177840645329 0.056853117672846468 0 -0.042474562956330009 0.057311882196151923 0 -0.042143792201177865 0.059196305659532884 0 -0.044073851342357993 0.058815067612211801 0 -0.042474562956330009 0.057311882196151923 0 -0.042143792201177865 0.059196305659532884 0 -0.04050326922577404 0.058653649107983173 0 -0.045494817901954816 0.060438695836901903 0 -0.044073851342357993 0.058815067612211801 0 -0.043202572022009229 0.060443774055718325 0 -0.042143792201177865 0.059196305659532884 0 -0.044073851342357993 0.058815067612211801 0 -0.043202572022009229 0.060443774055718325 0 -0.059545039266948055 0.044013928467165786 0 -0.057568677885791349 0.043960089016667599 0 -0.058511865849697885 0.044957800821267394 0 -0.051600505227540568 0.052937105067820907 0 -0.050269424393616563 0.052407186073920968 0 -0.057568677885791349 0.043960089016667599 0 -0.057486681716369337 0.044719417146150409 0 -0.058511865849697885 0.044957800821267394 0 -0.057568677885791349 0.043960089016667599 0 -0.057486681716369337 0.044719417146150409 0 -0.056264247671366625 0.044078226838578649 0 -0.050269424393616563 0.052407186073920968 0 -0.048659037372953705 0.051952777834950531 0 -0.057568677885791349 0.043960089016667599 0 -0.056264247671366625 0.044078226838578649 0 -0.055890196126083223 0.044041024992377449 0 -0.057486681716369337 0.044719417146150409 0 -0.056264247671366625 0.044078226838578649 0 -0.057657615005158827 0.045881721489170024 0 -0.042143792201177865 0.059196305659532884 0 -0.043202572022009229 0.060443774055718325 0 -0.04091260199492873 0.060441088052412113 0 -0.056264247671366625 0.044078226838578649 0 -0.056136473351638017 0.044706639531181105 0 -0.056331410860406973 0.044708976148009595 0 -0.057014230842740182 0.044068195475137725 0 -0.057257362773601037 0.044014257434808086 0 -0.056136473351638017 0.044706639531181105 0 -0.056223997351293367 0.044768114162769101 0 -0.056205613913377771 0.044823870713024044 0 -0.051428054972151784 0.047299127514376739 0 -0.052303795797051696 0.046342568424657504 0 -0.056136473351638017 0.044706639531181105 0 -0.056223997351293367 0.044768114162769101 0 -0.056331410860406973 0.044708976148009595 0 -0.056208349360783484 0.045548366729195253 0 -0.056205613913377771 0.044823870713024044 0 -0.056329920133775115 0.044819197341303317 0 -0.056223997351293367 0.044768114162769101 0 -0.056232177918887398 0.044778338190179047 0 -0.056221419463087487 0.044790583152926895 0 -0.056223997351293367 0.044768114162769101 0 -0.056205613913377771 0.044823870713024044 0 -0.056221419463087487 0.044790583152926895 0 -0.056232177918887398 0.044778338190179047 0 -0.056331410860406973 0.044708976148009595 0 -0.056180117082353147 0.044785557180579166 0 -0.057257362773601037 0.044014257434808086 0 -0.056109190608542366 0.04087639239734997 0 -0.056223997351293367 0.044768114162769101 0 -0.056232177918887398 0.044778338190179047 0 -0.056331410860406973 0.044708976148009595 0 -0.057657615005158827 0.045881721489170024 0 -0.058511865849697885 0.044957800821267394 0 -0.059640298709682162 0.045951906700725492 0 -0.057486681716369337 0.044719417146150409 0 -0.057657615005158827 0.045881721489170024 0 -0.058511865849697885 0.044957800821267394 0 -0.059545039266948055 0.044013928467165786 0 -0.058511865849697885 0.044957800821267394 0 -0.059640298709682162 0.045951906700725492 0 -0.057959314581546108 0.043322179993338573 0 -0.057483545754545763 0.042984002012505677 0 -0.060274903456790187 0.044121330064432682 0 -0.060164927517078588 0.044281543344174661 0 -0.061029691330073556 0.043615496378758917 0 -0.060274903456790187 0.044121330064432682 0 -0.061029691330073556 0.043615496378758917 0 -0.060271210312641869 0.043629507257125541 0 -0.060070318042487622 0.044013219064106365 0 -0.060274903456790187 0.044121330064432682 0 -0.060271210312641869 0.043629507257125541 0 -0.061029691330073556 0.043615496378758917 0 -0.060271210312641869 0.043629507257125541 0 -0.060397123382295581 0.042677748212908935 0 -0.057657615005158827 0.045881721489170024 0 -0.059640298709682162 0.045951906700725492 0 -0.058980601866575666 0.047673843699499362 0 -0.061029691330073556 0.043615496378758917 0 -0.061603994481637545 0.042549917295532716 0 -0.060397123382295581 0.042677748212908935 0 -0.057483545754545763 0.042984002012505677 0 -0.056109190608542366 0.04087639239734997 0 -0.056109190608542366 0.04087639239734997 0 -0.055820858671725912 0.035887343517361427 0 -0.061603994481637545 0.042549917295532716 0 -0.060397123382295581 0.042677748212908935 0 -0.060964435566582632 0.041226449082149952 0 -0.059948934818064306 0.041462571170049846 0 -0.060397123382295581 0.042677748212908935 0 -0.060964435566582632 0.041226449082149952 0 -0.051456867006015948 0.025465598319886863 0 -0.052883586511992153 0.027371652196427881 0 -0.050653351020347091 0.027482122789366993 0 -0.056125040720785863 0.044636354765164872 0 -0.056186694869543044 0.04472197489831517 0 -0.056237669321563696 0.04462288133351943 0 -0.056180117082353147 0.044785557180579166 0 -0.056125040720785863 0.044636354765164872 0 -0.056186694869543044 0.04472197489831517 0 -0.056109190608542366 0.04087639239734997 0 -0.053227263675002488 0.037295463390224728 0 -0.056237669321563696 0.04462288133351943 0 -0.056222040237229487 0.044754729831862648 0 -0.056329920133775115 0.044819197341303317 0 -0.056186694869543044 0.04472197489831517 0 -0.056237669321563696 0.04462288133351943 0 -0.056222040237229487 0.044754729831862648 0 -0.048495082148283665 0.04570024015948683 0 -0.047851956949680058 0.048715390031585891 0 -0.037239830209008097 0.051275714332247882 0 -0.03795964375608326 0.053735882048316259 0 -0.038408120869909634 0.052694397400070932 0 -0.056222040237229487 0.044754729831862648 0 -0.056205613913377771 0.044823870713024044 0 -0.056212971902208399 0.044777746660836566 0 -0.056186694869543044 0.04472197489831517 0 -0.056222040237229487 0.044754729831862648 0 -0.056212971902208399 0.044777746660836566 0 -0.056222040237229487 0.044754729831862648 0 -0.056205613913377771 0.044823870713024044 0 -0.056329920133775115 0.044819197341303317 0 -0.056205613913377771 0.044823870713024044 0 -0.056221419463087487 0.044790583152926895 0 -0.056212971902208399 0.044777746660836566 0 -0.056232177918887398 0.044778338190179047 0 -0.056221419463087487 0.044790583152926895 0 -0.056212971902208399 0.044777746660836566 0 -0.056180117082353147 0.044785557180579166 0 -0.056186694869543044 0.04472197489831517 0 -0.056212971902208399 0.044777746660836566 0 -0.056232177918887398 0.044778338190179047 0 -0.056180117082353147 0.044785557180579166 0 -0.056212971902208399 0.044777746660836566 0 -0.039589329963142184 0.05303475858937573 0 -0.040203864366684119 0.053746934630139243 0 -0.04072181575279641 0.054166234152163026 0 -0.040700862187050636 0.053197270405174697 0 -0.042177401187271306 0.053349757154347269 0 -0.042742253991194301 0.054875218368396539 0 -0.036849015629041561 0.055107365650304101 0 -0.034154309794366955 0.05538943749195209 0 -0.039589329963142184 0.05303475858937573 0 -0.039377387531271471 0.053617678367310774 0 -0.038903853515503128 0.053030399487371462 0 -0.039589329963142184 0.05303475858937573 0 -0.040203864366684119 0.053746934630139243 0 -0.039377387531271471 0.053617678367310774 0 -0.040700862187050636 0.053197270405174697 0 -0.042177401187271306 0.053349757154347269 0 -0.041607969948927626 0.052240570593698486 0 -0.040203864366684119 0.053746934630139243 0 -0.039590316200218204 0.05410045894161522 0 -0.039954287987631468 0.054414443721925533 0 -0.040203864366684119 0.053746934630139243 0 -0.040433334166111612 0.054340391338554596 0 -0.039954287987631468 0.054414443721925533 0 -0.040203864366684119 0.053746934630139243 0 -0.039590316200218204 0.05410045894161522 0 -0.039377387531271471 0.053617678367310774 0 -0.039590316200218204 0.05410045894161522 0 -0.039377387531271471 0.053617678367310774 0 -0.039104074297961817 0.054129035667327359 0 -0.039104074297961817 0.054129035667327359 0 -0.038634272766075548 0.054126736839360041 0 -0.038831252802059422 0.053656965970771492 0 -0.038634272766075548 0.054126736839360041 0 -0.038831252802059422 0.053656965970771492 0 -0.038522559175687469 0.053427002512216347 0 -0.039377387531271471 0.053617678367310774 0 -0.039104074297961817 0.054129035667327359 0 -0.038831252802059422 0.053656965970771492 0 -0.038634272766075548 0.054126736839360041 0 -0.03795964375608326 0.053735882048316259 0 -0.038522559175687469 0.053427002512216347 0 -0.03795964375608326 0.053735882048316259 0 -0.038522559175687469 0.053427002512216347 0 -0.038408120869909634 0.052694397400070932 0 -0.038522559175687469 0.053427002512216347 0 -0.038903853515503128 0.053030399487371462 0 -0.038408120869909634 0.052694397400070932 0 -0.039377387531271471 0.053617678367310774 0 -0.038831252802059422 0.053656965970771492 0 -0.038903853515503128 0.053030399487371462 0 -0.038831252802059422 0.053656965970771492 0 -0.038522559175687469 0.053427002512216347 0 -0.038903853515503128 0.053030399487371462 0 -0.039589329963142184 0.05303475858937573 0 -0.038903853515503128 0.053030399487371462 0 -0.038517437788120126 0.051549113976111852 0 -0.038517437788120126 0.051549113976111852 0 -0.040712643721473367 0.051317025884106429 0 -0.039471925867786264 0.050277299539364974 0 -0.040700862187050636 0.053197270405174697 0 -0.038517437788120126 0.051549113976111852 0 -0.040712643721473367 0.051317025884106429 0 -0.036849015629041561 0.055107365650304101 0 -0.037076824087409699 0.054540585204861464 0 -0.038903853515503128 0.053030399487371462 0 -0.038408120869909634 0.052694397400070932 0 -0.038517437788120126 0.051549113976111852 0 -0.037239830209008097 0.051275714332247882 0 -0.038408120869909634 0.052694397400070932 0 -0.038517437788120126 0.051549113976111852 0 -0.040712643721473367 0.051317025884106429 0 -0.041607969948927626 0.052240570593698486 0 -0.042801572341449753 0.051366868842380675 0 -0.040700862187050636 0.053197270405174697 0 -0.040712643721473367 0.051317025884106429 0 -0.041607969948927626 0.052240570593698486 0 -0.018355525155108503 0.04924167001237964 0 -0.019380973722485647 0.049233398555496882 0 -0.019676976318806522 0.050788483013358414 0 -0.042177401187271306 0.053349757154347269 0 -0.041607969948927626 0.052240570593698486 0 -0.042801572341449753 0.051366868842380675 0 -0.028310677717848266 0.053929040089264614 0 -0.027406993582154048 0.05309024277599661 0 -0.019380973722485647 0.049233398555496882 0 -0.019676976318806522 0.050788483013358414 0 -0.020539237309470677 0.048810955289260147 0 -0.021121710607897453 0.050209956913008495 0 -0.019863867740189674 0.050859713815371861 0 -0.020539237309470677 0.048810955289260147 0 -0.021121710607897453 0.050209956913008495 0 -0.020539237309470677 0.048810955289260147 0 -0.021391503526019037 0.048737340820289722 0 -0.019863867740189674 0.050859713815371861 0 -0.02073034641137176 0.052338531464302375 0 -0.019013718956023495 0.05298626532708501 0 -0.021121710607897453 0.050209956913008495 0 -0.021687838218218992 0.051668929865219142 0 -0.019863867740189674 0.050859713815371861 0 -0.021687838218218992 0.051668929865219142 0 -0.019863867740189674 0.050859713815371861 0 -0.02073034641137176 0.052338531464302375 0 -0.021687838218218992 0.051668929865219142 0 -0.02073034641137176 0.052338531464302375 0 -0.021727805636096293 0.052860473200888769 0 -0.032453546231934943 0.050494552317353648 0 -0.032971159065528249 0.055111907993945865 0 -0.028310677717848266 0.053929040089264614 0 -0.032054563964007264 0.055265659633744947 0 -0.019676976318806522 0.050788483013358414 0 -0.018613632240059224 0.052710474884984482 0 -0.018830985770542989 0.052886960188031781 0 -0.018355525155108503 0.04924167001237964 0 -0.019676976318806522 0.050788483013358414 0 -0.018613632240059224 0.052710474884984482 0 -0.042177401187271306 0.053349757154347269 0 -0.042801572341449753 0.051366868842380675 0 -0.043036553550406038 0.055121327405707882 0 -0.042177401187271306 0.053349757154347269 0 -0.042742253991194301 0.054875218368396539 0 -0.043036553550406038 0.055121327405707882 0 -0.034651851733563256 0.055547916201584557 0 -0.034154309794366955 0.05538943749195209 0 -0.040203864366684119 0.053746934630139243 0 -0.040807199964760885 0.054150906212810414 0 -0.040433334166111612 0.054340391338554596 0 -0.040433334166111612 0.054340391338554596 0 -0.040626296696721506 0.054618592207075566 0 -0.040786648425344484 0.054414714233965628 0 -0.040807199964760885 0.054150906212810414 0 -0.040433334166111612 0.054340391338554596 0 -0.040786648425344484 0.054414714233965628 0 -0.040433334166111612 0.054340391338554596 0 -0.040626296696721506 0.054618592207075566 0 -0.040232709064333287 0.054835999002625445 0 -0.040626296696721506 0.054618592207075566 0 -0.041065259948013549 0.054746069868265676 0 -0.040597521886012101 0.05489456123901864 0 -0.040626296696721506 0.054618592207075566 0 -0.040597521886012101 0.05489456123901864 0 -0.040232709064333287 0.054835999002625445 0 -0.040626296696721506 0.054618592207075566 0 -0.041065259948013549 0.054746069868265676 0 -0.040786648425344484 0.054414714233965628 0 -0.032973542089962324 0.056039964922002312 0 -0.032971159065528249 0.055111907993945865 0 -0.041065259948013549 0.054746069868265676 0 -0.040786648425344484 0.054414714233965628 0 -0.041014158603058536 0.054310540853587212 0 -0.034494673509228094 0.055571903845772944 0 -0.034374290602391208 0.053850198329151291 0 -0.035004175140577208 0.054366221982551699 0 -0.032971159065528249 0.055111907993945865 0 -0.032054563964007264 0.055265659633744947 0 -0.040807199964760885 0.054150906212810414 0 -0.040786648425344484 0.054414714233965628 0 -0.041014158603058536 0.054310540853587212 0 -0.034154309794366955 0.05538943749195209 0 -0.032971159065528249 0.055111907993945865 0 -0.032973542089962324 0.056039964922002312 0 -0.032054563964007264 0.055265659633744947 0 -0.032054563964007264 0.055265659633744947 0 -0.031892127571769312 0.057559551477453424 0 -0.037297653365970747 0.067892938662192731 0 -0.036740156784849265 0.066217061464623694 0 -0.035318093851636471 0.06629849035349826 0 -0.037512066748976468 0.067386519528691291 0 -0.037297653365970747 0.067892938662192731 0 -0.036740156784849265 0.066217061464623694 0 -0.041065259948013549 0.054746069868265676 0 -0.040416443888195819 0.055404793794257091 0 -0.040597521886012101 0.05489456123901864 0 -0.040416443888195819 0.055404793794257091 0 -0.040597521886012101 0.05489456123901864 0 -0.040232709064333287 0.054835999002625445 0 -0.019013718956023495 0.05298626532708501 0 -0.021165167478747079 0.054149809428609197 0 -0.021394203204069477 0.054451289575534016 0 -0.019013718956023495 0.05298626532708501 0 -0.020905581482617237 0.053222337275859212 0 -0.021165167478747079 0.054149809428609197 0 -0.032054563964007264 0.055265659633744947 0 -0.027936376840476843 0.055529373299987812 0 -0.030935258546376333 0.056530759319147805 0 -0.03038989939354814 0.056129260384209782 0 -0.030146528903155157 0.056091472383048513 0 -0.020905581482617237 0.053222337275859212 0 -0.021727805636096293 0.052860473200888769 0 -0.021895917756576934 0.05383835186443791 0 -0.02073034641137176 0.052338531464302375 0 -0.020905581482617237 0.053222337275859212 0 -0.021727805636096293 0.052860473200888769 0 -0.02073034641137176 0.052338531464302375 0 -0.019013718956023495 0.05298626532708501 0 -0.020905581482617237 0.053222337275859212 0 -0.020905581482617237 0.053222337275859212 0 -0.021165167478747079 0.054149809428609197 0 -0.021895917756576934 0.05383835186443791 0 -0.027875745215860052 0.055478047014922607 0 -0.027936376840476843 0.055529373299987812 0 -0.021165167478747079 0.054149809428609197 0 -0.021407522877488018 0.054454131985423884 0 -0.021895917756576934 0.05383835186443791 0 -0.035318093851636471 0.06629849035349826 0 -0.035172145881303261 0.063681506263908685 0 -0.03327704467304745 0.064695868467573345 0 -0.035318093851636471 0.06629849035349826 0 -0.036140128174795602 0.064941715111948073 0 -0.035172145881303261 0.063681506263908685 0 -0.03038989939354814 0.056129260384209782 0 -0.030146528903155157 0.056091472383048513 0 -0.029845285120893465 0.055727294583521936 0 -0.031892127571769312 0.057559551477453424 0 -0.029373726790925737 0.057206175445489282 0 -0.036740156784849265 0.066217061464623694 0 -0.035318093851636471 0.06629849035349826 0 -0.036140128174795602 0.064941715111948073 0 -0.036140128174795602 0.064941715111948073 0 -0.037319740764070616 0.063845081005689058 0 -0.035172145881303261 0.063681506263908685 0 -0.035172145881303261 0.063681506263908685 0 -0.033938339977448988 0.063352665526319102 0 -0.03327704467304745 0.064695868467573345 0 -0.032973542089962324 0.056039964922002312 0 -0.035144767517191124 0.059830760365205279 0 -0.036740156784849265 0.066217061464623694 0 -0.036140128174795602 0.064941715111948073 0 -0.037319740764070616 0.063845081005689058 0 -0.041065259948013549 0.054746069868265676 0 -0.040416443888195819 0.055404793794257091 0 -0.040098409281033268 0.056695500254692416 0 -0.037512066748976468 0.067386519528691291 0 -0.036740156784849265 0.066217061464623694 0 -0.037319740764070616 0.063845081005689058 0 -0.032973542089962324 0.056039964922002312 0 -0.035444366108009766 0.056463369534358876 0 -0.03752701574362953 0.06051876209890826 0 -0.037448821213316191 0.059118158960212837 0 -0.038074538700393089 0.059306842947179569 0 -0.040098409281033268 0.056695500254692416 0 -0.039501167055444833 0.056312176589687069 0 -0.039845689735074206 0.055925135657953401 0 -0.040098409281033268 0.056695500254692416 0 -0.039051682532649956 0.05671074492188443 0 -0.038973810872134494 0.057165289510279396 0 -0.039051682532649956 0.05671074492188443 0 -0.039501167055444833 0.056312176589687069 0 -0.039052182286143385 0.056064253443642742 0 -0.040098409281033268 0.056695500254692416 0 -0.039051682532649956 0.05671074492188443 0 -0.039501167055444833 0.056312176589687069 0 -0.039501167055444833 0.056312176589687069 0 -0.039380471963143385 0.055830678611062154 0 -0.039845689735074206 0.055925135657953401 0 -0.039501167055444833 0.056312176589687069 0 -0.039052182286143385 0.056064253443642742 0 -0.039380471963143385 0.055830678611062154 0 -0.039052182286143385 0.056064253443642742 0 -0.039380471963143385 0.055830678611062154 0 -0.038955419293260386 0.055577878952680626 0 -0.040416443888195819 0.055404793794257091 0 -0.040098409281033268 0.056695500254692416 0 -0.039845689735074206 0.055925135657953401 0 -0.039380471963143385 0.055830678611062154 0 -0.039845689735074206 0.055925135657953401 0 -0.039862827920477385 0.05539261223588704 0 -0.040416443888195819 0.055404793794257091 0 -0.039845689735074206 0.055925135657953401 0 -0.039862827920477385 0.05539261223588704 0 -0.040416443888195819 0.055404793794257091 0 -0.039862827920477385 0.05539261223588704 0 -0.040232709064333287 0.054835999002625445 0 -0.039862827920477385 0.05539261223588704 0 -0.040232709064333287 0.054835999002625445 0 -0.039811623356579263 0.054873066797809664 0 -0.039380471963143385 0.055830678611062154 0 -0.039862827920477385 0.05539261223588704 0 -0.039282468878775581 0.055189547899942425 0 -0.039380471963143385 0.055830678611062154 0 -0.039282468878775581 0.055189547899942425 0 -0.038955419293260386 0.055577878952680626 0 -0.039862827920477385 0.05539261223588704 0 -0.039282468878775581 0.055189547899942425 0 -0.039811623356579263 0.054873066797809664 0 -0.039282468878775581 0.055189547899942425 0 -0.039453082209460102 0.054628927539262531 0 -0.039811623356579263 0.054873066797809664 0 -0.039453082209460102 0.054628927539262531 0 -0.039954287987631468 0.054414443721925533 0 -0.039811623356579263 0.054873066797809664 0 -0.039282468878775581 0.055189547899942425 0 -0.039453082209460102 0.054628927539262531 0 -0.038940501349577765 0.054650971280470174 0 -0.039104074297961817 0.054129035667327359 0 -0.039453082209460102 0.054628927539262531 0 -0.038940501349577765 0.054650971280470174 0 -0.039590316200218204 0.05410045894161522 0 -0.039104074297961817 0.054129035667327359 0 -0.039453082209460102 0.054628927539262531 0 -0.039590316200218204 0.05410045894161522 0 -0.039453082209460102 0.054628927539262531 0 -0.039954287987631468 0.054414443721925533 0 -0.040433334166111612 0.054340391338554596 0 -0.039954287987631468 0.054414443721925533 0 -0.040232709064333287 0.054835999002625445 0 -0.039954287987631468 0.054414443721925533 0 -0.040232709064333287 0.054835999002625445 0 -0.039811623356579263 0.054873066797809664 0 -0.056208349360783484 0.045548366729195253 0 -0.056329920133775115 0.044819197341303317 0 -0.056502381271810759 0.045548807655511933 0 -0.047851956949680058 0.048715390031585891 0 -0.047325813286412888 0.050541333903395311 0 -0.03795964375608326 0.053735882048316259 0 -0.038700282354045677 0.054861801004588005 0 -0.038438887275952884 0.05583202759986642 0 -0.038634272766075548 0.054126736839360041 0 -0.03795964375608326 0.053735882048316259 0 -0.038700282354045677 0.054861801004588005 0 -0.038634272766075548 0.054126736839360041 0 -0.038940501349577765 0.054650971280470174 0 -0.038700282354045677 0.054861801004588005 0 -0.039104074297961817 0.054129035667327359 0 -0.038634272766075548 0.054126736839360041 0 -0.038940501349577765 0.054650971280470174 0 -0.039282468878775581 0.055189547899942425 0 -0.038700282354045677 0.054861801004588005 0 -0.038955419293260386 0.055577878952680626 0 -0.038700282354045677 0.054861801004588005 0 -0.038438887275952884 0.05583202759986642 0 -0.038955419293260386 0.055577878952680626 0 -0.039282468878775581 0.055189547899942425 0 -0.038940501349577765 0.054650971280470174 0 -0.038700282354045677 0.054861801004588005 0 -0.051428054972151784 0.047299127514376739 0 -0.048659037372953705 0.051952777834950531 0 -0.056208349360783484 0.045548366729195253 0 -0.056502381271810759 0.045548807655511933 0 -0.056326333333448386 0.046350667210730882 0 -0.047325813286412888 0.050541333903395311 0 -0.04653625319636253 0.051722661325027265 0 -0.039051682532649956 0.05671074492188443 0 -0.038438887275952884 0.05583202759986642 0 -0.038973810872134494 0.057165289510279396 0 -0.039051682532649956 0.05671074492188443 0 -0.039052182286143385 0.056064253443642742 0 -0.038438887275952884 0.05583202759986642 0 -0.039052182286143385 0.056064253443642742 0 -0.038438887275952884 0.05583202759986642 0 -0.038955419293260386 0.055577878952680626 0 -0.056502381271810759 0.045548807655511933 0 -0.056326333333448386 0.046350667210730882 0 -0.056729347737643883 0.046356102804208404 0 -0.056264247671366625 0.044078226838578649 0 -0.056136473351638017 0.044706639531181105 0 -0.055890196126083223 0.044041024992377449 0 -0.038438887275952884 0.05583202759986642 0 -0.038973810872134494 0.057165289510279396 0 -0.03879123857894938 0.057768585432350951 0 -0.048659037372953705 0.051952777834950531 0 -0.04653625319636253 0.051722661325027265 0 -0.040799403599499046 0.060235546396807609 0 -0.039555745399738239 0.060238339671017146 0 -0.04017310521548631 0.059498905882981089 0 -0.038074538700393089 0.059306842947179569 0 -0.038699369051466988 0.057898652883530119 0 -0.037890761777254894 0.058390203270523855 0 -0.035444366108009766 0.056463369534358876 0 -0.036111596629464199 0.056631432372158369 0 -0.040098409281033268 0.056695500254692416 0 -0.038895525018045704 0.057750219976300497 0 -0.038699369051466988 0.057898652883530119 0 -0.040098409281033268 0.056695500254692416 0 -0.038973810872134494 0.057165289510279396 0 -0.038895525018045704 0.057750219976300497 0 -0.038973810872134494 0.057165289510279396 0 -0.038895525018045704 0.057750219976300497 0 -0.03879123857894938 0.057768585432350951 0 -0.046487979315133321 0.0517330539703868 0 -0.04653625319636253 0.051722661325027265 0 -0.038895525018045704 0.057750219976300497 0 -0.038912820016460306 0.057970342686667495 0 -0.038699369051466988 0.057898652883530119 0 -0.038912820016460306 0.057970342686667495 0 -0.038699369051466988 0.057898652883530119 0 -0.03838158900557629 0.057312306088126874 0 -0.04653625319636253 0.051722661325027265 0 -0.043486637563026516 0.054977172216018527 0 -0.039555745399738239 0.060238339671017146 0 -0.04017310521548631 0.059498905882981089 0 -0.038742241804524284 0.057964704221895064 0 -0.038079126576200016 0.057816594363255744 0 -0.038699369051466988 0.057898652883530119 0 -0.03838158900557629 0.057312306088126874 0 -0.038079126576200016 0.057816594363255744 0 -0.038699369051466988 0.057898652883530119 0 -0.037890761777254894 0.058390203270523855 0 -0.040430955328041682 0.058567175654685714 0 -0.04017310521548631 0.059498905882981089 0 -0.038742241804524284 0.057964704221895064 0 -0.042143792201177865 0.059196305659532884 0 -0.04091260199492873 0.060441088052412113 0 -0.04050326922577404 0.058653649107983173 0 -0.048659037372953705 0.051952777834950531 0 -0.046795807672655954 0.055097513338725604 0 -0.040799403599499046 0.060235546396807609 0 -0.040430955328041682 0.058567175654685714 0 -0.04017310521548631 0.059498905882981089 0 -0.042474562956330009 0.057311882196151923 0 -0.04050326922577404 0.058653649107983173 0 -0.04007177840645329 0.056853117672846468 0 -0.040430955328041682 0.058567175654685714 0 -0.04007177840645329 0.056853117672846468 0 -0.038742241804524284 0.057964704221895064 0 -0.046795807672655954 0.055097513338725604 0 -0.046114895918682834 0.055570956746735747 0 -0.043486637563026516 0.054977172216018527 0 -0.042323182133923824 0.055035607082426719 0 -0.038742241804524284 0.057964704221895064 0 -0.038911807781666953 0.056547017903066439 0 -0.037818354206936286 0.055534541475698002 0 -0.04007177840645329 0.056853117672846468 0 -0.038742241804524284 0.057964704221895064 0 -0.038911807781666953 0.056547017903066439 0 -0.04007177840645329 0.056853117672846468 0 -0.039001658977979393 0.055831199806828144 0 -0.038911807781666953 0.056547017903066439 0 -0.039001658977979393 0.055831199806828144 0 -0.040576197966707125 0.054999906034396563 0 -0.03769939520383591 0.055000119269818799 0 -0.039001658977979393 0.055831199806828144 0 -0.038911807781666953 0.056547017903066439 0 -0.037818354206936286 0.055534541475698002 0 -0.039001658977979393 0.055831199806828144 0 -0.037818354206936286 0.055534541475698002 0 -0.03769939520383591 0.055000119269818799 0 -0.041439085154714228 0.056226456021829352 0 -0.04007177840645329 0.056853117672846468 0 -0.040576197966707125 0.054999906034396563 0 -0.04007177840645329 0.056853117672846468 0 -0.039001658977979393 0.055831199806828144 0 -0.040576197966707125 0.054999906034396563 0 -0.035076828951285104 0.056432731851967184 0 -0.034821963155123786 0.054999512705267199 0 -0.036733087150606823 0.056486645162910083 0 -0.035076828951285104 0.056432731851967184 0 -0.034821963155123786 0.054999512705267199 0 -0.033697298302476572 0.056285088046033389 0 -0.034821963155123786 0.054999512705267199 0 -0.03769939520383591 0.055000119269818799 0 -0.036733087150606823 0.056486645162910083 0 -0.037818354206936286 0.055534541475698002 0 -0.03769939520383591 0.055000119269818799 0 -0.036733087150606823 0.056486645162910083 0 -0.036073192369214864 0.057983559757412359 0 -0.035922948207842129 0.058945824357051792 0 -0.03838158900557629 0.057312306088126874 0 -0.037818354206936286 0.055534541475698002 0 -0.036733087150606823 0.056486645162910083 0 -0.03838158900557629 0.057312306088126874 0 -0.036733087150606823 0.056486645162910083 0 -0.037313929058332668 0.057785440217957701 0 -0.036733087150606823 0.056486645162910083 0 -0.035059190776282577 0.05833887543410271 0 -0.037119864723372017 0.060121595277931518 0 -0.035076828951285104 0.056432731851967184 0 -0.036733087150606823 0.056486645162910083 0 -0.035059190776282577 0.05833887543410271 0 -0.035076828951285104 0.056432731851967184 0 -0.035059190776282577 0.05833887543410271 0 -0.033697298302476572 0.056285088046033389 0 -0.035059190776282577 0.05833887543410271 0 -0.03409452337142975 0.059865630091219979 0 -0.037119864723372017 0.060121595277931518 0 -0.03409452337142975 0.059865630091219979 0 -0.037119864723372017 0.060121595277931518 0 -0.034392945960336797 0.061663335630873901 0 -0.038079126576200016 0.057816594363255744 0 -0.03838158900557629 0.057312306088126874 0 -0.037313929058332668 0.057785440217957701 0 -0.038079126576200016 0.057816594363255744 0 -0.037313929058332668 0.057785440217957701 0 -0.037890761777254894 0.058390203270523855 0 -0.035144767517191124 0.059830760365205279 0 -0.035922948207842129 0.058945824357051792 0 -0.037448821213316191 0.059118158960212837 0 -0.037313929058332668 0.057785440217957701 0 -0.037890761777254894 0.058390203270523855 0 -0.037319740764070616 0.063845081005689058 0 -0.037119864723372017 0.060121595277931518 0 -0.035172145881303261 0.063681506263908685 0 -0.037448821213316191 0.059118158960212837 0 -0.038074538700393089 0.059306842947179569 0 -0.037890761777254894 0.058390203270523855 0 -0.037119864723372017 0.060121595277931518 0 -0.034392945960336797 0.061663335630873901 0 -0.035172145881303261 0.063681506263908685 0 -0.034392945960336797 0.061663335630873901 0 -0.035172145881303261 0.063681506263908685 0 -0.033938339977448988 0.063352665526319102 0 -0.028191763098148102 0.056541920481245844 0 -0.029373726790925737 0.057206175445489282 0 -0.029049177844539933 0.058066561408588749 0 -0.029373726790925737 0.057206175445489282 0 -0.032960488962716535 0.062844080459253909 0 -0.031231345615427127 0.062235039434239241 0 -0.03327704467304745 0.064695868467573345 0 -0.033938339977448988 0.063352665526319102 0 -0.032960488962716535 0.062844080459253909 0 -0.03327704467304745 0.064695868467573345 0 -0.026229305926696058 0.0565785408384991 0 -0.026204710060637439 0.056587281717494685 0 -0.026214256131083379 0.056550657523959838 0 -0.034392945960336797 0.061663335630873901 0 -0.033938339977448988 0.063352665526319102 0 -0.032960488962716535 0.062844080459253909 0 -0.032960488962716535 0.062844080459253909 0 -0.032176646223014943 0.061902719244341549 0 -0.032710600980834226 0.061067517529003731 0 -0.032960488962716535 0.062844080459253909 0 -0.032176646223014943 0.061902719244341549 0 -0.031231345615427127 0.062235039434239241 0 -0.031808592649927372 0.06145188571550847 0 -0.032176646223014943 0.061902719244341549 0 -0.031231345615427127 0.062235039434239241 0 -0.031808592649927372 0.06145188571550847 0 -0.032176646223014943 0.061902719244341549 0 -0.032710600980834226 0.061067517529003731 0 -0.034392945960336797 0.061663335630873901 0 -0.032960488962716535 0.062844080459253909 0 -0.032710600980834226 0.061067517529003731 0 -0.026135638199539683 0.055575637930266431 0 -0.0262258159518233 0.05538405331388175 0 -0.026229305926696058 0.0565785408384991 0 -0.026147104796582669 0.056512389234370686 0 -0.026262576159078867 0.056658573546349095 0 -0.026147104796582669 0.056512389234370686 0 -0.025191162284584321 0.055592413945017072 0 -0.023937544968613642 0.0558459557205533 0 -0.026204710060637439 0.056587281717494685 0 -0.026231574176426079 0.056582005175051991 0 -0.026256335731451714 0.05661270365972796 0 -0.026229305926696058 0.0565785408384991 0 -0.026204710060637439 0.056587281717494685 0 -0.026231574176426079 0.056582005175051991 0 -0.026229305926696058 0.0565785408384991 0 -0.026231574176426079 0.056582005175051991 0 -0.026147104796582669 0.056512389234370686 0 -0.026231574176426079 0.056582005175051991 0 -0.026256335731451714 0.05661270365972796 0 -0.026147104796582669 0.056512389234370686 0 -0.026204710060637439 0.056587281717494685 0 -0.026256335731451714 0.05661270365972796 0 -0.026389358988572472 0.056644089332440695 0 -0.031231345615427127 0.062235039434239241 0 -0.030997914004869693 0.060411660885579116 0 -0.028792214158045424 0.0595195341657433 0 -0.029049177844539933 0.058066561408588749 0 -0.028188923141896992 0.057535741447198897 0 -0.031808592649927372 0.06145188571550847 0 -0.031231345615427127 0.062235039434239241 0 -0.030997914004869693 0.060411660885579116 0 -0.030997914004869693 0.060411660885579116 0 -0.030857049013227809 0.058953367712311397 0 -0.028792214158045424 0.0595195341657433 0 -0.03409452337142975 0.059865630091219979 0 -0.034392945960336797 0.061663335630873901 0 -0.032710600980834226 0.061067517529003731 0 -0.031808592649927372 0.06145188571550847 0 -0.030997914004869693 0.060411660885579116 0 -0.032710600980834226 0.061067517529003731 0 -0.030997914004869693 0.060411660885579116 0 -0.032710600980834226 0.061067517529003731 0 -0.032582217970561315 0.059289348909998783 0 -0.030997914004869693 0.060411660885579116 0 -0.030857049013227809 0.058953367712311397 0 -0.032582217970561315 0.059289348909998783 0 -0.035059190776282577 0.05833887543410271 0 -0.03409452337142975 0.059865630091219979 0 -0.032582217970561315 0.059289348909998783 0 -0.03409452337142975 0.059865630091219979 0 -0.032710600980834226 0.061067517529003731 0 -0.032582217970561315 0.059289348909998783 0 -0.032547109689978031 0.057820717793019637 0 -0.030422992107515572 0.057420252129123564 0 -0.033697298302476572 0.056285088046033389 0 -0.035059190776282577 0.05833887543410271 0 -0.032582217970561315 0.059289348909998783 0 -0.032547109689978031 0.057820717793019637 0 -0.035059190776282577 0.05833887543410271 0 -0.032547109689978031 0.057820717793019637 0 -0.033697298302476572 0.056285088046033389 0 -0.030857049013227809 0.058953367712311397 0 -0.032582217970561315 0.059289348909998783 0 -0.032547109689978031 0.057820717793019637 0 -0.030857049013227809 0.058953367712311397 0 -0.028792214158045424 0.0595195341657433 0 -0.030422992107515572 0.057420252129123564 0 -0.030422992107515572 0.057420252129123564 0 -0.028177303757183619 0.055249653756232898 0 -0.033697298302476572 0.056285088046033389 0 -0.030857049013227809 0.058953367712311397 0 -0.032547109689978031 0.057820717793019637 0 -0.030422992107515572 0.057420252129123564 0 -0.028792214158045424 0.0595195341657433 0 -0.028437078219871414 0.057044625430554961 0 -0.030422992107515572 0.057420252129123564 0 -0.028437078219871414 0.057044625430554961 0 -0.030422992107515572 0.057420252129123564 0 -0.028177303757183619 0.055249653756232898 0 -0.031945015174966 0.054999996186474137 0 -0.030992668969297817 0.056305975740761439 0 -0.033697298302476572 0.056285088046033389 0 -0.029504283605176724 0.055890173495182882 0 -0.031225792944376735 0.056012081538860628 0 -0.034821963155123786 0.054999512705267199 0 -0.031945015174966 0.054999996186474137 0 -0.033697298302476572 0.056285088046033389 0 -0.026189551536078048 0.05499927867975022 0 -0.029068664808519537 0.055000152243103527 0 -0.028002606108283187 0.05618593245367888 0 -0.028177303757183619 0.055249653756232898 0 -0.02491824917915483 0.055325715942987415 0 -0.026197192884048155 0.055851501368594354 0 -0.030992668969297817 0.056305975740761439 0 -0.029068664808519537 0.055000152243103527 0 -0.028002606108283187 0.05618593245367888 0 -0.029504283605176724 0.055890173495182882 0 -0.027145912751488973 0.055757688162991238 0 -0.031945015174966 0.054999996186474137 0 -0.030992668969297817 0.056305975740761439 0 -0.029068664808519537 0.055000152243103527 0 -0.028188923141896992 0.057535741447198897 0 -0.027674485524132396 0.057003818944835354 0 -0.028792214158045424 0.0595195341657433 0 -0.028437078219871414 0.057044625430554961 0 -0.026476861416363833 0.056030109135980423 0 -0.025462368304023628 0.056015733871092988 0 -0.025297704257144268 0.056086138605864318 0 -0.028177303757183619 0.055249653756232898 0 -0.026197192884048155 0.055851501368594354 0 -0.026476861416363833 0.056030109135980423 0 -0.026197192884048155 0.055851501368594354 0 -0.026476861416363833 0.056030109135980423 0 -0.026388007935697774 0.056360136905254772 0 -0.026389358988572472 0.056644089332440695 0 -0.026476861416363833 0.056030109135980423 0 -0.026388007935697774 0.056360136905254772 0 -0.026197192884048155 0.055851501368594354 0 -0.025469992857766518 0.056036708746808855 0 -0.0255575014951244 0.056192773873645553 0 -0.026197192884048155 0.055851501368594354 0 -0.026388007935697774 0.056360136905254772 0 -0.026304176343257858 0.056844997960568834 0 -0.028437078219871414 0.057044625430554961 0 -0.028177303757183619 0.055249653756232898 0 -0.026476861416363833 0.056030109135980423 0 -0.02491824917915483 0.055325715942987415 0 -0.026197192884048155 0.055851501368594354 0 -0.025280561832739336 0.055828357235114201 0 -0.026197192884048155 0.055851501368594354 0 -0.025469992857766518 0.056036708746808855 0 -0.025280561832739336 0.055828357235114201 0 -0.024922469394241972 0.05567761230386914 0 -0.02491824917915483 0.055325715942987415 0 -0.025280561832739336 0.055828357235114201 0 -0.024922469394241972 0.05567761230386914 0 -0.025280561832739336 0.055828357235114201 0 -0.02511709299120729 0.055928781373332188 0 -0.025469992857766518 0.056036708746808855 0 -0.025280561832739336 0.055828357235114201 0 -0.02511709299120729 0.055928781373332188 0 -0.025469992857766518 0.056036708746808855 0 -0.02511709299120729 0.055928781373332188 0 -0.025256581290902382 0.056162922680623228 0 -0.025469992857766518 0.056036708746808855 0 -0.025256581290902382 0.056162922680623228 0 -0.0255575014951244 0.056192773873645553 0 -0.025256581290902382 0.056162922680623228 0 -0.0255575014951244 0.056192773873645553 0 -0.025297639903370306 0.056459739340579809 0 -0.026256335731451714 0.05661270365972796 0 -0.026389358988572472 0.056644089332440695 0 -0.026304176343257858 0.056844997960568834 0 -0.026256335731451714 0.05661270365972796 0 -0.026304176343257858 0.056844997960568834 0 -0.026147104796582669 0.056512389234370686 0 -0.026389358988572472 0.056644089332440695 0 -0.026388007935697774 0.056360136905254772 0 -0.026304176343257858 0.056844997960568834 0 -0.025297704257144268 0.056086138605864318 0 -0.024699962530766218 0.055466787920131259 0 -0.0255575014951244 0.056192773873645553 0 -0.025297639903370306 0.056459739340579809 0 -0.025593367606667923 0.056679600645768075 0 -0.026304176343257858 0.056844997960568834 0 -0.026147104796582669 0.056512389234370686 0 -0.026344356783027111 0.055818480619862137 0 -0.026147104796582669 0.056512389234370686 0 -0.026344356783027111 0.055818480619862137 0 -0.025191162284584321 0.055592413945017072 0 -0.025066372885479218 0.056295091698121455 0 -0.025256581290902382 0.056162922680623228 0 -0.025297639903370306 0.056459739340579809 0 -0.024863928642896747 0.056564119936051011 0 -0.025297639903370306 0.056459739340579809 0 -0.025300100193309888 0.056881114733708084 0 -0.024058631514952303 0.054853521579054779 0 -0.023719697229042797 0.054077836287934646 0 -0.025297639903370306 0.056459739340579809 0 -0.025300100193309888 0.056881114733708084 0 -0.025593367606667923 0.056679600645768075 0 -0.021376355106482163 0.052315074140540291 0 -0.020291221121096388 0.050700239771066281 0 -0.021715334868170542 0.050506141576457463 0 -0.022960605033748402 0.051959131495266209 0 -0.021376355106482163 0.052315074140540291 0 -0.021715334868170542 0.050506141576457463 0 -0.023220642954541782 0.052754235395672089 0 -0.024699962530766218 0.055466787920131259 0 -0.023719697229042797 0.054077836287934646 0 -0.023220642954541782 0.052754235395672089 0 -0.025300100193309888 0.056881114733708084 0 -0.025641273410505764 0.057179914936020509 0 -0.025593367606667923 0.056679600645768075 0 -0.026167260585408317 0.053033531543821226 0 -0.026344356783027111 0.055818480619862137 0 -0.025201059884264382 0.054569554393140256 0 -0.026344356783027111 0.055818480619862137 0 -0.025191162284584321 0.055592413945017072 0 -0.025201059884264382 0.054569554393140256 0 -0.025191162284584321 0.055592413945017072 0 -0.023937544968613642 0.0558459557205533 0 -0.024240234165743318 0.054820847402583507 0 -0.025191162284584321 0.055592413945017072 0 -0.024240234165743318 0.054820847402583507 0 -0.025201059884264382 0.054569554393140256 0 -0.027936376840476843 0.055529373299987812 0 -0.0262258159518233 0.05538405331388175 0 -0.021407522877488018 0.054454131985423884 0 -0.023937544968613642 0.0558459557205533 0 -0.023086714454537159 0.054512411239961707 0 -0.026229305926696058 0.0565785408384991 0 -0.026262576159078867 0.056658573546349095 0 -0.026377010365116402 0.056678128762717016 0 -0.026450604132048666 0.05675769801003127 0 -0.026262576159078867 0.056658573546349095 0 -0.026377010365116402 0.056678128762717016 0 -0.023937544968613642 0.0558459557205533 0 -0.024240234165743318 0.054820847402583507 0 -0.023086714454537159 0.054512411239961707 0 -0.027936376840476843 0.055529373299987812 0 -0.029373726790925737 0.057206175445489282 0 -0.023086714454537159 0.054512411239961707 0 -0.021895917756576934 0.05383835186443791 0 -0.022894803717572073 0.05284640076534753 0 -0.021407522877488018 0.054454131985423884 0 -0.023086714454537159 0.054512411239961707 0 -0.021895917756576934 0.05383835186443791 0 -0.023086714454537159 0.054512411239961707 0 -0.022894803717572073 0.05284640076534753 0 -0.024356746430103139 0.053374957626109623 0 -0.021727805636096293 0.052860473200888769 0 -0.021895917756576934 0.05383835186443791 0 -0.022894803717572073 0.05284640076534753 0 -0.026167260585408317 0.053033531543821226 0 -0.025201059884264382 0.054569554393140256 0 -0.024356746430103139 0.053374957626109623 0 -0.024240234165743318 0.054820847402583507 0 -0.025201059884264382 0.054569554393140256 0 -0.024356746430103139 0.053374957626109623 0 -0.024240234165743318 0.054820847402583507 0 -0.023086714454537159 0.054512411239961707 0 -0.024356746430103139 0.053374957626109623 0 -0.020541375908092348 0.049911790969127956 0 -0.019777760752983868 0.048958056015715255 0 -0.020462358060018337 0.049212378868215008 0 -0.023220642954541782 0.052754235395672089 0 -0.021663046071459125 0.050485625571273285 0 -0.022894803717572073 0.05284640076534753 0 -0.024356746430103139 0.053374957626109623 0 -0.023899837773967821 0.050888573150851164 0 -0.026167260585408317 0.053033531543821226 0 -0.024356746430103139 0.053374957626109623 0 -0.023899837773967821 0.050888573150851164 0 -0.021121710607897453 0.050209956913008495 0 -0.021687838218218992 0.051668929865219142 0 -0.023899837773967821 0.050888573150851164 0 -0.021687838218218992 0.051668929865219142 0 -0.022894803717572073 0.05284640076534753 0 -0.023899837773967821 0.050888573150851164 0 -0.021687838218218992 0.051668929865219142 0 -0.021727805636096293 0.052860473200888769 0 -0.022894803717572073 0.05284640076534753 0 -0.019777760752983868 0.048958056015715255 0 -0.019668577791936155 0.048111283409696337 0 -0.019102322180245913 0.047740554046896894 0 -0.021121710607897453 0.050209956913008495 0 -0.023899837773967821 0.050888573150851164 0 -0.021391503526019037 0.048737340820289722 0 -0.021663046071459125 0.050485625571273285 0 -0.020365262025645248 0.048894336759290169 0 -0.019777760752983868 0.048958056015715255 0 -0.019668577791936155 0.048111283409696337 0 -0.020432950379627383 0.048232985266199686 0 -0.019777760752983868 0.048958056015715255 0 -0.020432950379627383 0.048232985266199686 0 -0.020462358060018337 0.049212378868215008 0 -0.020432950379627383 0.048232985266199686 0 -0.021266363153168266 0.048100300566401667 0 -0.020462358060018337 0.049212378868215008 0 -0.021266363153168266 0.048100300566401667 0 -0.021328138743390023 0.049349214996136377 0 -0.020462358060018337 0.049212378868215008 0 -0.022307422830449133 0.048989442471785591 0 -0.021266363153168266 0.048100300566401667 0 -0.021328138743390023 0.049349214996136377 0 -0.022307422830449133 0.048989442471785591 0 -0.021266363153168266 0.048100300566401667 0 -0.022207284344200488 0.04712724526080752 0 -0.020291221121096388 0.050700239771066281 0 -0.021715334868170542 0.050506141576457463 0 -0.021328138743390023 0.049349214996136377 0 -0.022307422830449133 0.048989442471785591 0 -0.021715334868170542 0.050506141576457463 0 -0.021328138743390023 0.049349214996136377 0 -0.020291221121096388 0.050700239771066281 0 -0.021328138743390023 0.049349214996136377 0 -0.020462358060018337 0.049212378868215008 0 -0.023220642954541782 0.052754235395672089 0 -0.022866220610279632 0.051705699766585442 0 -0.02096231737676317 0.046845390079433766 0 -0.022207284344200488 0.04712724526080752 0 -0.021911968407156004 0.045849879732632194 0 -0.021266363153168266 0.048100300566401667 0 -0.02096231737676317 0.046845390079433766 0 -0.022207284344200488 0.04712724526080752 0 -0.020432950379627383 0.048232985266199686 0 -0.021266363153168266 0.048100300566401667 0 -0.02096231737676317 0.046845390079433766 0 -0.019668577791936155 0.048111283409696337 0 -0.020432950379627383 0.048232985266199686 0 -0.020003170594354174 0.047561740529594568 0 -0.020432950379627383 0.048232985266199686 0 -0.02096231737676317 0.046845390079433766 0 -0.020003170594354174 0.047561740529594568 0 -0.019668577791936155 0.048111283409696337 0 -0.019485194457844017 0.047576379185030972 0 -0.019102322180245913 0.047740554046896894 0 -0.019485194457844017 0.047576379185030972 0 -0.019158999075326304 0.047261828766776669 0 -0.019102322180245913 0.047740554046896894 0 -0.019668577791936155 0.048111283409696337 0 -0.020003170594354174 0.047561740529594568 0 -0.019485194457844017 0.047576379185030972 0 -0.020003170594354174 0.047561740529594568 0 -0.019485194457844017 0.047576379185030972 0 -0.019534238697062244 0.047105935140120327 0 -0.020003170594354174 0.047561740529594568 0 -0.019534238697062244 0.047105935140120327 0 -0.020053854467213274 0.046746998336683603 0 -0.019485194457844017 0.047576379185030972 0 -0.019534238697062244 0.047105935140120327 0 -0.019158999075326304 0.047261828766776669 0 -0.019534238697062244 0.047105935140120327 0 -0.020053854467213274 0.046746998336683603 0 -0.019468316595844647 0.046337074312823363 0 -0.019534238697062244 0.047105935140120327 0 -0.019468316595844647 0.046337074312823363 0 -0.019116564445568088 0.046899540171712002 0 -0.019534238697062244 0.047105935140120327 0 -0.019116564445568088 0.046899540171712002 0 -0.019158999075326304 0.047261828766776669 0 -0.02096231737676317 0.046845390079433766 0 -0.020003170594354174 0.047561740529594568 0 -0.020053854467213274 0.046746998336683603 0 -0.02096231737676317 0.046845390079433766 0 -0.020053854467213274 0.046746998336683603 0 -0.020362633627132611 0.045900004533690315 0 -0.020053854467213274 0.046746998336683603 0 -0.020362633627132611 0.045900004533690315 0 -0.019468316595844647 0.046337074312823363 0 -0.020362633627132611 0.045900004533690315 0 -0.020747878571297403 0.045000588451761851 0 -0.021214273116373739 0.045663747716442521 0 -0.021383844518659958 0.045428796152439714 0 -0.02196891528224456 0.044663865252511412 0 -0.019468316595844647 0.046337074312823363 0 -0.019569797513105711 0.045299456335019292 0 -0.018978037324935696 0.045990713251167346 0 -0.020362633627132611 0.045900004533690315 0 -0.019468316595844647 0.046337074312823363 0 -0.019392953903961428 0.044811437682248795 0 -0.020362633627132611 0.045900004533690315 0 -0.019392953903961428 0.044811437682248795 0 -0.020747878571297403 0.045000588451761851 0 -0.019392953903961428 0.044811437682248795 0 -0.020747878571297403 0.045000588451761851 0 -0.020521896627666295 0.044122440718982213 0 -0.020747878571297403 0.045000588451761851 0 -0.021745438012300156 0.044905180428774581 0 -0.021214273116373739 0.045663747716442521 0 -0.020747878571297403 0.045000588451761851 0 -0.021745438012300156 0.044905180428774581 0 -0.020521896627666295 0.044122440718982213 0 -0.02096231737676317 0.046845390079433766 0 -0.020362633627132611 0.045900004533690315 0 -0.021214273116373739 0.045663747716442521 0 -0.02096231737676317 0.046845390079433766 0 -0.021214273116373739 0.045663747716442521 0 -0.021911968407156004 0.045849879732632194 0 -0.021745438012300156 0.044905180428774581 0 -0.021214273116373739 0.045663747716442521 0 -0.021911968407156004 0.045849879732632194 0 -0.022396831157016007 0.045038469751529517 0 -0.021745438012300156 0.044905180428774581 0 -0.021911968407156004 0.045849879732632194 0 -0.022396831157016007 0.045038469751529517 0 -0.021745438012300156 0.044905180428774581 0 -0.022125362662587651 0.044548840807028312 0 -0.021745438012300156 0.044905180428774581 0 -0.022125362662587651 0.044548840807028312 0 -0.021818292926520943 0.044411316312583757 0 -0.021745438012300156 0.044905180428774581 0 -0.021818292926520943 0.044411316312583757 0 -0.021629107164476719 0.044426903942798281 0 -0.022320706299900218 0.043542506858307704 0 -0.022425252143537792 0.043138694898981325 0 -0.021818292926520943 0.044411316312583757 0 -0.021742972350295056 0.044233149374093554 0 -0.021629107164476719 0.044426903942798281 0 -0.021818292926520943 0.044411316312583757 0 -0.021742972350295056 0.044233149374093554 0 -0.021895958558238175 0.044007821489897951 0 -0.022125362662587651 0.044548840807028312 0 -0.021818292926520943 0.044411316312583757 0 -0.021895958558238175 0.044007821489897951 0 -0.022125362662587651 0.044548840807028312 0 -0.021988102433506945 0.043977840656664761 0 -0.022036996173695231 0.044109619692987947 0 -0.021988102433506945 0.043977840656664761 0 -0.022036996173695231 0.044109619692987947 0 -0.022168255240855708 0.043941771017967229 0 -0.021742972350295056 0.044233149374093554 0 -0.021895958558238175 0.044007821489897951 0 -0.021749291785902562 0.044054766766356009 0 -0.022076874594825671 0.044247612243262679 0 -0.021964899967219564 0.044002269467839368 0 -0.022572025728995432 0.044259998583653398 0 -0.022125362662587651 0.044548840807028312 0 -0.022036996173695231 0.044109619692987947 0 -0.022460421470532781 0.044090560735959058 0 -0.022036996173695231 0.044109619692987947 0 -0.022168255240855708 0.043941771017967229 0 -0.022507782691132083 0.04419684374892003 0 -0.02227618558118304 0.044158057723317247 0 -0.022460421470532781 0.044090560735959058 0 -0.022285102588275724 0.043795677032846668 0 -0.022168255240855708 0.043941771017967229 0 -0.022285102588275724 0.043795677032846668 0 -0.022168255240855708 0.043941771017967229 0 -0.022072306064014419 0.043740315249257374 0 -0.021964899967219564 0.044002269467839368 0 -0.021815474121561689 0.043661973658747175 0 -0.021988102433506945 0.043977840656664761 0 -0.022072306064014419 0.043740315249257374 0 -0.021879703044399342 0.043626865584684413 0 -0.021988102433506945 0.043977840656664761 0 -0.022168255240855708 0.043941771017967229 0 -0.022072306064014419 0.043740315249257374 0 -0.021895958558238175 0.044007821489897951 0 -0.021726577119432721 0.043890960409076966 0 -0.021749291785902562 0.044054766766356009 0 -0.022072306064014419 0.043740315249257374 0 -0.022207156328754234 0.043568910362901885 0 -0.021879703044399342 0.043626865584684413 0 -0.022285102588275724 0.043795677032846668 0 -0.022072306064014419 0.043740315249257374 0 -0.022207156328754234 0.043568910362901885 0 -0.022397401002257972 0.043623045787212281 0 -0.022285102588275724 0.043795677032846668 0 -0.022207156328754234 0.043568910362901885 0 -0.021610005578221094 0.043577357403102569 0 -0.021646166926896297 0.043746417312802169 0 -0.021524528125245107 0.043719474715251651 0 -0.021610005578221094 0.043577357403102569 0 -0.021524528125245107 0.043719474715251651 0 -0.0215207973004083 0.04361725691255354 0 -0.021524528125245107 0.043719474715251651 0 -0.0215207973004083 0.04361725691255354 0 -0.021507477099605515 0.043681237419670942 0 -0.021610005578221094 0.043577357403102569 0 -0.0215207973004083 0.04361725691255354 0 -0.02151103387237607 0.04348496431911255 0 -0.021610005578221094 0.043577357403102569 0 -0.021777985163317935 0.043613321883817412 0 -0.021646166926896297 0.043746417312802169 0 -0.021646166926896297 0.043746417312802169 0 -0.021632927234532334 0.043898617373131631 0 -0.021573057311134937 0.043846897611020771 0 -0.021895958558238175 0.044007821489897951 0 -0.021777985163317935 0.043613321883817412 0 -0.021726577119432721 0.043890960409076966 0 -0.021646166926896297 0.043746417312802169 0 -0.021726577119432721 0.043890960409076966 0 -0.021632927234532334 0.043898617373131631 0 -0.021777985163317935 0.043613321883817412 0 -0.021646166926896297 0.043746417312802169 0 -0.021726577119432721 0.043890960409076966 0 -0.021726577119432721 0.043890960409076966 0 -0.021749291785902562 0.044054766766356009 0 -0.021650810553044131 0.044032843122050927 0 -0.021726577119432721 0.043890960409076966 0 -0.021632927234532334 0.043898617373131631 0 -0.021650810553044131 0.044032843122050927 0 -0.021632927234532334 0.043898617373131631 0 -0.021567459321008633 0.043985806140125643 0 -0.021650810553044131 0.044032843122050927 0 -0.021567459321008633 0.043985806140125643 0 -0.021512074753495307 0.043923274284138482 0 -0.02149897984487455 0.044014417675828102 0 -0.021512074753495307 0.043923274284138482 0 -0.021448834298588598 0.043882665184224429 0 -0.02149897984487455 0.044014417675828102 0 -0.021512074753495307 0.043923274284138482 0 -0.021573057311134937 0.043846897611020771 0 -0.021487460154405696 0.043844459593124038 0 -0.021567459321008633 0.043985806140125643 0 -0.021512074753495307 0.043923274284138482 0 -0.021573057311134937 0.043846897611020771 0 -0.021632927234532334 0.043898617373131631 0 -0.021567459321008633 0.043985806140125643 0 -0.021573057311134937 0.043846897611020771 0 -0.021646166926896297 0.043746417312802169 0 -0.021573057311134937 0.043846897611020771 0 -0.021524528125245107 0.043719474715251651 0 -0.021524528125245107 0.043719474715251651 0 -0.021534901119168719 0.043734831198639315 0 -0.021504752530050741 0.043716085768212377 0 -0.021524528125245107 0.043719474715251651 0 -0.021487460154405696 0.043844459593124038 0 -0.021452468695767387 0.043876779528342083 0 -0.02463283835940212 0.043239406006976448 0 -0.024711731543517131 0.043181266544900197 0 -0.021573057311134937 0.043846897611020771 0 -0.021524528125245107 0.043719474715251651 0 -0.021487460154405696 0.043844459593124038 0 -0.024711731543517131 0.043181266544900197 0 -0.026426551790208083 0.042118899264085068 0 -0.021512074753495307 0.043923274284138482 0 -0.021487460154405696 0.043844459593124038 0 -0.021448834298588598 0.043882665184224429 0 -0.024698129993844718 0.04319284647195689 0 -0.024711731543517131 0.043181266544900197 0 -0.024711731543517131 0.043181266544900197 0 -0.024080723369848973 0.042642714707736049 0 -0.024383964996875437 0.041485933451394376 0 -0.024401670004573255 0.043939002547847592 0 -0.023166034417812394 0.043083798318573348 0 -0.021550304506859574 0.04414013976297388 0 -0.021412263394769676 0.044138236148220322 0 -0.021629107164476719 0.044426903942798281 0 -0.021448834298588598 0.043882665184224429 0 -0.02149897984487455 0.044014417675828102 0 -0.021412263394769676 0.044138236148220322 0 -0.024080723369848973 0.042642714707736049 0 -0.026426551790208083 0.042118899264085068 0 -0.02149897984487455 0.044014417675828102 0 -0.021550304506859574 0.04414013976297388 0 -0.021412263394769676 0.044138236148220322 0 -0.021567459321008633 0.043985806140125643 0 -0.02149897984487455 0.044014417675828102 0 -0.021550304506859574 0.04414013976297388 0 -0.021749291785902562 0.044054766766356009 0 -0.021650810553044131 0.044032843122050927 0 -0.021663439238932092 0.044179927995943613 0 -0.021567459321008633 0.043985806140125643 0 -0.021550304506859574 0.04414013976297388 0 -0.021650810553044131 0.044032843122050927 0 -0.021550304506859574 0.04414013976297388 0 -0.021650810553044131 0.044032843122050927 0 -0.021663439238932092 0.044179927995943613 0 -0.021550304506859574 0.04414013976297388 0 -0.021663439238932092 0.044179927995943613 0 -0.021629107164476719 0.044426903942798281 0 -0.021742972350295056 0.044233149374093554 0 -0.021663439238932092 0.044179927995943613 0 -0.021629107164476719 0.044426903942798281 0 -0.021742972350295056 0.044233149374093554 0 -0.021749291785902562 0.044054766766356009 0 -0.021663439238932092 0.044179927995943613 0 -0.019569797513105711 0.045299456335019292 0 -0.0196081549225713 0.044211390430333307 0 -0.01917983622369783 0.044833002936974772 0 -0.02196891528224456 0.044663865252511412 0 -0.024080723369848973 0.042642714707736049 0 -0.024080723369848973 0.042642714707736049 0 -0.022425252143537792 0.043138694898981325 0 -0.019392953903961428 0.044811437682248795 0 -0.019390738225193424 0.04333841042630085 0 -0.020521896627666295 0.044122440718982213 0 -0.032327641283403 0.042114668866996337 0 -0.028177825074143351 0.041267132676626399 0 -0.01917983622369783 0.044833002936974772 0 -0.018662187069659053 0.044824323658817146 0 -0.018888813165999302 0.045335459433293625 0 -0.01917983622369783 0.044833002936974772 0 -0.018662187069659053 0.044824323658817146 0 -0.019249488384056893 0.044344106770333104 0 -0.044164117159488765 0.037587361316999336 0 -0.043384476066110234 0.037370818018199393 0 -0.043441792211175917 0.038549545398575108 0 -0.044164117159488765 0.037587361316999336 0 -0.043846678526495445 0.036750576627029435 0 -0.043384476066110234 0.037370818018199393 0 -0.044164117159488765 0.037587361316999336 0 -0.043846678526495445 0.036750576627029435 0 -0.044305789507790905 0.036627186183681118 0 -0.043846678526495445 0.036750576627029435 0 -0.043425656004959456 0.036272368691961904 0 -0.043384476066110234 0.037370818018199393 0 -0.044305789507790905 0.036627186183681118 0 -0.043932915791264689 0.036224656223256234 0 -0.044538584990946394 0.036080982445476174 0 -0.043846678526495445 0.036750576627029435 0 -0.044305789507790905 0.036627186183681118 0 -0.043932915791264689 0.036224656223256234 0 -0.043846678526495445 0.036750576627029435 0 -0.043932915791264689 0.036224656223256234 0 -0.043425656004959456 0.036272368691961904 0 -0.044164117159488765 0.037587361316999336 0 -0.044305789507790905 0.036627186183681118 0 -0.044839627319385796 0.03667905655997291 0 -0.018662187069659053 0.044824323658817146 0 -0.019156327821388795 0.044164068377421761 0 -0.019249488384056893 0.044344106770333104 0 -0.01915357138974521 0.044160006973485648 0 -0.019249488384056893 0.044344106770333104 0 -0.019289869503395531 0.043982455313396021 0 -0.0196081549225713 0.044211390430333307 0 -0.01917983622369783 0.044833002936974772 0 -0.019249488384056893 0.044344106770333104 0 -0.0196081549225713 0.044211390430333307 0 -0.019249488384056893 0.044344106770333104 0 -0.019289869503395531 0.043982455313396021 0 -0.028177825074143351 0.041267132676626399 0 -0.02806819889395076 0.041255672209874028 0 -0.044305789507790905 0.036627186183681118 0 -0.044839627319385796 0.03667905655997291 0 -0.044538584990946394 0.036080982445476174 0 -0.028177825074143351 0.041267132676626399 0 -0.03021498644168389 0.041490872858327962 0 -0.026426551790208083 0.042118899264085068 0 -0.03021498644168389 0.041490872858327962 0 -0.030314542304428857 0.043023028598492122 0 -0.031422272830879901 0.041570041068359848 0 -0.028382611763559506 0.039465715865123145 0 -0.028177825074143351 0.041267132676626399 0 -0.026426551790208083 0.042118899264085068 0 -0.021534901119168719 0.043734831198639315 0 -0.021510749341812511 0.043782757670682952 0 -0.021502727231797376 0.043744697532088164 0 -0.021510749341812511 0.043782757670682952 0 -0.021502727231797376 0.043744697532088164 0 -0.021464213948091788 0.04375669695969199 0 -0.021534901119168719 0.043734831198639315 0 -0.021502727231797376 0.043744697532088164 0 -0.021504752530050741 0.043716085768212377 0 -0.021466173340417751 0.043706012225060424 0 -0.021464213948091788 0.04375669695969199 0 -0.021370904639665376 0.043650086816121161 0 -0.021524528125245107 0.043719474715251651 0 -0.021504752530050741 0.043716085768212377 0 -0.021507477099605515 0.043681237419670942 0 -0.021502727231797376 0.043744697532088164 0 -0.021504752530050741 0.043716085768212377 0 -0.021466173340417751 0.043706012225060424 0 -0.021504752530050741 0.043716085768212377 0 -0.021507477099605515 0.043681237419670942 0 -0.021474531025590438 0.043660502868454625 0 -0.021504752530050741 0.043716085768212377 0 -0.021466173340417751 0.043706012225060424 0 -0.021474531025590438 0.043660502868454625 0 -0.021502727231797376 0.043744697532088164 0 -0.021466173340417751 0.043706012225060424 0 -0.021464213948091788 0.04375669695969199 0 -0.03021498644168389 0.041490872858327962 0 -0.032088800545935429 0.039906024064425012 0 -0.03021498644168389 0.041490872858327962 0 -0.033809284478602944 0.041966028233034754 0 -0.043932915791264689 0.036224656223256234 0 -0.044538584990946394 0.036080982445476174 0 -0.043519609301867504 0.035413820012664167 0 -0.043633410862686808 0.035545754485490529 0 -0.043519609301867504 0.035413820012664167 0 -0.043483683407145327 0.035263076376970216 0 -0.043932915791264689 0.036224656223256234 0 -0.043519609301867504 0.035413820012664167 0 -0.043425656004959456 0.036272368691961904 0 -0.043483683407145327 0.035263076376970216 0 -0.043258022769359861 0.035224304947793605 0 -0.043217983403616309 0.035309181139493551 0 -0.043483683407145327 0.035263076376970216 0 -0.043258022769359861 0.035224304947793605 0 -0.043320437049485211 0.035249241504676461 0 -0.043519609301867504 0.035413820012664167 0 -0.043483683407145327 0.035263076376970216 0 -0.043320437049485211 0.035249241504676461 0 -0.021370904639665376 0.043650086816121161 0 -0.021452525311307615 0.043553289544958913 0 -0.021337219503582125 0.043390827723153426 0 -0.021452525311307615 0.043553289544958913 0 -0.0215207973004083 0.04361725691255354 0 -0.02151103387237607 0.04348496431911255 0 -0.021452525311307615 0.043553289544958913 0 -0.0215207973004083 0.04361725691255354 0 -0.021474531025590438 0.043660502868454625 0 -0.0215207973004083 0.04361725691255354 0 -0.021507477099605515 0.043681237419670942 0 -0.021474531025590438 0.043660502868454625 0 -0.021466173340417751 0.043706012225060424 0 -0.021370904639665376 0.043650086816121161 0 -0.021474531025590438 0.043660502868454625 0 -0.021370904639665376 0.043650086816121161 0 -0.021452525311307615 0.043553289544958913 0 -0.021474531025590438 0.043660502868454625 0 -0.043527539046805834 0.035069405213521171 0 -0.043283591781281494 0.035232520060100102 0 -0.042969081839198682 0.035128426855330616 0 -0.043527539046805834 0.035069405213521171 0 -0.043600744940594661 0.035242786223911145 0 -0.043283591781281494 0.035232520060100102 0 -0.043600744940594661 0.035242786223911145 0 -0.043283591781281494 0.035232520060100102 0 -0.043371936901627862 0.035326567301806194 0 -0.043283591781281494 0.035232520060100102 0 -0.043258022769359861 0.035224304947793605 0 -0.043371936901627862 0.035326567301806194 0 -0.043258022769359861 0.035224304947793605 0 -0.043320437049485211 0.035249241504676461 0 -0.042969081839198682 0.035128426855330616 0 -0.043283591781281494 0.035232520060100102 0 -0.043258022769359861 0.035224304947793605 0 -0.042969081839198682 0.035128426855330616 0 -0.042969081839198682 0.035128426855330616 0 -0.043063480351679541 0.035808401302809843 0 -0.040992276309614967 0.036962801224610521 0 -0.043320437049485211 0.035249241504676461 0 -0.042969081839198682 0.035128426855330616 0 -0.043063480351679541 0.035808401302809843 0 -0.043519609301867504 0.035413820012664167 0 -0.043320437049485211 0.035249241504676461 0 -0.043063480351679541 0.035808401302809843 0 -0.043519609301867504 0.035413820012664167 0 -0.043063480351679541 0.035808401302809843 0 -0.043425656004959456 0.036272368691961904 0 -0.043139247740920338 0.036123491265989342 0 -0.043198526014770824 0.036407843943050064 0 -0.042969081839198682 0.035128426855330616 0 -0.043335428988830922 0.03457283806799228 0 -0.043703775643840793 0.034759367454831588 0 -0.043527539046805834 0.035069405213521171 0 -0.042969081839198682 0.035128426855330616 0 -0.043703775643840793 0.034759367454831588 0 -0.043335428988830922 0.03457283806799228 0 -0.043816689275080756 0.034460006209975573 0 -0.043703775643840793 0.034759367454831588 0 -0.040992276309614967 0.036962801224610521 0 -0.042650646658690054 0.037186835350011327 0 -0.041566568094181987 0.039111064256389418 0 -0.043335428988830922 0.03457283806799228 0 -0.044113125003951453 0.033821993525312795 0 -0.043816689275080756 0.034460006209975573 0 -0.039353842614432019 0.03881959680425788 0 -0.03874398607724213 0.040015416202478143 0 -0.043425656004959456 0.036272368691961904 0 -0.042650646658690054 0.037186835350011327 0 -0.043936144975199043 0.038906526313291279 0 -0.043063480351679541 0.035808401302809843 0 -0.043425656004959456 0.036272368691961904 0 -0.042650646658690054 0.037186835350011327 0 -0.043063480351679541 0.035808401302809843 0 -0.040992276309614967 0.036962801224610521 0 -0.042650646658690054 0.037186835350011327 0 -0.043936144975199043 0.038906526313291279 0 -0.042526505762857811 0.040563912635965711 0 -0.041566568094181987 0.039111064256389418 0 -0.042650646658690054 0.037186835350011327 0 -0.043936144975199043 0.038906526313291279 0 -0.041566568094181987 0.039111064256389418 0 -0.03874398607724213 0.040015416202478143 0 -0.036658546742122274 0.043442355603486277 0 -0.043936144975199043 0.038906526313291279 0 -0.042526505762857811 0.040563912635965711 0 -0.04430238582046634 0.042157579528253261 0 -0.042526505762857811 0.040563912635965711 0 -0.041566568094181987 0.039111064256389418 0 -0.040844723761843615 0.040822141143872899 0 -0.040992276309614967 0.036962801224610521 0 -0.041566568094181987 0.039111064256389418 0 -0.039080891592433373 0.040194498262599687 0 -0.043198526014770824 0.036407843943050064 0 -0.043749683265080802 0.036889859538311649 0 -0.043335428988830922 0.03457283806799228 0 -0.044033191167302088 0.032406331424901437 0 -0.044113125003951453 0.033821993525312795 0 -0.041566568094181987 0.039111064256389418 0 -0.039080891592433373 0.040194498262599687 0 -0.040844723761843615 0.040822141143872899 0 -0.039080891592433373 0.040194498262599687 0 -0.040844723761843615 0.040822141143872899 0 -0.039726963607635793 0.042253719684309209 0 -0.040844723761843615 0.040822141143872899 0 -0.041482416520800029 0.042368298906098653 0 -0.039726963607635793 0.042253719684309209 0 -0.041482416520800029 0.042368298906098653 0 -0.039726963607635793 0.042253719684309209 0 -0.039824502321658163 0.043944714542216934 0 -0.039726963607635793 0.042253719684309209 0 -0.039824502321658163 0.043944714542216934 0 -0.037341962183387985 0.043976342570126795 0 -0.041482416520800029 0.042368298906098653 0 -0.039824502321658163 0.043944714542216934 0 -0.041813415149105221 0.045467619117951781 0 -0.039824502321658163 0.043944714542216934 0 -0.039001825635263936 0.046039472859257233 0 -0.037341962183387985 0.043976342570126795 0 -0.039824502321658163 0.043944714542216934 0 -0.039001825635263936 0.046039472859257233 0 -0.041813415149105221 0.045467619117951781 0 -0.038415505749698174 0.04447636238823497 0 -0.036658546742122274 0.043442355603486277 0 -0.04055019895241968 0.046538404591131038 0 -0.042225597998263302 0.044312465902750273 0 -0.042503006968842169 0.047736230973719623 0 -0.041482416520800029 0.042368298906098653 0 -0.041813415149105221 0.045467619117951781 0 -0.04430238582046634 0.042157579528253261 0 -0.042526505762857811 0.040563912635965711 0 -0.041482416520800029 0.042368298906098653 0 -0.04430238582046634 0.042157579528253261 0 -0.042526505762857811 0.040563912635965711 0 -0.040844723761843615 0.040822141143872899 0 -0.041482416520800029 0.042368298906098653 0 -0.032327641283403 0.042114668866996337 0 -0.036658546742122274 0.043442355603486277 0 -0.018662187069659053 0.044824323658817146 0 -0.018199055213142516 0.045454789739671736 0 -0.018888813165999302 0.045335459433293625 0 -0.018199055213142516 0.045454789739671736 0 -0.018888813165999302 0.045335459433293625 0 -0.018978037324935696 0.045990713251167346 0 -0.019569797513105711 0.045299456335019292 0 -0.01917983622369783 0.044833002936974772 0 -0.018888813165999302 0.045335459433293625 0 -0.019569797513105711 0.045299456335019292 0 -0.018888813165999302 0.045335459433293625 0 -0.018978037324935696 0.045990713251167346 0 -0.018199055213142516 0.045454789739671736 0 -0.018648143305330957 0.046332869977908489 0 -0.01816987222116483 0.046533583964123722 0 -0.018199055213142516 0.045454789739671736 0 -0.018978037324935696 0.045990713251167346 0 -0.018648143305330957 0.046332869977908489 0 -0.036658546742122274 0.043442355603486277 0 -0.033419999893261991 0.047079478994553017 0 -0.01816987222116483 0.046533583964123722 0 -0.01875926087988862 0.047012826040867595 0 -0.018995552775661461 0.048152469312637218 0 -0.018648143305330957 0.046332869977908489 0 -0.01816987222116483 0.046533583964123722 0 -0.01875926087988862 0.047012826040867595 0 -0.018978037324935696 0.045990713251167346 0 -0.018648143305330957 0.046332869977908489 0 -0.019116564445568088 0.046899540171712002 0 -0.019468316595844647 0.046337074312823363 0 -0.018978037324935696 0.045990713251167346 0 -0.019116564445568088 0.046899540171712002 0 -0.01875926087988862 0.047012826040867595 0 -0.019116564445568088 0.046899540171712002 0 -0.019158999075326304 0.047261828766776669 0 -0.018648143305330957 0.046332869977908489 0 -0.01875926087988862 0.047012826040867595 0 -0.019116564445568088 0.046899540171712002 0 -0.01875926087988862 0.047012826040867595 0 -0.019158999075326304 0.047261828766776669 0 -0.019102322180245913 0.047740554046896894 0 -0.019670505973046166 0.048149434106679011 0 -0.020365262025645248 0.048894336759290169 0 -0.01875926087988862 0.047012826040867595 0 -0.020539237309470677 0.048810955289260147 0 -0.021391503526019037 0.048737340820289722 0 -0.019380973722485647 0.049233398555496882 0 -0.020539237309470677 0.048810955289260147 0 -0.018995552775661461 0.048152469312637218 0 -0.018355525155108503 0.04924167001237964 0 -0.01816987222116483 0.046533583964123722 0 -0.018995552775661461 0.048152469312637218 0 -0.01875926087988862 0.047012826040867595 0 -0.020539237309470677 0.048810955289260147 0 -0.018995552775661461 0.048152469312637218 0 -0.032453546231934943 0.050494552317353648 0 -0.033419999893261991 0.047079478994553017 0 -0.018355525155108503 0.04924167001237964 0 -0.019380973722485647 0.049233398555496882 0 -0.018995552775661461 0.048152469312637218 0 -0.042801572341449753 0.051366868842380675 0 -0.042503006968842169 0.047736230973719623 0 -0.040959400361831814 0.049601345214381608 0 -0.040712643721473367 0.051317025884106429 0 -0.042801572341449753 0.051366868842380675 0 -0.040959400361831814 0.049601345214381608 0 -0.040712643721473367 0.051317025884106429 0 -0.040959400361831814 0.049601345214381608 0 -0.039471925867786264 0.050277299539364974 0 -0.040959400361831814 0.049601345214381608 0 -0.039471925867786264 0.050277299539364974 0 -0.038910574736779613 0.048695079146316635 0 -0.038517437788120126 0.051549113976111852 0 -0.039471925867786264 0.050277299539364974 0 -0.038100344938025985 0.049972789245491894 0 -0.039471925867786264 0.050277299539364974 0 -0.038910574736779613 0.048695079146316635 0 -0.038100344938025985 0.049972789245491894 0 -0.040959400361831814 0.049601345214381608 0 -0.038910574736779613 0.048695079146316635 0 -0.040715660681195961 0.048141753668823936 0 -0.039001825635263936 0.046039472859257233 0 -0.041813415149105221 0.045467619117951781 0 -0.038910574736779613 0.048695079146316635 0 -0.04055019895241968 0.046538404591131038 0 -0.038910574736779613 0.048695079146316635 0 -0.040715660681195961 0.048141753668823936 0 -0.038415505749698174 0.04447636238823497 0 -0.038273585481499436 0.045606236499439928 0 -0.04055019895241968 0.046538404591131038 0 -0.042503006968842169 0.047736230973719623 0 -0.040715660681195961 0.048141753668823936 0 -0.042503006968842169 0.047736230973719623 0 -0.040959400361831814 0.049601345214381608 0 -0.040715660681195961 0.048141753668823936 0 -0.049792945539408828 0.029574638512271493 0 -0.051404990005164151 0.028933959441032383 0 -0.051241567685131641 0.030437449288702071 0 -0.039001825635263936 0.046039472859257233 0 -0.038910574736779613 0.048695079146316635 0 -0.035945104698801564 0.047751330071111348 0 -0.048495082148283665 0.04570024015948683 0 -0.048965037798638193 0.037891548680806089 0 -0.037239830209008097 0.051275714332247882 0 -0.035945104698801564 0.047751330071111348 0 -0.038100344938025985 0.049972789245491894 0 -0.038910574736779613 0.048695079146316635 0 -0.035945104698801564 0.047751330071111348 0 -0.038100344938025985 0.049972789245491894 0 -0.037239830209008097 0.051275714332247882 0 -0.038517437788120126 0.051549113976111852 0 -0.038100344938025985 0.049972789245491894 0 -0.053227263675002488 0.037295463390224728 0 -0.048965037798638193 0.037891548680806089 0 -0.056125040720785863 0.044636354765164872 0 -0.056237669321563696 0.04462288133351943 0 -0.056152448501634443 0.044410780465115748 0 -0.050653351020347091 0.027482122789366993 0 -0.049792945539408828 0.029574638512271493 0 -0.051404990005164151 0.028933959441032383 0 -0.052883586511992153 0.027371652196427881 0 -0.050653351020347091 0.027482122789366993 0 -0.051404990005164151 0.028933959441032383 0 -0.052883586511992153 0.027371652196427881 0 -0.051404990005164151 0.028933959441032383 0 -0.052851355474358472 0.028912075082393573 0 -0.052883586511992153 0.027371652196427881 0 -0.052851355474358472 0.028912075082393573 0 -0.054473655768133039 0.029370642210458747 0 -0.055820858671725912 0.035887343517361427 0 -0.056549683895347341 0.034771358677718855 0 -0.052506228436378533 0.030068256127796903 0 -0.053946832661308564 0.031383064455752771 0 -0.054473655768133039 0.029370642210458747 0 -0.052851355474358472 0.028912075082393573 0 -0.052506228436378533 0.030068256127796903 0 -0.054473655768133039 0.029370642210458747 0 -0.051404990005164151 0.028933959441032383 0 -0.052506228436378533 0.030068256127796903 0 -0.051241567685131641 0.030437449288702071 0 -0.051404990005164151 0.028933959441032383 0 -0.052851355474358472 0.028912075082393573 0 -0.052506228436378533 0.030068256127796903 0 -0.051241567685131641 0.030437449288702071 0 -0.052104306590609092 0.031686146010288962 0 -0.050437419220002472 0.031967700789479671 0 -0.052506228436378533 0.030068256127796903 0 -0.051241567685131641 0.030437449288702071 0 -0.052104306590609092 0.031686146010288962 0 -0.052506228436378533 0.030068256127796903 0 -0.052104306590609092 0.031686146010288962 0 -0.053946832661308564 0.031383064455752771 0 -0.052104306590609092 0.031686146010288962 0 -0.053946832661308564 0.031383064455752771 0 -0.053556812779591317 0.033245344665049609 0 -0.052104306590609092 0.031686146010288962 0 -0.051648239383115961 0.032972738142895926 0 -0.050437419220002472 0.031967700789479671 0 -0.052104306590609092 0.031686146010288962 0 -0.051648239383115961 0.032972738142895926 0 -0.053556812779591317 0.033245344665049609 0 -0.048870565185850791 0.029302705316713851 0 -0.047390501627125173 0.031745982683838554 0 -0.04849293208693678 0.032901586244728859 0 -0.048870565185850791 0.029302705316713851 0 -0.046150805283525824 0.030759931851761044 0 -0.047390501627125173 0.031745982683838554 0 -0.047134148758715508 0.024191696474400077 0 -0.048870565185850791 0.029302705316713851 0 -0.045622512878878856 0.028141452421520729 0 -0.049792945539408828 0.029574638512271493 0 -0.051241567685131641 0.030437449288702071 0 -0.050437419220002472 0.031967700789479671 0 -0.048965037798638193 0.037891548680806089 0 -0.048711409245871834 0.032420571681799688 0 -0.048965037798638193 0.037891548680806089 0 -0.045392708880977538 0.037329959283243862 0 -0.039001825635263936 0.046039472859257233 0 -0.035945104698801564 0.047751330071111348 0 -0.037341962183387985 0.043976342570126795 0 -0.039080891592433373 0.040194498262599687 0 -0.039726963607635793 0.042253719684309209 0 -0.037341962183387985 0.043976342570126795 0 -0.043749683265080802 0.036889859538311649 0 -0.045392708880977538 0.037329959283243862 0 -0.048870565185850791 0.029302705316713851 0 -0.045622512878878856 0.028141452421520729 0 -0.046150805283525824 0.030759931851761044 0 -0.044033191167302088 0.032406331424901437 0 -0.045622512878878856 0.028141452421520729 0 -0.046150805283525824 0.030759931851761044 0 -0.044033191167302088 0.032406331424901437 0 -0.046150805283525824 0.030759931851761044 0 -0.046320403238347255 0.032878117224443643 0 -0.044033191167302088 0.032406331424901437 0 -0.046320403238347255 0.032878117224443643 0 -0.044113125003951453 0.033821993525312795 0 -0.046320403238347255 0.032878117224443643 0 -0.044113125003951453 0.033821993525312795 0 -0.049790883333738774 0.035654180434563497 0 -0.046150805283525824 0.030759931851761044 0 -0.046320403238347255 0.032878117224443643 0 -0.047390501627125173 0.031745982683838554 0 -0.048870565185850791 0.029302705316713851 0 -0.04849293208693678 0.032901586244728859 0 -0.050770680875701545 0.034702413731100674 0 -0.048711409245871834 0.032420571681799688 0 -0.049405474987775623 0.033358450454698936 0 -0.046320403238347255 0.032878117224443643 0 -0.04849293208693678 0.032901586244728859 0 -0.049790883333738774 0.035654180434563497 0 -0.046320403238347255 0.032878117224443643 0 -0.047390501627125173 0.031745982683838554 0 -0.04849293208693678 0.032901586244728859 0 -0.04849293208693678 0.032901586244728859 0 -0.049790883333738774 0.035654180434563497 0 -0.050770680875701545 0.034702413731100674 0 -0.044404566384225373 0.034414140577183207 0 -0.044226324056122521 0.034373372594761517 0 -0.044306489181632325 0.034623645356532125 0 -0.044067607874940948 0.034526564730412532 0 -0.044226324056122521 0.034373372594761517 0 -0.044306489181632325 0.034623645356532125 0 -0.044404566384225373 0.034414140577183207 0 -0.044306489181632325 0.034623645356532125 0 -0.044546099663493065 0.034624170455753819 0 -0.045853429803832398 0.033756635252595577 0 -0.047340155690478357 0.033904981921278651 0 -0.044113125003951453 0.033821993525312795 0 -0.044404566384225373 0.034414140577183207 0 -0.044226324056122521 0.034373372594761517 0 -0.044113125003951453 0.033821993525312795 0 -0.044067607874940948 0.034526564730412532 0 -0.043816689275080756 0.034460006209975573 0 -0.044113125003951453 0.033821993525312795 0 -0.044067607874940948 0.034526564730412532 0 -0.044226324056122521 0.034373372594761517 0 -0.044067607874940948 0.034526564730412532 0 -0.043816689275080756 0.034460006209975573 0 -0.043703775643840793 0.034759367454831588 0 -0.044067607874940948 0.034526564730412532 0 -0.043703775643840793 0.034759367454831588 0 -0.043933455075001834 0.034928874987595844 0 -0.044067607874940948 0.034526564730412532 0 -0.043933455075001834 0.034928874987595844 0 -0.044306489181632325 0.034623645356532125 0 -0.043527539046805834 0.035069405213521171 0 -0.043703775643840793 0.034759367454831588 0 -0.043933455075001834 0.034928874987595844 0 -0.044306489181632325 0.034623645356532125 0 -0.044218604323709283 0.0349656160775502 0 -0.044469319191576422 0.034844190618004187 0 -0.043933455075001834 0.034928874987595844 0 -0.044306489181632325 0.034623645356532125 0 -0.044218604323709283 0.0349656160775502 0 -0.044218604323709283 0.0349656160775502 0 -0.043996314011287098 0.035194619534818693 0 -0.04438253885292865 0.035190209638919265 0 -0.044218604323709283 0.0349656160775502 0 -0.044469319191576422 0.034844190618004187 0 -0.04438253885292865 0.035190209638919265 0 -0.043600744940594661 0.035242786223911145 0 -0.043933455075001834 0.034928874987595844 0 -0.043996314011287098 0.035194619534818693 0 -0.043933455075001834 0.034928874987595844 0 -0.044218604323709283 0.0349656160775502 0 -0.043996314011287098 0.035194619534818693 0 -0.043527539046805834 0.035069405213521171 0 -0.043600744940594661 0.035242786223911145 0 -0.043933455075001834 0.034928874987595844 0 -0.044688475050387803 0.035021654923799765 0 -0.045020233594404671 0.034907683996363299 0 -0.044890427250225073 0.035294064014934824 0 -0.044688475050387803 0.035021654923799765 0 -0.044709764628076985 0.034764423955889315 0 -0.045020233594404671 0.034907683996363299 0 -0.044688475050387803 0.035021654923799765 0 -0.044469319191576422 0.034844190618004187 0 -0.04438253885292865 0.035190209638919265 0 -0.044688475050387803 0.035021654923799765 0 -0.044469319191576422 0.034844190618004187 0 -0.044709764628076985 0.034764423955889315 0 -0.044546099663493065 0.034624170455753819 0 -0.044709764628076985 0.034764423955889315 0 -0.044861487758405802 0.03454406866904966 0 -0.044469319191576422 0.034844190618004187 0 -0.044546099663493065 0.034624170455753819 0 -0.044709764628076985 0.034764423955889315 0 -0.044306489181632325 0.034623645356532125 0 -0.044469319191576422 0.034844190618004187 0 -0.044546099663493065 0.034624170455753819 0 -0.044709764628076985 0.034764423955889315 0 -0.044861487758405802 0.03454406866904966 0 -0.045020233594404671 0.034907683996363299 0 -0.053480286729396108 0.036243171103725866 0 -0.05287808781104953 0.034514130391645338 0 -0.054846808528046777 0.035583524392143649 0 -0.047340155690478357 0.033904981921278651 0 -0.049873244914797554 0.033530841708459512 0 -0.044404566384225373 0.034414140577183207 0 -0.044546099663493065 0.034624170455753819 0 -0.044861487758405802 0.03454406866904966 0 -0.053480286729396108 0.036243171103725866 0 -0.050770680875701545 0.034702413731100674 0 -0.05287808781104953 0.034514130391645338 0 -0.049790883333738774 0.035654180434563497 0 -0.053480286729396108 0.036243171103725866 0 -0.050770680875701545 0.034702413731100674 0 -0.051648239383115961 0.032972738142895926 0 -0.050437419220002472 0.031967700789479671 0 -0.050770680875701545 0.034702413731100674 0 -0.051648239383115961 0.032972738142895926 0 -0.050770680875701545 0.034702413731100674 0 -0.05287808781104953 0.034514130391645338 0 -0.051648239383115961 0.032972738142895926 0 -0.05287808781104953 0.034514130391645338 0 -0.053556812779591317 0.033245344665049609 0 -0.05287808781104953 0.034514130391645338 0 -0.053556812779591317 0.033245344665049609 0 -0.054846808528046777 0.035583524392143649 0 -0.053556812779591317 0.033245344665049609 0 -0.055732426111472957 0.033727889522043024 0 -0.055365804183961642 0.03270828013350259 0 -0.054995395807455612 0.033034516807561837 0 -0.055686114231067493 0.033188360237249775 0 -0.053556812779591317 0.033245344665049609 0 -0.055747110164641962 0.034401784965033821 0 -0.054846808528046777 0.035583524392143649 0 -0.055732426111472957 0.033727889522043024 0 -0.056864284699837002 0.033023418709723987 0 -0.056996948923680915 0.033680639380971183 0 -0.055732426111472957 0.033727889522043024 0 -0.056996948923680915 0.033680639380971183 0 -0.055365804183961642 0.03270828013350259 0 -0.056219609810634188 0.035984657639569546 0 -0.056991649341608872 0.036276953349584064 0 -0.057673252030513211 0.035444093404484275 0 -0.055686114231067493 0.033188360237249775 0 -0.056418824476886037 0.033000533265202733 0 -0.055747110164641962 0.034401784965033821 0 -0.056219609810634188 0.035984657639569546 0 -0.057673252030513211 0.035444093404484275 0 -0.056219609810634188 0.035984657639569546 0 -0.056991649341608872 0.036276953349584064 0 -0.056308114609803152 0.036723947270021789 0 -0.053480286729396108 0.036243171103725866 0 -0.054846808528046777 0.035583524392143649 0 -0.056309943648954884 0.036827727352303198 0 -0.055747110164641962 0.034401784965033821 0 -0.056219609810634188 0.035984657639569546 0 -0.054846808528046777 0.035583524392143649 0 -0.056219609810634188 0.035984657639569546 0 -0.054846808528046777 0.035583524392143649 0 -0.056309943648954884 0.036827727352303198 0 -0.049873244914797554 0.033530841708459512 0 -0.054245640699779794 0.032130578990049945 0 -0.044861487758405802 0.03454406866904966 0 -0.045355097327398883 0.03466573935623677 0 -0.045020233594404671 0.034907683996363299 0 -0.05433350019888309 0.032577288372358598 0 -0.054245640699779794 0.032130578990049945 0 -0.056991649341608872 0.036276953349584064 0 -0.056308114609803152 0.036723947270021789 0 -0.057713686694566411 0.036578322350080794 0 -0.054245640699779794 0.032130578990049945 0 -0.053343191339132581 0.031270141118699343 0 -0.059555310605264283 0.030472055805261973 0 -0.059313975367446786 0.027892291024425881 0 -0.058192236336690052 0.029260801293806364 0 -0.059313975367446786 0.027892291024425881 0 -0.05771021833458069 0.027854276336758708 0 -0.058192236336690052 0.029260801293806364 0 -0.045379261697184349 0.035072428703558242 0 -0.045020233594404671 0.034907683996363299 0 -0.045181188136199528 0.035281295499675243 0 -0.045355097327398883 0.03466573935623677 0 -0.045379261697184349 0.035072428703558242 0 -0.045020233594404671 0.034907683996363299 0 -0.055979688442510563 0.028784887386375618 0 -0.054999990490709014 0.027937602962352041 0 -0.055782053434815008 0.029823245341250956 0 -0.055979688442510563 0.028784887386375618 0 -0.056423269570284519 0.028025055330640897 0 -0.056712091481104725 0.02935442691377782 0 -0.055979688442510563 0.028784887386375618 0 -0.054999990490709014 0.027937602962352041 0 -0.056423269570284519 0.028025055330640897 0 -0.056705911761063398 0.029972639822348209 0 -0.056248162734383052 0.030723376203929027 0 -0.05771021833458069 0.027854276336758708 0 -0.056682580845054932 0.029371944182343863 0 -0.058192236336690052 0.029260801293806364 0 -0.056423269570284519 0.028025055330640897 0 -0.05771021833458069 0.027854276336758708 0 -0.056712091481104725 0.02935442691377782 0 -0.059555310605264283 0.030472055805261973 0 -0.058192236336690052 0.029260801293806364 0 -0.056492427219130427 0.029654390689537131 0 -0.054245640699779794 0.032130578990049945 0 -0.056081222834505437 0.031000947139908818 0 -0.056308114609803152 0.036723947270021789 0 -0.057713686694566411 0.036578322350080794 0 -0.05882407405919346 0.037358609261405329 0 -0.056682580845054932 0.029371944182343863 0 -0.058192236336690052 0.029260801293806364 0 -0.056492427219130427 0.029654390689537131 0 -0.056991649341608872 0.036276953349584064 0 -0.057713686694566411 0.036578322350080794 0 -0.057784632986350476 0.03616200677980836 0 -0.057713686694566411 0.036578322350080794 0 -0.058540270440740672 0.036433264176346278 0 -0.057784632986350476 0.03616200677980836 0 -0.057713686694566411 0.036578322350080794 0 -0.058540270440740672 0.036433264176346278 0 -0.05882407405919346 0.037358609261405329 0 -0.056081222834505437 0.031000947139908818 0 -0.055589599354272302 0.031649186548220645 0 -0.056524208266692966 0.029637548939621203 0 -0.055782053434815008 0.029823245341250956 0 -0.055703488122201918 0.030865915210960528 0 -0.058540270440740672 0.036433264176346278 0 -0.05882407405919346 0.037358609261405329 0 -0.059485607448347154 0.036365347894599602 0 -0.054999990490709014 0.027937602962352041 0 -0.055782053434815008 0.029823245341250956 0 -0.054999992699515769 0.030516669730722062 0 -0.056712091481104725 0.02935442691377782 0 -0.056524208266692966 0.029637548939621203 0 -0.055782053434815008 0.029823245341250956 0 -0.055979688442510563 0.028784887386375618 0 -0.056712091481104725 0.02935442691377782 0 -0.055782053434815008 0.029823245341250956 0 -0.056248162734383052 0.030723376203929027 0 -0.056081222834505437 0.031000947139908818 0 -0.055782053434815008 0.029823245341250956 0 -0.055703488122201918 0.030865915210960528 0 -0.054999992699515769 0.030516669730722062 0 -0.055589599354272302 0.031649186548220645 0 -0.055000883865651336 0.030522878256335519 0 -0.055706605204643309 0.030870846846854257 0 -0.054999998323737607 0.030516696774028473 0 -0.0549999996323597 0.031920551287178404 0 -0.055443926390154913 0.031494240396929628 0 -0.054999742542586529 0.031922473980695323 0 -0.056864284699837002 0.033023418709723987 0 -0.055589599354272302 0.031649186548220645 0 -0.055001877349049919 0.031920340891212366 0 -0.054999742542586529 0.031922473980695323 0 -0.056864284699837002 0.033023418709723987 0 -0.056996948923680915 0.033680639380971183 0 -0.055589599354272302 0.031649186548220645 0 -0.056418824476886037 0.033000533265202733 0 -0.058540270440740672 0.036433264176346278 0 -0.059485607448347154 0.036365347894599602 0 -0.057673252030513211 0.035444093404484275 0 -0.056991649341608872 0.036276953349584064 0 -0.057784632986350476 0.03616200677980836 0 -0.057673252030513211 0.035444093404484275 0 -0.058540270440740672 0.036433264176346278 0 -0.057784632986350476 0.03616200677980836 0 -0.057673252030513211 0.035444093404484275 0 -0.054999742542586529 0.031922473980695323 0 -0.056996948923680915 0.033680639380971183 0 -0.054999404527275919 0.04004296455335854 0 -0.056996948923680915 0.033680639380971183 0 -0.058826029398636681 0.036526395139721481 0 -0.054999404527275919 0.04004296455335854 0 -0.056831226253103689 0.033980236018295792 0 -0.056857991021479717 0.034255729121673913 0 -0.056996948923680915 0.033680639380971183 0 -0.055365804183961642 0.03270828013350259 0 -0.056075698913163212 0.03158446573741714 0 -0.053946832661308564 0.031383064455752771 0 -0.053556812779591317 0.033245344665049609 0 -0.055365804183961642 0.03270828013350259 0 -0.053946832661308564 0.031383064455752771 0 -0.055365804183961642 0.03270828013350259 0 -0.056075698913163212 0.03158446573741714 0 -0.056857991021479717 0.034255729121673913 0 -0.056549683895347341 0.034771358677718855 0 -0.053946832661308564 0.031383064455752771 0 -0.056075698913163212 0.03158446573741714 0 -0.054473655768133039 0.029370642210458747 0 -0.058826029398636681 0.036526395139721481 0 -0.058306049897645054 0.038995948957185549 0 -0.060247412880495767 0.039308139667784806 0 -0.059948934818064306 0.041462571170049846 0 -0.060247412880495767 0.039308139667784806 0 -0.059057881678268982 0.040741132590717176 0 -0.059948934818064306 0.041462571170049846 0 -0.060964435566582632 0.041226449082149952 0 -0.060247412880495767 0.039308139667784806 0 -0.058306049897645054 0.038995948957185549 0 -0.060247412880495767 0.039308139667784806 0 -0.059057881678268982 0.040741132590717176 0 -0.058306049897645054 0.038995948957185549 0 -0.059057881678268982 0.040741132590717176 0 -0.057280323474937084 0.040654633731354167 0 -0.058826029398636681 0.036526395139721481 0 -0.058306049897645054 0.038995948957185549 0 -0.054999404527275919 0.04004296455335854 0 -0.056821596437003186 0.04294150220246188 0 -0.057280323474937084 0.040654633731354167 0 -0.054999404527275919 0.04004296455335854 0 -0.058306049897645054 0.038995948957185549 0 -0.057280323474937084 0.040654633731354167 0 -0.054999404527275919 0.04004296455335854 0 -0.058303914299323849 0.015104392584606528 0 -0.057816370086926021 0.016372957790049106 0 -0.058414215205097146 0.017289818956175984 0 -0.054753573691962716 0.018569429648802715 0 -0.054419287196561174 0.019810350278274446 0 -0.057531720180300318 0.015702924190032795 0 -0.057001537348712238 0.016292241284350445 0 -0.057018925196966795 0.014999600328350363 0 -0.057001537348712238 0.016292241284350445 0 -0.055967855454470077 0.015629473208053697 0 -0.057018925196966795 0.014999600328350363 0 -0.057531720180300318 0.015702924190032795 0 -0.058303914299323849 0.015104392584606528 0 -0.057816370086926021 0.016372957790049106 0 -0.057531720180300318 0.015702924190032795 0 -0.058303914299323849 0.015104392584606528 0 -0.057018925196966795 0.014999600328350363 0 -0.057816370086926021 0.016372957790049106 0 -0.057447626212692803 0.017161987542880588 0 -0.058414215205097146 0.017289818956175984 0 -0.057816370086926021 0.016372957790049106 0 -0.057001537348712238 0.016292241284350445 0 -0.057447626212692803 0.017161987542880588 0 -0.057531720180300318 0.015702924190032795 0 -0.057816370086926021 0.016372957790049106 0 -0.057001537348712238 0.016292241284350445 0 -0.057001537348712238 0.016292241284350445 0 -0.05677615691843782 0.017050534060883214 0 -0.057447626212692803 0.017161987542880588 0 -0.057001537348712238 0.016292241284350445 0 -0.05677615691843782 0.017050534060883214 0 -0.056331015421606387 0.016518153779879897 0 -0.05677615691843782 0.017050534060883214 0 -0.056331015421606387 0.016518153779879897 0 -0.055724886813522855 0.017048822329224399 0 -0.057001537348712238 0.016292241284350445 0 -0.056331015421606387 0.016518153779879897 0 -0.055967855454470077 0.015629473208053697 0 -0.056331015421606387 0.016518153779879897 0 -0.055724886813522855 0.017048822329224399 0 -0.055967855454470077 0.015629473208053697 0 -0.054999851495265921 0.016999217008747 0 -0.055967855454470077 0.015629473208053697 0 -0.054999443164056687 0.013796203005296324 0 -0.054999851495265921 0.016999217008747 0 -0.055724886813522855 0.017048822329224399 0 -0.055967855454470077 0.015629473208053697 0 -0.055967855454470077 0.015629473208053697 0 -0.054999443164056687 0.013796203005296324 0 -0.056269815468469007 0.013911077154269967 0 -0.055967855454470077 0.015629473208053697 0 -0.056269815468469007 0.013911077154269967 0 -0.057018925196966795 0.014999600328350363 0 -0.056269815468469007 0.013911077154269967 0 -0.057363709850751898 0.013392423210835723 0 -0.056425916482049296 0.011608910239690445 0 -0.057363709850751898 0.013392423210835723 0 -0.059420633089864061 0.015081616976102327 0 -0.05823328508468275 0.010700844768578308 0 -0.056269815468469007 0.013911077154269967 0 -0.057018925196966795 0.014999600328350363 0 -0.057363709850751898 0.013392423210835723 0 -0.058303914299323849 0.015104392584606528 0 -0.057018925196966795 0.014999600328350363 0 -0.057363709850751898 0.013392423210835723 0 -0.058303914299323849 0.015104392584606528 0 -0.057363709850751898 0.013392423210835723 0 -0.059420633089864061 0.015081616976102327 0 -0.05788781071465085 0.0094147362512624327 0 -0.058761848044185556 0.0076236479598854965 0 -0.05823328508468275 0.010700844768578308 0 -0.055576541868635199 0.013021484689317218 0 -0.055935395663905846 0.012128660085196814 0 -0.05788781071465085 0.0094147362512624327 0 -0.058034522860146619 0.0081282474904575703 0 -0.057673997997755438 0.008151873827671581 0 -0.058034522860146619 0.0081282474904575703 0 -0.057673997997755438 0.008151873827671581 0 -0.057912024031346467 0.0074239981575062956 0 -0.058034522860146619 0.0081282474904575703 0 -0.058761848044185556 0.0076236479598854965 0 -0.057912024031346467 0.0074239981575062956 0 -0.05788781071465085 0.0094147362512624327 0 -0.058034522860146619 0.0081282474904575703 0 -0.058761848044185556 0.0076236479598854965 0 -0.05788781071465085 0.0094147362512624327 0 -0.057673997997755438 0.008151873827671581 0 -0.057465339836806371 0.0083937533351514573 0 -0.057673997997755438 0.008151873827671581 0 -0.057208009443341298 0.0073661334671642582 0 -0.057543792175904697 0.0074538503922120533 0 -0.057673997997755438 0.008151873827671581 0 -0.057543792175904697 0.0074538503922120533 0 -0.057912024031346467 0.0074239981575062956 0 -0.057208009443341298 0.0073661334671642582 0 -0.056841009307715858 0.0072567871711692869 0 -0.057465339836806371 0.0083937533351514573 0 -0.057673997997755438 0.008151873827671581 0 -0.057208009443341298 0.0073661334671642582 0 -0.057465339836806371 0.0083937533351514573 0 -0.057208009443341298 0.0073661334671642582 0 -0.0574611460773976 0.0069180018276131412 0 -0.05704244279317687 0.006703731866389521 0 -0.0574611460773976 0.0069180018276131412 0 -0.057912024031346467 0.0074239981575062956 0 -0.057913176984041567 0.0067286398227303706 0 -0.057208009443341298 0.0073661334671642582 0 -0.057543792175904697 0.0074538503922120533 0 -0.0574611460773976 0.0069180018276131412 0 -0.057543792175904697 0.0074538503922120533 0 -0.0574611460773976 0.0069180018276131412 0 -0.057912024031346467 0.0074239981575062956 0 -0.0574611460773976 0.0069180018276131412 0 -0.057913176984041567 0.0067286398227303706 0 -0.057400248873267473 0.0063377984882584774 0 -0.05704244279317687 0.006703731866389521 0 -0.057400248873267473 0.0063377984882584774 0 -0.056797179430118847 0.0061748587320754273 0 -0.0574611460773976 0.0069180018276131412 0 -0.05704244279317687 0.006703731866389521 0 -0.057400248873267473 0.0063377984882584774 0 -0.059420633089864061 0.015081616976102327 0 -0.059878982847239838 0.018739769695135005 0 -0.05855764697740206 0.018145567952889918 0 -0.058303914299323849 0.015104392584606528 0 -0.059420633089864061 0.015081616976102327 0 -0.05855764697740206 0.018145567952889918 0 -0.055576541868635199 0.013021484689317218 0 -0.054248582948944364 0.016038913147711154 0 -0.058761848044185556 0.0076236479598854965 0 -0.057913176984041567 0.0067286398227303706 0 -0.058315945427316856 0.0061557581431659694 0 -0.058761848044185556 0.0076236479598854965 0 -0.057912024031346467 0.0074239981575062956 0 -0.057913176984041567 0.0067286398227303706 0 -0.058315945427316856 0.0061557581431659694 0 -0.057467567239358142 0.0057476759217324662 0 -0.058029663488215519 0.0051510884598628239 0 -0.054248582948944364 0.016038913147711154 0 -0.051753856517439592 0.024087310697015172 0 -0.059878982847239838 0.018739769695135005 0 -0.05882130636778498 0.021095752739795158 0 -0.05855764697740206 0.018145567952889918 0 -0.057913176984041567 0.0067286398227303706 0 -0.058315945427316856 0.0061557581431659694 0 -0.057767574250536906 0.0062287579213742431 0 -0.058315945427316856 0.0061557581431659694 0 -0.057767574250536906 0.0062287579213742431 0 -0.057467567239358142 0.0057476759217324662 0 -0.057400248873267473 0.0063377984882584774 0 -0.057467567239358142 0.0057476759217324662 0 -0.056797179430118847 0.0061748587320754273 0 -0.057913176984041567 0.0067286398227303706 0 -0.057767574250536906 0.0062287579213742431 0 -0.057400248873267473 0.0063377984882584774 0 -0.057767574250536906 0.0062287579213742431 0 -0.057400248873267473 0.0063377984882584774 0 -0.057467567239358142 0.0057476759217324662 0 -0.051504727842425949 0.024869846187003577 0 -0.050885465650050192 0.022859713356896398 0 -0.04552142177738349 0.036315899733659354 0 -0.045131579076950055 0.036063437313942973 0 -0.044934553079235329 0.036354758092733544 0 -0.057467567239358142 0.0057476759217324662 0 -0.057921982629924942 0.005078641616124582 0 -0.056611732604709336 0.0052054461864511677 0 -0.059878982847239838 0.018739769695135005 0 -0.05882130636778498 0.021095752739795158 0 -0.060378612998720403 0.022308023848044506 0 -0.053265335518714901 0.022978101944975276 0 -0.051753856517439592 0.024087310697015172 0 -0.053265335518714901 0.022978101944975276 0 -0.052718808273133605 0.024552800645801631 0 -0.057467567239358142 0.0057476759217324662 0 -0.058029663488215519 0.0051510884598628239 0 -0.057921982629924942 0.005078641616124582 0 -0.051753856517439592 0.024087310697015172 0 -0.051504727842425949 0.024869846187003577 0 -0.054839357984990733 0.026931199593801507 0 -0.054377763982495268 0.023907283760299138 0 -0.050969922389892897 0.023961653281264872 0 -0.051753856517439592 0.024087310697015172 0 -0.051669602542856172 0.024884629951065357 0 -0.051669602542856172 0.024884629951065357 0 -0.051504727842425949 0.024869846187003577 0 -0.053449583850720857 0.02483994928525533 0 -0.052311691002833678 0.023971034887782475 0 -0.053344307332015138 0.023758956381680789 0 -0.051669602542856172 0.024884629951065357 0 -0.052718808273133605 0.024552800645801631 0 -0.052311691002833678 0.023971034887782475 0 -0.052281749085090146 0.023776517487421177 0 -0.053344307332015138 0.023758956381680789 0 -0.058566348828286791 0.020178315200107707 0 -0.056785481810728768 0.02019599973329397 0 -0.057601786742606707 0.021481769881648179 0 -0.052718808273133605 0.024552800645801631 0 -0.054844855803208283 0.02214674952061561 0 -0.058559394578614692 0.02013670788525725 0 -0.056775523066303048 0.020162385728291939 0 -0.057373738074677223 0.019229903948764702 0 -0.058472169807589423 0.019199909382602364 0 -0.058559394578614692 0.02013670788525725 0 -0.057373738074677223 0.019229903948764702 0 -0.053265335518714901 0.022978101944975276 0 -0.054419287196561174 0.019810350278274446 0 -0.053265335518714901 0.022978101944975276 0 -0.054040447577708109 0.021795766550943039 0 -0.058586667872987601 0.019297683717422912 0 -0.057093432508743922 0.018131033130355457 0 -0.058414215205097146 0.017289818956175984 0 -0.058472169807589423 0.019199909382602364 0 -0.057373738074677223 0.019229903948764702 0 -0.057127448949032024 0.018142194797555335 0 -0.057373738074677223 0.019229903948764702 0 -0.057127448949032024 0.018142194797555335 0 -0.055756276760844201 0.018686374639651671 0 -0.05677615691843782 0.017050534060883214 0 -0.057093432508743922 0.018131033130355457 0 -0.057447626212692803 0.017161987542880588 0 -0.057093432508743922 0.018131033130355457 0 -0.057447626212692803 0.017161987542880588 0 -0.058414215205097146 0.017289818956175984 0 -0.054999851495265921 0.016999217008747 0 -0.055756276760844201 0.018686374639651671 0 -0.054999993914578854 0.020200257332149463 0 -0.054999851495265921 0.016999217008747 0 -0.055724886813522855 0.017048822329224399 0 -0.055756276760844201 0.018686374639651671 0 -0.055724886813522855 0.017048822329224399 0 -0.057127448949032024 0.018142194797555335 0 -0.055756276760844201 0.018686374639651671 0 -0.054071259629991562 0.021263497153256674 0 -0.054040447577708109 0.021795766550943039 0 -0.05677615691843782 0.017050534060883214 0 -0.055724886813522855 0.017048822329224399 0 -0.057093432508743922 0.018131033130355457 0 -0.054844855803208283 0.02214674952061561 0 -0.055000229192754976 0.020205999211177082 0 -0.056775523066303048 0.020162385728291939 0 -0.055756276760844201 0.018686374639651671 0 -0.054999993914578854 0.020200257332149463 0 -0.056775523066303048 0.020162385728291939 0 -0.057373738074677223 0.019229903948764702 0 -0.055756276760844201 0.018686374639651671 0 -0.056785481810728768 0.02019599973329397 0 -0.054999990580097545 0.020200372649004331 0 -0.056431346285671237 0.021843661391002155 0 -0.054999990580097545 0.020200372649004331 0 -0.056431346285671237 0.021843661391002155 0 -0.054999987554626949 0.022779416932010136 0 -0.058566348828286791 0.020178315200107707 0 -0.057601786742606707 0.021481769881648179 0 -0.058821748791500039 0.022739778967737559 0 -0.056785481810728768 0.02019599973329397 0 -0.056431346285671237 0.021843661391002155 0 -0.057601786742606707 0.021481769881648179 0 -0.056431346285671237 0.021843661391002155 0 -0.057601786742606707 0.021481769881648179 0 -0.057502321618675335 0.022754835351848385 0 -0.057601786742606707 0.021481769881648179 0 -0.057502321618675335 0.022754835351848385 0 -0.058821748791500039 0.022739778967737559 0 -0.056431346285671237 0.021843661391002155 0 -0.057502321618675335 0.022754835351848385 0 -0.056471256282787471 0.023750592932596425 0 -0.057502321618675335 0.022754835351848385 0 -0.057955444659656886 0.02404929271790817 0 -0.058821748791500039 0.022739778967737559 0 -0.057502321618675335 0.022754835351848385 0 -0.057955444659656886 0.02404929271790817 0 -0.056471256282787471 0.023750592932596425 0 -0.054999987554626949 0.022779416932010136 0 -0.056471256282787471 0.023750592932596425 0 -0.054999985418497786 0.025358517693282987 0 -0.056431346285671237 0.021843661391002155 0 -0.054999987554626949 0.022779416932010136 0 -0.056471256282787471 0.023750592932596425 0 -0.056471256282787471 0.023750592932596425 0 -0.054999985418497786 0.025358517693282987 0 -0.056803898341439396 0.026111582224220935 0 -0.057955444659656886 0.02404929271790817 0 -0.056803898341439396 0.026111582224220935 0 -0.059071660893467701 0.025315431442840177 0 -0.057955444659656886 0.02404929271790817 0 -0.056471256282787471 0.023750592932596425 0 -0.056803898341439396 0.026111582224220935 0 -0.056423269570284519 0.028025055330640897 0 -0.05771021833458069 0.027854276336758708 0 -0.056803898341439396 0.026111582224220935 0 -0.05771021833458069 0.027854276336758708 0 -0.056803898341439396 0.026111582224220935 0 -0.059071660893467701 0.025315431442840177 0 -0.054999990490709014 0.027937602962352041 0 -0.054999985418497786 0.025358517693282987 0 -0.056803898341439396 0.026111582224220935 0 -0.054999990490709014 0.027937602962352041 0 -0.056423269570284519 0.028025055330640897 0 -0.056803898341439396 0.026111582224220935 0 -0.045020233594404671 0.034907683996363299 0 -0.045181188136199528 0.035281295499675243 0 -0.044890427250225073 0.035294064014934824 0 -0.045181188136199528 0.035281295499675243 0 -0.045064034816662719 0.03555348869808897 0 -0.044890427250225073 0.035294064014934824 0 -0.053343191339132581 0.031270141118699343 0 -0.052898258959695778 0.030093630918717182 0 -0.045379261697184349 0.035072428703558242 0 -0.045181188136199528 0.035281295499675243 0 -0.045390564285685255 0.035462420700251643 0 -0.059313975367446786 0.027892291024425881 0 -0.05771021833458069 0.027854276336758708 0 -0.059071660893467701 0.025315431442840177 0 -0.045181188136199528 0.035281295499675243 0 -0.045390564285685255 0.035462420700251643 0 -0.045064034816662719 0.03555348869808897 0 -0.045390564285685255 0.035462420700251643 0 -0.045064034816662719 0.03555348869808897 0 -0.045250137558090327 0.035683309335154123 0 -0.045064034816662719 0.03555348869808897 0 -0.045089295376869537 0.035773362952246139 0 -0.045250137558090327 0.035683309335154123 0 -0.045089295376869537 0.035773362952246139 0 -0.045250137558090327 0.035683309335154123 0 -0.045294713887436243 0.035798530162879316 0 -0.045390564285685255 0.035462420700251643 0 -0.045250137558090327 0.035683309335154123 0 -0.045362993158674925 0.035774308966554653 0 -0.057955444659656886 0.02404929271790817 0 -0.059071660893467701 0.025315431442840177 0 -0.058821748791500039 0.022739778967737559 0 -0.052898258959695778 0.030093630918717182 0 -0.052734050011153763 0.028353820677833663 0 -0.045250137558090327 0.035683309335154123 0 -0.045294713887436243 0.035798530162879316 0 -0.045362993158674925 0.035774308966554653 0 -0.045358483622927173 0.036119346371352716 0 -0.045330181648577605 0.036121216350613723 0 -0.045294713887436243 0.035798530162879316 0 -0.051669602542856172 0.024884629951065357 0 -0.051120639078410642 0.029889474192612567 0 -0.045360866653081207 0.035795033568423285 0 -0.045294713887436243 0.035798530162879316 0 -0.045362993158674925 0.035774308966554653 0 -0.045346788777134606 0.035792209230339059 0 -0.045360866653081207 0.035795033568423285 0 -0.045294713887436243 0.035798530162879316 0 -0.052718808273133605 0.024552800645801631 0 -0.052734050011153763 0.028353820677833663 0 -0.051504727842425949 0.024869846187003577 0 -0.049753116884206479 0.029015869895327579 0 -0.045330181648577605 0.036121216350613723 0 -0.045294713887436243 0.035798530162879316 0 -0.045051216226758423 0.03595761785209791 0 -0.045089295376869537 0.035773362952246139 0 -0.045294713887436243 0.035798530162879316 0 -0.045051216226758423 0.03595761785209791 0 -0.049753116884206479 0.029015869895327579 0 -0.049073748690077981 0.030131926400209237 0 -0.045131579076950055 0.036063437313942973 0 -0.044706619345997504 0.036122168863485501 0 -0.044934553079235329 0.036354758092733544 0 -0.045131579076950055 0.036063437313942973 0 -0.044706619345997504 0.036122168863485501 0 -0.044749566564053989 0.035833648137250804 0 -0.044706619345997504 0.036122168863485501 0 -0.044749566564053989 0.035833648137250804 0 -0.044360989302556948 0.035982831794307821 0 -0.044706619345997504 0.036122168863485501 0 -0.044360989302556948 0.035982831794307821 0 -0.044382622595704344 0.036375386206744437 0 -0.044749566564053989 0.035833648137250804 0 -0.044369864704594635 0.03560228999743776 0 -0.044360989302556948 0.035982831794307821 0 -0.045089295376869537 0.035773362952246139 0 -0.045051216226758423 0.03595761785209791 0 -0.044749566564053989 0.035833648137250804 0 -0.045064034816662719 0.03555348869808897 0 -0.045089295376869537 0.035773362952246139 0 -0.044749566564053989 0.035833648137250804 0 -0.045064034816662719 0.03555348869808897 0 -0.044749566564053989 0.035833648137250804 0 -0.044750904794468728 0.035545383755849563 0 -0.045064034816662719 0.03555348869808897 0 -0.044750904794468728 0.035545383755849563 0 -0.044890427250225073 0.035294064014934824 0 -0.044749566564053989 0.035833648137250804 0 -0.044750904794468728 0.035545383755849563 0 -0.044369864704594635 0.03560228999743776 0 -0.044750904794468728 0.035545383755849563 0 -0.044369864704594635 0.03560228999743776 0 -0.044603064773877966 0.035352779954142169 0 -0.044688475050387803 0.035021654923799765 0 -0.044603064773877966 0.035352779954142169 0 -0.04438253885292865 0.035190209638919265 0 -0.044369864704594635 0.03560228999743776 0 -0.044603064773877966 0.035352779954142169 0 -0.04438253885292865 0.035190209638919265 0 -0.044688475050387803 0.035021654923799765 0 -0.044603064773877966 0.035352779954142169 0 -0.044890427250225073 0.035294064014934824 0 -0.044750904794468728 0.035545383755849563 0 -0.044603064773877966 0.035352779954142169 0 -0.044890427250225073 0.035294064014934824 0 -0.043737169597428453 0.035387266361052327 0 -0.044101028907693594 0.035394259076118754 0 -0.043926489449258935 0.035597898493719714 0 -0.043996314011287098 0.035194619534818693 0 -0.043737169597428453 0.035387266361052327 0 -0.044101028907693594 0.035394259076118754 0 -0.043600744940594661 0.035242786223911145 0 -0.043996314011287098 0.035194619534818693 0 -0.043737169597428453 0.035387266361052327 0 -0.043996314011287098 0.035194619534818693 0 -0.04438253885292865 0.035190209638919265 0 -0.044101028907693594 0.035394259076118754 0 -0.044369864704594635 0.03560228999743776 0 -0.04438253885292865 0.035190209638919265 0 -0.044101028907693594 0.035394259076118754 0 -0.044369864704594635 0.03560228999743776 0 -0.043926489449258935 0.035597898493719714 0 -0.043995975192855023 0.03585900304859737 0 -0.044369864704594635 0.03560228999743776 0 -0.044101028907693594 0.035394259076118754 0 -0.043926489449258935 0.035597898493719714 0 -0.043926489449258935 0.035597898493719714 0 -0.04373703567044581 0.035731230310870749 0 -0.043549729898893462 0.03551739443488313 0 -0.043737169597428453 0.035387266361052327 0 -0.043926489449258935 0.035597898493719714 0 -0.043549729898893462 0.03551739443488313 0 -0.043926489449258935 0.035597898493719714 0 -0.04373703567044581 0.035731230310870749 0 -0.043995975192855023 0.03585900304859737 0 -0.04373703567044581 0.035731230310870749 0 -0.043995975192855023 0.03585900304859737 0 -0.043621967321657754 0.035885247135072282 0 -0.043995975192855023 0.03585900304859737 0 -0.043693618861917444 0.036120309635488915 0 -0.043621967321657754 0.035885247135072282 0 -0.044369864704594635 0.03560228999743776 0 -0.043995975192855023 0.03585900304859737 0 -0.044360989302556948 0.035982831794307821 0 -0.044360989302556948 0.035982831794307821 0 -0.044056425741541762 0.036143819096762606 0 -0.044382622595704344 0.036375386206744437 0 -0.043995975192855023 0.03585900304859737 0 -0.044360989302556948 0.035982831794307821 0 -0.044056425741541762 0.036143819096762606 0 -0.043995975192855023 0.03585900304859737 0 -0.044056425741541762 0.036143819096762606 0 -0.043693618861917444 0.036120309635488915 0 -0.044056425741541762 0.036143819096762606 0 -0.043857670969703257 0.03638906775387897 0 -0.043693618861917444 0.036120309635488915 0 -0.055731458191960001 0.0060046111949405047 0 -0.055630513978773874 0.0058445041694755251 0 -0.055957383695593277 0.0058758699638338978 0 -0.055630513978773874 0.0058445041694755251 0 -0.05587400323011036 0.0057015641453903761 0 -0.055582959702209438 0.005765900964584833 0 -0.055630513978773874 0.0058445041694755251 0 -0.05587400323011036 0.0057015641453903761 0 -0.055957383695593277 0.0058758699638338978 0 -0.055630513978773874 0.0058445041694755251 0 -0.055802790530124852 0.0057985515848007641 0 -0.05562373104378561 0.0058732245834275899 0 -0.055630513978773874 0.0058445041694755251 0 -0.055721712387386331 0.0055796767750694084 0 -0.055802790530124852 0.0057985515848007641 0 -0.055630513978773874 0.0058445041694755251 0 -0.055582959702209438 0.005765900964584833 0 -0.05562373104378561 0.0058732245834275899 0 -0.055731458191960001 0.0060046111949405047 0 -0.055630513978773874 0.0058445041694755251 0 -0.055721712387386331 0.0055796767750694084 0 -0.049658779739651229 0.021710198815084097 0 -0.050251151554237497 0.022000365980060537 0 -0.044056425741541762 0.036143819096762606 0 -0.043857670969703257 0.03638906775387897 0 -0.044382622595704344 0.036375386206744437 0 -0.050251151554237497 0.022000365980060537 0 -0.050885465650050192 0.022859713356896398 0 -0.055721712387386331 0.0055796767750694084 0 -0.05632054073960522 0.0057197493113596174 0 -0.055802790530124852 0.0057985515848007641 0 -0.044706619345997504 0.036122168863485501 0 -0.044382622595704344 0.036375386206744437 0 -0.044934553079235329 0.036354758092733544 0 -0.055721712387386331 0.0055796767750694084 0 -0.056611732604709336 0.0052054461864511677 0 -0.05632054073960522 0.0057197493113596174 0 -0.057467567239358142 0.0057476759217324662 0 -0.056611732604709336 0.0052054461864511677 0 -0.05632054073960522 0.0057197493113596174 0 -0.057467567239358142 0.0057476759217324662 0 -0.05632054073960522 0.0057197493113596174 0 -0.056797179430118847 0.0061748587320754273 0 -0.05632054073960522 0.0057197493113596174 0 -0.056797179430118847 0.0061748587320754273 0 -0.056070157421611852 0.0060531820248044656 0 -0.05632054073960522 0.0057197493113596174 0 -0.055802790530124852 0.0057985515848007641 0 -0.056070157421611852 0.0060531820248044656 0 -0.055802790530124852 0.0057985515848007641 0 -0.056070157421611852 0.0060531820248044656 0 -0.05562373104378561 0.0058732245834275899 0 -0.056070157421611852 0.0060531820248044656 0 -0.055767256004999079 0.0060276208877094598 0 -0.05562373104378561 0.0058732245834275899 0 -0.056070157421611852 0.0060531820248044656 0 -0.05609734330169152 0.0062956757645688958 0 -0.056588390360998699 0.0066389857547405669 0 -0.056070157421611852 0.0060531820248044656 0 -0.05609734330169152 0.0062956757645688958 0 -0.055767256004999079 0.0060276208877094598 0 -0.05609734330169152 0.0062956757645688958 0 -0.055767256004999079 0.0060276208877094598 0 -0.055792197559777594 0.0061675680186081081 0 -0.056797179430118847 0.0061748587320754273 0 -0.056070157421611852 0.0060531820248044656 0 -0.056588390360998699 0.0066389857547405669 0 -0.05704244279317687 0.006703731866389521 0 -0.056797179430118847 0.0061748587320754273 0 -0.056588390360998699 0.0066389857547405669 0 -0.05609734330169152 0.0062956757645688958 0 -0.056588390360998699 0.0066389857547405669 0 -0.0563628139423187 0.0067623320534982712 0 -0.057208009443341298 0.0073661334671642582 0 -0.05704244279317687 0.006703731866389521 0 -0.056588390360998699 0.0066389857547405669 0 -0.056841009307715858 0.0072567871711692869 0 -0.056859386582696125 0.0075780181261540513 0 -0.057465339836806371 0.0083937533351514573 0 -0.057208009443341298 0.0073661334671642582 0 -0.056588390360998699 0.0066389857547405669 0 -0.056841009307715858 0.0072567871711692869 0 -0.056588390360998699 0.0066389857547405669 0 -0.056841009307715858 0.0072567871711692869 0 -0.0563628139423187 0.0067623320534982712 0 -0.056841009307715858 0.0072567871711692869 0 -0.0563628139423187 0.0067623320534982712 0 -0.056859386582696125 0.0075780181261540513 0 -0.055792197559777594 0.0061675680186081081 0 -0.0563628139423187 0.0067623320534982712 0 -0.05600079698973412 0.0067271020842149202 0 -0.05609734330169152 0.0062956757645688958 0 -0.055792197559777594 0.0061675680186081081 0 -0.0563628139423187 0.0067623320534982712 0 -0.0563628139423187 0.0067623320534982712 0 -0.05600079698973412 0.0067271020842149202 0 -0.056859386582696125 0.0075780181261540513 0 -0.055792197559777594 0.0061675680186081081 0 -0.05600079698973412 0.0067271020842149202 0 -0.055427311383714102 0.005811286337397064 0 -0.054841718131026555 0.0050063785501174964 0 -0.055686466467402704 0.0054855860794781885 0 -0.055335989232319263 0.0057439370194047341 0 -0.05600079698973412 0.0067271020842149202 0 -0.055427311383714102 0.005811286337397064 0 -0.054841718131026555 0.0050063785501174964 0 -0.055427311383714102 0.005811286337397064 0 -0.054841718131026555 0.0050063785501174964 0 -0.055335989232319263 0.0057439370194047341 0 -0.055792197559777594 0.0061675680186081081 0 -0.055427311383714102 0.005811286337397064 0 -0.055335989232319263 0.0057439370194047341 0 -0.054841718131026555 0.0050063785501174964 0 -0.055686466467402704 0.0054855860794781885 0 -0.056316853743273644 0.0047039335808056306 0 -0.054841718131026555 0.0050063785501174964 0 -0.056316853743273644 0.0047039335808056306 0 -0.054861479835397214 0.003329517428254779 0 -0.055686466467402704 0.0054855860794781885 0 -0.055582959702209438 0.005765900964584833 0 -0.055335989232319263 0.0057439370194047341 0 -0.055686466467402704 0.0054855860794781885 0 -0.05587400323011036 0.0057015641453903761 0 -0.055582959702209438 0.005765900964584833 0 -0.055582959702209438 0.005765900964584833 0 -0.05562373104378561 0.0058732245834275899 0 -0.055335989232319263 0.0057439370194047341 0 -0.055767256004999079 0.0060276208877094598 0 -0.05562373104378561 0.0058732245834275899 0 -0.055335989232319263 0.0057439370194047341 0 -0.055767256004999079 0.0060276208877094598 0 -0.055792197559777594 0.0061675680186081081 0 -0.055335989232319263 0.0057439370194047341 0 -0.056633418193156947 0.0053835817194094748 0 -0.056387497683353008 0.0056359250420669497 0 -0.056317398713133147 0.005325759589863901 0 -0.056633418193156947 0.0053835817194094748 0 -0.056387497683353008 0.0056359250420669497 0 -0.056672863373360978 0.0056248533888224612 0 -0.055686466467402704 0.0054855860794781885 0 -0.05587400323011036 0.0057015641453903761 0 -0.056317398713133147 0.005325759589863901 0 -0.05587400323011036 0.0057015641453903761 0 -0.056387497683353008 0.0056359250420669497 0 -0.056317398713133147 0.005325759589863901 0 -0.056317398713133147 0.005325759589863901 0 -0.056316853743273644 0.0047039335808056306 0 -0.056591041701051309 0.0050660950963889242 0 -0.054097148504497518 0.0031660179267694725 0 -0.05367202439449429 0.0033689654362584528 0 -0.055686466467402704 0.0054855860794781885 0 -0.056317398713133147 0.005325759589863901 0 -0.056316853743273644 0.0047039335808056306 0 -0.056633418193156947 0.0053835817194094748 0 -0.056317398713133147 0.005325759589863901 0 -0.056591041701051309 0.0050660950963889242 0 -0.05367202439449429 0.0033689654362584528 0 -0.051898786744175203 0.0038022049546724418 0 -0.056633418193156947 0.0053835817194094748 0 -0.056591041701051309 0.0050660950963889242 0 -0.056981366031136661 0.0051747056638462435 0 -0.052396890719820455 -0.00025082688201292212 0 -0.051509773863214252 -0.00044055983589532104 0 -0.051914602701913636 0.00023913966421486958 0 -0.051921012929139899 0.00052999729776120679 0 -0.051213498646211171 0.0011259207169040373 0 -0.052259856933638174 0.0014985892159332336 0 -0.051921012929139899 0.00052999729776120679 0 -0.052259856933638174 0.0014985892159332336 0 -0.05271806494216312 -1.4395929766861917e-05 0 -0.051921012929139899 0.00052999729776120679 0 -0.051213498646211171 0.0011259207169040373 0 -0.051503930313789519 -8.777590990577176e-05 0 -0.051898786744175203 0.0038022049546724418 0 -0.051927742234706135 0.0030511734768064566 0 -0.050621021489603298 0.0014329883348880559 0 -0.052259856933638174 0.0014985892159332336 0 -0.051192993446708225 0.0024494269716702627 0 -0.051898786744175203 0.0038022049546724418 0 -0.051852800251147774 0.0036398898229902882 0 -0.051192993446708225 0.0024494269716702627 0 -0.050936886520959353 0.0036604148409862085 0 -0.053898663164248357 0.0026641703543623095 0 -0.050621021489603298 0.0014329883348880559 0 -0.051192993446708225 0.0024494269716702627 0 -0.050653826467939748 0.0039089170731331528 0 -0.051898786744175203 0.0038022049546724418 0 -0.048621440990556035 0.0078714577092638387 0 -0.051192993446708225 0.0024494269716702627 0 -0.050936886520959353 0.0036604148409862085 0 -0.050653826467939748 0.0039089170731331528 0 -0.050936886520959353 0.0036604148409862085 0 -0.050211372266851885 0.0035876749148671806 0 -0.049599632982043861 0.0040464427136020168 0 -0.056633418193156947 0.0053835817194094748 0 -0.056981366031136661 0.0051747056638462435 0 -0.056804305050613749 0.0054610347038240087 0 -0.056981366031136661 0.0051747056638462435 0 -0.056804305050613749 0.0054610347038240087 0 -0.056923822319988486 0.0056723883086694845 0 -0.056804305050613749 0.0054610347038240087 0 -0.056672863373360978 0.0056248533888224612 0 -0.056923822319988486 0.0056723883086694845 0 -0.056633418193156947 0.0053835817194094748 0 -0.056804305050613749 0.0054610347038240087 0 -0.056672863373360978 0.0056248533888224612 0 -0.048621440990556035 0.0078714577092638387 0 -0.041934731488914731 0.022061239362143468 0 -0.056672863373360978 0.0056248533888224612 0 -0.056923822319988486 0.0056723883086694845 0 -0.056602162616451512 0.0059093738290986854 0 -0.056923822319988486 0.0056723883086694845 0 -0.056602162616451512 0.0059093738290986854 0 -0.056841708733649812 0.0062280703813135541 0 -0.050653826467939748 0.0039089170731331528 0 -0.050503080053571715 0.002939438916433459 0 -0.051131416730605825 0.0021964289958546399 0 -0.050211372266851885 0.0035876749148671806 0 -0.050192754888310168 0.0032442130692166625 0 -0.049619221406047027 0.0033062058988074048 0 -0.050936886520959353 0.0036604148409862085 0 -0.050211372266851885 0.0035876749148671806 0 -0.050530578311517846 0.003580507288958899 0 -0.050211372266851885 0.0035876749148671806 0 -0.050530578311517846 0.003580507288958899 0 -0.050192754888310168 0.0032442130692166625 0 -0.050653826467939748 0.0039089170731331528 0 -0.050530578311517846 0.003580507288958899 0 -0.050503080053571715 0.002939438916433459 0 -0.050936886520959353 0.0036604148409862085 0 -0.050653826467939748 0.0039089170731331528 0 -0.050530578311517846 0.003580507288958899 0 -0.050192754888310168 0.0032442130692166625 0 -0.049704504818611758 0.0025898898414877013 0 -0.049619221406047027 0.0033062058988074048 0 -0.050503080053571715 0.002939438916433459 0 -0.050192754888310168 0.0032442130692166625 0 -0.049704504818611758 0.0025898898414877013 0 -0.050530578311517846 0.003580507288958899 0 -0.050503080053571715 0.002939438916433459 0 -0.050192754888310168 0.0032442130692166625 0 -0.038829743845944113 0.023725352379804741 0 -0.041421462196757769 0.020625792727513085 0 -0.050503080053571715 0.002939438916433459 0 -0.050239769799042884 0.002172767665909214 0 -0.049704504818611758 0.0025898898414877013 0 -0.050503080053571715 0.002939438916433459 0 -0.050239769799042884 0.002172767665909214 0 -0.051131416730605825 0.0021964289958546399 0 -0.038829743845944113 0.023725352379804741 0 -0.033676598214938937 0.034232396628408483 0 -0.038829743845944113 0.023725352379804741 0 -0.041934731488914731 0.022061239362143468 0 -0.038542741236129489 0.024669494858472318 0 -0.039610958464153447 0.024660774570192313 0 -0.039702516032538999 0.023525380112924696 0 -0.041934731488914731 0.022061239362143468 0 -0.048251060103290083 0.021729002321893332 0 -0.042761976991096136 0.036394022475741486 0 -0.043330294342278294 0.036396076460600203 0 -0.04288970929699399 0.03615806392904395 0 -0.056602162616451512 0.0059093738290986854 0 -0.056841708733649812 0.0062280703813135541 0 -0.056270386236276018 0.0061959210118110921 0 -0.041934731488914731 0.022061239362143468 0 -0.033676598214938937 0.034232396628408483 0 -0.056387497683353008 0.0056359250420669497 0 -0.056602162616451512 0.0059093738290986854 0 -0.056270386236276018 0.0061959210118110921 0 -0.056387497683353008 0.0056359250420669497 0 -0.056672863373360978 0.0056248533888224612 0 -0.056602162616451512 0.0059093738290986854 0 -0.05587400323011036 0.0057015641453903761 0 -0.056387497683353008 0.0056359250420669497 0 -0.055957383695593277 0.0058758699638338978 0 -0.056387497683353008 0.0056359250420669497 0 -0.056270386236276018 0.0061959210118110921 0 -0.055957383695593277 0.0058758699638338978 0 -0.049658779739651229 0.021710198815084097 0 -0.048251060103290083 0.021729002321893332 0 -0.043857670969703257 0.03638906775387897 0 -0.043330294342278294 0.036396076460600203 0 -0.043693618861917444 0.036120309635488915 0 -0.055731458191960001 0.0060046111949405047 0 -0.056270386236276018 0.0061959210118110921 0 -0.055957383695593277 0.0058758699638338978 0 -0.043330294342278294 0.036396076460600203 0 -0.043693618861917444 0.036120309635488915 0 -0.043380661399699871 0.036029556271884713 0 -0.043693618861917444 0.036120309635488915 0 -0.043380661399699871 0.036029556271884713 0 -0.043621967321657754 0.035885247135072282 0 -0.043330294342278294 0.036396076460600203 0 -0.043169685364957015 0.036117233139909548 0 -0.04288970929699399 0.03615806392904395 0 -0.043330294342278294 0.036396076460600203 0 -0.043169685364957015 0.036117233139909548 0 -0.043380661399699871 0.036029556271884713 0 -0.043169685364957015 0.036117233139909548 0 -0.043380661399699871 0.036029556271884713 0 -0.043077610478395319 0.035890601466828036 0 -0.043077610478395319 0.035890601466828036 0 -0.043430787486748564 0.035807147757154323 0 -0.043343627801098038 0.035657848975689646 0 -0.043380661399699871 0.036029556271884713 0 -0.043077610478395319 0.035890601466828036 0 -0.043430787486748564 0.035807147757154323 0 -0.037333638198803962 0.038410971094823193 0 -0.037145242365549024 0.038439500974237706 0 -0.021240071549352875 0.041562606997614701 0 -0.020675962666536173 0.042189402688452851 0 -0.021183242092598115 0.04230303430158637 0 -0.034309534615719631 0.037382928685959813 0 -0.037145242365549024 0.038439500974237706 0 -0.043380661399699871 0.036029556271884713 0 -0.043621967321657754 0.035885247135072282 0 -0.043430787486748564 0.035807147757154323 0 -0.043430787486748564 0.035807147757154323 0 -0.043543775684409598 0.03568566063202764 0 -0.043373785636069646 0.035697998976394613 0 -0.043621967321657754 0.035885247135072282 0 -0.043430787486748564 0.035807147757154323 0 -0.043543775684409598 0.03568566063202764 0 -0.04373703567044581 0.035731230310870749 0 -0.043621967321657754 0.035885247135072282 0 -0.043543775684409598 0.03568566063202764 0 -0.04373703567044581 0.035731230310870749 0 -0.043549729898893462 0.03551739443488313 0 -0.043543775684409598 0.03568566063202764 0 -0.043549729898893462 0.03551739443488313 0 -0.043324676149809303 0.035697657305421071 0 -0.043361158223844301 0.03545252945614908 0 -0.043549729898893462 0.03551739443488313 0 -0.043543775684409598 0.03568566063202764 0 -0.043373785636069646 0.035697998976394613 0 -0.038782530911692065 0.037126094554215776 0 -0.037145242365549024 0.038439500974237706 0 -0.020675962666536173 0.042189402688452851 0 -0.021183242092598115 0.04230303430158637 0 -0.021134708857500666 0.043081057642715775 0 -0.037145242365549024 0.038439500974237706 0 -0.034001204506451548 0.038854008278033925 0 -0.043324676149809303 0.035697657305421071 0 -0.043361158223844301 0.03545252945614908 0 -0.043217983403616309 0.035309181139493551 0 -0.043361158223844301 0.03545252945614908 0 -0.043217983403616309 0.035309181139493551 0 -0.043371936901627862 0.035326567301806194 0 -0.043258022769359861 0.035224304947793605 0 -0.043217983403616309 0.035309181139493551 0 -0.043371936901627862 0.035326567301806194 0 -0.043600744940594661 0.035242786223911145 0 -0.043737169597428453 0.035387266361052327 0 -0.043371936901627862 0.035326567301806194 0 -0.043737169597428453 0.035387266361052327 0 -0.043549729898893462 0.03551739443488313 0 -0.043371936901627862 0.035326567301806194 0 -0.043549729898893462 0.03551739443488313 0 -0.043361158223844301 0.03545252945614908 0 -0.043371936901627862 0.035326567301806194 0 -0.021420882989190922 0.043300325697555299 0 -0.02151103387237607 0.04348496431911255 0 -0.021703250735360131 0.043280267535914546 0 -0.021420882989190922 0.043300325697555299 0 -0.02151103387237607 0.04348496431911255 0 -0.021425989370177419 0.043419066154873232 0 -0.021452525311307615 0.043553289544958913 0 -0.02151103387237607 0.04348496431911255 0 -0.021425989370177419 0.043419066154873232 0 -0.025857754396257766 0.042871407881914958 0 -0.027446336740572008 0.041662376885873965 0 -0.021452525311307615 0.043553289544958913 0 -0.021425989370177419 0.043419066154873232 0 -0.021337219503582125 0.043390827723153426 0 -0.032088800545935429 0.039906024064425012 0 -0.034001204506451548 0.038854008278033925 0 -0.021420882989190922 0.043300325697555299 0 -0.021425989370177419 0.043419066154873232 0 -0.021337219503582125 0.043390827723153426 0 -0.021370904639665376 0.043650086816121161 0 -0.021134708857500666 0.043081057642715775 0 -0.021337219503582125 0.043390827723153426 0 -0.021420882989190922 0.043300325697555299 0 -0.021337219503582125 0.043390827723153426 0 -0.021340063822103187 0.043140895552997147 0 -0.021134708857500666 0.043081057642715775 0 -0.021337219503582125 0.043390827723153426 0 -0.021686216645447572 0.042313361405803995 0 -0.021183242092598115 0.04230303430158637 0 -0.021134708857500666 0.043081057642715775 0 -0.021686216645447572 0.042313361405803995 0 -0.021420882989190922 0.043300325697555299 0 -0.021521155120529534 0.043113406615174633 0 -0.021703250735360131 0.043280267535914546 0 -0.021420882989190922 0.043300325697555299 0 -0.021340063822103187 0.043140895552997147 0 -0.021521155120529534 0.043113406615174633 0 -0.021521155120529534 0.043113406615174633 0 -0.021482131801704052 0.042921448703840057 0 -0.021656088374514066 0.042860863920630814 0 -0.021340063822103187 0.043140895552997147 0 -0.021521155120529534 0.043113406615174633 0 -0.021482131801704052 0.042921448703840057 0 -0.021340063822103187 0.043140895552997147 0 -0.021482131801704052 0.042921448703840057 0 -0.021387819896446086 0.042775638648446551 0 -0.027446336740572008 0.041662376885873965 0 -0.033676598214938937 0.034232396628408483 0 -0.021240071549352875 0.041562606997614701 0 -0.021686216645447572 0.042313361405803995 0 -0.021925148437758512 0.040881748139439449 0 -0.021240071549352875 0.041562606997614701 0 -0.021183242092598115 0.04230303430158637 0 -0.021686216645447572 0.042313361405803995 0 -0.043077610478395319 0.035890601466828036 0 -0.042789420682347389 0.036129728056668142 0 -0.04288970929699399 0.03615806392904395 0 -0.034309534615719631 0.037382928685959813 0 -0.033676598214938937 0.034232396628408483 0 -0.043169685364957015 0.036117233139909548 0 -0.043077610478395319 0.035890601466828036 0 -0.04288970929699399 0.03615806392904395 0 -0.042761976991096136 0.036394022475741486 0 -0.042780400086459842 0.036125224212169717 0 -0.04288970929699399 0.03615806392904395 0 -0.033676598214938937 0.034232396628408483 0 -0.03399582682018315 0.034315755815313848 0 -0.024791029867020861 0.043823845091967482 0 -0.025385293465841251 0.043247506957293881 0 -0.024268317276607637 0.042999658779457869 0 -0.021482131801704052 0.042921448703840057 0 -0.021387819896446086 0.042775638648446551 0 -0.021656088374514066 0.042860863920630814 0 -0.033676598214938937 0.034232396628408483 0 -0.026066186404609275 0.037918562577221503 0 -0.021656088374514066 0.042860863920630814 0 -0.021955329224886327 0.042923705100641751 0 -0.021703250735360131 0.043280267535914546 0 -0.021521155120529534 0.043113406615174633 0 -0.021656088374514066 0.042860863920630814 0 -0.021703250735360131 0.043280267535914546 0 -0.024268317276607637 0.042999658779457869 0 -0.023245321326147161 0.042855680235748442 0 -0.023596205889121997 0.043812672414168481 0 -0.023245321326147161 0.042855680235748442 0 -0.022897441679961054 0.043337771164427052 0 -0.023596205889121997 0.043812672414168481 0 -0.026066186404609275 0.037918562577221503 0 -0.023950825296260261 0.03991715573151422 0 -0.021955329224886327 0.042923705100641751 0 -0.021703250735360131 0.043280267535914546 0 -0.022080856172468969 0.043174358310307637 0 -0.021703250735360131 0.043280267535914546 0 -0.021936614076332916 0.043366155666439803 0 -0.022080856172468969 0.043174358310307637 0 -0.021879703044399342 0.043626865584684413 0 -0.021703250735360131 0.043280267535914546 0 -0.021936614076332916 0.043366155666439803 0 -0.021815474121561689 0.043661973658747175 0 -0.021732739825022017 0.043478859461571685 0 -0.021610005578221094 0.043577357403102569 0 -0.021777985163317935 0.043613321883817412 0 -0.021703250735360131 0.043280267535914546 0 -0.021610005578221094 0.043577357403102569 0 -0.02151103387237607 0.04348496431911255 0 -0.021703250735360131 0.043280267535914546 0 -0.022207156328754234 0.043568910362901885 0 -0.022146610270444695 0.043381957466215731 0 -0.022399276161554647 0.043385938428143991 0 -0.022146610270444695 0.043381957466215731 0 -0.02231797788127533 0.043223928912751855 0 -0.022399276161554647 0.043385938428143991 0 -0.022397401002257972 0.043623045787212281 0 -0.022207156328754234 0.043568910362901885 0 -0.022399276161554647 0.043385938428143991 0 -0.021879703044399342 0.043626865584684413 0 -0.021936614076332916 0.043366155666439803 0 -0.022146610270444695 0.043381957466215731 0 -0.022207156328754234 0.043568910362901885 0 -0.021879703044399342 0.043626865584684413 0 -0.022146610270444695 0.043381957466215731 0 -0.022146610270444695 0.043381957466215731 0 -0.022080856172468969 0.043174358310307637 0 -0.02231797788127533 0.043223928912751855 0 -0.021936614076332916 0.043366155666439803 0 -0.022146610270444695 0.043381957466215731 0 -0.022080856172468969 0.043174358310307637 0 -0.02231797788127533 0.043223928912751855 0 -0.022418856587196459 0.043169218744851849 0 -0.022399276161554647 0.043385938428143991 0 -0.022080856172468969 0.043174358310307637 0 -0.02231797788127533 0.043223928912751855 0 -0.022403408037305218 0.043003874488900841 0 -0.02231797788127533 0.043223928912751855 0 -0.022403408037305218 0.043003874488900841 0 -0.022418856587196459 0.043169218744851849 0 -0.022403408037305218 0.043003874488900841 0 -0.02251163634767778 0.043215624918474319 0 -0.022379312829334651 0.043046151674317926 0 -0.022403408037305218 0.043003874488900841 0 -0.022665215789294181 0.043162230886825345 0 -0.02251163634767778 0.043215624918474319 0 -0.023950825296260261 0.03991715573151422 0 -0.02346600069189194 0.040526231464970322 0 -0.021955329224886327 0.042923705100641751 0 -0.022080856172468969 0.043174358310307637 0 -0.022403408037305218 0.043003874488900841 0 -0.023245321326147161 0.042855680235748442 0 -0.022403408037305218 0.043003874488900841 0 -0.022665215789294181 0.043162230886825345 0 -0.023245321326147161 0.042855680235748442 0 -0.022665215789294181 0.043162230886825345 0 -0.022897441679961054 0.043337771164427052 0 -0.022665215789294181 0.043162230886825345 0 -0.022897441679961054 0.043337771164427052 0 -0.022640342995542916 0.043387179877661233 0 -0.022897441679961054 0.043337771164427052 0 -0.022640342995542916 0.043387179877661233 0 -0.022647260206674166 0.043713487020153818 0 -0.02251163634767778 0.043215624918474319 0 -0.022524515385088602 0.043596661159135776 0 -0.022379312829334651 0.043046151674317926 0 -0.028155660946637094 0.033679826781735867 0 -0.025965414989045657 0.037951837575009618 0 -0.02251163634767778 0.043215624918474319 0 -0.022640342995542916 0.043387179877661233 0 -0.022524515385088602 0.043596661159135776 0 -0.028155660946637094 0.033679826781735867 0 -0.025713095371056607 0.040209186426283447 0 -0.022665215789294181 0.043162230886825345 0 -0.02251163634767778 0.043215624918474319 0 -0.022640342995542916 0.043387179877661233 0 -0.029520043964905023 0.030656645893820895 0 -0.031530721537075736 0.02617386072125644 0 -0.044702971551899603 0.0016277378245257712 0 -0.044270516588929706 0.0026861734895219911 0 -0.041765341204356675 0.0016751781904422458 0 -0.02302392037200016 0.043225780014518662 0 -0.02304446962923104 0.043230148381434255 0 -0.022930136637912345 0.043259957965662323 0 -0.022640342995542916 0.043387179877661233 0 -0.022524515385088602 0.043596661159135776 0 -0.022647260206674166 0.043713487020153818 0 -0.028155660946637094 0.033679826781735867 0 -0.029520043964905023 0.030656645893820895 0 -0.044702971551899603 0.0016277378245257712 0 -0.044270516588929706 0.0026861734895219911 0 -0.045208428686941443 0.0019499140157628791 0 -0.044270516588929706 0.0026861734895219911 0 -0.045272092701375048 0.0035299889649573488 0 -0.043497261904849059 0.0046053550386984405 0 -0.044270516588929706 0.0026861734895219911 0 -0.043497261904849059 0.0046053550386984405 0 -0.041765341204356675 0.0016751781904422458 0 -0.045272092701375048 0.0035299889649573488 0 -0.046745791266690533 0.0035799046050754325 0 -0.045819742523975533 0.0046209585370613187 0 -0.044270516588929706 0.0026861734895219911 0 -0.045272092701375048 0.0035299889649573488 0 -0.045174459298980944 0.0027360739668970137 0 -0.045272092701375048 0.0035299889649573488 0 -0.045174459298980944 0.0027360739668970137 0 -0.045916630468194601 0.002886310631051972 0 -0.045272092701375048 0.0035299889649573488 0 -0.045916630468194601 0.002886310631051972 0 -0.046745791266690533 0.0035799046050754325 0 -0.045916630468194601 0.002886310631051972 0 -0.04691531690220227 0.0026623545957791929 0 -0.046745791266690533 0.0035799046050754325 0 -0.029520043964905023 0.030656645893820895 0 -0.035171426278235683 0.026099782005861705 0 -0.044721603532749447 0.0016376717262913229 0 -0.045208428686941443 0.0019499140157628791 0 -0.047747801589279083 0.0016920276736487518 0 -0.045916630468194601 0.002886310631051972 0 -0.045208428686941443 0.0019499140157628791 0 -0.04691531690220227 0.0026623545957791929 0 -0.022897441679961054 0.043337771164427052 0 -0.022647260206674166 0.043713487020153818 0 -0.023596205889121997 0.043812672414168481 0 -0.044270516588929706 0.0026861734895219911 0 -0.045174459298980944 0.0027360739668970137 0 -0.045208428686941443 0.0019499140157628791 0 -0.045174459298980944 0.0027360739668970137 0 -0.045916630468194601 0.002886310631051972 0 -0.045208428686941443 0.0019499140157628791 0 -0.029520043964905023 0.030656645893820895 0 -0.029618861516755988 0.030317467509115958 0 -0.045208428686941443 0.0019499140157628791 0 -0.047747801589279083 0.0016920276736487518 0 -0.04691531690220227 0.0026623545957791929 0 -0.047747801589279083 0.0016920276736487518 0 -0.048409810660001391 0.0032336488579554103 0 -0.04691531690220227 0.0026623545957791929 0 -0.038829743845944113 0.023725352379804741 0 -0.035171426278235683 0.026099782005861705 0 -0.050489967780861886 0.0018355866256748871 0 -0.047747801589279083 0.0016920276736487518 0 -0.049704504818611758 0.0025898898414877013 0 -0.047747801589279083 0.0016920276736487518 0 -0.049704504818611758 0.0025898898414877013 0 -0.048409810660001391 0.0032336488579554103 0 -0.024791029867020861 0.043823845091967482 0 -0.024268317276607637 0.042999658779457869 0 -0.023596205889121997 0.043812672414168481 0 -0.048409810660001391 0.0032336488579554103 0 -0.047507632172170182 0.0044832037471026842 0 -0.049599632982043861 0.0040464427136020168 0 -0.049704504818611758 0.0025898898414877013 0 -0.048409810660001391 0.0032336488579554103 0 -0.049619221406047027 0.0033062058988074048 0 -0.048409810660001391 0.0032336488579554103 0 -0.049619221406047027 0.0033062058988074048 0 -0.049599632982043861 0.0040464427136020168 0 -0.050211372266851885 0.0035876749148671806 0 -0.049619221406047027 0.0033062058988074048 0 -0.049599632982043861 0.0040464427136020168 0 -0.048409810660001391 0.0032336488579554103 0 -0.04691531690220227 0.0026623545957791929 0 -0.046745791266690533 0.0035799046050754325 0 -0.048409810660001391 0.0032336488579554103 0 -0.046745791266690533 0.0035799046050754325 0 -0.047507632172170182 0.0044832037471026842 0 -0.05063820439802777 0.0028656951005359061 0 -0.050347198456035608 0.0020841802029944356 0 -0.046745791266690533 0.0035799046050754325 0 -0.047507632172170182 0.0044832037471026842 0 -0.045819742523975533 0.0046209585370613187 0 -0.047507632172170182 0.0044832037471026842 0 -0.048494386436500808 0.0051885309868088076 0 -0.045775192082293123 0.0061061156893245727 0 -0.047507632172170182 0.0044832037471026842 0 -0.048494386436500808 0.0051885309868088076 0 -0.049599632982043861 0.0040464427136020168 0 -0.050631345233321155 0.003083970370119263 0 -0.05063820439802777 0.0028656951005359061 0 -0.052259856933638174 0.0014985892159332336 0 -0.051192993446708225 0.0024494269716702627 0 -0.053898663164248357 0.0026641703543623095 0 -0.050936886520959353 0.0036604148409862085 0 -0.048494386436500808 0.0051885309868088076 0 -0.049599632982043861 0.0040464427136020168 0 -0.052259856933638174 0.0014985892159332336 0 -0.054192423299722743 0.00047992370411310592 0 -0.05271806494216312 -1.4395929766861917e-05 0 -0.052259856933638174 0.0014985892159332336 0 -0.053898663164248357 0.0026641703543623095 0 -0.054192423299722743 0.00047992370411310592 0 -0.053898663164248357 0.0026641703543623095 0 -0.054192423299722743 0.00047992370411310592 0 -0.056406313415654337 0.0017785051322474286 0 -0.054192423299722743 0.00047992370411310592 0 -0.056406313415654337 0.0017785051322474286 0 -0.055954388417644385 -0.0003905095502663771 0 -0.050347198456035608 0.0020841802029944356 0 -0.049352734314305903 0.00035251800175956381 0 -0.056406313415654337 0.0017785051322474286 0 -0.058096025782899963 -0.00066409518595678791 0 -0.058819629258000383 0.00090529013446698735 0 -0.045775192082293123 0.0061061156893245727 0 -0.043497261904849059 0.0046053550386984405 0 -0.042988112225788695 0.0069199555529807005 0 -0.045272092701375048 0.0035299889649573488 0 -0.043497261904849059 0.0046053550386984405 0 -0.045819742523975533 0.0046209585370613187 0 -0.045775192082293123 0.0061061156893245727 0 -0.043497261904849059 0.0046053550386984405 0 -0.045819742523975533 0.0046209585370613187 0 -0.047507632172170182 0.0044832037471026842 0 -0.045775192082293123 0.0061061156893245727 0 -0.045819742523975533 0.0046209585370613187 0 -0.057078760173539189 -0.0017164224394807313 0 -0.055838565197470331 -0.0023188382826353198 0 -0.055954388417644385 -0.0003905095502663771 0 -0.057078760173539189 -0.0017164224394807313 0 -0.055838565197470331 -0.0023188382826353198 0 -0.057114803340065114 -0.0031477843506252227 0 -0.057078760173539189 -0.0017164224394807313 0 -0.058217758959545042 -0.0023554758263785798 0 -0.058096025782899963 -0.00066409518595678791 0 -0.057078760173539189 -0.0017164224394807313 0 -0.058217758959545042 -0.0023554758263785798 0 -0.057114803340065114 -0.0031477843506252227 0 -0.058217758959545042 -0.0023554758263785798 0 -0.058096025782899963 -0.00066409518595678791 0 -0.059332262065074144 -0.0019065338180602241 0 -0.056406313415654337 0.0017785051322474286 0 -0.058096025782899963 -0.00066409518595678791 0 -0.055954388417644385 -0.0003905095502663771 0 -0.057078760173539189 -0.0017164224394807313 0 -0.058096025782899963 -0.00066409518595678791 0 -0.055954388417644385 -0.0003905095502663771 0 -0.054192423299722743 0.00047992370411310592 0 -0.053481280331001267 -0.00087041659034529505 0 -0.054592465597642796 -0.0013052840933134441 0 -0.054192423299722743 0.00047992370411310592 0 -0.055954388417644385 -0.0003905095502663771 0 -0.054592465597642796 -0.0013052840933134441 0 -0.054192423299722743 0.00047992370411310592 0 -0.05271806494216312 -1.4395929766861917e-05 0 -0.053481280331001267 -0.00087041659034529505 0 -0.05271806494216312 -1.4395929766861917e-05 0 -0.053481280331001267 -0.00087041659034529505 0 -0.052474126430258394 -0.0013873134769909639 0 -0.053481280331001267 -0.00087041659034529505 0 -0.052474126430258394 -0.0013873134769909639 0 -0.053515809215762225 -0.0021594732698505281 0 -0.053481280331001267 -0.00087041659034529505 0 -0.053515809215762225 -0.0021594732698505281 0 -0.054592465597642796 -0.0013052840933134441 0 -0.053515809215762225 -0.0021594732698505281 0 -0.054543664066788393 -0.0029219177007318449 0 -0.053474555917614325 -0.0035433064074386323 0 -0.052474126430258394 -0.0013873134769909639 0 -0.053515809215762225 -0.0021594732698505281 0 -0.052454103660143019 -0.0032021529933077219 0 -0.055838565197470331 -0.0023188382826353198 0 -0.055954388417644385 -0.0003905095502663771 0 -0.054592465597642796 -0.0013052840933134441 0 -0.053515809215762225 -0.0021594732698505281 0 -0.054592465597642796 -0.0013052840933134441 0 -0.054543664066788393 -0.0029219177007318449 0 -0.055838565197470331 -0.0023188382826353198 0 -0.054592465597642796 -0.0013052840933134441 0 -0.054543664066788393 -0.0029219177007318449 0 -0.055838565197470331 -0.0023188382826353198 0 -0.054543664066788393 -0.0029219177007318449 0 -0.055666038093580568 -0.0039171092841439959 0 -0.054543664066788393 -0.0029219177007318449 0 -0.055666038093580568 -0.0039171092841439959 0 -0.054095934779779462 -0.0045578781618572867 0 -0.054543664066788393 -0.0029219177007318449 0 -0.054095934779779462 -0.0045578781618572867 0 -0.053474555917614325 -0.0035433064074386323 0 -0.055666038093580568 -0.0039171092841439959 0 -0.054095934779779462 -0.0045578781618572867 0 -0.054499444121384938 -0.0060754394257347064 0 -0.052454103660143019 -0.0032021529933077219 0 -0.052791086463993719 -0.0049263503541963332 0 -0.051564654675879958 -0.0055518332236121357 0 -0.052454103660143019 -0.0032021529933077219 0 -0.053474555917614325 -0.0035433064074386323 0 -0.052791086463993719 -0.0049263503541963332 0 -0.053515809215762225 -0.0021594732698505281 0 -0.052454103660143019 -0.0032021529933077219 0 -0.053474555917614325 -0.0035433064074386323 0 -0.054095934779779462 -0.0045578781618572867 0 -0.053474555917614325 -0.0035433064074386323 0 -0.052791086463993719 -0.0049263503541963332 0 -0.052646519821971827 -0.0044887961154258865 0 -0.052191607204990192 -0.0029821654378386049 0 -0.052791086463993719 -0.0049263503541963332 0 -0.053065823817314985 -0.0067188854528290832 0 -0.051564654675879958 -0.0055518332236121357 0 -0.053065823817314985 -0.0067188854528290832 0 -0.05275715633368238 -0.0077478094824786582 0 -0.051564654675879958 -0.0055518332236121357 0 -0.054095934779779462 -0.0045578781618572867 0 -0.052791086463993719 -0.0049263503541963332 0 -0.053065823817314985 -0.0067188854528290832 0 -0.052743066948800307 -0.0076295669453237073 0 -0.051923849953578738 -0.0085458325014889387 0 -0.052413089488943417 -0.0078018480566959302 0 -0.054095934779779462 -0.0045578781618572867 0 -0.053065823817314985 -0.0067188854528290832 0 -0.054499444121384938 -0.0060754394257347064 0 -0.052963020715508055 -0.0080662227741520581 0 -0.052992986607374434 -0.0080980201451962865 0 -0.053065823817314985 -0.0067188854528290832 0 -0.052743066948800307 -0.0076295669453237073 0 -0.052757099471547476 -0.0075610540519683717 0 -0.055666038093580568 -0.0039171092841439959 0 -0.054499444121384938 -0.0060754394257347064 0 -0.057272453564561628 -0.0048019762125230897 0 -0.052992986607374434 -0.0080980201451962865 0 -0.051758322224730043 -0.0085937661264770971 0 -0.052992986607374434 -0.0080980201451962865 0 -0.054119508073136702 -0.0076116366571030254 0 -0.053542869047889706 -0.0086430099339814808 0 -0.052328516010202289 -0.0084521792236304395 0 -0.052130002186414094 -0.0090003571584093139 0 -0.055666038093580568 -0.0039171092841439959 0 -0.057272453564561628 -0.0048019762125230897 0 -0.057114803340065114 -0.0031477843506252227 0 -0.055838565197470331 -0.0023188382826353198 0 -0.055666038093580568 -0.0039171092841439959 0 -0.057114803340065114 -0.0031477843506252227 0 -0.057272453564561628 -0.0048019762125230897 0 -0.058428147889036948 -0.0037604596883936184 0 -0.059697540140799324 -0.0039610124701762069 0 -0.054119508073136702 -0.0076116366571030254 0 -0.053307890834405819 -0.0079376324342375019 0 -0.058217758959545042 -0.0023554758263785798 0 -0.058428147889036948 -0.0037604596883936184 0 -0.059185085390376084 -0.0028781046148556584 0 -0.058217758959545042 -0.0023554758263785798 0 -0.057114803340065114 -0.0031477843506252227 0 -0.058428147889036948 -0.0037604596883936184 0 -0.057272453564561628 -0.0048019762125230897 0 -0.057114803340065114 -0.0031477843506252227 0 -0.058428147889036948 -0.0037604596883936184 0 -0.052130002186414094 -0.0090003571584093139 0 -0.05110653991421496 -0.0082611298759196466 0 -0.050707691462202338 -0.0093588884022054036 0 -0.052328516010202289 -0.0084521792236304395 0 -0.052130002186414094 -0.0090003571584093139 0 -0.05110653991421496 -0.0082611298759196466 0 -0.051758322224730043 -0.0085937661264770971 0 -0.050339929714103046 -0.0091340475446016062 0 -0.051923849953578738 -0.0085458325014889387 0 -0.051698410169354565 -0.0081842802144810531 0 -0.050995977998306165 -0.0091447294678619982 0 -0.051698410169354565 -0.0081842802144810531 0 -0.050995977998306165 -0.0091447294678619982 0 -0.050778744924965757 -0.008832580818872348 0 -0.051923849953578738 -0.0085458325014889387 0 -0.051698410169354565 -0.0081842802144810531 0 -0.052413089488943417 -0.0078018480566959302 0 -0.051698410169354565 -0.0081842802144810531 0 -0.052493330766927082 -0.0070928779259191738 0 -0.052413089488943417 -0.0078018480566959302 0 -0.051698410169354565 -0.0081842802144810531 0 -0.051779711422333084 -0.0078379988709265398 0 -0.052493330766927082 -0.0070928779259191738 0 -0.051698410169354565 -0.0081842802144810531 0 -0.051240162216108075 -0.0083320273529777708 0 -0.051779711422333084 -0.0078379988709265398 0 -0.051698410169354565 -0.0081842802144810531 0 -0.051240162216108075 -0.0083320273529777708 0 -0.050778744924965757 -0.008832580818872348 0 -0.051240162216108075 -0.0083320273529777708 0 -0.051779711422333084 -0.0078379988709265398 0 -0.051408783013199989 -0.0081300566044167199 0 -0.051779711422333084 -0.0078379988709265398 0 -0.051881351078400181 -0.0077785289503193439 0 -0.051459374121572254 -0.0082377194820059604 0 -0.051779711422333084 -0.0078379988709265398 0 -0.051408783013199989 -0.0081300566044167199 0 -0.051459374121572254 -0.0082377194820059604 0 -0.051408783013199989 -0.0081300566044167199 0 -0.051422735940006806 -0.0083766076223129263 0 -0.051459374121572254 -0.0082377194820059604 0 -0.051219321901045424 -0.0079628878681195104 0 -0.051881351078400181 -0.0077785289503193439 0 -0.051239584142660347 -0.0085358157490205405 0 -0.051881351078400181 -0.0077785289503193439 0 -0.051239584142660347 -0.0085358157490205405 0 -0.051459374121572254 -0.0082377194820059604 0 -0.051779711422333084 -0.0078379988709265398 0 -0.051881351078400181 -0.0077785289503193439 0 -0.052493330766927082 -0.0070928779259191738 0 -0.051219321901045424 -0.0079628878681195104 0 -0.051881351078400181 -0.0077785289503193439 0 -0.051776069512210067 -0.0062549153093414845 0 -0.051881351078400181 -0.0077785289503193439 0 -0.052493330766927082 -0.0070928779259191738 0 -0.051776069512210067 -0.0062549153093414845 0 -0.052799339401449541 -0.0051519514707590716 0 -0.052646519821971827 -0.0044887961154258865 0 -0.052493330766927082 -0.0070928779259191738 0 -0.053247928203252123 -0.0035844911688209398 0 -0.051776069512210067 -0.0062549153093414845 0 -0.052493330766927082 -0.0070928779259191738 0 -0.052413089488943417 -0.0078018480566959302 0 -0.05275715633368238 -0.0077478094824786582 0 -0.052413089488943417 -0.0078018480566959302 0 -0.052757099471547476 -0.0075610540519683717 0 -0.05275715633368238 -0.0077478094824786582 0 -0.052743066948800307 -0.0076295669453237073 0 -0.052413089488943417 -0.0078018480566959302 0 -0.052757099471547476 -0.0075610540519683717 0 -0.053065823817314985 -0.0067188854528290832 0 -0.052757099471547476 -0.0075610540519683717 0 -0.05275715633368238 -0.0077478094824786582 0 -0.051982158652845389 -0.0024487061426867757 0 -0.05005723717831019 -0.0046022425875025365 0 -0.052142442969048595 0.00041813858025801701 0 -0.053247928203252123 -0.0035844911688209398 0 -0.051982158652845389 -0.0024487061426867757 0 -0.051776069512210067 -0.0062549153093414845 0 -0.05456342440455899 0.0011459269937524512 0 -0.053225518573514791 0.0012195487232741884 0 -0.052142442969048595 0.00041813858025801701 0 -0.052700515208461196 -0.0029240764121072856 0 -0.052569538028963483 -0.0018739104618130862 0 -0.052700515208461196 -0.0029240764121072856 0 -0.052998092539943212 -0.0052112804003421782 0 -0.05005723717831019 -0.0046022425875025365 0 -0.051776069512210067 -0.0062549153093414845 0 -0.050198753543850227 -0.0074745133041510918 0 -0.051982158652845389 -0.0024487061426867757 0 -0.05005723717831019 -0.0046022425875025365 0 -0.051776069512210067 -0.0062549153093414845 0 -0.051219321901045424 -0.0079628878681195104 0 -0.051776069512210067 -0.0062549153093414845 0 -0.050198753543850227 -0.0074745133041510918 0 -0.056572008639231425 -0.0020510373933960292 0 -0.054713661332143081 -0.0048433785213609481 0 -0.053842315294427977 -0.00030082351094395173 0 -0.05456342440455899 0.0011459269937524512 0 -0.056572008639231425 -0.0020510373933960292 0 -0.053842315294427977 -0.00030082351094395173 0 -0.056572008639231425 -0.0020510373933960292 0 -0.054713661332143081 -0.0048433785213609481 0 -0.056043999680841505 -0.0072028165011868931 0 -0.052998092539943212 -0.0052112804003421782 0 -0.053131884573083779 -0.0081712289104191056 0 -0.056572008639231425 -0.0020510373933960292 0 -0.056043999680841505 -0.0072028165011868931 0 -0.056930252359472765 -0.0076655248622250092 0 -0.050198753543850227 -0.0074745133041510918 0 -0.05070058891542617 -0.0081472514696449925 0 -0.050423126507011633 -0.0085882068058050574 0 -0.051219321901045424 -0.0079628878681195104 0 -0.050198753543850227 -0.0074745133041510918 0 -0.05070058891542617 -0.0081472514696449925 0 -0.051219321901045424 -0.0079628878681195104 0 -0.05070058891542617 -0.0081472514696449925 0 -0.050923061832209002 -0.0084438583710826787 0 -0.053270370001245661 -0.0028355410931755198 0 -0.054356486476064364 -0.0022032240508456616 0 -0.053189879950008352 -0.0048130795606526802 0 -0.052042585745828054 0.00038557926992703682 0 -0.048285030428596672 -0.0044835306089236679 0 -0.053189879950008352 -0.0048130795606526802 0 -0.05126375555999748 -0.0066195395897057007 0 -0.052223233835359331 -0.0075779095862281961 0 -0.053189879950008352 -0.0048130795606526802 0 -0.054713661332143081 -0.0048433785213609481 0 -0.053771492429189077 -0.0070671430676103562 0 -0.053189879950008352 -0.0048130795606526802 0 -0.054713661332143081 -0.0048433785213609481 0 -0.053842315294427977 -0.00030082351094395173 0 -0.053842315294427977 -0.00030082351094395173 0 -0.052042585745828054 0.00038557926992703682 0 -0.052951432801233669 0.0011835388505130793 0 -0.053189879950008352 -0.0048130795606526802 0 -0.053842315294427977 -0.00030082351094395173 0 -0.052042585745828054 0.00038557926992703682 0 -0.053842315294427977 -0.00030082351094395173 0 -0.052951432801233669 0.0011835388505130793 0 -0.053430964990586013 0.0013383328800405775 0 -0.05456342440455899 0.0011459269937524512 0 -0.053842315294427977 -0.00030082351094395173 0 -0.053430964990586013 0.0013383328800405775 0 -0.05456342440455899 0.0011459269937524512 0 -0.053430964990586013 0.0013383328800405775 0 -0.053225518573514791 0.0012195487232741884 0 -0.052951432801233669 0.0011835388505130793 0 -0.053430964990586013 0.0013383328800405775 0 -0.053429200525121248 0.0015888016394076828 0 -0.053430964990586013 0.0013383328800405775 0 -0.053454883418438306 0.0015135955380221342 0 -0.053429200525121248 0.0015888016394076828 0 -0.053454883418438306 0.0015135955380221342 0 -0.053696448328440234 0.0015843054032543533 0 -0.053740481634309792 0.0017116308199823602 0 -0.053454883418438306 0.0015135955380221342 0 -0.053740481634309792 0.0017116308199823602 0 -0.053429200525121248 0.0015888016394076828 0 -0.053454883418438306 0.0015135955380221342 0 -0.053696448328440234 0.0015843054032543533 0 -0.053170504228023829 0.0012842393369271062 0 -0.053696448328440234 0.0015843054032543533 0 -0.053170504228023829 0.0012842393369271062 0 -0.053330481937129949 0.0012881945781441475 0 -0.053170504228023829 0.0012842393369271062 0 -0.053225518573514791 0.0012195487232741884 0 -0.052547960219820791 0.0008918125982136433 0 -0.053170504228023829 0.0012842393369271062 0 -0.052547960219820791 0.0008918125982136433 0 -0.052640802435072818 0.0010204866218914055 0 -0.053454883418438306 0.0015135955380221342 0 -0.053170504228023829 0.0012842393369271062 0 -0.053225518573514791 0.0012195487232741884 0 -0.053430964990586013 0.0013383328800405775 0 -0.053454883418438306 0.0015135955380221342 0 -0.053225518573514791 0.0012195487232741884 0 -0.053225518573514791 0.0012195487232741884 0 -0.052142442969048595 0.00041813858025801701 0 -0.052547960219820791 0.0008918125982136433 0 -0.051982158652845389 -0.0024487061426867757 0 -0.052142442969048595 0.00041813858025801701 0 -0.052802325281471309 4.7884266224367703e-05 0 -0.053247928203252123 -0.0035844911688209398 0 -0.051982158652845389 -0.0024487061426867757 0 -0.052802325281471309 4.7884266224367703e-05 0 -0.052142442969048595 0.00041813858025801701 0 -0.052802325281471309 4.7884266224367703e-05 0 -0.052340205148662014 0.00099517934515859431 0 -0.052454103660143019 -0.0032021529933077219 0 -0.051564654675879958 -0.0055518332236121357 0 -0.050864189285341033 -0.0022275088180206369 0 -0.052191607204990192 -0.0029821654378386049 0 -0.051858336081267727 -0.001751711595649541 0 -0.052142442969048595 0.00041813858025801701 0 -0.052547960219820791 0.0008918125982136433 0 -0.052340205148662014 0.00099517934515859431 0 -0.052547960219820791 0.0008918125982136433 0 -0.052340205148662014 0.00099517934515859431 0 -0.052640802435072818 0.0010204866218914055 0 -0.051858336081267727 -0.001751711595649541 0 -0.051792126779220515 -0.0013250195746666157 0 -0.050864189285341033 -0.0022275088180206369 0 -0.051569774633416839 -0.00076099643246045536 0 -0.051914602701913636 0.00023913966421486958 0 -0.052340205148662014 0.00099517934515859431 0 -0.051914602701913636 0.00023913966421486958 0 -0.052640802435072818 0.0010204866218914055 0 -0.052474126430258394 -0.0013873134769909639 0 -0.052454103660143019 -0.0032021529933077219 0 -0.050864189285341033 -0.0022275088180206369 0 -0.052474126430258394 -0.0013873134769909639 0 -0.050864189285341033 -0.0022275088180206369 0 -0.051569774633416839 -0.00076099643246045536 0 -0.052474126430258394 -0.0013873134769909639 0 -0.052045150825771651 -0.00051946123958433548 0 -0.051569774633416839 -0.00076099643246045536 0 -0.05271806494216312 -1.4395929766861917e-05 0 -0.052474126430258394 -0.0013873134769909639 0 -0.052045150825771651 -0.00051946123958433548 0 -0.052045150825771651 -0.00051946123958433548 0 -0.051569774633416839 -0.00076099643246045536 0 -0.051503930313789519 -8.777590990577176e-05 0 -0.051921012929139899 0.00052999729776120679 0 -0.052045150825771651 -0.00051946123958433548 0 -0.051503930313789519 -8.777590990577176e-05 0 -0.051921012929139899 0.00052999729776120679 0 -0.05271806494216312 -1.4395929766861917e-05 0 -0.052045150825771651 -0.00051946123958433548 0 -0.051569774633416839 -0.00076099643246045536 0 -0.051503930313789519 -8.777590990577176e-05 0 -0.051914602701913636 0.00023913966421486958 0 -0.051509773863214252 -0.00044055983589532104 0 -0.051503930313789519 -8.777590990577176e-05 0 -0.051914602701913636 0.00023913966421486958 0 -0.053955431984251866 0.00076705682874004741 0 -0.052396890719820455 -0.00025082688201292212 0 -0.052953839370181145 0.0007048215998390054 0 -0.051914602701913636 0.00023913966421486958 0 -0.052953839370181145 0.0007048215998390054 0 -0.052640802435072818 0.0010204866218914055 0 -0.052396890719820455 -0.00025082688201292212 0 -0.051914602701913636 0.00023913966421486958 0 -0.052953839370181145 0.0007048215998390054 0 -0.053955431984251866 0.00076705682874004741 0 -0.052953839370181145 0.0007048215998390054 0 -0.053761986623166953 0.0013521007887592545 0 -0.053955431984251866 0.00076705682874004741 0 -0.053761986623166953 0.0013521007887592545 0 -0.054422203488953914 0.0019499175006231306 0 -0.053761986623166953 0.0013521007887592545 0 -0.053330481937129949 0.0012881945781441475 0 -0.054050000679230867 0.0016591906822544604 0 -0.052953839370181145 0.0007048215998390054 0 -0.053761986623166953 0.0013521007887592545 0 -0.053330481937129949 0.0012881945781441475 0 -0.053696448328440234 0.0015843054032543533 0 -0.053330481937129949 0.0012881945781441475 0 -0.054050000679230867 0.0016591906822544604 0 -0.053170504228023829 0.0012842393369271062 0 -0.053330481937129949 0.0012881945781441475 0 -0.052640802435072818 0.0010204866218914055 0 -0.052953839370181145 0.0007048215998390054 0 -0.053330481937129949 0.0012881945781441475 0 -0.052640802435072818 0.0010204866218914055 0 -0.054383844514870563 0.0018870101148011804 0 -0.054017938648761726 0.0018405772433203885 0 -0.054404503576157059 0.0019415966774124689 0 -0.054383844514870563 0.0018870101148011804 0 -0.054050000679230867 0.0016591906822544604 0 -0.054422203488953914 0.0019499175006231306 0 -0.054383844514870563 0.0018870101148011804 0 -0.054050000679230867 0.0016591906822544604 0 -0.054106071485080662 0.0018294115425491124 0 -0.053761986623166953 0.0013521007887592545 0 -0.054050000679230867 0.0016591906822544604 0 -0.054422203488953914 0.0019499175006231306 0 -0.053955431984251866 0.00076705682874004741 0 -0.054422203488953914 0.0019499175006231306 0 -0.054861479835397214 0.003329517428254779 0 -0.054383844514870563 0.0018870101148011804 0 -0.054422203488953914 0.0019499175006231306 0 -0.054861479835397214 0.003329517428254779 0 -0.054097148504497518 0.0031660179267694725 0 -0.054047724315627134 0.0031211322507757162 0 -0.054383844514870563 0.0018870101148011804 0 -0.054861479835397214 0.003329517428254779 0 -0.054017938648761726 0.0018405772433203885 0 -0.055733076168053355 0.0052517223908506022 0 -0.055858668971884594 0.0051804404698805829 0 -0.054841718131026555 0.0050063785501174964 0 -0.054861479835397214 0.003329517428254779 0 -0.054017938648761726 0.0018405772433203885 0 -0.05600079698973412 0.0067271020842149202 0 -0.056381387569957905 0.0084392941569284737 0 -0.056859386582696125 0.0075780181261540513 0 -0.05600079698973412 0.0067271020842149202 0 -0.054841718131026555 0.0050063785501174964 0 -0.056381387569957905 0.0084392941569284737 0 -0.056381387569957905 0.0084392941569284737 0 -0.057534384212629748 0.0085268256199566052 0 -0.056859386582696125 0.0075780181261540513 0 -0.057534384212629748 0.0085268256199566052 0 -0.056859386582696125 0.0075780181261540513 0 -0.057465339836806371 0.0083937533351514573 0 -0.055858668971884594 0.0051804404698805829 0 -0.056283853836332928 0.0051511792219691988 0 -0.056381387569957905 0.0084392941569284737 0 -0.057534384212629748 0.0085268256199566052 0 -0.05828364839803022 0.0083043282178806733 0 -0.054017938648761726 0.0018405772433203885 0 -0.054404503576157059 0.0019415966774124689 0 -0.055633264440409308 0.0021451033126974775 0 -0.054404503576157059 0.0019415966774124689 0 -0.055633264440409308 0.0021451033126974775 0 -0.05472817515302783 0.0024773181379731811 0 -0.055633264440409308 0.0021451033126974775 0 -0.055816905215728019 0.0034768678513060732 0 -0.05472817515302783 0.0024773181379731811 0 -0.055816905215728019 0.0034768678513060732 0 -0.05472817515302783 0.0024773181379731811 0 -0.055006001786835838 0.002595616938459098 0 -0.05472817515302783 0.0024773181379731811 0 -0.054110186161932861 0.0020015626417526776 0 -0.054106071485080662 0.0018294115425491124 0 -0.054404503576157059 0.0019415966774124689 0 -0.05472817515302783 0.0024773181379731811 0 -0.054106071485080662 0.0018294115425491124 0 -0.054383844514870563 0.0018870101148011804 0 -0.054404503576157059 0.0019415966774124689 0 -0.054106071485080662 0.0018294115425491124 0 -0.053696448328440234 0.0015843054032543533 0 -0.054050000679230867 0.0016591906822544604 0 -0.054106071485080662 0.0018294115425491124 0 -0.053696448328440234 0.0015843054032543533 0 -0.054106071485080662 0.0018294115425491124 0 -0.053740481634309792 0.0017116308199823602 0 -0.054110186161932861 0.0020015626417526776 0 -0.054106071485080662 0.0018294115425491124 0 -0.053740481634309792 0.0017116308199823602 0 -0.054110186161932861 0.0020015626417526776 0 -0.053740481634309792 0.0017116308199823602 0 -0.053429200525121248 0.0015888016394076828 0 -0.052951432801233669 0.0011835388505130793 0 -0.053429200525121248 0.0015888016394076828 0 -0.053603047269755955 0.0016609106369495298 0 -0.054110186161932861 0.0020015626417526776 0 -0.053429200525121248 0.0015888016394076828 0 -0.053603047269755955 0.0016609106369495298 0 -0.054110186161932861 0.0020015626417526776 0 -0.053603047269755955 0.0016609106369495298 0 -0.055006001786835838 0.002595616938459098 0 -0.053603047269755955 0.0016609106369495298 0 -0.054376388998701168 0.0022410050388324194 0 -0.055006001786835838 0.002595616938459098 0 -0.052042585745828054 0.00038557926992703682 0 -0.052951432801233669 0.0011835388505130793 0 -0.053603047269755955 0.0016609106369495298 0 -0.052042585745828054 0.00038557926992703682 0 -0.053603047269755955 0.0016609106369495298 0 -0.054376388998701168 0.0022410050388324194 0 -0.052042585745828054 0.00038557926992703682 0 -0.054376388998701168 0.0022410050388324194 0 -0.053371157249770207 0.0033507926847600117 0 -0.054376388998701168 0.0022410050388324194 0 -0.053371157249770207 0.0033507926847600117 0 -0.055220667371481999 0.0035824712176295995 0 -0.054356486476064364 -0.0022032240508456616 0 -0.056527507015984704 -0.00022095652103978675 0 -0.053906994367487429 -0.0016197127411549297 0 -0.054356486476064364 -0.0022032240508456616 0 -0.056364952264843955 0.0034163368602200075 0 -0.055220667371481999 0.0035824712176295995 0 -0.056030846822102499 0.0030174053578011779 0 -0.056974035095426825 0.00062451376674947732 0 -0.056527507015984704 -0.00022095652103978675 0 -0.054376388998701168 0.0022410050388324194 0 -0.055220667371481999 0.0035824712176295995 0 -0.056030846822102499 0.0030174053578011779 0 -0.056030846822102499 0.0030174053578011779 0 -0.055006001786835838 0.002595616938459098 0 -0.056273891257223499 0.0034919518391391788 0 -0.054376388998701168 0.0022410050388324194 0 -0.056030846822102499 0.0030174053578011779 0 -0.055006001786835838 0.002595616938459098 0 -0.05472817515302783 0.0024773181379731811 0 -0.054110186161932861 0.0020015626417526776 0 -0.055006001786835838 0.002595616938459098 0 -0.055816905215728019 0.0034768678513060732 0 -0.055006001786835838 0.002595616938459098 0 -0.056273891257223499 0.0034919518391391788 0 -0.055816905215728019 0.0034768678513060732 0 -0.056273891257223499 0.0034919518391391788 0 -0.05734241962809189 0.0053275404739455213 0 -0.056800742716736283 0.0036048390716461147 0 -0.056559970259604887 0.0049923529033401382 0 -0.05734241962809189 0.0053275404739455213 0 -0.056273891257223499 0.0034919518391391788 0 -0.056800742716736283 0.0036048390716461147 0 -0.05734241962809189 0.0053275404739455213 0 -0.056800742716736283 0.0036048390716461147 0 -0.056659222190305919 0.0032510322815008925 0 -0.056559970259604887 0.0049923529033401382 0 -0.056030846822102499 0.0030174053578011779 0 -0.056273891257223499 0.0034919518391391788 0 -0.056800742716736283 0.0036048390716461147 0 -0.056364952264843955 0.0034163368602200075 0 -0.056030846822102499 0.0030174053578011779 0 -0.056814452504717977 0.0029833029661415485 0 -0.056030846822102499 0.0030174053578011779 0 -0.056800742716736283 0.0036048390716461147 0 -0.056814452504717977 0.0029833029661415485 0 -0.056800742716736283 0.0036048390716461147 0 -0.056814452504717977 0.0029833029661415485 0 -0.056659222190305919 0.0032510322815008925 0 -0.056814452504717977 0.0029833029661415485 0 -0.056732211077358687 0.0023917573460095491 0 -0.056659222190305919 0.0032510322815008925 0 -0.056814452504717977 0.0029833029661415485 0 -0.056889588227977038 0.0025513165862757108 0 -0.056732211077358687 0.0023917573460095491 0 -0.056364952264843955 0.0034163368602200075 0 -0.056814452504717977 0.0029833029661415485 0 -0.056889588227977038 0.0025513165862757108 0 -0.056974035095426825 0.00062451376674947732 0 -0.056708342001399327 0.00086610619709994591 0 -0.054999622804930766 0.0009951302581060141 0 -0.056271875550990821 0.00063333435420197997 0 -0.056020343066764532 0.0022164431938399643 0 -0.056271875550990821 0.00063333435420197997 0 -0.056732211077358687 0.0023917573460095491 0 -0.056020343066764532 0.0022164431938399643 0 -0.056889588227977038 0.0025513165862757108 0 -0.056271875550990821 0.00063333435420197997 0 -0.056732211077358687 0.0023917573460095491 0 -0.056708342001399327 0.00086610619709994591 0 -0.056307348645029669 0.00085946009449818308 0 -0.057766836450545242 0.00023706470831361297 0 -0.056271875550990821 0.00063333435420197997 0 -0.057088665489423179 5.650831133692672e-05 0 -0.056732211077358687 0.0023917573460095491 0 -0.056659222190305919 0.0032510322815008925 0 -0.056020343066764532 0.0022164431938399643 0 -0.056659222190305919 0.0032510322815008925 0 -0.056020343066764532 0.0022164431938399643 0 -0.054999764883663996 0.0041946246057958502 0 -0.054999622804930766 0.0009951302581060141 0 -0.056020343066764532 0.0022164431938399643 0 -0.054999764883663996 0.0041946246057958502 0 -0.056659222190305919 0.0032510322815008925 0 -0.054999764883663996 0.0041946246057958502 0 -0.056559970259604887 0.0049923529033401382 0 -0.054999764883663996 0.0041946246057958502 0 -0.056559970259604887 0.0049923529033401382 0 -0.054999263278170153 0.0073946060424812908 0 -0.056559970259604887 0.0049923529033401382 0 -0.054999263278170153 0.0073946060424812908 0 -0.056322293330306798 0.0070462995607597891 0 -0.054999263278170153 0.0073946060424812908 0 -0.056322293330306798 0.0070462995607597891 0 -0.054999783905268246 0.010595221017668148 0 -0.056322293330306798 0.0070462995607597891 0 -0.054999783905268246 0.010595221017668148 0 -0.056908834021548282 0.0088899988189285704 0 -0.056559970259604887 0.0049923529033401382 0 -0.056322293330306798 0.0070462995607597891 0 -0.05734241962809189 0.0053275404739455213 0 -0.05734241962809189 0.0053275404739455213 0 -0.05783493229046905 0.0093162072889053892 0 -0.056908834021548282 0.0088899988189285704 0 -0.05828364839803022 0.0083043282178806733 0 -0.05734241962809189 0.0053275404739455213 0 -0.05783493229046905 0.0093162072889053892 0 -0.055633264440409308 0.0021451033126974775 0 -0.055816905215728019 0.0034768678513060732 0 -0.05734241962809189 0.0053275404739455213 0 -0.056283853836332928 0.0051511792219691988 0 -0.056482255031789205 0.0051482601803398498 0 -0.056322293330306798 0.0070462995607597891 0 -0.05734241962809189 0.0053275404739455213 0 -0.056908834021548282 0.0088899988189285704 0 -0.05783493229046905 0.0093162072889053892 0 -0.05823328508468275 0.010700844768578308 0 -0.056908834021548282 0.0088899988189285704 0 -0.057534384212629748 0.0085268256199566052 0 -0.05828364839803022 0.0083043282178806733 0 -0.05783493229046905 0.0093162072889053892 0 -0.05788781071465085 0.0094147362512624327 0 -0.05783493229046905 0.0093162072889053892 0 -0.057465339836806371 0.0083937533351514573 0 -0.057534384212629748 0.0085268256199566052 0 -0.05783493229046905 0.0093162072889053892 0 -0.057465339836806371 0.0083937533351514573 0 -0.05788781071465085 0.0094147362512624327 0 -0.05783493229046905 0.0093162072889053892 0 -0.05823328508468275 0.010700844768578308 0 -0.057363709850751898 0.013392423210835723 0 -0.05823328508468275 0.010700844768578308 0 -0.056425916482049296 0.011608910239690445 0 -0.05823328508468275 0.010700844768578308 0 -0.056425916482049296 0.011608910239690445 0 -0.056908834021548282 0.0088899988189285704 0 -0.054999443164056687 0.013796203005296324 0 -0.056425916482049296 0.011608910239690445 0 -0.054999783905268246 0.010595221017668148 0 -0.054999443164056687 0.013796203005296324 0 -0.056269815468469007 0.013911077154269967 0 -0.056425916482049296 0.011608910239690445 0 -0.056425916482049296 0.011608910239690445 0 -0.054999783905268246 0.010595221017668148 0 -0.056908834021548282 0.0088899988189285704 0 -0.030156604099868076 -0.018047374358275012 0 -0.030403188366981724 -0.018079500862128704 0 -0.030162145448216809 -0.017877353852894764 0 -0.030403188366981724 -0.018079500862128704 0 -0.030162145448216809 -0.017877353852894764 0 -0.030548034546993969 -0.017911622510059337 0 -0.030162145448216809 -0.017877353852894764 0 -0.030548034546993969 -0.017911622510059337 0 -0.030284287061096916 -0.017565285796799016 0 -0.030162145448216809 -0.017877353852894764 0 -0.029964161986311869 -0.017957413061202326 0 -0.029921593576915977 -0.017715570777574054 0 -0.029964161986311869 -0.017957413061202326 0 -0.029921593576915977 -0.017715570777574054 0 -0.029743757166551268 -0.017888433643755176 0 -0.029964161986311869 -0.017957413061202326 0 -0.029783761053656339 -0.018097917938855783 0 -0.029743757166551268 -0.017888433643755176 0 -0.030027567366622931 -0.018082193321926097 0 -0.029964161986311869 -0.017957413061202326 0 -0.029783761053656339 -0.018097917938855783 0 -0.030156604099868076 -0.018047374358275012 0 -0.030027567366622931 -0.018082193321926097 0 -0.029964161986311869 -0.017957413061202326 0 -0.030156604099868076 -0.018047374358275012 0 -0.030162145448216809 -0.017877353852894764 0 -0.029964161986311869 -0.017957413061202326 0 -0.029783761053656339 -0.018097917938855783 0 -0.030205062319572158 -0.018227062018288196 0 -0.029515713096739341 -0.018136297401318783 0 -0.00037234861652359741 0.020113428934683559 0 -0.0029356271527983344 0.020985064305854999 0 0.0021224982289061761 0.020974947052242305 0 -0.016838316196242136 0.0049716973902234228 0 -0.01158597196636652 0.00023541450785195768 0 -0.030027567366622931 -0.018082193321926097 0 -0.029783761053656339 -0.018097917938855783 0 -0.030205062319572158 -0.018227062018288196 0 -0.00037234861652359741 0.020113428934683559 0 0.0010696028240351158 0.019513149981122621 0 8.1876893391666987e-05 0.018914208707052963 0 -0.00037234861652359741 0.020113428934683559 0 -0.0011992336368699158 0.018656947314247 0 8.1876893391666987e-05 0.018914208707052963 0 -0.00037234861652359741 0.020113428934683559 0 -0.0017482422742829194 0.02021111974157018 0 -0.0029356271527983344 0.020985064305854999 0 -0.00037234861652359741 0.020113428934683559 0 -0.0017482422742829194 0.02021111974157018 0 -0.0011992336368699158 0.018656947314247 0 -0.0017482422742829194 0.02021111974157018 0 -0.0021532619945872191 0.019308920673484435 0 -0.0011992336368699158 0.018656947314247 0 -0.0017482422742829194 0.02021111974157018 0 -0.0021532619945872191 0.019308920673484435 0 -0.0024788886639275903 0.020134316769342006 0 -0.0030783028781090523 0.020033741038825943 0 -0.0029356271527983344 0.020985064305854999 0 -0.0081162020916726203 0.020911072944249237 0 -0.0021532619945872191 0.019308920673484435 0 -0.0030783028781090523 0.020033741038825943 0 -0.0024788886639275903 0.020134316769342006 0 -0.0017482422742829194 0.02021111974157018 0 -0.0024788886639275903 0.020134316769342006 0 -0.0029356271527983344 0.020985064305854999 0 -0.0030783028781090523 0.020033741038825943 0 -0.0024788886639275903 0.020134316769342006 0 -0.0029356271527983344 0.020985064305854999 0 -0.030156604099868076 -0.018047374358275012 0 -0.030403188366981724 -0.018079500862128704 0 -0.030205062319572158 -0.018227062018288196 0 -0.030156604099868076 -0.018047374358275012 0 -0.030027567366622931 -0.018082193321926097 0 -0.030205062319572158 -0.018227062018288196 0 -0.016838316196242136 0.0049716973902234228 0 -0.022954371233399714 0.012490072850463475 0 -0.030403188366981724 -0.018079500862128704 0 -0.030205062319572158 -0.018227062018288196 0 -0.03097866295842264 -0.01835961298766263 0 -0.022954371233399714 0.012490072850463475 0 -0.018810674631879808 0.023761138426733421 0 -0.0030783028781090523 0.020033741038825943 0 -0.0081162020916726203 0.020911072944249237 0 -0.0050100955272761568 0.017883192376428939 0 -0.023045803399383329 0.043267887599869055 0 -0.023014227695588793 0.043342792775099365 0 -0.022990974470932405 0.043277811507283562 0 -0.022954371233399714 0.012490072850463475 0 -0.026132219403509301 0.017920697475798081 0 -0.022954371233399714 0.012490072850463475 0 -0.025705456244966667 0.0011606694461005428 0 -0.03097866295842264 -0.01835961298766263 0 -0.030941854464993358 -0.01768124113259054 0 -0.031538787802763542 -0.018035765827994019 0 -0.03097866295842264 -0.01835961298766263 0 -0.030548034546993969 -0.017911622510059337 0 -0.030941854464993358 -0.01768124113259054 0 -0.030403188366981724 -0.018079500862128704 0 -0.03097866295842264 -0.01835961298766263 0 -0.030548034546993969 -0.017911622510059337 0 -0.030548034546993969 -0.017911622510059337 0 -0.030941854464993358 -0.01768124113259054 0 -0.030284287061096916 -0.017565285796799016 0 -0.030941854464993358 -0.01768124113259054 0 -0.030571354636986247 -0.017261726422609796 0 -0.030284287061096916 -0.017565285796799016 0 -0.030941854464993358 -0.01768124113259054 0 -0.030952209667970104 -0.017086287840403332 0 -0.031513023452596108 -0.01746616446665835 0 -0.030941854464993358 -0.01768124113259054 0 -0.031538787802763542 -0.018035765827994019 0 -0.031513023452596108 -0.01746616446665835 0 -0.030952209667970104 -0.017086287840403332 0 -0.031513023452596108 -0.01746616446665835 0 -0.031895884073508442 -0.016746597422710768 0 -0.030952209667970104 -0.017086287840403332 0 -0.030571354636986247 -0.017261726422609796 0 -0.030516725072697523 -0.01701326155796018 0 -0.030941854464993358 -0.01768124113259054 0 -0.030952209667970104 -0.017086287840403332 0 -0.030571354636986247 -0.017261726422609796 0 -0.030571354636986247 -0.017261726422609796 0 -0.030169233437265713 -0.017134916865869359 0 -0.030516725072697523 -0.01701326155796018 0 -0.030571354636986247 -0.017261726422609796 0 -0.030169233437265713 -0.017134916865869359 0 -0.030284287061096916 -0.017565285796799016 0 -0.030162145448216809 -0.017877353852894764 0 -0.030284287061096916 -0.017565285796799016 0 -0.029921593576915977 -0.017715570777574054 0 -0.030284287061096916 -0.017565285796799016 0 -0.029921593576915977 -0.017715570777574054 0 -0.029865899953376567 -0.017417778603451891 0 -0.030169233437265713 -0.017134916865869359 0 -0.030284287061096916 -0.017565285796799016 0 -0.029865899953376567 -0.017417778603451891 0 -0.030169233437265713 -0.017134916865869359 0 -0.029865899953376567 -0.017417778603451891 0 -0.029823288155294135 -0.017148541037384907 0 -0.029865899953376567 -0.017417778603451891 0 -0.029472116880895047 -0.017345146180732188 0 -0.029823288155294135 -0.017148541037384907 0 -0.029350418646419452 -0.017012199763917484 0 -0.029145405985636301 -0.016954773944858129 0 -0.029339041351234149 -0.016975881245300192 0 -0.029350418646419452 -0.017012199763917484 0 -0.029145405985636301 -0.016954773944858129 0 -0.029265646000975074 -0.01721157849998772 0 -0.029472116880895047 -0.017345146180732188 0 -0.029638594602352873 -0.017672757966907694 0 -0.02931466572711652 -0.017778515440811386 0 -0.023253943344310874 -0.014886253220893425 0 -0.018020732093540222 -0.010806557607625684 0 -0.029865899953376567 -0.017417778603451891 0 -0.029472116880895047 -0.017345146180732188 0 -0.029638594602352873 -0.017672757966907694 0 -0.029921593576915977 -0.017715570777574054 0 -0.029865899953376567 -0.017417778603451891 0 -0.029638594602352873 -0.017672757966907694 0 -0.0062111225118805548 -0.0081482179972943904 0 -0.0061334969156701981 -0.0061085043190870422 0 -0.029286144509232458 -0.017032416011920876 0 -0.029145405985636301 -0.016954773944858129 0 -0.029249136927247555 -0.016362873187286041 0 -0.029286144509232458 -0.017032416011920876 0 -0.029145405985636301 -0.016954773944858129 0 -0.029253655209166844 -0.017005191470495923 0 -0.029145405985636301 -0.016954773944858129 0 -0.029249136927247555 -0.016362873187286041 0 -0.028327252993837218 -0.015986875521585803 0 -0.023636018354086363 -0.016650397900770622 0 -0.018020732093540222 -0.010806557607625684 0 0.016222884212509552 0.00036147211576845797 0 0.017101272536663849 0.0022215777150145109 0 0.016124376244580994 0.0019284200102508899 0 0.017101272536663849 0.0022215777150145109 0 0.016124376244580994 0.0019284200102508899 0 0.016346987318577734 0.0030104167190325246 0 0.015572119864301976 0.0026902305165686269 0 0.016124376244580994 0.0019284200102508899 0 0.016346987318577734 0.0030104167190325246 0 0.017101272536663849 0.0022215777150145109 0 0.016346987318577734 0.0030104167190325246 0 0.017038178056975412 0.0034609799366621852 0 0.015527949110826561 0.0034361849142277631 0 0.016346987318577734 0.0030104167190325246 0 0.01639422105111563 0.0041351569401376041 0 0.016346987318577734 0.0030104167190325246 0 0.017038178056975412 0.0034609799366621852 0 0.01639422105111563 0.0041351569401376041 0 -0.0061334969156701981 -0.0061085043190870422 0 -0.0049811011834527599 -0.0012291673985666764 0 -0.029249136927247555 -0.016362873187286041 0 -0.028671421950641419 -0.015183311009980469 0 -0.028327252993837218 -0.015986875521585803 0 0.017101272536663849 0.0022215777150145109 0 0.017038178056975412 0.0034609799366621852 0 0.018012636758838525 0.0041158416844426461 0 0.020445296748231308 0.0040237277334236148 0 0.017848592678918061 0.0057298851041831305 0 0.016205293235359786 0.0040987733146581858 0 -0.0049811011834527599 -0.0012291673985666764 0 0.010365425123476076 0.00087608878652843875 0 0.017038178056975412 0.0034609799366621852 0 0.018012636758838525 0.0041158416844426461 0 0.01639422105111563 0.0041351569401376041 0 0.020445296748231308 0.0040237277334236148 0 0.022365701237516838 0.0077248874753922765 0 0.01951821987643431 0.0066966704718283742 0 0.020445296748231308 0.0040237277334236148 0 0.017848592678918061 0.0057298851041831305 0 0.01951821987643431 0.0066966704718283742 0 0.017848592678918061 0.0057298851041831305 0 0.016306048814662522 0.0059918085765407504 0 0.016205293235359786 0.0040987733146581858 0 0.014942885128198252 0.0047487032373859884 0 0.016306048814662522 0.0059918085765407504 0 0.016205293235359786 0.0040987733146581858 0 -0.029638594602352873 -0.017672757966907694 0 -0.029544822346352851 -0.017894515643998771 0 -0.02931466572711652 -0.017778515440811386 0 -0.029544822346352851 -0.017894515643998771 0 -0.029743757166551268 -0.017888433643755176 0 -0.029568879730215034 -0.018066221267078915 0 -0.029783761053656339 -0.018097917938855783 0 -0.029743757166551268 -0.017888433643755176 0 -0.029515713096739341 -0.018136297401318783 0 -0.012546910191886746 -0.0019951675938995267 0 -0.01158597196636652 0.00023541450785195768 0 -0.029638594602352873 -0.017672757966907694 0 -0.029544822346352851 -0.017894515643998771 0 -0.029743757166551268 -0.017888433643755176 0 -0.029921593576915977 -0.017715570777574054 0 -0.029638594602352873 -0.017672757966907694 0 -0.029743757166551268 -0.017888433643755176 0 -0.018020732093540222 -0.010806557607625684 0 -0.010270336224141419 -0.001856433214283338 0 -0.029544822346352851 -0.017894515643998771 0 -0.02931466572711652 -0.017778515440811386 0 -0.029478263423316515 -0.018065883792737058 0 -0.028671421950641419 -0.015183311009980469 0 -0.028327252993837218 -0.015986875521585803 0 -0.028452287202105693 -0.015176808616619115 0 -0.018020732093540222 -0.010806557607625684 0 -0.012273841859819732 -0.00067915094343142836 0 -0.014754584276084391 -0.0025081491272090518 0 -0.014797132269433612 -0.0022716122943561858 0 -0.014614842477517711 -0.0022647506087326162 0 -0.0049811011834527599 -0.0012291673985666764 0 -0.0022497075912013627 0.0069632907148261848 0 -0.0062845797426306317 0.00056585401580148574 0 -0.0064466714664113845 0.00058138120985768837 0 -0.0064060814389870291 0.00065134115921613837 0 -0.0060835289949537127 0.0006440863473297704 0 -0.0061637587046579588 0.00064514156514249021 0 -0.0062495427887499554 0.00032691746123345532 0 -0.0061637587046579588 0.00064514156514249021 0 -0.0062845797426306317 0.00056585401580148574 0 -0.0062495427887499554 0.00032691746123345532 0 -0.0061637587046579588 0.00064514156514249021 0 -0.0062845797426306317 0.00056585401580148574 0 -0.0064060814389870291 0.00065134115921613837 0 -0.010270336224141419 -0.001856433214283338 0 -0.012273841859819732 -0.00067915094343142836 0 -0.0049811011834527599 -0.0012291673985666764 0 -0.010270336224141419 -0.001856433214283338 0 -0.0062845797426306317 0.00056585401580148574 0 -0.0064466714664113845 0.00058138120985768837 0 -0.0062495427887499554 0.00032691746123345532 0 0.0025765221315391653 0.020303847442789021 0 0.0021224982289061761 0.020974947052242305 0 0.0010696028240351158 0.019513149981122621 0 -0.0097458785299130331 0.0029193554907457698 0 -0.012273841859819732 -0.00067915094343142836 0 -0.012273841859819732 -0.00067915094343142836 0 -0.01158597196636652 0.00023541450785195768 0 -0.029544822346352851 -0.017894515643998771 0 -0.029478263423316515 -0.018065883792737058 0 -0.029568879730215034 -0.018066221267078915 0 -0.0079477224890502057 -0.0076799241652980377 0 -0.0026521956309626346 0.0012530920153420424 0 -0.014073373196272386 0.0010739672961496615 0 -0.0097458785299130331 0.0029193554907457698 0 -0.01158597196636652 0.00023541450785195768 0 -0.00037234861652359741 0.020113428934683559 0 0.0021224982289061761 0.020974947052242305 0 0.0010696028240351158 0.019513149981122621 0 0.0010696028240351158 0.019513149981122621 0 0.00082819212824498099 0.017393383130248914 0 8.1876893391666987e-05 0.018914208707052963 0 0.0028874103811664981 0.020061583781952354 0 0.0012660317828569276 0.017381010453726621 0 0.0028847547314658521 0.017391603903466869 0 0.0025765221315391653 0.020303847442789021 0 0.0010696028240351158 0.019513149981122621 0 0.00082819212824498099 0.017393383130248914 0 -0.0097458785299130331 0.0029193554907457698 0 -0.0031249705800668417 0.012837662584528665 0 0.0012660317828569276 0.017381010453726621 0 0.0028847547314658521 0.017391603903466869 0 0.0021354778263214967 0.01599105704708325 0 0.0028874103811664981 0.020061583781952354 0 0.0028847547314658521 0.017391603903466869 0 0.0045814600313676375 0.017701284638443587 0 -0.0097458785299130331 0.0029193554907457698 0 -0.0022497075912013627 0.0069632907148261848 0 -0.0022497075912013627 0.0069632907148261848 0 0.0041809682608721505 0.0083827553430530048 0 0.0028847547314658521 0.017391603903466869 0 0.0045814600313676375 0.017701284638443587 0 0.0036824446375710597 0.015849724418862756 0 -0.0022497075912013627 0.0069632907148261848 0 -0.00098857602089896129 0.0092392894063142474 0 0.0036824446375710597 0.015849724418862756 0 0.0047198259928213984 0.014312965054603702 0 0.0061675526756433145 0.015433986872668731 0 0.0046097524883599939 0.017635354584041238 0 0.0036824446375710597 0.015849724418862756 0 0.0061675526756433145 0.015433986872668731 0 0.0047198259928213984 0.014312965054603702 0 0.0061675526756433145 0.015433986872668731 0 0.0052758819445492241 0.012553464082556972 0 0.0036824446375710597 0.015849724418862756 0 0.0047198259928213984 0.014312965054603702 0 0.003736273155239759 0.013447545839362279 0 0.0036824446375710597 0.015849724418862756 0 0.0020137673067407756 0.014217377072903024 0 0.003736273155239759 0.013447545839362279 0 0.0020137673067407756 0.014217377072903024 0 0.0012004384531108941 0.015541731792914093 0 0.0021354778263214967 0.01599105704708325 0 0.0020137673067407756 0.014217377072903024 0 0.0012004384531108941 0.015541731792914093 0 -0.00062254071615468025 0.014557964784516691 0 0.0012660317828569276 0.017381010453726621 0 0.0012004384531108941 0.015541731792914093 0 0.0021354778263214967 0.01599105704708325 0 0.0028847547314658521 0.017391603903466869 0 0.0036824446375710597 0.015849724418862756 0 0.0021354778263214967 0.01599105704708325 0 0.0036824446375710597 0.015849724418862756 0 0.0020137673067407756 0.014217377072903024 0 0.0021354778263214967 0.01599105704708325 0 0.013523587272672414 0.0083633895004021665 0 0.016945136337672931 0.0078250018543613124 0 0.015049365764707995 0.0099609041931320395 0 0.014493101201056133 0.0066783970348076828 0 0.016306048814662522 0.0059918085765407504 0 0.016945136337672931 0.0078250018543613124 0 0.017848592678918061 0.0057298851041831305 0 0.016306048814662522 0.0059918085765407504 0 0.016945136337672931 0.0078250018543613124 0 0.016945136337672931 0.0078250018543613124 0 0.019225347478713874 0.0087429495363286567 0 0.017211611844688758 0.010632631001295854 0 0.022365701237516838 0.0077248874753922765 0 0.019225347478713874 0.0087429495363286567 0 0.020566777413660423 0.010401948693584351 0 0.022365701237516838 0.0077248874753922765 0 0.019225347478713874 0.0087429495363286567 0 0.01951821987643431 0.0066966704718283742 0 0.016945136337672931 0.0078250018543613124 0 0.019225347478713874 0.0087429495363286567 0 0.01951821987643431 0.0066966704718283742 0 0.017848592678918061 0.0057298851041831305 0 0.016945136337672931 0.0078250018543613124 0 0.01951821987643431 0.0066966704718283742 0 0.020566777413660423 0.010401948693584351 0 0.017211611844688758 0.010632631001295854 0 0.018741063903087943 0.013107943593822753 0 0.019225347478713874 0.0087429495363286567 0 0.020566777413660423 0.010401948693584351 0 0.017211611844688758 0.010632631001295854 0 0.0041809682608721505 0.0083827553430530048 0 0.0075846069854620564 0.0097768934258532086 0 0.014179330538014158 0.011978335669983584 0 0.017211611844688758 0.010632631001295854 0 0.015049365764707995 0.0099609041931320395 0 0.014179330538014158 0.011978335669983584 0 0.017211611844688758 0.010632631001295854 0 0.018741063903087943 0.013107943593822753 0 0.016945136337672931 0.0078250018543613124 0 0.017211611844688758 0.010632631001295854 0 0.015049365764707995 0.0099609041931320395 0 0.0078498332761640557 0.01139026132313207 0 0.0071631636316405092 0.011663460894560241 0 0.007373170110336516 0.0113122748402158 0 0.010074999015633756 0.010847902805957425 0 0.0075846069854620564 0.0097768934258532086 0 0.0083213197788124475 0.011623180790931319 0 0.0078498332761640557 0.01139026132313207 0 0.0071631636316405092 0.011663460894560241 0 0.0066647457839726339 0.012541191248491516 0 0.0061182193933752927 0.010988941667694057 0 0.007373170110336516 0.0113122748402158 0 0.0061675526756433145 0.015433986872668731 0 0.0076953782879256106 0.013243902622990777 0 0.0052758819445492241 0.012553464082556972 0 0.0066647457839726339 0.012541191248491516 0 0.0061182193933752927 0.010988941667694057 0 0.0050476608318891529 0.012287634266272114 0 0.0075846069854620564 0.0097768934258532086 0 0.0073995968874521747 0.01012237668724866 0 0.0075846069854620564 0.0097768934258532086 0 0.0062413101615827228 0.010197316677414742 0 0.005056143009940858 0.009885470937447011 0 0.0071876735537880088 0.010193735206720395 0 0.0061182193933752927 0.010988941667694057 0 0.0071876735537880088 0.010193735206720395 0 0.0061182193933752927 0.010988941667694057 0 0.007373170110336516 0.0113122748402158 0 0.0080975252323469016 0.010194849679623818 0 0.0071876735537880088 0.010193735206720395 0 0.0079642032780417957 0.010865457732569641 0 0.0071876735537880088 0.010193735206720395 0 0.007373170110336516 0.0113122748402158 0 0.0079642032780417957 0.010865457732569641 0 0.0078498332761640557 0.01139026132313207 0 0.007373170110336516 0.0113122748402158 0 0.0079642032780417957 0.010865457732569641 0 0.0020137673067407756 0.014217377072903024 0 0.002058636357008212 0.011846102749613842 0 -0.00062254071615468025 0.014557964784516691 0 0.0029698751903911779 0.011881798232298454 0 0.0027021066871741129 0.012840258360597491 0 0.003736273155239759 0.013447545839362279 0 0.0029698751903911779 0.011881798232298454 0 0.002058636357008212 0.011846102749613842 0 0.0027021066871741129 0.012840258360597491 0 0.0020137673067407756 0.014217377072903024 0 0.002058636357008212 0.011846102749613842 0 0.0027021066871741129 0.012840258360597491 0 0.0020137673067407756 0.014217377072903024 0 0.0027021066871741129 0.012840258360597491 0 0.003736273155239759 0.013447545839362279 0 0.0047198259928213984 0.014312965054603702 0 0.003736273155239759 0.013447545839362279 0 0.0052758819445492241 0.012553464082556972 0 0.0029698751903911779 0.011881798232298454 0 0.003736273155239759 0.013447545839362279 0 0.0052758819445492241 0.012553464082556972 0 0.0055418429776864769 0.010251117317501999 0 0.0062413101615827228 0.010197316677414742 0 0.005056143009940858 0.009885470937447011 0 0.0061182193933752927 0.010988941667694057 0 0.0050476608318891529 0.012287634266272114 0 0.005056143009940858 0.009885470937447011 0 0.0029698751903911779 0.011881798232298454 0 0.0050476608318891529 0.012287634266272114 0 0.005056143009940858 0.009885470937447011 0 0.0029698751903911779 0.011881798232298454 0 0.002058636357008212 0.011846102749613842 0 -0.008691473817587789 0.027443128168205586 0 -0.011113823292158025 0.028014758068570452 0 -0.021868302483023131 0.044900140083008945 0 -0.022410042683844805 0.045058797924028268 0 -0.022420399358591019 0.044860832314982425 0 -0.022410042683844805 0.045058797924028268 0 -0.022420399358591019 0.044860832314982425 0 -0.022528534160756064 0.045013293441130711 0 -0.022641848857201146 0.044568703998118332 0 -0.022420399358591019 0.044860832314982425 0 -0.022528534160756064 0.045013293441130711 0 -0.023032365763112007 0.043704843966116382 0 -0.023097368004483459 0.043625205895866367 0 -0.023069680464963487 0.043582189662828688 0 -0.023032365763112007 0.043704843966116382 0 -0.023069680464963487 0.043582189662828688 0 -0.023042397994502559 0.043645357501007107 0 -0.023069680464963487 0.043582189662828688 0 -0.023116563627840266 0.043464274585941327 0 -0.023056167751458315 0.043516659232617758 0 -0.023069680464963487 0.043582189662828688 0 -0.023056167751458315 0.043516659232617758 0 -0.023042397994502559 0.043645357501007107 0 -0.011113823292158025 0.028014758068570452 0 -0.014568213190741135 0.028639048862145397 0 -0.023097368004483459 0.043625205895866367 0 -0.023069680464963487 0.043582189662828688 0 -0.023116563627840266 0.043464274585941327 0 -0.022410042683844805 0.045058797924028268 0 -0.022528534160756064 0.045013293441130711 0 -0.022505861919958958 0.04501513191161479 0 0.002058636357008212 0.011846102749613842 0 -0.0016598721337787242 0.014980383577320145 0 -0.00062254071615468025 0.014557964784516691 0 -0.019733103384601203 0.041332758116278644 0 -0.014568213190741135 0.028639048862145397 0 0.0012660317828569276 0.017381010453726621 0 0.0012004384531108941 0.015541731792914093 0 -0.00062254071615468025 0.014557964784516691 0 0.00082819212824498099 0.017393383130248914 0 -0.00079647359999760619 0.016542347779968929 0 -0.00062254071615468025 0.014557964784516691 0 -0.0031249705800668417 0.012837662584528665 0 -0.0020852954815240732 0.014218460408524879 0 -0.014568213190741135 0.028639048862145397 0 -0.0110349789364833 0.022246657855231076 0 -0.00079647359999760619 0.016542347779968929 0 -0.0016598721337787242 0.014980383577320145 0 -0.0023487315587704055 0.017467146200220246 0 -0.00079647359999760619 0.016542347779968929 0 -0.0016598721337787242 0.014980383577320145 0 -0.00062254071615468025 0.014557964784516691 0 -0.023116563627840266 0.043464274585941327 0 -0.023081216627249317 0.043362681801483373 0 -0.023056167751458315 0.043516659232617758 0 -0.014568213190741135 0.028639048862145397 0 -0.018810674631879808 0.023761138426733421 0 -0.0021379091471563868 0.015093815504955753 0 -0.0026508384063295607 0.017510498585224785 0 -0.0050100955272761568 0.017883192376428939 0 -0.0030783028781090523 0.020033741038825943 0 -0.0026508384063295607 0.017510498585224785 0 -0.0050100955272761568 0.017883192376428939 0 -0.0021532619945872191 0.019308920673484435 0 -0.0030783028781090523 0.020033741038825943 0 -0.0023487315587704055 0.017467146200220246 0 -0.010095032264227555 0.021014387950278882 0 -0.0110349789364833 0.022246657855231076 0 -0.0021532619945872191 0.019308920673484435 0 -0.0023487315587704055 0.017467146200220246 0 -0.0011992336368699158 0.018656947314247 0 0.00082819212824498099 0.017393383130248914 0 -0.0011992336368699158 0.018656947314247 0 8.1876893391666987e-05 0.018914208707052963 0 0.00082819212824498099 0.017393383130248914 0 -0.00079647359999760619 0.016542347779968929 0 -0.0011992336368699158 0.018656947314247 0 -0.00079647359999760619 0.016542347779968929 0 -0.0023487315587704055 0.017467146200220246 0 -0.0011992336368699158 0.018656947314247 0 -0.023045803399383329 0.043267887599869055 0 -0.023014227695588793 0.043342792775099365 0 -0.023081216627249317 0.043362681801483373 0 -0.023014227695588793 0.043342792775099365 0 -0.023081216627249317 0.043362681801483373 0 -0.023025087892000015 0.043444375323761546 0 -0.023081216627249317 0.043362681801483373 0 -0.023025087892000015 0.043444375323761546 0 -0.023056167751458315 0.043516659232617758 0 -0.023025087892000015 0.043444375323761546 0 -0.023025591901739299 0.043583828398063011 0 -0.023008376220879336 0.043514670422700977 0 -0.023025087892000015 0.043444375323761546 0 -0.023056167751458315 0.043516659232617758 0 -0.023025591901739299 0.043583828398063011 0 -0.023056167751458315 0.043516659232617758 0 -0.023042397994502559 0.043645357501007107 0 -0.023025591901739299 0.043583828398063011 0 -0.023031565712293527 0.043667160389159784 0 -0.023042397994502559 0.043645357501007107 0 -0.023025591901739299 0.043583828398063011 0 -0.023016753312134517 0.043699737207301283 0 -0.023031565712293527 0.043667160389159784 0 -0.023025591901739299 0.043583828398063011 0 -0.023016753312134517 0.043699737207301283 0 -0.023025591901739299 0.043583828398063011 0 -0.022998894594637144 0.04358604836922262 0 -0.022998894594637144 0.04358604836922262 0 -0.023008376220879336 0.043514670422700977 0 -0.022980181449765057 0.043439560067776897 0 -0.023025591901739299 0.043583828398063011 0 -0.022998894594637144 0.04358604836922262 0 -0.023008376220879336 0.043514670422700977 0 -0.022998894594637144 0.04358604836922262 0 -0.0229486830953501 0.043496900012779713 0 -0.022980181449765057 0.043439560067776897 0 -0.022998894594637144 0.04358604836922262 0 -0.022977102318478985 0.04365307447772717 0 -0.0229486830953501 0.043496900012779713 0 -0.022990912088694578 0.043711158783204043 0 -0.022998894594637144 0.04358604836922262 0 -0.022977102318478985 0.04365307447772717 0 -0.02334796245962252 0.042957680267886947 0 -0.023418782320063749 0.042758640070375116 0 -0.022977102318478985 0.04365307447772717 0 -0.022876356620407021 0.043493458327567118 0 -0.0229486830953501 0.043496900012779713 0 -0.023005912964098374 0.043761304835914255 0 -0.022977102318478985 0.04365307447772717 0 -0.022990442801027904 0.043580425682402717 0 -0.022876356620407021 0.043493458327567118 0 -0.022909859909310864 0.04336711157918547 0 -0.022853856484985027 0.043379111251776903 0 -0.022876356620407021 0.043493458327567118 0 -0.0229486830953501 0.043496900012779713 0 -0.022909859909310864 0.04336711157918547 0 -0.0229486830953501 0.043496900012779713 0 -0.022909859909310864 0.04336711157918547 0 -0.022980181449765057 0.043439560067776897 0 -0.022909859909310864 0.04336711157918547 0 -0.02296750942798105 0.043338319061109271 0 -0.022942864027335242 0.043273591583548578 0 -0.023014227695588793 0.043342792775099365 0 -0.02296750942798105 0.043338319061109271 0 -0.022980181449765057 0.043439560067776897 0 -0.023025087892000015 0.043444375323761546 0 -0.023008376220879336 0.043514670422700977 0 -0.022980181449765057 0.043439560067776897 0 -0.023014227695588793 0.043342792775099365 0 -0.023025087892000015 0.043444375323761546 0 -0.022980181449765057 0.043439560067776897 0 -0.022909859909310864 0.04336711157918547 0 -0.02296750942798105 0.043338319061109271 0 -0.022980181449765057 0.043439560067776897 0 -0.022418856587196459 0.043169218744851849 0 -0.022668357900744712 0.043271900923026428 0 -0.022379312829334651 0.043046151674317926 0 -0.022418856587196459 0.043169218744851849 0 -0.022399276161554647 0.043385938428143991 0 -0.022668357900744712 0.043271900923026428 0 -0.022591622007695104 0.043590159601968624 0 -0.022397401002257972 0.043623045787212281 0 -0.022399276161554647 0.043385938428143991 0 -0.022882416333741201 0.043651062816600153 0 -0.022591622007695104 0.043590159601968624 0 -0.022668357900744712 0.043271900923026428 0 -0.022591622007695104 0.043590159601968624 0 -0.022399276161554647 0.043385938428143991 0 -0.022668357900744712 0.043271900923026428 0 -0.022882416333741201 0.043651062816600153 0 -0.022990442801027904 0.043580425682402717 0 -0.022912089902341434 0.043471507665167219 0 -0.022882416333741201 0.043651062816600153 0 -0.022790824932343561 0.043516179916552683 0 -0.022912089902341434 0.043471507665167219 0 -0.022790824932343561 0.043516179916552683 0 -0.022912089902341434 0.043471507665167219 0 -0.022805682092957073 0.043331011774661345 0 -0.023933571784533682 0.042592980050753328 0 -0.024288539629988937 0.042075753333658948 0 -0.023418782320063749 0.042758640070375116 0 -0.023718031876357803 0.042115844182985952 0 -0.022909859909310864 0.04336711157918547 0 -0.022853856484985027 0.043379111251776903 0 -0.022871929856967455 0.043300599621998191 0 -0.022909859909310864 0.04336711157918547 0 -0.022871929856967455 0.043300599621998191 0 -0.022898125565937885 0.043264287176854911 0 -0.022871929856967455 0.043300599621998191 0 -0.022872859594859952 0.043285228961122503 0 -0.022892373565322695 0.043263938299539652 0 -0.022871929856967455 0.043300599621998191 0 -0.022892373565322695 0.043263938299539652 0 -0.022884270965211034 0.043263696048376717 0 -0.022853856484985027 0.043379111251776903 0 -0.022871929856967455 0.043300599621998191 0 -0.022872859594859952 0.043285228961122503 0 -0.023718031876357803 0.042115844182985952 0 -0.024443657824125675 0.040749189788972538 0 -0.024288539629988937 0.042075753333658948 0 -0.025713095371056607 0.040209186426283447 0 -0.022790824932343561 0.043516179916552683 0 -0.022805682092957073 0.043331011774661345 0 -0.022657183018822798 0.04330638868481658 0 -0.024443657824125675 0.040749189788972538 0 -0.025965414989045657 0.037951837575009618 0 -0.022872859594859952 0.043285228961122503 0 -0.022892373565322695 0.043263938299539652 0 -0.022938889287905169 0.043227809118070191 0 -0.022892373565322695 0.043263938299539652 0 -0.022938889287905169 0.043227809118070191 0 -0.022930136637912345 0.043259957965662323 0 -0.022805682092957073 0.043331011774661345 0 -0.022654461183927384 0.043159858980631932 0 -0.022657183018822798 0.04330638868481658 0 -0.022509499732054957 0.043017204117158377 0 -0.022654461183927384 0.043159858980631932 0 -0.022657183018822798 0.04330638868481658 0 -0.022403408037305218 0.043003874488900841 0 -0.022418856587196459 0.043169218744851849 0 -0.022379312829334651 0.043046151674317926 0 -0.043497261904849059 0.0046053550386984405 0 -0.041765341204356675 0.0016751781904422458 0 -0.040587581253289463 0.0048618283621214946 0 -0.02302392037200016 0.043225780014518662 0 -0.022938889287905169 0.043227809118070191 0 -0.022930136637912345 0.043259957965662323 0 -0.041765341204356675 0.0016751781904422458 0 -0.039148487140480026 0.0036564116933793201 0 -0.038848366760818202 0.0017467264347029083 0 -0.022892373565322695 0.043263938299539652 0 -0.022930136637912345 0.043259957965662323 0 -0.022884270965211034 0.043263696048376717 0 -0.031530721537075736 0.02617386072125644 0 -0.030730195232394952 0.023857493585473708 0 -0.041765341204356675 0.0016751781904422458 0 -0.039148487140480026 0.0036564116933793201 0 -0.040587581253289463 0.0048618283621214946 0 -0.039148487140480026 0.0036564116933793201 0 -0.038848366760818202 0.0017467264347029083 0 -0.03595960140096479 0.0018198627552851686 0 -0.022871929856967455 0.043300599621998191 0 -0.022884270965211034 0.043263696048376717 0 -0.022898125565937885 0.043264287176854911 0 -0.030730195232394952 0.023857493585473708 0 -0.02939127170706942 0.022325331175300497 0 -0.039148487140480026 0.0036564116933793201 0 -0.03595960140096479 0.0018198627552851686 0 -0.03588276623087297 0.0041405360144297857 0 -0.037980690330549093 0.0052118368906982878 0 -0.03588276623087297 0.0041405360144297857 0 -0.035323560580297272 0.0062430250880843629 0 -0.039148487140480026 0.0036564116933793201 0 -0.037980690330549093 0.0052118368906982878 0 -0.03588276623087297 0.0041405360144297857 0 -0.035323560580297272 0.0062430250880843629 0 -0.035042152570030329 0.0078100208059712585 0 -0.037400003116280542 0.0084374495371315507 0 -0.037980690330549093 0.0052118368906982878 0 -0.035323560580297272 0.0062430250880843629 0 -0.037400003116280542 0.0084374495371315507 0 -0.037980690330549093 0.0052118368906982878 0 -0.039467251815429198 0.0066897427279098871 0 -0.037400003116280542 0.0084374495371315507 0 -0.039467251815429198 0.0066897427279098871 0 -0.04020216411907615 0.0076838182983319826 0 -0.037400003116280542 0.0084374495371315507 0 -0.039148487140480026 0.0036564116933793201 0 -0.037980690330549093 0.0052118368906982878 0 -0.040587581253289463 0.0048618283621214946 0 -0.037980690330549093 0.0052118368906982878 0 -0.040587581253289463 0.0048618283621214946 0 -0.039467251815429198 0.0066897427279098871 0 -0.040587581253289463 0.0048618283621214946 0 -0.039467251815429198 0.0066897427279098871 0 -0.0404642500912522 0.0063467265459380669 0 -0.040587581253289463 0.0048618283621214946 0 -0.0404642500912522 0.0063467265459380669 0 -0.041442591699265834 0.0062996528760038608 0 -0.039467251815429198 0.0066897427279098871 0 -0.04020216411907615 0.0076838182983319826 0 -0.0404642500912522 0.0063467265459380669 0 -0.04020216411907615 0.0076838182983319826 0 -0.0404642500912522 0.0063467265459380669 0 -0.041442591699265834 0.0062996528760038608 0 -0.04020216411907615 0.0076838182983319826 0 -0.041442591699265834 0.0062996528760038608 0 -0.042988112225788695 0.0069199555529807005 0 -0.046379513403278519 -0.0030519743862393949 0 -0.049352734314305903 0.00035251800175956381 0 -0.043497261904849059 0.0046053550386984405 0 -0.040587581253289463 0.0048618283621214946 0 -0.041442591699265834 0.0062996528760038608 0 -0.043497261904849059 0.0046053550386984405 0 -0.041442591699265834 0.0062996528760038608 0 -0.042988112225788695 0.0069199555529807005 0 -0.031601591230482208 0.0035647877229149556 0 -0.029208804564932984 0.0038025691169287531 0 -0.03101251093882091 0.005580959291841046 0 -0.031601591230482208 0.0035647877229149556 0 -0.029208804564932984 0.0038025691169287531 0 -0.030248303752154791 0.0019602804140356712 0 -0.027409805899849534 0.002033732126718622 0 -0.029208804564932984 0.0038025691169287531 0 -0.030248303752154791 0.0019602804140356712 0 -0.023014227695588793 0.043342792775099365 0 -0.02296750942798105 0.043338319061109271 0 -0.022990974470932405 0.043277811507283562 0 -0.031601591230482208 0.0035647877229149556 0 -0.030248303752154791 0.0019602804140356712 0 -0.033095276350676855 0.0018904243817114024 0 -0.026132219403509301 0.017920697475798081 0 -0.027908925880271621 0.020670235380660987 0 -0.02296750942798105 0.043338319061109271 0 -0.022990974470932405 0.043277811507283562 0 -0.022942864027335242 0.043273591583548578 0 -0.022909859909310864 0.04336711157918547 0 -0.022898125565937885 0.043264287176854911 0 -0.022942864027335242 0.043273591583548578 0 -0.02939127170706942 0.022325331175300497 0 -0.027908925880271621 0.020670235380660987 0 -0.03595960140096479 0.0018198627552851686 0 -0.033095276350676855 0.0018904243817114024 0 -0.03588276623087297 0.0041405360144297857 0 -0.033095276350676855 0.0018904243817114024 0 -0.03588276623087297 0.0041405360144297857 0 -0.033379210276357055 0.0047359171538086733 0 -0.031601591230482208 0.0035647877229149556 0 -0.033095276350676855 0.0018904243817114024 0 -0.033379210276357055 0.0047359171538086733 0 -0.03588276623087297 0.0041405360144297857 0 -0.033379210276357055 0.0047359171538086733 0 -0.035323560580297272 0.0062430250880843629 0 -0.035323560580297272 0.0062430250880843629 0 -0.032821252935765877 0.0073775031441921848 0 -0.035042152570030329 0.0078100208059712585 0 -0.033379210276357055 0.0047359171538086733 0 -0.035323560580297272 0.0062430250880843629 0 -0.032821252935765877 0.0073775031441921848 0 -0.033487167418620269 -0.0050553810708130987 0 -0.0296728953173333 -0.0030150265926228853 0 -0.033450134941259882 -0.016786551544022598 0 -0.032411588345194274 -0.017577874878894242 0 -0.032699036322936768 -0.016377947449096458 0 -0.031601591230482208 0.0035647877229149556 0 -0.033379210276357055 0.0047359171538086733 0 -0.03101251093882091 0.005580959291841046 0 -0.033379210276357055 0.0047359171538086733 0 -0.032821252935765877 0.0073775031441921848 0 -0.03101251093882091 0.005580959291841046 0 -0.031538787802763542 -0.018035765827994019 0 -0.032411588345194274 -0.017577874878894242 0 -0.031513023452596108 -0.01746616446665835 0 -0.025705456244966667 0.0011606694461005428 0 -0.0296728953173333 -0.0030150265926228853 0 -0.032411588345194274 -0.017577874878894242 0 -0.031895884073508442 -0.016746597422710768 0 -0.032699036322936768 -0.016377947449096458 0 -0.032411588345194274 -0.017577874878894242 0 -0.031513023452596108 -0.01746616446665835 0 -0.031895884073508442 -0.016746597422710768 0 -0.031895884073508442 -0.016746597422710768 0 -0.032226954843323156 -0.015990251481260719 0 -0.031598329759665263 -0.015648695670817205 0 -0.031895884073508442 -0.016746597422710768 0 -0.032226954843323156 -0.015990251481260719 0 -0.032699036322936768 -0.016377947449096458 0 -0.030987990985353528 -0.016832257554511287 0 -0.031254432506001954 -0.016402023261512997 0 -0.030967013571503575 -0.016669620394256929 0 -0.031598329759665263 -0.015648695670817205 0 -0.032337990514199867 -0.015308456547140522 0 -0.032364493705061968 -0.014205280567399807 0 -0.031729186832054404 -0.016299042663060342 0 -0.032499297200181423 -0.015575915376139495 0 -0.032226954843323156 -0.015990251481260719 0 -0.031598329759665263 -0.015648695670817205 0 -0.032337990514199867 -0.015308456547140522 0 -0.032226954843323156 -0.015990251481260719 0 -0.032337990514199867 -0.015308456547140522 0 -0.03273404895328938 -0.015711758538309178 0 -0.033439439396275188 -0.014932301109802232 0 -0.03275092320652203 -0.014944383077391252 0 -0.03273404895328938 -0.015711758538309178 0 -0.032337990514199867 -0.015308456547140522 0 -0.03275092320652203 -0.014944383077391252 0 -0.03273404895328938 -0.015711758538309178 0 -0.033450134941259882 -0.016786551544022598 0 -0.032699036322936768 -0.016377947449096458 0 -0.033477754901327102 -0.01562509245972063 0 -0.03273404895328938 -0.015711758538309178 0 -0.032699036322936768 -0.016377947449096458 0 -0.033477754901327102 -0.01562509245972063 0 -0.032226954843323156 -0.015990251481260719 0 -0.03273404895328938 -0.015711758538309178 0 -0.032699036322936768 -0.016377947449096458 0 -0.032821252935765877 0.0073775031441921848 0 -0.035042152570030329 0.0078100208059712585 0 -0.03463205120008167 0.0091847246122942067 0 -0.037416794634215218 -0.0073088539588359626 0 -0.036708018839172039 -0.0081936973763935377 0 -0.033487167418620269 -0.0050553810708130987 0 -0.037416794634215218 -0.0073088539588359626 0 -0.033450134941259882 -0.016786551544022598 0 -0.034406372281867714 -0.015870873296781034 0 -0.033477754901327102 -0.01562509245972063 0 -0.035042152570030329 0.0078100208059712585 0 -0.03463205120008167 0.0091847246122942067 0 -0.037400003116280542 0.0084374495371315507 0 -0.034572324916103438 -0.015949552141811891 0 -0.034069175279480196 -0.015273457084120052 0 -0.03579248572228573 -0.014743611161760062 0 -0.035495777290220826 -0.012684832602392006 0 -0.042136015022838043 -0.009122842021572224 0 -0.037416794634215218 -0.0073088539588359626 0 -0.042136015022838043 -0.009122842021572224 0 -0.03429394673350749 -0.015423553628773227 0 -0.035000637984314284 -0.014863174447065648 0 -0.035806413987916168 -0.014969523548407396 0 -0.03429394673350749 -0.015423553628773227 0 -0.034265660725879762 -0.014659127233956216 0 -0.035000637984314284 -0.014863174447065648 0 -0.033439439396275188 -0.014932301109802232 0 -0.03273404895328938 -0.015711758538309178 0 -0.03429394673350749 -0.015423553628773227 0 -0.03273404895328938 -0.015711758538309178 0 -0.033477754901327102 -0.01562509245972063 0 -0.034069175279480196 -0.015273457084120052 0 -0.034572324916103438 -0.015949552141811891 0 -0.033477754901327102 -0.01562509245972063 0 -0.034069175279480196 -0.015273457084120052 0 -0.034049880760589381 -0.013502131603210567 0 -0.035495777290220826 -0.012684832602392006 0 -0.033439439396275188 -0.014932301109802232 0 -0.03429394673350749 -0.015423553628773227 0 -0.034265660725879762 -0.014659127233956216 0 -0.033439439396275188 -0.014932301109802232 0 -0.034265660725879762 -0.014659127233956216 0 -0.033710076196240307 -0.014352319744868745 0 -0.034265660725879762 -0.014659127233956216 0 -0.034149753945428726 -0.014063590339094515 0 -0.033710076196240307 -0.014352319744868745 0 -0.034265660725879762 -0.014659127233956216 0 -0.034149753945428726 -0.014063590339094515 0 -0.034871636330381983 -0.014129067486705074 0 -0.034149753945428726 -0.014063590339094515 0 -0.033710076196240307 -0.014352319744868745 0 -0.033752980297294732 -0.013763271011907722 0 -0.035694133131460831 -0.014872097016727559 0 -0.0374109663355114 -0.01646999241166535 0 -0.037177638095480442 -0.013963420416261727 0 -0.039435968541776001 -0.010477983267174622 0 -0.042136015022838043 -0.009122842021572224 0 -0.035000637984314284 -0.014863174447065648 0 -0.034871636330381983 -0.014129067486705074 0 -0.035806413987916168 -0.014969523548407396 0 -0.034265660725879762 -0.014659127233956216 0 -0.035000637984314284 -0.014863174447065648 0 -0.034871636330381983 -0.014129067486705074 0 -0.035827321229637651 -0.013241836215035357 0 -0.034933883991538871 -0.013580073034166418 0 -0.036508414083359107 -0.013792906220401319 0 -0.035694133131460831 -0.014872097016727559 0 -0.034933883991538871 -0.013580073034166418 0 -0.037177638095480442 -0.013963420416261727 0 -0.038118294338859715 -0.010916022672103041 0 -0.03976436834278519 -0.010701287928802311 0 -0.035827321229637651 -0.013241836215035357 0 -0.034933883991538871 -0.013580073034166418 0 -0.034982716131300225 -0.012946857004653431 0 -0.033710076196240307 -0.014352319744868745 0 -0.033752980297294732 -0.013763271011907722 0 -0.033185472839260766 -0.013733221877727457 0 -0.034149753945428726 -0.014063590339094515 0 -0.033752980297294732 -0.013763271011907722 0 -0.034085292524008083 -0.013331513460189485 0 -0.035694133131460831 -0.014872097016727559 0 -0.034933883991538871 -0.013580073034166418 0 -0.034085292524008083 -0.013331513460189485 0 -0.034149753945428726 -0.014063590339094515 0 -0.034871636330381983 -0.014129067486705074 0 -0.034085292524008083 -0.013331513460189485 0 -0.039435968541776001 -0.010477983267174622 0 -0.03839620761886927 -0.01066224220931076 0 -0.034933883991538871 -0.013580073034166418 0 -0.034236540938686555 -0.012896503828533646 0 -0.034982716131300225 -0.012946857004653431 0 -0.034933883991538871 -0.013580073034166418 0 -0.034085292524008083 -0.013331513460189485 0 -0.034236540938686555 -0.012896503828533646 0 -0.034085292524008083 -0.013331513460189485 0 -0.033675799136793028 -0.01327773674430109 0 -0.034236540938686555 -0.012896503828533646 0 -0.033752980297294732 -0.013763271011907722 0 -0.034085292524008083 -0.013331513460189485 0 -0.033675799136793028 -0.01327773674430109 0 -0.032499297200181423 -0.015575915376139495 0 -0.03379577737590269 -0.014937268809843134 0 -0.033675799136793028 -0.01327773674430109 0 -0.033185472839260766 -0.013733221877727457 0 -0.033164808896602525 -0.01255742727401506 0 -0.033185472839260766 -0.013733221877727457 0 -0.032364493705061968 -0.014205280567399807 0 -0.033164808896602525 -0.01255742727401506 0 -0.031254432506001954 -0.016402023261512997 0 -0.031185084896924412 -0.015968148900129639 0 -0.031525183544544116 -0.015895360089166918 0 -0.033752980297294732 -0.013763271011907722 0 -0.033675799136793028 -0.01327773674430109 0 -0.033185472839260766 -0.013733221877727457 0 -0.03105303714377796 -0.016194239306530557 0 -0.031254432506001954 -0.016402023261512997 0 -0.03091602311268974 -0.016364026139808516 0 -0.03105303714377796 -0.016194239306530557 0 -0.031254432506001954 -0.016402023261512997 0 -0.031185084896924412 -0.015968148900129639 0 -0.03105303714377796 -0.016194239306530557 0 -0.031185084896924412 -0.015968148900129639 0 -0.030858030573651558 -0.016040778571062862 0 -0.031254432506001954 -0.016402023261512997 0 -0.03091602311268974 -0.016364026139808516 0 -0.030967013571503575 -0.016669620394256929 0 -0.032337990514199867 -0.015308456547140522 0 -0.03275092320652203 -0.014944383077391252 0 -0.032364493705061968 -0.014205280567399807 0 -0.03275092320652203 -0.014944383077391252 0 -0.032364493705061968 -0.014205280567399807 0 -0.033030742578097932 -0.014402138708833841 0 -0.033439439396275188 -0.014932301109802232 0 -0.033710076196240307 -0.014352319744868745 0 -0.033030742578097932 -0.014402138708833841 0 -0.033439439396275188 -0.014932301109802232 0 -0.03275092320652203 -0.014944383077391252 0 -0.033030742578097932 -0.014402138708833841 0 -0.033710076196240307 -0.014352319744868745 0 -0.033185472839260766 -0.013733221877727457 0 -0.033030742578097932 -0.014402138708833841 0 -0.033185472839260766 -0.013733221877727457 0 -0.032364493705061968 -0.014205280567399807 0 -0.033030742578097932 -0.014402138708833841 0 -0.059332262065074144 -0.0019065338180602241 0 -0.060073297932074429 -0.00094654239862581701 0 -0.060278772093158288 -0.002444514288820576 0 -0.058217758959545042 -0.0023554758263785798 0 -0.059185085390376084 -0.0028781046148556584 0 -0.059332262065074144 -0.0019065338180602241 0 -0.059185085390376084 -0.0028781046148556584 0 -0.059332262065074144 -0.0019065338180602241 0 -0.060278772093158288 -0.002444514288820576 0 -0.058096025782899963 -0.00066409518595678791 0 -0.059332262065074144 -0.0019065338180602241 0 -0.060073297932074429 -0.00094654239862581701 0 -0.058096025782899963 -0.00066409518595678791 0 -0.058819629258000383 0.00090529013446698735 0 -0.060073297932074429 -0.00094654239862581701 0 -0.061060468566226975 7.2831087372071879e-05 0 -0.058819629258000383 0.00090529013446698735 0 -0.060073297932074429 -0.00094654239862581701 0 -0.060073297932074429 -0.00094654239862581701 0 -0.061218962603795633 -0.00098190672408904551 0 -0.061347785843606645 -0.0017064775398566957 0 -0.061060468566226975 7.2831087372071879e-05 0 -0.061218962603795633 -0.00098190672408904551 0 -0.062294313663776898 -0.001354933840301487 0 -0.061060468566226975 7.2831087372071879e-05 0 -0.060073297932074429 -0.00094654239862581701 0 -0.061218962603795633 -0.00098190672408904551 0 -0.060073297932074429 -0.00094654239862581701 0 -0.061347785843606645 -0.0017064775398566957 0 -0.060278772093158288 -0.002444514288820576 0 -0.061347785843606645 -0.0017064775398566957 0 -0.060278772093158288 -0.002444514288820576 0 -0.061858512217010671 -0.003265333710731452 0 -0.051120629023613001 -0.0068849126287389107 0 -0.050006963236614653 -0.0080134409353725695 0 -0.062109585835282637 -0.0021289293855442045 0 -0.063405793150630968 -0.002528883871737728 0 -0.061732345116639289 -0.0028944500439155672 0 -0.061347785843606645 -0.0017064775398566957 0 -0.062109585835282637 -0.0021289293855442045 0 -0.061732345116639289 -0.0028944500439155672 0 -0.062109585835282637 -0.0021289293855442045 0 -0.062294313663776898 -0.001354933840301487 0 -0.063405793150630968 -0.002528883871737728 0 -0.061347785843606645 -0.0017064775398566957 0 -0.062109585835282637 -0.0021289293855442045 0 -0.062294313663776898 -0.001354933840301487 0 -0.046379513403278519 -0.0030519743862393949 0 -0.040132040872700295 -0.0033406175251475467 0 -0.044156896896851441 -0.0061478627725287116 0 -0.043192951209725147 -0.0052729975891802339 0 -0.042668881958059311 -0.0057580549427639358 0 -0.046379513403278519 -0.0030519743862393949 0 -0.046865586588679314 -0.0065263345252759182 0 -0.061218962603795633 -0.00098190672408904551 0 -0.061347785843606645 -0.0017064775398566957 0 -0.062294313663776898 -0.001354933840301487 0 -0.037416794634215218 -0.0073088539588359626 0 -0.040132040872700295 -0.0033406175251475467 0 -0.043192951209725147 -0.0052729975891802339 0 -0.042668881958059311 -0.0057580549427639358 0 -0.042281536971845994 -0.0050382920646371366 0 -0.041186949758280196 -0.0053560043389560101 0 -0.042668881958059311 -0.0057580549427639358 0 -0.042281536971845994 -0.0050382920646371366 0 -0.046865586588679314 -0.0065263345252759182 0 -0.042136015022838043 -0.009122842021572224 0 -0.043192951209725147 -0.0052729975891802339 0 -0.042281536971845994 -0.0050382920646371366 0 -0.042191995389621123 -0.0043484953673409389 0 -0.041186949758280196 -0.0053560043389560101 0 -0.042281536971845994 -0.0050382920646371366 0 -0.042191995389621123 -0.0043484953673409389 0 -0.042136015022838043 -0.009122842021572224 0 -0.045358511047732246 -0.010028103202149575 0 -0.0374109663355114 -0.01646999241166535 0 -0.037177638095480442 -0.013963420416261727 0 -0.039462025344863622 -0.014407756560620171 0 -0.044932940193597941 -0.0079923158340425553 0 -0.045422955852349012 -0.0075118515293026693 0 -0.045279207640898392 -0.0077783239177768963 0 -0.03976436834278519 -0.010701287928802311 0 -0.045358511047732246 -0.010028103202149575 0 -0.036508414083359107 -0.013792906220401319 0 -0.037027842800204644 -0.013674251278191963 0 -0.036857937874583475 -0.013516433066034785 0 -0.035827321229637651 -0.013241836215035357 0 -0.036508414083359107 -0.013792906220401319 0 -0.036771690148433636 -0.013309720500780352 0 -0.036508414083359107 -0.013792906220401319 0 -0.036771690148433636 -0.013309720500780352 0 -0.036857937874583475 -0.013516433066034785 0 -0.036771690148433636 -0.013309720500780352 0 -0.036857937874583475 -0.013516433066034785 0 -0.036742443383299725 -0.01338260858635577 0 -0.036857937874583475 -0.013516433066034785 0 -0.037057038593139628 -0.013628477205994378 0 -0.036742443383299725 -0.01338260858635577 0 -0.045725776821152558 -0.010573277448906442 0 -0.045457621149217232 -0.010848062169581424 0 -0.045832426401201366 -0.010908235922902819 0 -0.045994972261886008 -0.0099434757037383751 0 -0.044142002528325841 -0.011007591388918195 0 -0.037027842800204644 -0.013674251278191963 0 -0.036857937874583475 -0.013516433066034785 0 -0.037057038593139628 -0.013628477205994378 0 -0.049045257164142424 -0.0089123146789256667 0 -0.04908552313169761 -0.0090355610386581679 0 -0.049881096746364581 -0.0080718209718181801 0 -0.045994972261886008 -0.0099434757037383751 0 -0.046456921078758005 -0.009789023502397633 0 -0.050206612478397881 -0.0075419808509356676 0 -0.046404542409329778 -0.011385867193759679 0 -0.044804274603395859 -0.0064534410910592824 0 -0.045358511047732246 -0.010028103202149575 0 -0.046456921078758005 -0.009789023502397633 0 -0.045358511047732246 -0.010028103202149575 0 -0.045994972261886008 -0.0099434757037383751 0 -0.046456921078758005 -0.009789023502397633 0 -0.050006963236614653 -0.0080134409353725695 0 -0.045489093815491412 -0.0075249871281799705 0 -0.045279207640898392 -0.0077783239177768963 0 -0.045597538552880436 -0.0078520245437862998 0 -0.044932940193597941 -0.0079923158340425553 0 -0.045279207640898392 -0.0077783239177768963 0 -0.045597538552880436 -0.0078520245437862998 0 -0.042136015022838043 -0.009122842021572224 0 -0.050006963236614653 -0.0080134409353725695 0 -0.045422955852349012 -0.0075118515293026693 0 -0.045489093815491412 -0.0075249871281799705 0 -0.045279207640898392 -0.0077783239177768963 0 -0.046456921078758005 -0.009789023502397633 0 -0.053307890834405819 -0.0079376324342375019 0 -0.050006963236614653 -0.0080134409353725695 0 -0.053307890834405819 -0.0079376324342375019 0 -0.048460288948764418 -0.0088255383549490293 0 -0.048883928695056693 -0.01012131523847074 0 -0.051557403449219254 -0.0094448095495286797 0 -0.060278772093158288 -0.002444514288820576 0 -0.061858512217010671 -0.003265333710731452 0 -0.059603835170169817 -0.0038981957611994764 0 -0.04908552313169761 -0.0090355610386581679 0 -0.050707691462202338 -0.0093588884022054036 0 -0.049881096746364581 -0.0080718209718181801 0 -0.045994972261886008 -0.0099434757037383751 0 -0.047938952839125706 -0.0097540435714273434 0 -0.05110653991421496 -0.0082611298759196466 0 -0.050707691462202338 -0.0093588884022054036 0 -0.049881096746364581 -0.0080718209718181801 0 -0.054453353711623534 -0.007812319068494564 0 -0.053307890834405819 -0.0079376324342375019 0 -0.059185085390376084 -0.0028781046148556584 0 -0.060278772093158288 -0.002444514288820576 0 -0.059603835170169817 -0.0038981957611994764 0 -0.058428147889036948 -0.0037604596883936184 0 -0.059185085390376084 -0.0028781046148556584 0 -0.059603835170169817 -0.0038981957611994764 0 -0.051240162216108075 -0.0083320273529777708 0 -0.050388041451224483 -0.0088810652668907947 0 -0.050778744924965757 -0.008832580818872348 0 -0.050388041451224483 -0.0088810652668907947 0 -0.050778744924965757 -0.008832580818872348 0 -0.050089555789401836 -0.0091323742880365429 0 -0.050995977998306165 -0.0091447294678619982 0 -0.050778744924965757 -0.008832580818872348 0 -0.050252090247517846 -0.0092864525032227453 0 -0.050995977998306165 -0.0091447294678619982 0 -0.050252090247517846 -0.0092864525032227453 0 -0.050071458960190954 -0.0094912697119105861 0 -0.050339929714103046 -0.0091340475446016062 0 -0.047938952839125706 -0.0097540435714273434 0 -0.050778744924965757 -0.008832580818872348 0 -0.050252090247517846 -0.0092864525032227453 0 -0.050089555789401836 -0.0091323742880365429 0 -0.050252090247517846 -0.0092864525032227453 0 -0.049839409443317731 -0.0093530338248871969 0 -0.050089555789401836 -0.0091323742880365429 0 -0.050252090247517846 -0.0092864525032227453 0 -0.049988908964846625 -0.0095378331916843879 0 -0.049839409443317731 -0.0093530338248871969 0 -0.048051941804233417 -0.0096749386126859637 0 -0.047938952839125706 -0.0097540435714273434 0 -0.049839409443317731 -0.0093530338248871969 0 -0.050089555789401836 -0.0091323742880365429 0 -0.049652465683558022 -0.0092699819826779079 0 -0.050089555789401836 -0.0091323742880365429 0 -0.04964244532119496 -0.0091420210893928388 0 -0.049652465683558022 -0.0092699819826779079 0 -0.050388041451224483 -0.0088810652668907947 0 -0.050089555789401836 -0.0091323742880365429 0 -0.04964244532119496 -0.0091420210893928388 0 -0.050388041451224483 -0.0088810652668907947 0 -0.04964244532119496 -0.0091420210893928388 0 -0.049333868155663672 -0.0091629448032103447 0 -0.04964244532119496 -0.0091420210893928388 0 -0.049652465683558022 -0.0092699819826779079 0 -0.049273248227829386 -0.0093954012258915896 0 -0.049652465683558022 -0.0092699819826779079 0 -0.049476828920581188 -0.0094349410828424591 0 -0.049273248227829386 -0.0093954012258915896 0 -0.049988908964846625 -0.0095378331916843879 0 -0.049839409443317731 -0.0093530338248871969 0 -0.049476828920581188 -0.0094349410828424591 0 -0.047938952839125706 -0.0097540435714273434 0 -0.044142002528325841 -0.011007591388918195 0 -0.049839409443317731 -0.0093530338248871969 0 -0.049652465683558022 -0.0092699819826779079 0 -0.049476828920581188 -0.0094349410828424591 0 -0.036771690148433636 -0.013309720500780352 0 -0.036742443383299725 -0.01338260858635577 0 -0.037017669404645355 -0.013787696312005233 0 -0.03846011353002151 -0.014326253171668944 0 -0.038258461306810397 -0.014301118793682373 0 -0.038366388946418258 -0.014040301679379627 0 -0.044142002528325841 -0.011007591388918195 0 -0.040732388258978514 -0.011476496158549834 0 -0.038258461306810397 -0.014301118793682373 0 -0.038366388946418258 -0.014040301679379627 0 -0.038189040236759904 -0.014130168911906537 0 -0.044142002528325841 -0.011007591388918195 0 -0.043713599141180379 -0.011561309843176977 0 -0.043713599141180379 -0.011561309843176977 0 -0.043143717477728299 -0.01166250422975988 0 -0.038366388946418258 -0.014040301679379627 0 -0.038352927977396395 -0.013741189472041979 0 -0.038135046351362348 -0.01398902804046896 0 -0.049273248227829386 -0.0093954012258915896 0 -0.048608354604420749 -0.010547058446747496 0 -0.04891613040702502 -0.010114262129189611 0 -0.048608354604420749 -0.010547058446747496 0 -0.04891613040702502 -0.010114262129189611 0 -0.048439787491083124 -0.010793739979471102 0 -0.04891613040702502 -0.010114262129189611 0 -0.04849353141323625 -0.010674359523654016 0 -0.048439787491083124 -0.010793739979471102 0 -0.04964244532119496 -0.0091420210893928388 0 -0.049273248227829386 -0.0093954012258915896 0 -0.049333868155663672 -0.0091629448032103447 0 -0.049273248227829386 -0.0093954012258915896 0 -0.04891613040702502 -0.010114262129189611 0 -0.049333868155663672 -0.0091629448032103447 0 -0.050388041451224483 -0.0088810652668907947 0 -0.049333868155663672 -0.0091629448032103447 0 -0.050840046688865582 -0.008484580503126532 0 -0.049804771025771966 -0.0096372791309159555 0 -0.049965835872641404 -0.0096905521657797162 0 -0.049333868155663672 -0.0091629448032103447 0 -0.050840046688865582 -0.008484580503126532 0 -0.051131580587935266 -0.0079719140747473646 0 -0.04891613040702502 -0.010114262129189611 0 -0.049333868155663672 -0.0091629448032103447 0 -0.04849353141323625 -0.010674359523654016 0 -0.051408783013199989 -0.0081300566044167199 0 -0.051131580587935266 -0.0079719140747473646 0 -0.051422735940006806 -0.0083766076223129263 0 -0.051408783013199989 -0.0081300566044167199 0 -0.050840046688865582 -0.008484580503126532 0 -0.051131580587935266 -0.0079719140747473646 0 -0.051240162216108075 -0.0083320273529777708 0 -0.050388041451224483 -0.0088810652668907947 0 -0.050840046688865582 -0.008484580503126532 0 -0.051240162216108075 -0.0083320273529777708 0 -0.051408783013199989 -0.0081300566044167199 0 -0.050840046688865582 -0.008484580503126532 0 -0.037745002047680477 -0.014277800551466734 0 -0.03788304889967363 -0.014200255514201633 0 -0.037679276696415173 -0.014159368026637073 0 -0.037745002047680477 -0.014277800551466734 0 -0.03755247807263614 -0.014227440613608972 0 -0.037679276696415173 -0.014159368026637073 0 -0.03563845639539142 -0.014754066987880513 0 -0.036471051892337736 -0.014410204294409517 0 -0.03584682060597396 -0.014700026463020198 0 -0.03563845639539142 -0.014754066987880513 0 -0.034633496122861124 -0.014905101148138217 0 -0.034428596132886666 -0.014831884015178456 0 -0.034512645342137195 -0.014948161272200536 0 -0.034428596132886666 -0.014831884015178456 0 -0.034512645342137195 -0.014948161272200536 0 -0.034417135051438445 -0.014963379399035696 0 -0.034512645342137195 -0.014948161272200536 0 -0.034498635518411896 -0.015055078277078218 0 -0.034609096334685022 -0.014971346148612818 0 -0.034417135051438445 -0.014963379399035696 0 -0.034498635518411896 -0.015055078277078218 0 -0.034339340607186582 -0.015089196777570306 0 -0.033154576460640191 -0.015433275802530061 0 -0.032841243732008044 -0.015857672276336277 0 -0.034512645342137195 -0.014948161272200536 0 -0.034417135051438445 -0.014963379399035696 0 -0.034498635518411896 -0.015055078277078218 0 -0.034498635518411896 -0.015055078277078218 0 -0.034609096334685022 -0.014971346148612818 0 -0.034659491653993325 -0.01501996109550704 0 -0.033154576460640191 -0.015433275802530061 0 -0.03379577737590269 -0.014937268809843134 0 -0.034633496122861124 -0.014905101148138217 0 -0.034512645342137195 -0.014948161272200536 0 -0.034609096334685022 -0.014971346148612818 0 -0.034633496122861124 -0.014905101148138217 0 -0.034609096334685022 -0.014971346148612818 0 -0.034679154376057841 -0.014981358972851659 0 -0.034609096334685022 -0.014971346148612818 0 -0.034679154376057841 -0.014981358972851659 0 -0.034659491653993325 -0.01501996109550704 0 -0.033805571724422938 -0.014931050286286073 0 -0.03379577737590269 -0.014937268809843134 0 -0.033164808896602525 -0.01255742727401506 0 -0.034236540938686555 -0.012896503828533646 0 -0.034698849304514633 -0.012179016473963382 0 -0.034679154376057841 -0.014981358972851659 0 -0.03465971342360858 -0.015019135075451774 0 -0.034842321735830094 -0.01497762117568663 0 -0.034633496122861124 -0.014905101148138217 0 -0.034679154376057841 -0.014981358972851659 0 -0.034842321735830094 -0.01497762117568663 0 -0.03584682060597396 -0.014700026463020198 0 -0.035465358268572188 -0.014532408832563529 0 -0.03379577737590269 -0.014937268809843134 0 -0.035465358268572188 -0.014532408832563529 0 -0.033675799136793028 -0.01327773674430109 0 -0.033164808896602525 -0.01255742727401506 0 -0.034236540938686555 -0.012896503828533646 0 -0.034236540938686555 -0.012896503828533646 0 -0.034698849304514633 -0.012179016473963382 0 -0.034982716131300225 -0.012946857004653431 0 -0.038043874844840828 -0.014233263506911377 0 -0.03803709998577437 -0.014209340967381098 0 -0.03788304889967363 -0.014200255514201633 0 -0.038090715362990968 -0.014195987760119601 0 -0.038043874844840828 -0.014233263506911377 0 -0.03803709998577437 -0.014209340967381098 0 -0.035485128326239901 -0.014528697386921538 0 -0.035465358268572188 -0.014532408832563529 0 -0.038258461306810397 -0.014301118793682373 0 -0.037982508390339301 -0.014202546348868248 0 -0.038085785985800417 -0.014188912708283508 0 -0.036771690148433636 -0.013309720500780352 0 -0.037017669404645355 -0.013787696312005233 0 -0.037982508390339301 -0.014202546348868248 0 -0.036771690148433636 -0.013309720500780352 0 -0.038090715362990968 -0.014195987760119601 0 -0.037982508390339301 -0.014202546348868248 0 -0.035827321229637651 -0.013241836215035357 0 -0.036771690148433636 -0.013309720500780352 0 -0.034698849304514633 -0.012179016473963382 0 -0.036771690148433636 -0.013309720500780352 0 -0.038090715362990968 -0.014195987760119601 0 -0.038215443160834577 -0.014187327657661414 0 -0.040732388258978514 -0.011476496158549834 0 -0.039919581048710004 -0.011665672205176952 0 -0.035929786865628081 -0.014287580318467647 0 -0.035465358268572188 -0.014532408832563529 0 -0.035827321229637651 -0.013241836215035357 0 -0.034698849304514633 -0.012179016473963382 0 -0.034982716131300225 -0.012946857004653431 0 -0.038090715362990968 -0.014195987760119601 0 -0.03803709998577437 -0.014209340967381098 0 -0.037982508390339301 -0.014202546348868248 0 -0.03803709998577437 -0.014209340967381098 0 -0.037982508390339301 -0.014202546348868248 0 -0.038085785985800417 -0.014188912708283508 0 -0.038258461306810397 -0.014301118793682373 0 -0.038085785985800417 -0.014188912708283508 0 -0.038189040236759904 -0.014130168911906537 0 -0.038366388946418258 -0.014040301679379627 0 -0.038189040236759904 -0.014130168911906537 0 -0.038135046351362348 -0.01398902804046896 0 -0.038085785985800417 -0.014188912708283508 0 -0.038189040236759904 -0.014130168911906537 0 -0.038066249891004433 -0.014147101810382624 0 -0.03803709998577437 -0.014209340967381098 0 -0.038085785985800417 -0.014188912708283508 0 -0.038066249891004433 -0.014147101810382624 0 -0.038066249891004433 -0.014147101810382624 0 -0.038002293228746813 -0.014089853804737696 0 -0.038135046351362348 -0.01398902804046896 0 -0.038189040236759904 -0.014130168911906537 0 -0.038066249891004433 -0.014147101810382624 0 -0.038135046351362348 -0.01398902804046896 0 -0.037745002047680477 -0.014277800551466734 0 -0.038043874844840828 -0.014233263506911377 0 -0.03788304889967363 -0.014200255514201633 0 -0.03788304889967363 -0.014200255514201633 0 -0.038002293228746813 -0.014089853804737696 0 -0.037903542974924688 -0.014009760945514574 0 -0.03803709998577437 -0.014209340967381098 0 -0.038066249891004433 -0.014147101810382624 0 -0.03788304889967363 -0.014200255514201633 0 -0.038066249891004433 -0.014147101810382624 0 -0.03788304889967363 -0.014200255514201633 0 -0.038002293228746813 -0.014089853804737696 0 -0.038002293228746813 -0.014089853804737696 0 -0.037903542974924688 -0.014009760945514574 0 -0.038135046351362348 -0.01398902804046896 0 -0.037903542974924688 -0.014009760945514574 0 -0.038135046351362348 -0.01398902804046896 0 -0.037972731669371942 -0.013693866059449347 0 -0.038352927977396395 -0.013741189472041979 0 -0.038135046351362348 -0.01398902804046896 0 -0.037972731669371942 -0.013693866059449347 0 -0.037972731669371942 -0.013693866059449347 0 -0.037561012004927286 -0.013720286544449676 0 -0.037444131355510363 -0.013272303538165711 0 -0.037903542974924688 -0.014009760945514574 0 -0.037972731669371942 -0.013693866059449347 0 -0.037561012004927286 -0.013720286544449676 0 -0.03788304889967363 -0.014200255514201633 0 -0.037903542974924688 -0.014009760945514574 0 -0.037679276696415173 -0.014159368026637073 0 -0.037903542974924688 -0.014009760945514574 0 -0.037561012004927286 -0.013720286544449676 0 -0.037679276696415173 -0.014159368026637073 0 -0.036873334211390656 -0.01477318404209349 0 -0.037069308695026719 -0.013922575745642644 0 -0.036490773513807993 -0.014181927068736198 0 -0.037561012004927286 -0.013720286544449676 0 -0.037679276696415173 -0.014159368026637073 0 -0.037069308695026719 -0.013922575745642644 0 -0.036873334211390656 -0.01477318404209349 0 -0.037679276696415173 -0.014159368026637073 0 -0.037069308695026719 -0.013922575745642644 0 -0.037141390122442067 -0.013547204223774876 0 -0.036404339489412421 -0.013354407313812837 0 -0.037444131355510363 -0.013272303538165711 0 -0.037561012004927286 -0.013720286544449676 0 -0.037141390122442067 -0.013547204223774876 0 -0.037444131355510363 -0.013272303538165711 0 -0.037069308695026719 -0.013922575745642644 0 -0.037141390122442067 -0.013547204223774876 0 -0.036404339489412421 -0.013354407313812837 0 -0.037561012004927286 -0.013720286544449676 0 -0.037069308695026719 -0.013922575745642644 0 -0.037141390122442067 -0.013547204223774876 0 -0.0364318068965096 -0.015093361363726531 0 -0.035626399843411004 -0.014963066283755249 0 -0.035498730686070588 -0.015383244145960755 0 -0.0364318068965096 -0.015093361363726531 0 -0.035626399843411004 -0.014963066283755249 0 -0.036038658115038133 -0.014677572206441929 0 -0.0364318068965096 -0.015093361363726531 0 -0.035498730686070588 -0.015383244145960755 0 -0.03559213108512102 -0.015900220392680294 0 -0.034980086488256297 -0.014471847199311766 0 -0.035867321403271202 -0.013984025930872817 0 -0.034973431963639168 -0.015126864746391041 0 -0.035930511776383074 -0.014213967249617387 0 -0.034571348994831476 -0.014779784253843532 0 -0.036404339489412421 -0.013354407313812837 0 -0.034710657802061423 -0.014079417638380002 0 -0.035154852033086721 -0.014069541775992542 0 -0.034525528947962035 -0.014083070599279199 0 -0.034980086488256297 -0.014471847199311766 0 -0.034366371557370885 -0.014871110786046729 0 -0.034525528947962035 -0.014083070599279199 0 -0.034980086488256297 -0.014471847199311766 0 -0.035154852033086721 -0.014069541775992542 0 -0.034571348994831476 -0.014779784253843532 0 -0.034596374803647696 -0.014765647391662371 0 -0.034980086488256297 -0.014471847199311766 0 -0.035154852033086721 -0.014069541775992542 0 -0.035867321403271202 -0.013984025930872817 0 -0.036490773513807993 -0.014181927068736198 0 -0.035867321403271202 -0.013984025930872817 0 -0.036110953892208753 -0.014612098446583177 0 -0.036404339489412421 -0.013354407313812837 0 -0.035154852033086721 -0.014069541775992542 0 -0.035867321403271202 -0.013984025930872817 0 -0.037069308695026719 -0.013922575745642644 0 -0.036404339489412421 -0.013354407313812837 0 -0.036490773513807993 -0.014181927068736198 0 -0.036404339489412421 -0.013354407313812837 0 -0.036490773513807993 -0.014181927068736198 0 -0.035867321403271202 -0.013984025930872817 0 -0.029781078495599408 -0.015914292624726482 0 -0.029642487483105853 -0.015913479077603515 0 -0.029687024840478908 -0.015874826251308202 0 -0.029729263579197633 -0.015863035915094834 0 -0.029781078495599408 -0.015914292624726482 0 -0.029774668764830248 -0.015837642489085924 0 -0.029729263579197633 -0.015863035915094834 0 -0.029687024840478908 -0.015874826251308202 0 -0.029670508285512841 -0.015823750758703518 0 -0.029729263579197633 -0.015863035915094834 0 -0.029781078495599408 -0.015914292624726482 0 -0.029687024840478908 -0.015874826251308202 0 -0.035626399843411004 -0.014963066283755249 0 -0.03469065276277445 -0.015268684178578981 0 -0.03545681582177506 -0.014287880127340365 0 -0.035626399843411004 -0.014963066283755249 0 -0.035498730686070588 -0.015383244145960755 0 -0.03469065276277445 -0.015268684178578981 0 -0.035498730686070588 -0.015383244145960755 0 -0.03469065276277445 -0.015268684178578981 0 -0.035136086766029487 -0.015686592419331496 0 -0.03559213108512102 -0.015900220392680294 0 -0.035136086766029487 -0.015686592419331496 0 -0.034761119870682325 -0.016090395189239347 0 -0.03434679984659636 -0.013908107322645802 0 -0.032619288284123964 -0.014299390545698627 0 -0.033261756507529924 -0.014932871505587596 0 -0.03469065276277445 -0.015268684178578981 0 -0.035136086766029487 -0.015686592419331496 0 -0.034761119870682325 -0.016090395189239347 0 -0.034571348994831476 -0.014779784253843532 0 -0.033399720793835262 -0.015244123918098287 0 -0.035498730686070588 -0.015383244145960755 0 -0.03559213108512102 -0.015900220392680294 0 -0.035136086766029487 -0.015686592419331496 0 -0.034571348994831476 -0.014779784253843532 0 -0.0343634827983531 -0.014874695307877222 0 -0.032285442554456298 -0.015524351335978744 0 -0.031767673242762445 -0.01580430972652918 0 -0.03469065276277445 -0.015268684178578981 0 -0.034761119870682325 -0.016090395189239347 0 -0.03391966689927764 -0.016275925676260714 0 -0.029781078495599408 -0.015914292624726482 0 -0.02964179457527779 -0.015983128729529446 0 -0.029642487483105853 -0.015913479077603515 0 -0.033399720793835262 -0.015244123918098287 0 -0.031767673242762445 -0.01580430972652918 0 -0.032619288284123964 -0.014299390545698627 0 -0.031688396634191408 -0.014957486527961951 0 -0.031037110419822232 -0.014758473753646192 0 -0.031417724097857092 -0.015449329085524538 0 -0.031688396634191408 -0.014957486527961951 0 -0.032184460271128923 -0.015061057541052775 0 -0.031417724097857092 -0.015449329085524538 0 -0.032184460271128923 -0.015061057541052775 0 -0.031956985485599415 -0.015661393606878189 0 -0.031417724097857092 -0.015449329085524538 0 -0.031688396634191408 -0.014957486527961951 0 -0.031198520162308681 -0.015174468680071945 0 -0.032619288284123964 -0.014299390545698627 0 -0.031688396634191408 -0.014957486527961951 0 -0.032184460271128923 -0.015061057541052775 0 -0.032184460271128923 -0.015061057541052775 0 -0.031956985485599415 -0.015661393606878189 0 -0.032595184807746792 -0.015487398345407971 0 -0.032184460271128923 -0.015061057541052775 0 -0.032595184807746792 -0.015487398345407971 0 -0.033261756507529924 -0.014932871505587596 0 -0.032595184807746792 -0.015487398345407971 0 -0.033261756507529924 -0.014932871505587596 0 -0.03319089765865392 -0.015787173854554033 0 -0.032619288284123964 -0.014299390545698627 0 -0.032184460271128923 -0.015061057541052775 0 -0.033261756507529924 -0.014932871505587596 0 -0.034525528947962035 -0.014083070599279199 0 -0.033261756507529924 -0.014932871505587596 0 -0.034366371557370885 -0.014871110786046729 0 -0.033261756507529924 -0.014932871505587596 0 -0.034125539886617172 -0.015600423152101755 0 -0.034366371557370885 -0.014871110786046729 0 -0.033261756507529924 -0.014932871505587596 0 -0.034125539886617172 -0.015600423152101755 0 -0.03319089765865392 -0.015787173854554033 0 -0.034125539886617172 -0.015600423152101755 0 -0.033521061389025011 -0.016662874056269317 0 -0.03319089765865392 -0.015787173854554033 0 -0.033521061389025011 -0.016662874056269317 0 -0.03319089765865392 -0.015787173854554033 0 -0.032506332929261673 -0.016227502423985209 0 -0.032595184807746792 -0.015487398345407971 0 -0.03319089765865392 -0.015787173854554033 0 -0.032506332929261673 -0.016227502423985209 0 -0.032506332929261673 -0.016227502423985209 0 -0.031094288970751952 -0.017051542207494164 0 -0.031195784980972776 -0.016461165104033948 0 -0.033521061389025011 -0.016662874056269317 0 -0.032506332929261673 -0.016227502423985209 0 -0.031094288970751952 -0.017051542207494164 0 -0.031956985485599415 -0.015661393606878189 0 -0.032595184807746792 -0.015487398345407971 0 -0.032506332929261673 -0.016227502423985209 0 -0.031956985485599415 -0.015661393606878189 0 -0.032506332929261673 -0.016227502423985209 0 -0.031822553677711599 -0.016094516008104801 0 -0.032506332929261673 -0.016227502423985209 0 -0.031822553677711599 -0.016094516008104801 0 -0.031195784980972776 -0.016461165104033948 0 -0.031822553677711599 -0.016094516008104801 0 -0.031283648989648596 -0.016039276183979528 0 -0.031195784980972776 -0.016461165104033948 0 -0.031956985485599415 -0.015661393606878189 0 -0.031822553677711599 -0.016094516008104801 0 -0.031283648989648596 -0.016039276183979528 0 -0.031417724097857092 -0.015449329085524538 0 -0.031956985485599415 -0.015661393606878189 0 -0.031283648989648596 -0.016039276183979528 0 -0.034563494323375889 -0.014953979862893412 0 -0.034308159784553476 -0.01533808734262387 0 -0.035867321403271202 -0.013984025930872817 0 -0.036191091640460818 -0.015259990329452505 0 -0.036110953892208753 -0.014612098446583177 0 -0.034428596132886666 -0.014831884015178456 0 -0.034417135051438445 -0.014963379399035696 0 -0.034306859566165901 -0.01489348787091211 0 -0.03563845639539142 -0.014754066987880513 0 -0.034308159784553476 -0.01533808734262387 0 -0.03563845639539142 -0.014754066987880513 0 -0.035798575534690964 -0.014788132105009408 0 -0.03688764141295766 -0.014897262415197017 0 -0.036191091640460818 -0.015259990329452505 0 -0.036110953892208753 -0.014612098446583177 0 -0.036873334211390656 -0.01477318404209349 0 -0.036490773513807993 -0.014181927068736198 0 -0.036110953892208753 -0.014612098446583177 0 -0.035867321403271202 -0.013984025930872817 0 -0.036024240714076096 -0.015631695816707428 0 -0.034973431963639168 -0.015126864746391041 0 -0.034125539886617172 -0.015600423152101755 0 -0.036024240714076096 -0.015631695816707428 0 -0.034973431963639168 -0.015126864746391041 0 -0.034125539886617172 -0.015600423152101755 0 -0.034973431963639168 -0.015126864746391041 0 -0.034366371557370885 -0.014871110786046729 0 -0.034980086488256297 -0.014471847199311766 0 -0.034973431963639168 -0.015126864746391041 0 -0.034366371557370885 -0.014871110786046729 0 -0.034125539886617172 -0.015600423152101755 0 -0.033521061389025011 -0.016662874056269317 0 -0.036024240714076096 -0.015631695816707428 0 -0.033051276478579424 -0.016179078415161908 0 -0.034308159784553476 -0.01533808734262387 0 -0.032417123760139513 -0.01638903750320889 0 -0.033716081837655697 -0.015736568602199782 0 -0.033207095217270943 -0.016341580723083102 0 -0.033207095217270943 -0.016341580723083102 0 -0.033028343676491642 -0.016617706402564041 0 -0.033891642516211136 -0.016729932864084508 0 -0.032417123760139513 -0.01638903750320889 0 -0.033207095217270943 -0.016341580723083102 0 -0.033028343676491642 -0.016617706402564041 0 -0.034308159784553476 -0.01533808734262387 0 -0.032841243732008044 -0.015857672276336277 0 -0.034417135051438445 -0.014963379399035696 0 -0.034306859566165901 -0.01489348787091211 0 -0.034339340607186582 -0.015089196777570306 0 -0.033716081837655697 -0.015736568602199782 0 -0.033207095217270943 -0.016341580723083102 0 -0.033891642516211136 -0.016729932864084508 0 -0.03105303714377796 -0.016194239306530557 0 -0.030858030573651558 -0.016040778571062862 0 -0.03091602311268974 -0.016364026139808516 0 -0.030879412554857218 -0.016177203879169835 0 -0.030919531084534171 -0.016444492137150459 0 -0.030672664939672595 -0.01636868101643384 0 -0.032841243732008044 -0.015857672276336277 0 -0.032383292317624421 -0.016080786111107158 0 -0.032383292317624421 -0.016080786111107158 0 -0.032248249483722131 -0.016188547220579962 0 -0.030919531084534171 -0.016444492137150459 0 -0.030788080541498071 -0.01662460928422092 0 -0.030967013571503575 -0.016669620394256929 0 -0.030919531084534171 -0.016444492137150459 0 -0.030746829379383191 -0.016500882807138233 0 -0.030788080541498071 -0.01662460928422092 0 -0.030919531084534171 -0.016444492137150459 0 -0.030746829379383191 -0.016500882807138233 0 -0.030672664939672595 -0.01636868101643384 0 -0.030598992907595692 -0.016565371642509895 0 -0.030471310655069767 -0.016491409639599941 0 -0.030420094863222041 -0.016651047657695484 0 -0.030746829379383191 -0.016500882807138233 0 -0.030788080541498071 -0.01662460928422092 0 -0.030598992907595692 -0.016565371642509895 0 -0.030746829379383191 -0.016500882807138233 0 -0.030598992907595692 -0.016565371642509895 0 -0.030672664939672595 -0.01636868101643384 0 -0.030598992907595692 -0.016565371642509895 0 -0.030471310655069767 -0.016491409639599941 0 -0.030672664939672595 -0.01636868101643384 0 -0.032841243732008044 -0.015857672276336277 0 -0.031594801169064719 -0.016386507648524291 0 -0.030471310655069767 -0.016491409639599941 0 -0.030672664939672595 -0.01636868101643384 0 -0.030424837945740912 -0.016278070711961082 0 -0.030879412554857218 -0.016177203879169835 0 -0.030672664939672595 -0.01636868101643384 0 -0.030424837945740912 -0.016278070711961082 0 -0.033028343676491642 -0.016617706402564041 0 -0.033891642516211136 -0.016729932864084508 0 -0.03259478265533209 -0.017007967993720476 0 -0.032417123760139513 -0.01638903750320889 0 -0.033028343676491642 -0.016617706402564041 0 -0.03259478265533209 -0.017007967993720476 0 -0.031594801169064719 -0.016386507648524291 0 -0.030818296576693566 -0.016657306554188626 0 -0.032417123760139513 -0.01638903750320889 0 -0.03259478265533209 -0.017007967993720476 0 -0.031843702401442582 -0.016937394452834428 0 -0.03259478265533209 -0.017007967993720476 0 -0.031843702401442582 -0.016937394452834428 0 -0.031266796899196259 -0.017304169532899958 0 -0.032417123760139513 -0.01638903750320889 0 -0.031843702401442582 -0.016937394452834428 0 -0.031094288970751952 -0.017051542207494164 0 -0.030424837945740912 -0.016278070711961082 0 -0.029923688268785161 -0.01648541766613898 0 -0.030079866327901768 -0.016540512973158509 0 -0.033051276478579424 -0.016179078415161908 0 -0.0321859621250844 -0.016622174083547436 0 -0.031843702401442582 -0.016937394452834428 0 -0.031266796899196259 -0.017304169532899958 0 -0.031094288970751952 -0.017051542207494164 0 -0.029990398688600903 -0.016690998043631625 0 -0.030242029022102403 -0.016587305900767648 0 -0.030281723881010914 -0.01681714061014538 0 -0.030079866327901768 -0.016540512973158509 0 -0.029990398688600903 -0.016690998043631625 0 -0.029859990150529658 -0.01664474515032334 0 -0.029923688268785161 -0.01648541766613898 0 -0.030079866327901768 -0.016540512973158509 0 -0.029859990150529658 -0.01664474515032334 0 -0.030079866327901768 -0.016540512973158509 0 -0.029990398688600903 -0.016690998043631625 0 -0.030242029022102403 -0.016587305900767648 0 -0.030424837945740912 -0.016278070711961082 0 -0.030079866327901768 -0.016540512973158509 0 -0.030242029022102403 -0.016587305900767648 0 -0.030471310655069767 -0.016491409639599941 0 -0.030424837945740912 -0.016278070711961082 0 -0.030242029022102403 -0.016587305900767648 0 -0.030471310655069767 -0.016491409639599941 0 -0.030242029022102403 -0.016587305900767648 0 -0.030420094863222041 -0.016651047657695484 0 -0.030420094863222041 -0.016651047657695484 0 -0.030281723881010914 -0.01681714061014538 0 -0.030615459588471807 -0.016801683100079248 0 -0.030242029022102403 -0.016587305900767648 0 -0.030420094863222041 -0.016651047657695484 0 -0.030281723881010914 -0.01681714061014538 0 -0.030281723881010914 -0.01681714061014538 0 -0.030516725072697523 -0.01701326155796018 0 -0.030615459588471807 -0.016801683100079248 0 -0.029990398688600903 -0.016690998043631625 0 -0.030281723881010914 -0.01681714061014538 0 -0.029935674997920325 -0.016903098817181293 0 -0.030169233437265713 -0.017134916865869359 0 -0.030281723881010914 -0.01681714061014538 0 -0.029935674997920325 -0.016903098817181293 0 -0.030169233437265713 -0.017134916865869359 0 -0.029935674997920325 -0.016903098817181293 0 -0.029823288155294135 -0.017148541037384907 0 -0.030169233437265713 -0.017134916865869359 0 -0.030281723881010914 -0.01681714061014538 0 -0.030516725072697523 -0.01701326155796018 0 -0.030952209667970104 -0.017086287840403332 0 -0.030516725072697523 -0.01701326155796018 0 -0.030615459588471807 -0.016801683100079248 0 -0.030952209667970104 -0.017086287840403332 0 -0.031895884073508442 -0.016746597422710768 0 -0.031598329759665263 -0.015648695670817205 0 -0.030952209667970104 -0.017086287840403332 0 -0.030987990985353528 -0.016832257554511287 0 -0.030856212545973372 -0.016820388184720404 0 -0.030952209667970104 -0.017086287840403332 0 -0.030856212545973372 -0.016820388184720404 0 -0.030615459588471807 -0.016801683100079248 0 -0.031418365093816382 -0.016710206613853133 0 -0.031729186832054404 -0.016299042663060342 0 -0.030987990985353528 -0.016832257554511287 0 -0.030856212545973372 -0.016820388184720404 0 -0.030967013571503575 -0.016669620394256929 0 -0.030788080541498071 -0.01662460928422092 0 -0.030856212545973372 -0.016820388184720404 0 -0.030967013571503575 -0.016669620394256929 0 -0.030788080541498071 -0.01662460928422092 0 -0.030856212545973372 -0.016820388184720404 0 -0.030615459588471807 -0.016801683100079248 0 -0.030788080541498071 -0.01662460928422092 0 -0.030598992907595692 -0.016565371642509895 0 -0.030615459588471807 -0.016801683100079248 0 -0.030598992907595692 -0.016565371642509895 0 -0.030420094863222041 -0.016651047657695484 0 -0.030615459588471807 -0.016801683100079248 0 -0.029326490769611784 -0.016938360246363818 0 -0.029520653941530299 -0.016889591446544713 0 -0.029420388499569444 -0.016827075465415703 0 -0.029326490769611784 -0.016938360246363818 0 -0.029420388499569444 -0.016827075465415703 0 -0.029162442507084458 -0.016840518429250304 0 -0.029326490769611784 -0.016938360246363818 0 -0.029339041351234149 -0.016975881245300192 0 -0.029520653941530299 -0.016889591446544713 0 -0.029326490769611784 -0.016938360246363818 0 -0.029201955655144669 -0.016976087805625401 0 -0.029162442507084458 -0.016840518429250304 0 -0.028977634558956258 -0.016949803832409311 0 -0.029201955655144669 -0.016976087805625401 0 -0.029162442507084458 -0.016840518429250304 0 -0.029326490769611784 -0.016938360246363818 0 -0.029201955655144669 -0.016976087805625401 0 -0.029253655209166844 -0.017005191470495923 0 -0.028977634558956258 -0.016949803832409311 0 -0.029286144509232458 -0.017032416011920876 0 -0.029201955655144669 -0.016976087805625401 0 -0.029286144509232458 -0.017032416011920876 0 -0.029201955655144669 -0.016976087805625401 0 -0.029253655209166844 -0.017005191470495923 0 -0.029145405985636301 -0.016954773944858129 0 -0.029253655209166844 -0.017005191470495923 0 -0.029339041351234149 -0.016975881245300192 0 -0.029326490769611784 -0.016938360246363818 0 -0.029253655209166844 -0.017005191470495923 0 -0.029339041351234149 -0.016975881245300192 0 -0.029339041351234149 -0.016975881245300192 0 -0.029523655979445632 -0.016963848027367542 0 -0.029520653941530299 -0.016889591446544713 0 -0.023253943344310874 -0.014886253220893425 0 -0.025832070623187531 -0.015922267904939072 0 -0.029350418646419452 -0.017012199763917484 0 -0.029339041351234149 -0.016975881245300192 0 -0.029523655979445632 -0.016963848027367542 0 -0.029472116880895047 -0.017345146180732188 0 -0.029664386208806241 -0.016966014981933796 0 -0.029823288155294135 -0.017148541037384907 0 -0.029935674997920325 -0.016903098817181293 0 -0.029664386208806241 -0.016966014981933796 0 -0.029823288155294135 -0.017148541037384907 0 -0.025832070623187531 -0.015922267904939072 0 -0.026609305996538227 -0.016093709030174083 0 -0.029990398688600903 -0.016690998043631625 0 -0.029935674997920325 -0.016903098817181293 0 -0.029771296867727046 -0.016755356269184916 0 -0.029935674997920325 -0.016903098817181293 0 -0.029664386208806241 -0.016966014981933796 0 -0.029771296867727046 -0.016755356269184916 0 -0.029523655979445632 -0.016963848027367542 0 -0.029520653941530299 -0.016889591446544713 0 -0.029771296867727046 -0.016755356269184916 0 -0.029520653941530299 -0.016889591446544713 0 -0.029732904937145553 -0.016872642958495828 0 -0.029420388499569444 -0.016827075465415703 0 -0.029520653941530299 -0.016889591446544713 0 -0.029732904937145553 -0.016872642958495828 0 -0.029771296867727046 -0.016755356269184916 0 -0.029732904937145553 -0.016872642958495828 0 -0.029771296867727046 -0.016755356269184916 0 -0.029859990150529658 -0.01664474515032334 0 -0.029923688268785161 -0.01648541766613898 0 -0.029732904937145553 -0.016872642958495828 0 -0.029859990150529658 -0.01664474515032334 0 -0.029990398688600903 -0.016690998043631625 0 -0.029771296867727046 -0.016755356269184916 0 -0.029859990150529658 -0.01664474515032334 0 -0.031266796899196259 -0.017304169532899958 0 -0.029732904937145553 -0.016872642958495828 0 -0.030588291870875205 -0.016896199314157208 0 -0.030818296576693566 -0.016657306554188626 0 -0.030450642384981238 -0.016747814497395989 0 -0.031266796899196259 -0.017304169532899958 0 -0.031094288970751952 -0.017051542207494164 0 -0.030588291870875205 -0.016896199314157208 0 -0.030588291870875205 -0.016896199314157208 0 -0.030720423415166235 -0.016660319389229013 0 -0.030179424014501105 -0.016581255197262418 0 -0.031094288970751952 -0.017051542207494164 0 -0.030588291870875205 -0.016896199314157208 0 -0.030720423415166235 -0.016660319389229013 0 -0.031094288970751952 -0.017051542207494164 0 -0.030720423415166235 -0.016660319389229013 0 -0.031195784980972776 -0.016461165104033948 0 -0.029732904937145553 -0.016872642958495828 0 -0.030179424014501105 -0.016581255197262418 0 -0.029651711220260356 -0.016449549296274946 0 -0.029732904937145553 -0.016872642958495828 0 -0.029651711220260356 -0.016449549296274946 0 -0.029464372080020527 -0.016651464710943274 0 -0.029732904937145553 -0.016872642958495828 0 -0.030588291870875205 -0.016896199314157208 0 -0.030179424014501105 -0.016581255197262418 0 -0.029651711220260356 -0.016449549296274946 0 -0.029464372080020527 -0.016651464710943274 0 -0.029306458944015599 -0.01639556941274365 0 -0.029464372080020527 -0.016651464710943274 0 -0.029216463886381463 -0.016662612421286631 0 -0.029306458944015599 -0.01639556941274365 0 -0.029732904937145553 -0.016872642958495828 0 -0.029464372080020527 -0.016651464710943274 0 -0.029420388499569444 -0.016827075465415703 0 -0.029464372080020527 -0.016651464710943274 0 -0.029420388499569444 -0.016827075465415703 0 -0.029216463886381463 -0.016662612421286631 0 -0.029420388499569444 -0.016827075465415703 0 -0.029162442507084458 -0.016840518429250304 0 -0.029216463886381463 -0.016662612421286631 0 -0.029162442507084458 -0.016840518429250304 0 -0.029043697624921185 -0.016668058215420889 0 -0.029216463886381463 -0.016662612421286631 0 -0.02895819212989837 -0.016754551618784131 0 -0.029162442507084458 -0.016840518429250304 0 -0.029043697624921185 -0.016668058215420889 0 -0.029043697624921185 -0.016668058215420889 0 -0.029216463886381463 -0.016662612421286631 0 -0.029043899493126111 -0.016505307846640352 0 -0.029043899493126111 -0.016505307846640352 0 -0.029081441044608594 -0.016321142106262298 0 -0.029306458944015599 -0.01639556941274365 0 -0.029216463886381463 -0.016662612421286631 0 -0.029043899493126111 -0.016505307846640352 0 -0.029306458944015599 -0.01639556941274365 0 -0.029081441044608594 -0.016321142106262298 0 -0.029306458944015599 -0.01639556941274365 0 -0.029285383283477535 -0.015957486425082754 0 -0.029081441044608594 -0.016321142106262298 0 -0.029285383283477535 -0.015957486425082754 0 -0.029034843179180488 -0.016088364724642635 0 -0.029651711220260356 -0.016449549296274946 0 -0.029285383283477535 -0.015957486425082754 0 -0.029967138127750578 -0.016054511869698137 0 -0.029651711220260356 -0.016449549296274946 0 -0.029306458944015599 -0.01639556941274365 0 -0.029285383283477535 -0.015957486425082754 0 -0.030069363261515398 -0.015974298716710814 0 -0.030463539759658334 -0.015927230084164055 0 -0.029285383283477535 -0.015957486425082754 0 -0.029478460028174152 -0.015991918631333618 0 -0.029391313594027819 -0.015891755852788483 0 -0.029285383283477535 -0.015957486425082754 0 -0.029255832023377958 -0.015868472311114809 0 -0.029391313594027819 -0.015891755852788483 0 -0.029285383283477535 -0.015957486425082754 0 -0.029108810128512505 -0.015910926836609489 0 -0.029255832023377958 -0.015868472311114809 0 -0.029108810128512505 -0.015910926836609489 0 -0.028965861905841123 -0.015978598451440403 0 -0.029034843179180488 -0.016088364724642635 0 -0.028924890576066863 -0.015864498695126558 0 -0.029108810128512505 -0.015910926836609489 0 -0.028965861905841123 -0.015978598451440403 0 -0.029285383283477535 -0.015957486425082754 0 -0.029108810128512505 -0.015910926836609489 0 -0.029034843179180488 -0.016088364724642635 0 -0.031417724097857092 -0.015449329085524538 0 -0.030892336179808178 -0.015788376763693289 0 -0.031283648989648596 -0.016039276183979528 0 -0.030892336179808178 -0.015788376763693289 0 -0.031283648989648596 -0.016039276183979528 0 -0.030572066546414842 -0.016208158421994395 0 -0.030720423415166235 -0.016660319389229013 0 -0.031195784980972776 -0.016461165104033948 0 -0.030572066546414842 -0.016208158421994395 0 -0.031283648989648596 -0.016039276183979528 0 -0.031195784980972776 -0.016461165104033948 0 -0.030572066546414842 -0.016208158421994395 0 -0.030720423415166235 -0.016660319389229013 0 -0.030179424014501105 -0.016581255197262418 0 -0.030572066546414842 -0.016208158421994395 0 -0.030892336179808178 -0.015788376763693289 0 -0.030572066546414842 -0.016208158421994395 0 -0.030509961905178774 -0.015726143015740095 0 -0.030572066546414842 -0.016208158421994395 0 -0.029967138127750578 -0.016054511869698137 0 -0.030509961905178774 -0.015726143015740095 0 -0.030179424014501105 -0.016581255197262418 0 -0.030572066546414842 -0.016208158421994395 0 -0.029967138127750578 -0.016054511869698137 0 -0.030179424014501105 -0.016581255197262418 0 -0.029651711220260356 -0.016449549296274946 0 -0.029967138127750578 -0.016054511869698137 0 -0.029285383283477535 -0.015957486425082754 0 -0.029967138127750578 -0.016054511869698137 0 -0.029967805422423752 -0.015451454513869894 0 -0.029967138127750578 -0.016054511869698137 0 -0.029967805422423752 -0.015451454513869894 0 -0.030509961905178774 -0.015726143015740095 0 -0.030463539759658334 -0.015927230084164055 0 -0.031767673242762445 -0.01580430972652918 0 -0.029967805422423752 -0.015451454513869894 0 -0.030797683146515063 -0.015227115195060415 0 -0.030977092718953488 -0.014940055129468232 0 -0.029967805422423752 -0.015451454513869894 0 -0.030509961905178774 -0.015726143015740095 0 -0.030797683146515063 -0.015227115195060415 0 -0.029478460028174152 -0.015991918631333618 0 -0.02964179457527779 -0.015983128729529446 0 -0.029576151109440792 -0.015944871818820167 0 -0.030509961905178774 -0.015726143015740095 0 -0.030797683146515063 -0.015227115195060415 0 -0.030974532231377788 -0.015474721799255468 0 -0.031688396634191408 -0.014957486527961951 0 -0.031037110419822232 -0.014758473753646192 0 -0.031198520162308681 -0.015174468680071945 0 -0.03175809302028694 -0.015791311985878527 0 -0.031767673242762445 -0.01580430972652918 0 -0.030797683146515063 -0.015227115195060415 0 -0.031037110419822232 -0.014758473753646192 0 -0.031198520162308681 -0.015174468680071945 0 -0.031417724097857092 -0.015449329085524538 0 -0.031198520162308681 -0.015174468680071945 0 -0.030974532231377788 -0.015474721799255468 0 -0.030797683146515063 -0.015227115195060415 0 -0.031198520162308681 -0.015174468680071945 0 -0.030974532231377788 -0.015474721799255468 0 -0.030892336179808178 -0.015788376763693289 0 -0.030509961905178774 -0.015726143015740095 0 -0.030974532231377788 -0.015474721799255468 0 -0.031417724097857092 -0.015449329085524538 0 -0.030892336179808178 -0.015788376763693289 0 -0.030974532231377788 -0.015474721799255468 0 -0.02964179457527779 -0.015983128729529446 0 -0.029642487483105853 -0.015913479077603515 0 -0.029576151109440792 -0.015944871818820167 0 -0.029642487483105853 -0.015913479077603515 0 -0.029576151109440792 -0.015944871818820167 0 -0.029534850846431617 -0.015901648611700171 0 -0.029642487483105853 -0.015913479077603515 0 -0.029534850846431617 -0.015901648611700171 0 -0.029589355540599646 -0.015857973055598204 0 -0.029534850846431617 -0.015901648611700171 0 -0.02945945391863446 -0.01582322146490836 0 -0.029589355540599646 -0.015857973055598204 0 -0.029478460028174152 -0.015991918631333618 0 -0.029576151109440792 -0.015944871818820167 0 -0.029534850846431617 -0.015901648611700171 0 -0.029478460028174152 -0.015991918631333618 0 -0.029534850846431617 -0.015901648611700171 0 -0.029391313594027819 -0.015891755852788483 0 -0.029534850846431617 -0.015901648611700171 0 -0.02945945391863446 -0.01582322146490836 0 -0.029391313594027819 -0.015891755852788483 0 -0.02945945391863446 -0.01582322146490836 0 -0.029555470323718167 -0.015801399332683506 0 -0.029419651417510163 -0.015748335360011648 0 -0.02945945391863446 -0.01582322146490836 0 -0.029555470323718167 -0.015801399332683506 0 -0.029589355540599646 -0.015857973055598204 0 -0.029555470323718167 -0.015801399332683506 0 -0.029589355540599646 -0.015857973055598204 0 -0.029670508285512841 -0.015823750758703518 0 -0.029589355540599646 -0.015857973055598204 0 -0.029687024840478908 -0.015874826251308202 0 -0.029670508285512841 -0.015823750758703518 0 -0.029642487483105853 -0.015913479077603515 0 -0.029589355540599646 -0.015857973055598204 0 -0.029687024840478908 -0.015874826251308202 0 -0.029142990266072723 -0.015779344339565602 0 -0.029003828724962297 -0.015728117849525824 0 -0.029153060820342164 -0.015619521843105401 0 -0.029142990266072723 -0.015779344339565602 0 -0.029302067692715251 -0.015768234864829395 0 -0.029153060820342164 -0.015619521843105401 0 -0.029142990266072723 -0.015779344339565602 0 -0.029003828724962297 -0.015728117849525824 0 -0.0290459263472259 -0.015819134299547597 0 -0.028924890576066863 -0.015864498695126558 0 -0.029003828724962297 -0.015728117849525824 0 -0.0290459263472259 -0.015819134299547597 0 -0.028924890576066863 -0.015864498695126558 0 -0.029108810128512505 -0.015910926836609489 0 -0.0290459263472259 -0.015819134299547597 0 -0.029108810128512505 -0.015910926836609489 0 -0.029142990266072723 -0.015779344339565602 0 -0.0290459263472259 -0.015819134299547597 0 -0.029108810128512505 -0.015910926836609489 0 -0.029142990266072723 -0.015779344339565602 0 -0.029255832023377958 -0.015868472311114809 0 -0.029255832023377958 -0.015868472311114809 0 -0.029391313594027819 -0.015891755852788483 0 -0.029302067692715251 -0.015768234864829395 0 -0.02945945391863446 -0.01582322146490836 0 -0.029391313594027819 -0.015891755852788483 0 -0.029302067692715251 -0.015768234864829395 0 -0.029142990266072723 -0.015779344339565602 0 -0.029255832023377958 -0.015868472311114809 0 -0.029302067692715251 -0.015768234864829395 0 -0.025283419470567357 -0.017455041447168935 0 -0.023935183081356583 -0.019360016399739957 0 -0.012957429305099456 -0.030479628352093106 0 -0.013138841967364015 -0.028199557499353232 0 -0.015792252645366541 -0.029069667168758483 0 -0.02945945391863446 -0.01582322146490836 0 -0.029302067692715251 -0.015768234864829395 0 -0.029419651417510163 -0.015748335360011648 0 -0.02014957874027937 -0.020772973448423694 0 -0.023935183081356583 -0.019360016399739957 0 -0.029302067692715251 -0.015768234864829395 0 -0.029153060820342164 -0.015619521843105401 0 -0.029401062598662663 -0.015511980803364135 0 -0.010344714509970926 -0.030223962861618762 0 -0.012957429305099456 -0.030479628352093106 0 -0.010835880229866184 -0.02893923952552498 0 -0.010344714509970926 -0.030223962861618762 0 -0.010633714145939069 -0.031196986300988348 0 -0.012957429305099456 -0.030479628352093106 0 -0.016332513723923903 -0.02136978498404957 0 -0.02014957874027937 -0.020772973448423694 0 -0.010155771128540044 -0.031764227869955371 0 -0.010633714145939069 -0.031196986300988348 0 -0.012957429305099456 -0.030479628352093106 0 -0.012957429305099456 -0.030479628352093106 0 -0.013138841967364015 -0.028199557499353232 0 -0.010835880229866184 -0.02893923952552498 0 -0.028869095775282193 -0.015626257475421818 0 -0.029003828724962297 -0.015728117849525824 0 -0.029153060820342164 -0.015619521843105401 0 -0.013138841967364015 -0.028199557499353232 0 -0.010835880229866184 -0.02893923952552498 0 -0.0092184458054930807 -0.027132966070200475 0 -0.013138841967364015 -0.028199557499353232 0 -0.01344256302666925 -0.025903965341970626 0 -0.0092184458054930807 -0.027132966070200475 0 -0.015792252645366541 -0.029069667168758483 0 -0.015058739465910983 -0.026659659545518188 0 -0.017476483029415641 -0.025588779753329891 0 -0.013138841967364015 -0.028199557499353232 0 -0.015792252645366541 -0.029069667168758483 0 -0.015058739465910983 -0.026659659545518188 0 -0.013138841967364015 -0.028199557499353232 0 -0.015058739465910983 -0.026659659545518188 0 -0.01344256302666925 -0.025903965341970626 0 -0.015058739465910983 -0.026659659545518188 0 -0.015409142980386406 -0.024567957006303844 0 -0.01344256302666925 -0.025903965341970626 0 -0.015058739465910983 -0.026659659545518188 0 -0.015409142980386406 -0.024567957006303844 0 -0.017476483029415641 -0.025588779753329891 0 -0.01344256302666925 -0.025903965341970626 0 -0.012105945937560255 -0.023451274336211241 0 -0.0092184458054930807 -0.027132966070200475 0 -0.015409142980386406 -0.024567957006303844 0 -0.01344256302666925 -0.025903965341970626 0 -0.012105945937560255 -0.023451274336211241 0 -0.029670508285512841 -0.015823750758703518 0 -0.029638929376718859 -0.015748938426380001 0 -0.029774668764830248 -0.015837642489085924 0 -0.029555470323718167 -0.015801399332683506 0 -0.029670508285512841 -0.015823750758703518 0 -0.029638929376718859 -0.015748938426380001 0 -0.026827161949282696 -0.01743617753006212 0 -0.028472850777535107 -0.016574369762837351 0 -0.027537974708620256 -0.015888458870729424 0 -0.023935183081356583 -0.019360016399739957 0 -0.023187091157829812 -0.020107625653972016 0 -0.029555470323718167 -0.015801399332683506 0 -0.029419651417510163 -0.015748335360011648 0 -0.029638929376718859 -0.015748938426380001 0 -0.023935183081356583 -0.019360016399739957 0 -0.028210226798710332 -0.016846545135236528 0 -0.015409142980386406 -0.024567957006303844 0 -0.017476483029415641 -0.025588779753329891 0 -0.016788044392015696 -0.02329163160748866 0 -0.028472850777535107 -0.016574369762837351 0 -0.027537974708620256 -0.015888458870729424 0 -0.028508692125382575 -0.015902439891541845 0 -0.027537974708620256 -0.015888458870729424 0 -0.028508692125382575 -0.015902439891541845 0 -0.027945634741723374 -0.015332378432145072 0 -0.028508692125382575 -0.015902439891541845 0 -0.029049025990455161 -0.015294971083530803 0 -0.02948611407020247 -0.015880236441148811 0 -0.028472850777535107 -0.016574369762837351 0 -0.028508692125382575 -0.015902439891541845 0 -0.02948611407020247 -0.015880236441148811 0 -0.027945634741723374 -0.015332378432145072 0 -0.027661824181527919 -0.015419744810057253 0 -0.025929008985280663 -0.015945324207207054 0 -0.027945634741723374 -0.015332378432145072 0 -0.029652932477723687 -0.012613875604968345 0 -0.029491710123789094 -0.01426288717001753 0 -0.029049025990455161 -0.015294971083530803 0 -0.027945634741723374 -0.015332378432145072 0 -0.029491710123789094 -0.01426288717001753 0 -0.028508692125382575 -0.015902439891541845 0 -0.029049025990455161 -0.015294971083530803 0 -0.027945634741723374 -0.015332378432145072 0 -0.023187091157829812 -0.020107625653972016 0 -0.0235825013712034 -0.018729540113943618 0 -0.027537974708620256 -0.015888458870729424 0 -0.027945634741723374 -0.015332378432145072 0 -0.027661824181527919 -0.015419744810057253 0 -0.017476483029415641 -0.025588779753329891 0 -0.019244939533672994 -0.022331696982436075 0 -0.016788044392015696 -0.02329163160748866 0 -0.019244939533672994 -0.022331696982436075 0 -0.016788044392015696 -0.02329163160748866 0 -0.016963686276132341 -0.021675630874569991 0 -0.016963686276132341 -0.021675630874569991 0 -0.017748047452348193 -0.019890709636398159 0 -0.018439451960117592 -0.021248888832755285 0 -0.016963686276132341 -0.021675630874569991 0 -0.017748047452348193 -0.019890709636398159 0 -0.015129731218997329 -0.020147076210402536 0 -0.017748047452348193 -0.019890709636398159 0 -0.018439451960117592 -0.021248888832755285 0 -0.019400027585132817 -0.020166851792846878 0 -0.019244939533672994 -0.022331696982436075 0 -0.018439451960117592 -0.021248888832755285 0 -0.019400027585132817 -0.020166851792846878 0 -0.019244939533672994 -0.022331696982436075 0 -0.016963686276132341 -0.021675630874569991 0 -0.018439451960117592 -0.021248888832755285 0 -0.027661824181527919 -0.015419744810057253 0 -0.025924677059208461 -0.016143220581071076 0 -0.025929008985280663 -0.015945324207207054 0 -0.027773839875830431 -0.015089676473393781 0 -0.028021425330200876 -0.014497774130103832 0 -0.0235825013712034 -0.018729540113943618 0 -0.024073618159299578 -0.017288902263029746 0 -0.019244939533672994 -0.022331696982436075 0 -0.019400027585132817 -0.020166851792846878 0 -0.021374570119213541 -0.019297282553333704 0 -0.012105945937560255 -0.023451274336211241 0 -0.012595375211939944 -0.0206173007283782 0 -0.0088935685901995777 -0.021886935010912139 0 -0.012105945937560255 -0.023451274336211241 0 -0.014754625926726009 -0.022264764290761217 0 -0.012595375211939944 -0.0206173007283782 0 -0.015409142980386406 -0.024567957006303844 0 -0.012105945937560255 -0.023451274336211241 0 -0.014754625926726009 -0.022264764290761217 0 -0.015409142980386406 -0.024567957006303844 0 -0.016788044392015696 -0.02329163160748866 0 -0.014754625926726009 -0.022264764290761217 0 -0.016788044392015696 -0.02329163160748866 0 -0.016963686276132341 -0.021675630874569991 0 -0.014754625926726009 -0.022264764290761217 0 -0.015129731218997329 -0.020147076210402536 0 -0.012595375211939944 -0.0206173007283782 0 -0.013925160882819197 -0.017899377314266288 0 -0.014754625926726009 -0.022264764290761217 0 -0.015129731218997329 -0.020147076210402536 0 -0.012595375211939944 -0.0206173007283782 0 -0.016963686276132341 -0.021675630874569991 0 -0.014754625926726009 -0.022264764290761217 0 -0.015129731218997329 -0.020147076210402536 0 -0.012595375211939944 -0.0206173007283782 0 -0.013925160882819197 -0.017899377314266288 0 -0.010665775177615518 -0.018171627316989895 0 -0.011976341697285658 -0.015933153813902617 0 -0.013925160882819197 -0.017899377314266288 0 -0.010665775177615518 -0.018171627316989895 0 -0.011976341697285658 -0.015933153813902617 0 -0.011344236736690425 -0.013752538794571178 0 -0.014782051625506575 -0.014409256955329446 0 -0.011976341697285658 -0.015933153813902617 0 -0.013925160882819197 -0.017899377314266288 0 -0.014782051625506575 -0.014409256955329446 0 -0.013925160882819197 -0.017899377314266288 0 -0.016832380885476807 -0.017704146921170043 0 -0.014782051625506575 -0.014409256955329446 0 -0.016832380885476807 -0.017704146921170043 0 -0.017944025003971673 -0.015738038983437754 0 -0.014782051625506575 -0.014409256955329446 0 -0.015129731218997329 -0.020147076210402536 0 -0.013925160882819197 -0.017899377314266288 0 -0.016832380885476807 -0.017704146921170043 0 -0.017748047452348193 -0.019890709636398159 0 -0.015129731218997329 -0.020147076210402536 0 -0.016832380885476807 -0.017704146921170043 0 -0.017748047452348193 -0.019890709636398159 0 -0.019102880878592993 -0.018697942888608866 0 -0.016832380885476807 -0.017704146921170043 0 -0.017748047452348193 -0.019890709636398159 0 -0.019400027585132817 -0.020166851792846878 0 -0.019102880878592993 -0.018697942888608866 0 -0.019102880878592993 -0.018697942888608866 0 -0.016832380885476807 -0.017704146921170043 0 -0.019241396712057199 -0.017030639570650975 0 -0.019400027585132817 -0.020166851792846878 0 -0.019102880878592993 -0.018697942888608866 0 -0.020091311911517175 -0.019049233768110078 0 -0.019400027585132817 -0.020166851792846878 0 -0.021374570119213541 -0.019297282553333704 0 -0.020091311911517175 -0.019049233768110078 0 -0.021374570119213541 -0.019297282553333704 0 -0.020091311911517175 -0.019049233768110078 0 -0.020477768319117285 -0.017993148143523742 0 -0.019102880878592993 -0.018697942888608866 0 -0.020091311911517175 -0.019049233768110078 0 -0.020477768319117285 -0.017993148143523742 0 -0.019102880878592993 -0.018697942888608866 0 -0.020477768319117285 -0.017993148143523742 0 -0.019241396712057199 -0.017030639570650975 0 -0.021374570119213541 -0.019297282553333704 0 -0.020477768319117285 -0.017993148143523742 0 -0.021994713888133059 -0.017029347786344969 0 -0.021374570119213541 -0.019297282553333704 0 -0.021994713888133059 -0.017029347786344969 0 -0.024443550436184923 -0.015764977353806723 0 -0.021994713888133059 -0.017029347786344969 0 -0.021047554883263698 -0.01650435167318208 0 -0.022220110795663248 -0.015340960462007915 0 -0.020477768319117285 -0.017993148143523742 0 -0.021047554883263698 -0.01650435167318208 0 -0.019241396712057199 -0.017030639570650975 0 -0.021047554883263698 -0.01650435167318208 0 -0.020192328339951094 -0.01539472369067809 0 -0.019241396712057199 -0.017030639570650975 0 -0.020477768319117285 -0.017993148143523742 0 -0.021994713888133059 -0.017029347786344969 0 -0.021047554883263698 -0.01650435167318208 0 -0.021047554883263698 -0.01650435167318208 0 -0.020192328339951094 -0.01539472369067809 0 -0.022220110795663248 -0.015340960462007915 0 -0.020192328339951094 -0.01539472369067809 0 -0.022220110795663248 -0.015340960462007915 0 -0.021786703772199104 -0.013786106633673162 0 -0.021994713888133059 -0.017029347786344969 0 -0.022220110795663248 -0.015340960462007915 0 -0.024443550436184923 -0.015764977353806723 0 -0.017944025003971673 -0.015738038983437754 0 -0.018919531032419556 -0.013795769847363776 0 -0.014782051625506575 -0.014409256955329446 0 -0.016832380885476807 -0.017704146921170043 0 -0.019241396712057199 -0.017030639570650975 0 -0.017944025003971673 -0.015738038983437754 0 -0.020192328339951094 -0.01539472369067809 0 -0.019241396712057199 -0.017030639570650975 0 -0.017944025003971673 -0.015738038983437754 0 -0.020192328339951094 -0.01539472369067809 0 -0.017944025003971673 -0.015738038983437754 0 -0.018919531032419556 -0.013795769847363776 0 -0.017167947039729736 -0.012010518446562183 0 -0.018919531032419556 -0.013795769847363776 0 -0.021674511915217222 -0.010866397448075276 0 -0.017167947039729736 -0.012010518446562183 0 -0.018919531032419556 -0.013795769847363776 0 -0.014782051625506575 -0.014409256955329446 0 -0.018919531032419556 -0.013795769847363776 0 -0.021786703772199104 -0.013786106633673162 0 -0.021674511915217222 -0.010866397448075276 0 -0.021786703772199104 -0.013786106633673162 0 -0.021674511915217222 -0.010866397448075276 0 -0.024891603595253903 -0.012881217132767773 0 -0.022220110795663248 -0.015340960462007915 0 -0.021786703772199104 -0.013786106633673162 0 -0.023836485297530054 -0.014538129694925763 0 -0.020192328339951094 -0.01539472369067809 0 -0.018919531032419556 -0.013795769847363776 0 -0.021786703772199104 -0.013786106633673162 0 -0.017167947039729736 -0.012010518446562183 0 -0.015028537735456074 -0.01011994705870977 0 -0.018463728238381796 -0.0079854395890339748 0 -0.017167947039729736 -0.012010518446562183 0 -0.021674511915217222 -0.010866397448075276 0 -0.018463728238381796 -0.0079854395890339748 0 -0.015028537735456074 -0.01011994705870977 0 -0.011598770161455853 -0.011116669046573911 0 -0.014782051625506575 -0.014409256955329446 0 -0.015028537735456074 -0.01011994705870977 0 -0.011598770161455853 -0.011116669046573911 0 -0.014657552140362892 -0.0060361159916186144 0 -0.011598770161455853 -0.011116669046573911 0 -0.011344236736690425 -0.013752538794571178 0 -0.014782051625506575 -0.014409256955329446 0 -0.017167947039729736 -0.012010518446562183 0 -0.015028537735456074 -0.01011994705870977 0 -0.014782051625506575 -0.014409256955329446 0 -0.033401211391423886 -0.010003514176241698 0 -0.033641289662281817 -0.0092708923349081249 0 -0.032496134990676467 -0.0091878799159659172 0 -0.034324105520320211 -0.0099300321639305238 0 -0.034439000481498581 -0.0092245462705939207 0 -0.033641289662281817 -0.0092708923349081249 0 -0.033401211391423886 -0.010003514176241698 0 -0.034324105520320211 -0.0099300321639305238 0 -0.033641289662281817 -0.0092708923349081249 0 -0.033401211391423886 -0.010003514176241698 0 -0.034324105520320211 -0.0099300321639305238 0 -0.03434627132898526 -0.010847204295769278 0 -0.034324105520320211 -0.0099300321639305238 0 -0.035190503837742873 -0.010152965364070789 0 -0.03434627132898526 -0.010847204295769278 0 -0.034324105520320211 -0.0099300321639305238 0 -0.035190503837742873 -0.010152965364070789 0 -0.035192598748577435 -0.0095277817497896756 0 -0.035190503837742873 -0.010152965364070789 0 -0.035192598748577435 -0.0095277817497896756 0 -0.035984030136727949 -0.0096399940553921325 0 -0.034324105520320211 -0.0099300321639305238 0 -0.035192598748577435 -0.0095277817497896756 0 -0.034439000481498581 -0.0092245462705939207 0 -0.035192598748577435 -0.0095277817497896756 0 -0.034439000481498581 -0.0092245462705939207 0 -0.035026539645288256 -0.0087811097994003016 0 -0.034439000481498581 -0.0092245462705939207 0 -0.035026539645288256 -0.0087811097994003016 0 -0.034230901028943987 -0.0086853898370679271 0 -0.035192598748577435 -0.0095277817497896756 0 -0.035026539645288256 -0.0087811097994003016 0 -0.035680717289207881 -0.0090502896811734315 0 -0.035026539645288256 -0.0087811097994003016 0 -0.03529536393784026 -0.008152907156923064 0 -0.034714165667673692 -0.0082441692518863269 0 -0.035026539645288256 -0.0087811097994003016 0 -0.035592631078178068 -0.0085804073997093749 0 -0.03529536393784026 -0.008152907156923064 0 -0.035026539645288256 -0.0087811097994003016 0 -0.035592631078178068 -0.0085804073997093749 0 -0.035680717289207881 -0.0090502896811734315 0 -0.035026539645288256 -0.0087811097994003016 0 -0.034230901028943987 -0.0086853898370679271 0 -0.034714165667673692 -0.0082441692518863269 0 -0.033537713297326785 -0.0085287046610436311 0 -0.033641289662281817 -0.0092708923349081249 0 -0.032496134990676467 -0.0091878799159659172 0 -0.034230901028943987 -0.0086853898370679271 0 -0.033537713297326785 -0.0085287046610436311 0 -0.034033862434791104 -0.0079025509335182327 0 -0.033537713297326785 -0.0085287046610436311 0 -0.032496134990676467 -0.0091878799159659172 0 -0.032742471054090012 -0.0072894474734369651 0 -0.034230901028943987 -0.0086853898370679271 0 -0.033537713297326785 -0.0085287046610436311 0 -0.033641289662281817 -0.0092708923349081249 0 -0.034439000481498581 -0.0092245462705939207 0 -0.034230901028943987 -0.0086853898370679271 0 -0.033641289662281817 -0.0092708923349081249 0 -0.02841748903305576 -0.012106122230404394 0 -0.026067398655094717 -0.010096596894358252 0 -0.028626556237178684 -0.0083578327029735205 0 -0.030380487158346479 -0.010336798933577166 0 -0.031386010621926419 -0.008555806570022112 0 -0.02841748903305576 -0.012106122230404394 0 -0.026067398655094717 -0.010096596894358252 0 -0.024891603595253903 -0.012881217132767773 0 -0.021674511915217222 -0.010866397448075276 0 -0.026067398655094717 -0.010096596894358252 0 -0.024984412746539873 -0.0076034725528235005 0 -0.021674511915217222 -0.010866397448075276 0 -0.026067398655094717 -0.010096596894358252 0 -0.024891603595253903 -0.012881217132767773 0 -0.02841748903305576 -0.012106122230404394 0 -0.024891603595253903 -0.012881217132767773 0 -0.025130956425546341 -0.016120690570276968 0 -0.024891603595253903 -0.012881217132767773 0 -0.023836485297530054 -0.014538129694925763 0 -0.025130956425546341 -0.016120690570276968 0 -0.021786703772199104 -0.013786106633673162 0 -0.024891603595253903 -0.012881217132767773 0 -0.023836485297530054 -0.014538129694925763 0 -0.030380487158346479 -0.010336798933577166 0 -0.028857735012209073 -0.012959709462766797 0 -0.032496134990676467 -0.0091878799159659172 0 -0.032440458966003283 -0.010391071972901421 0 -0.031364517791173413 -0.010638329661906806 0 -0.033401211391423886 -0.010003514176241698 0 -0.032496134990676467 -0.0091878799159659172 0 -0.032440458966003283 -0.010391071972901421 0 -0.033401211391423886 -0.010003514176241698 0 -0.032440458966003283 -0.010391071972901421 0 -0.032884875886957439 -0.011106307383477435 0 -0.032440458966003283 -0.010391071972901421 0 -0.032036154558409469 -0.01118799406257852 0 -0.031364517791173413 -0.010638329661906806 0 -0.032440458966003283 -0.010391071972901421 0 -0.032036154558409469 -0.01118799406257852 0 -0.032884875886957439 -0.011106307383477435 0 -0.025924677059208461 -0.016143220581071076 0 -0.024443550436184923 -0.015764977353806723 0 -0.025130956425546341 -0.016120690570276968 0 -0.023836485297530054 -0.014538129694925763 0 -0.024443550436184923 -0.015764977353806723 0 -0.025130956425546341 -0.016120690570276968 0 -0.022220110795663248 -0.015340960462007915 0 -0.023836485297530054 -0.014538129694925763 0 -0.024443550436184923 -0.015764977353806723 0 -0.025924677059208461 -0.016143220581071076 0 -0.025130956425546341 -0.016120690570276968 0 -0.025929008985280663 -0.015945324207207054 0 -0.024073618159299578 -0.017288902263029746 0 -0.024395161017455494 -0.016441624001003873 0 -0.031364517791173413 -0.010638329661906806 0 -0.031339955519221217 -0.011961003285669927 0 -0.029652932477723687 -0.012613875604968345 0 -0.028857735012209073 -0.012959709462766797 0 -0.028021425330200876 -0.014497774130103832 0 -0.032036154558409469 -0.01118799406257852 0 -0.031364517791173413 -0.010638329661906806 0 -0.031339955519221217 -0.011961003285669927 0 -0.032884875886957439 -0.011106307383477435 0 -0.032294446087256963 -0.01189322946605367 0 -0.032978064664560422 -0.011969005958179891 0 -0.032036154558409469 -0.01118799406257852 0 -0.032884875886957439 -0.011106307383477435 0 -0.032294446087256963 -0.01189322946605367 0 -0.032036154558409469 -0.01118799406257852 0 -0.031339955519221217 -0.011961003285669927 0 -0.032294446087256963 -0.01189322946605367 0 -0.031339955519221217 -0.011961003285669927 0 -0.032294446087256963 -0.01189322946605367 0 -0.031813479352073806 -0.01268207710937015 0 -0.032294446087256963 -0.01189322946605367 0 -0.032823793546658077 -0.012553704101174479 0 -0.031813479352073806 -0.01268207710937015 0 -0.032294446087256963 -0.01189322946605367 0 -0.032978064664560422 -0.011969005958179891 0 -0.032823793546658077 -0.012553704101174479 0 -0.032978064664560422 -0.011969005958179891 0 -0.033616876963588276 -0.011731570636510149 0 -0.033595121766320978 -0.012432471883192148 0 -0.032978064664560422 -0.011969005958179891 0 -0.033595121766320978 -0.012432471883192148 0 -0.032823793546658077 -0.012553704101174479 0 -0.033616876963588276 -0.011731570636510149 0 -0.034407333928033329 -0.011637500831801833 0 -0.034380329565830356 -0.0122671972868142 0 -0.033616876963588276 -0.011731570636510149 0 -0.034380329565830356 -0.0122671972868142 0 -0.033595121766320978 -0.012432471883192148 0 -0.033616876963588276 -0.011731570636510149 0 -0.03434627132898526 -0.010847204295769278 0 -0.034407333928033329 -0.011637500831801833 0 -0.032884875886957439 -0.011106307383477435 0 -0.032978064664560422 -0.011969005958179891 0 -0.033616876963588276 -0.011731570636510149 0 -0.033401211391423886 -0.010003514176241698 0 -0.032884875886957439 -0.011106307383477435 0 -0.03434627132898526 -0.010847204295769278 0 -0.032884875886957439 -0.011106307383477435 0 -0.033616876963588276 -0.011731570636510149 0 -0.03434627132898526 -0.010847204295769278 0 -0.03434627132898526 -0.010847204295769278 0 -0.035225293253811685 -0.011525616211802009 0 -0.035569702385794266 -0.010776522158363664 0 -0.035190503837742873 -0.010152965364070789 0 -0.03434627132898526 -0.010847204295769278 0 -0.035569702385794266 -0.010776522158363664 0 -0.03434627132898526 -0.010847204295769278 0 -0.035225293253811685 -0.011525616211802009 0 -0.034407333928033329 -0.011637500831801833 0 -0.035225293253811685 -0.011525616211802009 0 -0.034407333928033329 -0.011637500831801833 0 -0.034380329565830356 -0.0122671972868142 0 -0.035225293253811685 -0.011525616211802009 0 -0.034380329565830356 -0.0122671972868142 0 -0.035154867856883584 -0.012444343511167322 0 -0.035225293253811685 -0.011525616211802009 0 -0.035154867856883584 -0.012444343511167322 0 -0.035830084249161086 -0.012252876809611854 0 -0.035154867856883584 -0.012444343511167322 0 -0.035704852824677349 -0.012978652039873783 0 -0.034621356641783597 -0.012964312987411606 0 -0.035154867856883584 -0.012444343511167322 0 -0.035704852824677349 -0.012978652039873783 0 -0.035830084249161086 -0.012252876809611854 0 -0.035704852824677349 -0.012978652039873783 0 -0.034621356641783597 -0.012964312987411606 0 -0.034262580826966836 -0.013807131734550858 0 -0.034380329565830356 -0.0122671972868142 0 -0.035154867856883584 -0.012444343511167322 0 -0.034621356641783597 -0.012964312987411606 0 -0.034380329565830356 -0.0122671972868142 0 -0.033595121766320978 -0.012432471883192148 0 -0.03369854114606205 -0.013185040818051321 0 -0.034380329565830356 -0.0122671972868142 0 -0.034621356641783597 -0.012964312987411606 0 -0.03369854114606205 -0.013185040818051321 0 -0.032823793546658077 -0.012553704101174479 0 -0.03369854114606205 -0.013185040818051321 0 -0.03241240755690436 -0.013453799610244396 0 -0.033595121766320978 -0.012432471883192148 0 -0.032823793546658077 -0.012553704101174479 0 -0.03369854114606205 -0.013185040818051321 0 -0.03369854114606205 -0.013185040818051321 0 -0.033090641741544378 -0.014286384955150642 0 -0.03241240755690436 -0.013453799610244396 0 -0.03369854114606205 -0.013185040818051321 0 -0.034262580826966836 -0.013807131734550858 0 -0.033090641741544378 -0.014286384955150642 0 -0.034621356641783597 -0.012964312987411606 0 -0.03369854114606205 -0.013185040818051321 0 -0.034262580826966836 -0.013807131734550858 0 -0.034262580826966836 -0.013807131734550858 0 -0.033090641741544378 -0.014286384955150642 0 -0.034396808778078297 -0.015157963746072841 0 -0.033090641741544378 -0.014286384955150642 0 -0.034396808778078297 -0.015157963746072841 0 -0.032168519318981743 -0.015633037729516602 0 -0.034024745848264544 -0.014171333128625615 0 -0.031746828026530921 -0.014905597716934086 0 -0.035704852824677349 -0.012978652039873783 0 -0.034262580826966836 -0.013807131734550858 0 -0.034396808778078297 -0.015157963746072841 0 -0.036207116410996568 -0.013344702796347316 0 -0.036763267688781257 -0.013725929170955485 0 -0.036944452500395283 -0.013260063232597924 0 -0.035704852824677349 -0.012978652039873783 0 -0.034942883494426612 -0.014093568876703197 0 -0.03602856961358368 -0.013906208441940371 0 -0.034024745848264544 -0.014171333128625615 0 -0.035572580870971947 -0.013850491046730671 0 -0.034527145984317262 -0.013707518665394833 0 -0.034024745848264544 -0.014171333128625615 0 -0.029652932477723687 -0.012613875604968345 0 -0.030307940199128851 -0.013498952033148083 0 -0.029491710123789094 -0.01426288717001753 0 -0.030307940199128851 -0.013498952033148083 0 -0.030338089152445614 -0.014143963150231198 0 -0.029491710123789094 -0.01426288717001753 0 -0.029652932477723687 -0.012613875604968345 0 -0.030810408826364377 -0.01285860217550998 0 -0.030307940199128851 -0.013498952033148083 0 -0.031339955519221217 -0.011961003285669927 0 -0.029652932477723687 -0.012613875604968345 0 -0.030810408826364377 -0.01285860217550998 0 -0.030307940199128851 -0.013498952033148083 0 -0.031187217340356784 -0.013676535465089585 0 -0.030338089152445614 -0.014143963150231198 0 -0.030810408826364377 -0.01285860217550998 0 -0.030307940199128851 -0.013498952033148083 0 -0.031187217340356784 -0.013676535465089585 0 -0.031187217340356784 -0.013676535465089585 0 -0.03241240755690436 -0.013453799610244396 0 -0.031815999283621998 -0.014433586903638274 0 -0.031187217340356784 -0.013676535465089585 0 -0.031813479352073806 -0.01268207710937015 0 -0.03241240755690436 -0.013453799610244396 0 -0.031339955519221217 -0.011961003285669927 0 -0.030810408826364377 -0.01285860217550998 0 -0.031813479352073806 -0.01268207710937015 0 -0.030810408826364377 -0.01285860217550998 0 -0.031187217340356784 -0.013676535465089585 0 -0.031813479352073806 -0.01268207710937015 0 -0.032823793546658077 -0.012553704101174479 0 -0.031813479352073806 -0.01268207710937015 0 -0.03241240755690436 -0.013453799610244396 0 -0.033090641741544378 -0.014286384955150642 0 -0.03241240755690436 -0.013453799610244396 0 -0.031815999283621998 -0.014433586903638274 0 -0.033090641741544378 -0.014286384955150642 0 -0.031815999283621998 -0.014433586903638274 0 -0.032168519318981743 -0.015633037729516602 0 -0.031815999283621998 -0.014433586903638274 0 -0.030534884523042004 -0.014878850780594678 0 -0.032168519318981743 -0.015633037729516602 0 -0.031187217340356784 -0.013676535465089585 0 -0.031815999283621998 -0.014433586903638274 0 -0.030534884523042004 -0.014878850780594678 0 -0.030534884523042004 -0.014878850780594678 0 -0.02948611407020247 -0.015880236441148811 0 -0.032168519318981743 -0.015633037729516602 0 -0.031187217340356784 -0.013676535465089585 0 -0.030338089152445614 -0.014143963150231198 0 -0.030534884523042004 -0.014878850780594678 0 -0.030338089152445614 -0.014143963150231198 0 -0.030534884523042004 -0.014878850780594678 0 -0.029781740590647747 -0.014906812816035972 0 -0.029049025990455161 -0.015294971083530803 0 -0.029781740590647747 -0.014906812816035972 0 -0.02948611407020247 -0.015880236441148811 0 -0.030534884523042004 -0.014878850780594678 0 -0.029781740590647747 -0.014906812816035972 0 -0.02948611407020247 -0.015880236441148811 0 -0.029049025990455161 -0.015294971083530803 0 -0.029781740590647747 -0.014906812816035972 0 -0.029491710123789094 -0.01426288717001753 0 -0.030338089152445614 -0.014143963150231198 0 -0.029781740590647747 -0.014906812816035972 0 -0.029491710123789094 -0.01426288717001753 0 -0.030910368083229906 -0.015149055859103555 0 -0.031746828026530921 -0.014905597716934086 0 -0.028210226798710332 -0.016846545135236528 0 -0.029109277506461223 -0.016312552525708714 0 -0.028472850777535107 -0.016574369762837351 0 -0.02948611407020247 -0.015880236441148811 0 -0.029808222552807861 -0.015808528965491467 0 -0.02948611407020247 -0.015880236441148811 0 -0.029808222552807861 -0.015808528965491467 0 -0.030098568370735299 -0.015634152809186043 0 -0.029638929376718859 -0.015748938426380001 0 -0.029808222552807861 -0.015808528965491467 0 -0.02976783265274777 -0.015801878856537742 0 -0.029808222552807861 -0.015808528965491467 0 -0.02976783265274777 -0.015801878856537742 0 -0.029878061846941424 -0.015819387902411174 0 -0.029878061846941424 -0.015819387902411174 0 -0.030098568370735299 -0.015634152809186043 0 -0.030045619580881595 -0.015861623379391947 0 -0.029808222552807861 -0.015808528965491467 0 -0.029878061846941424 -0.015819387902411174 0 -0.030098568370735299 -0.015634152809186043 0 -0.029878061846941424 -0.015819387902411174 0 -0.030045619580881595 -0.015861623379391947 0 -0.029774668764830248 -0.015837642489085924 0 -0.029781078495599408 -0.015914292624726482 0 -0.030045619580881595 -0.015861623379391947 0 -0.029774668764830248 -0.015837642489085924 0 -0.032285442554456298 -0.015524351335978744 0 -0.032951926541777178 -0.015032791669130772 0 -0.029638929376718859 -0.015748938426380001 0 -0.02976783265274777 -0.015801878856537742 0 -0.029774668764830248 -0.015837642489085924 0 -0.02976783265274777 -0.015801878856537742 0 -0.029878061846941424 -0.015819387902411174 0 -0.029774668764830248 -0.015837642489085924 0 -0.029729263579197633 -0.015863035915094834 0 -0.029670508285512841 -0.015823750758703518 0 -0.029774668764830248 -0.015837642489085924 0 -0.036207116410996568 -0.013344702796347316 0 -0.036763267688781257 -0.013725929170955485 0 -0.036354642083690429 -0.014210152841800324 0 -0.036763267688781257 -0.013725929170955485 0 -0.036354642083690429 -0.014210152841800324 0 -0.037237970322579403 -0.014299276330370023 0 -0.036207116410996568 -0.013344702796347316 0 -0.03545681582177506 -0.014287880127340365 0 -0.036354642083690429 -0.014210152841800324 0 -0.034024745848264544 -0.014171333128625615 0 -0.032951926541777178 -0.015032791669130772 0 -0.030346204603347401 -0.015588558970563625 0 -0.030098568370735299 -0.015634152809186043 0 -0.030045619580881595 -0.015861623379391947 0 -0.035626399843411004 -0.014963066283755249 0 -0.03545681582177506 -0.014287880127340365 0 -0.036038658115038133 -0.014677572206441929 0 -0.03545681582177506 -0.014287880127340365 0 -0.036038658115038133 -0.014677572206441929 0 -0.036354642083690429 -0.014210152841800324 0 -0.0364318068965096 -0.015093361363726531 0 -0.036038658115038133 -0.014677572206441929 0 -0.036354642083690429 -0.014210152841800324 0 -0.0364318068965096 -0.015093361363726531 0 -0.036354642083690429 -0.014210152841800324 0 -0.037237970322579403 -0.014299276330370023 0 -0.035930511776383074 -0.014213967249617387 0 -0.03684983466510508 -0.013771289728707387 0 -0.036763267688781257 -0.013725929170955485 0 -0.037237970322579403 -0.014299276330370023 0 -0.037282189289139435 -0.013570197233539269 0 -0.036763267688781257 -0.013725929170955485 0 -0.037282189289139435 -0.013570197233539269 0 -0.036944452500395283 -0.013260063232597924 0 -0.037444131355510363 -0.013272303538165711 0 -0.037964194061809134 -0.013431118552497881 0 -0.038061181131119684 -0.013488118413392865 0 -0.037237970322579403 -0.014299276330370023 0 -0.037282189289139435 -0.013570197233539269 0 -0.037964194061809134 -0.013431118552497881 0 -0.03684983466510508 -0.013771289728707387 0 -0.037237601981976134 -0.013554809346035058 0 -0.037972731669371942 -0.013693866059449347 0 -0.037444131355510363 -0.013272303538165711 0 -0.038061181131119684 -0.013488118413392865 0 -0.038352927977396395 -0.013741189472041979 0 -0.037972731669371942 -0.013693866059449347 0 -0.038061181131119684 -0.013488118413392865 0 -0.038352927977396395 -0.013741189472041979 0 -0.038061181131119684 -0.013488118413392865 0 -0.038388610777270828 -0.01343689845757182 0 -0.043143717477728299 -0.01166250422975988 0 -0.042367119720805896 -0.011338552943857464 0 -0.037964194061809134 -0.013431118552497881 0 -0.038061181131119684 -0.013488118413392865 0 -0.038388610777270828 -0.01343689845757182 0 -0.037964194061809134 -0.013431118552497881 0 -0.038727100965451275 -0.012964868296600126 0 -0.038094870392079955 -0.012868244686840398 0 -0.037964194061809134 -0.013431118552497881 0 -0.038388610777270828 -0.01343689845757182 0 -0.038727100965451275 -0.012964868296600126 0 -0.042367119720805896 -0.011338552943857464 0 -0.04141936466197188 -0.01032119439250366 0 -0.046754835327568398 -0.010990002390441381 0 -0.043959391662339087 -0.0097392765061044741 0 -0.046369202163586955 -0.0099991875631242934 0 -0.043959391662339087 -0.0097392765061044741 0 -0.043728717726538836 -0.0083142958860485897 0 -0.046369202163586955 -0.0099991875631242934 0 -0.04141936466197188 -0.01032119439250366 0 -0.040529423719674308 -0.008836825198694151 0 -0.043959391662339087 -0.0097392765061044741 0 -0.043728717726538836 -0.0083142958860485897 0 -0.041208122744133713 -0.0071760920425927499 0 -0.038727100965451275 -0.012964868296600126 0 -0.038526994418223617 -0.012099481479890916 0 -0.038094870392079955 -0.012868244686840398 0 -0.038727100965451275 -0.012964868296600126 0 -0.038526994418223617 -0.012099481479890916 0 -0.039266235387549128 -0.011195776681611645 0 -0.038526994418223617 -0.012099481479890916 0 -0.038094870392079955 -0.012868244686840398 0 -0.037784489198158751 -0.01209718737138585 0 -0.038094870392079955 -0.012868244686840398 0 -0.037588059761334711 -0.01279718191555528 0 -0.037784489198158751 -0.01209718737138585 0 -0.037588059761334711 -0.01279718191555528 0 -0.037784489198158751 -0.01209718737138585 0 -0.036916717373385623 -0.012786907853051289 0 -0.037588059761334711 -0.01279718191555528 0 -0.036916717373385623 -0.012786907853051289 0 -0.037541632903709113 -0.013294851644398255 0 -0.037784489198158751 -0.01209718737138585 0 -0.036904076855414296 -0.012042967688658352 0 -0.036916717373385623 -0.012786907853051289 0 -0.036904076855414296 -0.012042967688658352 0 -0.036280650081874394 -0.012707362064965614 0 -0.036916717373385623 -0.012786907853051289 0 -0.035704852824677349 -0.012978652039873783 0 -0.036280650081874394 -0.012707362064965614 0 -0.035830084249161086 -0.012252876809611854 0 -0.036904076855414296 -0.012042967688658352 0 -0.036280650081874394 -0.012707362064965614 0 -0.035830084249161086 -0.012252876809611854 0 -0.035704852824677349 -0.012978652039873783 0 -0.036280650081874394 -0.012707362064965614 0 -0.036377104140942369 -0.013236376898194395 0 -0.036280650081874394 -0.012707362064965614 0 -0.036916717373385623 -0.012786907853051289 0 -0.036377104140942369 -0.013236376898194395 0 -0.035572580870971947 -0.013850491046730671 0 -0.036113721772319758 -0.013736720436061981 0 -0.036377104140942369 -0.013236376898194395 0 -0.03602856961358368 -0.013906208441940371 0 -0.037541632903709113 -0.013294851644398255 0 -0.037282189289139435 -0.013570197233539269 0 -0.036944452500395283 -0.013260063232597924 0 -0.037541632903709113 -0.013294851644398255 0 -0.036916717373385623 -0.012786907853051289 0 -0.036377104140942369 -0.013236376898194395 0 -0.037541632903709113 -0.013294851644398255 0 -0.035704852824677349 -0.012978652039873783 0 -0.036377104140942369 -0.013236376898194395 0 -0.03602856961358368 -0.013906208441940371 0 -0.037282189289139435 -0.013570197233539269 0 -0.037964194061809134 -0.013431118552497881 0 -0.037541632903709113 -0.013294851644398255 0 -0.037964194061809134 -0.013431118552497881 0 -0.038094870392079955 -0.012868244686840398 0 -0.037541632903709113 -0.013294851644398255 0 -0.038094870392079955 -0.012868244686840398 0 -0.037588059761334711 -0.01279718191555528 0 -0.037541632903709113 -0.013294851644398255 0 -0.049191596256701955 -0.010976421905785662 0 -0.04849353141323625 -0.010674359523654016 0 -0.048632491681786016 -0.010822802823103604 0 -0.050230102901950492 -0.0099001919848417854 0 -0.049965835872641404 -0.0096905521657797162 0 -0.051803011251736246 -0.0091617145400126089 0 -0.051131580587935266 -0.0079719140747473646 0 -0.051422735940006806 -0.0083766076223129263 0 -0.04849353141323625 -0.010674359523654016 0 -0.048632491681786016 -0.010822802823103604 0 -0.048439787491083124 -0.010793739979471102 0 -0.049191596256701955 -0.010976421905785662 0 -0.048632491681786016 -0.010822802823103604 0 -0.048782205902754124 -0.010611507403104627 0 -0.048632491681786016 -0.010822802823103604 0 -0.048439787491083124 -0.010793739979471102 0 -0.048110032620173444 -0.010542339452211192 0 -0.048439787491083124 -0.010793739979471102 0 -0.047656078470241808 -0.01084931500476837 0 -0.048110032620173444 -0.010542339452211192 0 -0.048608354604420749 -0.010547058446747496 0 -0.048439787491083124 -0.010793739979471102 0 -0.047656078470241808 -0.01084931500476837 0 -0.048608354604420749 -0.010547058446747496 0 -0.046754835327568398 -0.010990002390441381 0 -0.047656078470241808 -0.01084931500476837 0 -0.046754835327568398 -0.010990002390441381 0 -0.047656078470241808 -0.01084931500476837 0 -0.046369202163586955 -0.0099991875631242934 0 -0.047656078470241808 -0.01084931500476837 0 -0.046369202163586955 -0.0099991875631242934 0 -0.048110032620173444 -0.010542339452211192 0 -0.046369202163586955 -0.0099991875631242934 0 -0.046415176523617152 -0.0084048519282834914 0 -0.047891533096852491 -0.0091883386525197543 0 -0.043728717726538836 -0.0083142958860485897 0 -0.046369202163586955 -0.0099991875631242934 0 -0.046415176523617152 -0.0084048519282834914 0 -0.045633801391431653 -0.0099682521181187009 0 -0.044873024112661294 -0.010079396025725391 0 -0.046415176523617152 -0.0084048519282834914 0 -0.047891533096852491 -0.0091883386525197543 0 -0.047869671036471453 -0.007367091357999728 0 -0.048134344601009335 -0.010189147608334701 0 -0.048903346971071217 -0.009860938982706435 0 -0.048122741899531092 -0.0096406832891117403 0 -0.048134344601009335 -0.010189147608334701 0 -0.048110032620173444 -0.010542339452211192 0 -0.048782205902754124 -0.010611507403104627 0 -0.045633801391431653 -0.0099682521181187009 0 -0.045876699054678026 -0.010104394258978924 0 -0.046369202163586955 -0.0099991875631242934 0 -0.047891533096852491 -0.0091883386525197543 0 -0.048110032620173444 -0.010542339452211192 0 -0.048632491681786016 -0.010822802823103604 0 -0.048110032620173444 -0.010542339452211192 0 -0.048782205902754124 -0.010611507403104627 0 -0.048782205902754124 -0.010611507403104627 0 -0.048903346971071217 -0.009860938982706435 0 -0.049551744584590822 -0.010697414527546207 0 -0.048134344601009335 -0.010189147608334701 0 -0.048782205902754124 -0.010611507403104627 0 -0.048903346971071217 -0.009860938982706435 0 -0.047035999466568668 -0.011053858619712838 0 -0.048233745246557019 -0.011496296374889196 0 -0.045813140062196722 -0.013804033787683433 0 -0.048143106891625702 -0.013745192007857643 0 -0.048057223757414579 -0.012931884661735421 0 -0.048903346971071217 -0.009860938982706435 0 -0.049551744584590822 -0.010697414527546207 0 -0.050242184452841808 -0.010351737387423052 0 -0.049191596256701955 -0.010976421905785662 0 -0.048782205902754124 -0.010611507403104627 0 -0.049551744584590822 -0.010697414527546207 0 -0.046301054866249414 -0.01195787627453173 0 -0.047121754435009398 -0.012525121015843339 0 -0.047726197291619095 -0.011875401574009599 0 -0.046301054866249414 -0.01195787627453173 0 -0.047121754435009398 -0.012525121015843339 0 -0.045218294406515133 -0.012524059550233608 0 -0.045813140062196722 -0.013804033787683433 0 -0.047121754435009398 -0.012525121015843339 0 -0.048057223757414579 -0.012931884661735421 0 -0.045813140062196722 -0.013804033787683433 0 -0.047121754435009398 -0.012525121015843339 0 -0.045218294406515133 -0.012524059550233608 0 -0.045813140062196722 -0.013804033787683433 0 -0.045218294406515133 -0.012524059550233608 0 -0.044161783498197077 -0.013498227362794442 0 -0.047035999466568668 -0.011053858619712838 0 -0.044873024112661294 -0.010079396025725391 0 -0.045218294406515133 -0.012524059550233608 0 -0.043973430341372167 -0.012052544391688697 0 -0.044161783498197077 -0.013498227362794442 0 -0.042953956195768889 -0.0097208650405104235 0 -0.044873024112661294 -0.010079396025725391 0 -0.039001733090847965 -0.0077396131081907994 0 -0.038924798417438219 -0.0064811423955937527 0 -0.039740392749222128 -0.006662315335138818 0 -0.043728717726538836 -0.0083142958860485897 0 -0.046415176523617152 -0.0084048519282834914 0 -0.045458215162641959 -0.0068169966779315864 0 -0.044873024112661294 -0.010079396025725391 0 -0.043246575390209985 -0.0089139611919273436 0 -0.046415176523617152 -0.0084048519282834914 0 -0.047869671036471453 -0.007367091357999728 0 -0.045458215162641959 -0.0068169966779315864 0 -0.039001733090847965 -0.0077396131081907994 0 -0.039740392749222128 -0.006662315335138818 0 -0.039933160501630476 -0.0075499403565948029 0 -0.039001733090847965 -0.0077396131081907994 0 -0.039933160501630476 -0.0075499403565948029 0 -0.039580870188311294 -0.008009323019862442 0 -0.039001733090847965 -0.0077396131081907994 0 -0.039111133911706557 -0.0083091881379288093 0 -0.039580870188311294 -0.008009323019862442 0 -0.039111133911706557 -0.0083091881379288093 0 -0.039580870188311294 -0.008009323019862442 0 -0.039140125198177576 -0.008329395057004094 0 -0.042953956195768889 -0.0097208650405104235 0 -0.041885107351280253 -0.0093254190556754726 0 -0.043973430341372167 -0.012052544391688697 0 -0.043297174317252315 -0.011086949721052451 0 -0.044876483292154663 -0.01132895316024542 0 -0.046301054866249414 -0.01195787627453173 0 -0.045218294406515133 -0.012524059550233608 0 -0.044876483292154663 -0.01132895316024542 0 -0.045218294406515133 -0.012524059550233608 0 -0.043973430341372167 -0.012052544391688697 0 -0.044876483292154663 -0.01132895316024542 0 -0.043297174317252315 -0.011086949721052451 0 -0.044876483292154663 -0.01132895316024542 0 -0.043586560404991641 -0.010368282176844266 0 -0.044876483292154663 -0.01132895316024542 0 -0.045341352445369965 -0.010609769767314287 0 -0.046726154254664351 -0.011216690503619986 0 -0.046301054866249414 -0.01195787627453173 0 -0.044876483292154663 -0.01132895316024542 0 -0.046726154254664351 -0.011216690503619986 0 -0.03869122133622329 -0.010090627979414464 0 -0.037352106376530969 -0.0097099718795495091 0 -0.039610037874289197 -0.0082293390281818011 0 -0.03869122133622329 -0.010090627979414464 0 -0.037352106376530969 -0.0097099718795495091 0 -0.038364970176805721 -0.01113304928802286 0 -0.035225293253811685 -0.011525616211802009 0 -0.035569702385794266 -0.010776522158363664 0 -0.036504621573789656 -0.010994247305708832 0 -0.035569702385794266 -0.010776522158363664 0 -0.036504621573789656 -0.010994247305708832 0 -0.036287150890290019 -0.010148941876148914 0 -0.036904076855414296 -0.012042967688658352 0 -0.035830084249161086 -0.012252876809611854 0 -0.037352106376530969 -0.0097099718795495091 0 -0.035225293253811685 -0.011525616211802009 0 -0.035830084249161086 -0.012252876809611854 0 -0.036504621573789656 -0.010994247305708832 0 -0.036613266171670912 -0.011227087451155991 0 -0.037165541372171158 -0.010379166541598166 0 -0.036904076855414296 -0.012042967688658352 0 -0.037352106376530969 -0.0097099718795495091 0 -0.037619568143113964 -0.011280383901818973 0 -0.037784489198158751 -0.01209718737138585 0 -0.036904076855414296 -0.012042967688658352 0 -0.037619568143113964 -0.011280383901818973 0 -0.037784489198158751 -0.01209718737138585 0 -0.037619568143113964 -0.011280383901818973 0 -0.038364970176805721 -0.01113304928802286 0 -0.037352106376530969 -0.0097099718795495091 0 -0.037619568143113964 -0.011280383901818973 0 -0.038364970176805721 -0.01113304928802286 0 -0.038526994418223617 -0.012099481479890916 0 -0.037784489198158751 -0.01209718737138585 0 -0.038364970176805721 -0.01113304928802286 0 -0.038526994418223617 -0.012099481479890916 0 -0.038364970176805721 -0.01113304928802286 0 -0.039266235387549128 -0.011195776681611645 0 -0.03869122133622329 -0.010090627979414464 0 -0.038364970176805721 -0.01113304928802286 0 -0.039266235387549128 -0.011195776681611645 0 -0.039740392749222128 -0.006662315335138818 0 -0.041472581369824436 -0.006961433049452047 0 -0.039933160501630476 -0.0075499403565948029 0 -0.043728717726538836 -0.0083142958860485897 0 -0.045458215162641959 -0.0068169966779315864 0 -0.041472581369824436 -0.006961433049452047 0 -0.043246575390209985 -0.0089139611919273436 0 -0.042741986906799118 -0.0085788472579035619 0 -0.043728717726538836 -0.0083142958860485897 0 -0.041208122744133713 -0.0071760920425927499 0 -0.041472581369824436 -0.006961433049452047 0 -0.039933160501630476 -0.0075499403565948029 0 -0.040395172200713446 -0.0077124012721272502 0 -0.039580870188311294 -0.008009323019862442 0 -0.041472581369824436 -0.006961433049452047 0 -0.039933160501630476 -0.0075499403565948029 0 -0.040395172200713446 -0.0077124012721272502 0 -0.03869122133622329 -0.010090627979414464 0 -0.039266235387549128 -0.011195776681611645 0 -0.039610037874289197 -0.0082293390281818011 0 -0.041208122744133713 -0.0071760920425927499 0 -0.040395172200713446 -0.0077124012721272502 0 -0.039610037874289197 -0.0082293390281818011 0 -0.041208122744133713 -0.0071760920425927499 0 -0.041472581369824436 -0.006961433049452047 0 -0.040395172200713446 -0.0077124012721272502 0 -0.040529423719674308 -0.008836825198694151 0 -0.04014622796981502 -0.0081247205087296524 0 -0.040395172200713446 -0.0077124012721272502 0 -0.039684791359854699 -0.0079454503453138398 0 -0.039610037874289197 -0.0082293390281818011 0 -0.039684791359854699 -0.0079454503453138398 0 -0.039582489968993197 -0.0076719548329017718 0 -0.039610037874289197 -0.0082293390281818011 0 -0.040395172200713446 -0.0077124012721272502 0 -0.039684791359854699 -0.0079454503453138398 0 -0.039580870188311294 -0.008009323019862442 0 -0.039684791359854699 -0.0079454503453138398 0 -0.038778730021851088 -0.0082582086807335316 0 -0.039140125198177576 -0.008329395057004094 0 -0.039684791359854699 -0.0079454503453138398 0 -0.039580870188311294 -0.008009323019862442 0 -0.039140125198177576 -0.008329395057004094 0 -0.039684791359854699 -0.0079454503453138398 0 -0.039582489968993197 -0.0076719548329017718 0 -0.038778730021851088 -0.0082582086807335316 0 -0.037546220316158153 -0.0096711543789582688 0 -0.037680747120065514 -0.0084413408138135932 0 -0.038778730021851088 -0.0082582086807335316 0 -0.03809008088119898 -0.0090424253731817717 0 -0.038469741828073001 -0.0084881426067479233 0 -0.037218744742102093 -0.0091399223521573831 0 -0.037546220316158153 -0.0096711543789582688 0 -0.037680747120065514 -0.0084413408138135932 0 -0.036844763542116077 -0.0089001650040895098 0 -0.037218744742102093 -0.0091399223521573831 0 -0.037680747120065514 -0.0084413408138135932 0 -0.036844763542116077 -0.0089001650040895098 0 -0.036660886666464963 -0.0083159615021128081 0 -0.037680747120065514 -0.0084413408138135932 0 -0.037218744742102093 -0.0091399223521573831 0 -0.037546220316158153 -0.0096711543789582688 0 -0.036804822039232785 -0.0095445049350269852 0 -0.036844763542116077 -0.0089001650040895098 0 -0.037218744742102093 -0.0091399223521573831 0 -0.036804822039232785 -0.0095445049350269852 0 -0.037165541372171158 -0.010379166541598166 0 -0.03809008088119898 -0.0090424253731817717 0 -0.037546220316158153 -0.0096711543789582688 0 -0.036804822039232785 -0.0095445049350269852 0 -0.036287150890290019 -0.010148941876148914 0 -0.036504621573789656 -0.010994247305708832 0 -0.037546220316158153 -0.0096711543789582688 0 -0.036287150890290019 -0.010148941876148914 0 -0.037352106376530969 -0.0097099718795495091 0 -0.039582489968993197 -0.0076719548329017718 0 -0.039610037874289197 -0.0082293390281818011 0 -0.035190503837742873 -0.010152965364070789 0 -0.036287150890290019 -0.010148941876148914 0 -0.035984030136727949 -0.0096399940553921325 0 -0.035190503837742873 -0.010152965364070789 0 -0.035569702385794266 -0.010776522158363664 0 -0.036287150890290019 -0.010148941876148914 0 -0.036804822039232785 -0.0095445049350269852 0 -0.036287150890290019 -0.010148941876148914 0 -0.035984030136727949 -0.0096399940553921325 0 -0.036804822039232785 -0.0095445049350269852 0 -0.035984030136727949 -0.0096399940553921325 0 -0.036346180102291244 -0.0091923535003116171 0 -0.035192598748577435 -0.0095277817497896756 0 -0.035984030136727949 -0.0096399940553921325 0 -0.035680717289207881 -0.0090502896811734315 0 -0.035984030136727949 -0.0096399940553921325 0 -0.035680717289207881 -0.0090502896811734315 0 -0.036346180102291244 -0.0091923535003116171 0 -0.035680717289207881 -0.0090502896811734315 0 -0.036346180102291244 -0.0091923535003116171 0 -0.036209663964780293 -0.0087363019725699726 0 -0.036844763542116077 -0.0089001650040895098 0 -0.036804822039232785 -0.0095445049350269852 0 -0.036346180102291244 -0.0091923535003116171 0 -0.036844763542116077 -0.0089001650040895098 0 -0.036209663964780293 -0.0087363019725699726 0 -0.036660886666464963 -0.0083159615021128081 0 -0.036844763542116077 -0.0089001650040895098 0 -0.036346180102291244 -0.0091923535003116171 0 -0.036209663964780293 -0.0087363019725699726 0 -0.035592631078178068 -0.0085804073997093749 0 -0.035680717289207881 -0.0090502896811734315 0 -0.036209663964780293 -0.0087363019725699726 0 -0.035592631078178068 -0.0085804073997093749 0 -0.036209663964780293 -0.0087363019725699726 0 -0.035967350604521733 -0.0082333811617996116 0 -0.035967350604521733 -0.0082333811617996116 0 -0.035779712310083513 -0.0078087063636934264 0 -0.03529536393784026 -0.008152907156923064 0 -0.035967350604521733 -0.0082333811617996116 0 -0.036293906424012978 -0.0078876023637648712 0 -0.035779712310083513 -0.0078087063636934264 0 -0.035967350604521733 -0.0082333811617996116 0 -0.036660886666464963 -0.0083159615021128081 0 -0.036293906424012978 -0.0078876023637648712 0 -0.036209663964780293 -0.0087363019725699726 0 -0.035967350604521733 -0.0082333811617996116 0 -0.036660886666464963 -0.0083159615021128081 0 -0.036293906424012978 -0.0078876023637648712 0 -0.03604642710552515 -0.0073212991755143564 0 -0.036930942052334811 -0.0077620201135258221 0 -0.036660886666464963 -0.0083159615021128081 0 -0.036293906424012978 -0.0078876023637648712 0 -0.036930942052334811 -0.0077620201135258221 0 -0.036293906424012978 -0.0078876023637648712 0 -0.035779712310083513 -0.0078087063636934264 0 -0.03604642710552515 -0.0073212991755143564 0 -0.03604642710552515 -0.0073212991755143564 0 -0.036891833837182579 -0.0069706155015924155 0 -0.035902749525845851 -0.0067645639281024225 0 -0.03604642710552515 -0.0073212991755143564 0 -0.036930942052334811 -0.0077620201135258221 0 -0.036891833837182579 -0.0069706155015924155 0 -0.036930942052334811 -0.0077620201135258221 0 -0.037846815294479433 -0.0077155506312605862 0 -0.036891833837182579 -0.0069706155015924155 0 -0.037846815294479433 -0.0077155506312605862 0 -0.037668608200564557 -0.007398013754719668 0 -0.036891833837182579 -0.0069706155015924155 0 -0.036930942052334811 -0.0077620201135258221 0 -0.037680747120065514 -0.0084413408138135932 0 -0.037846815294479433 -0.0077155506312605862 0 -0.036660886666464963 -0.0083159615021128081 0 -0.036930942052334811 -0.0077620201135258221 0 -0.037680747120065514 -0.0084413408138135932 0 -0.037680747120065514 -0.0084413408138135932 0 -0.038778730021851088 -0.0082582086807335316 0 -0.037846815294479433 -0.0077155506312605862 0 -0.038778730021851088 -0.0082582086807335316 0 -0.039140125198177576 -0.008329395057004094 0 -0.038631164100909464 -0.0080730426148122227 0 -0.038778730021851088 -0.0082582086807335316 0 -0.038631164100909464 -0.0080730426148122227 0 -0.037846815294479433 -0.0077155506312605862 0 -0.038631164100909464 -0.0080730426148122227 0 -0.037846815294479433 -0.0077155506312605862 0 -0.037668608200564557 -0.007398013754719668 0 -0.037668608200564557 -0.007398013754719668 0 -0.037794137195102148 -0.0074461577831307236 0 -0.037089190860262723 -0.0068900519739882029 0 -0.038631164100909464 -0.0080730426148122227 0 -0.037668608200564557 -0.007398013754719668 0 -0.037794137195102148 -0.0074461577831307236 0 -0.038631164100909464 -0.0080730426148122227 0 -0.037794137195102148 -0.0074461577831307236 0 -0.03808885852287603 -0.007586302639479999 0 -0.037794137195102148 -0.0074461577831307236 0 -0.03808885852287603 -0.007586302639479999 0 -0.037180237109549853 -0.007046780439595393 0 -0.037794137195102148 -0.0074461577831307236 0 -0.037089190860262723 -0.0068900519739882029 0 -0.037180237109549853 -0.007046780439595393 0 -0.037089190860262723 -0.0068900519739882029 0 -0.037058374532700694 -0.006863127035043581 0 -0.037180237109549853 -0.007046780439595393 0 -0.037089190860262723 -0.0068900519739882029 0 -0.036884897380518457 -0.0067112967628754055 0 -0.037058374532700694 -0.006863127035043581 0 -0.037089190860262723 -0.0068900519739882029 0 -0.036884897380518457 -0.0067112967628754055 0 -0.036403358852141882 -0.006383901446161625 0 -0.036891833837182579 -0.0069706155015924155 0 -0.036403358852141882 -0.006383901446161625 0 -0.035902749525845851 -0.0067645639281024225 0 -0.037089190860262723 -0.0068900519739882029 0 -0.036891833837182579 -0.0069706155015924155 0 -0.036403358852141882 -0.006383901446161625 0 -0.037668608200564557 -0.007398013754719668 0 -0.037089190860262723 -0.0068900519739882029 0 -0.036891833837182579 -0.0069706155015924155 0 -0.044832568969403082 -0.010018585857494591 0 -0.043586560404991641 -0.010368282176844266 0 -0.042870129505063359 -0.0095799257485919397 0 -0.044832568969403082 -0.010018585857494591 0 -0.045341352445369965 -0.010609769767314287 0 -0.043586560404991641 -0.010368282176844266 0 -0.044876483292154663 -0.01132895316024542 0 -0.045341352445369965 -0.010609769767314287 0 -0.043586560404991641 -0.010368282176844266 0 -0.043586560404991641 -0.010368282176844266 0 -0.041948138739457512 -0.010245008335521706 0 -0.042870129505063359 -0.0095799257485919397 0 -0.04123079976303367 -0.0087690279234455149 0 -0.040961095086904258 -0.0083689112665100082 0 -0.043297174317252315 -0.011086949721052451 0 -0.043586560404991641 -0.010368282176844266 0 -0.041948138739457512 -0.010245008335521706 0 -0.041885107351280253 -0.0093254190556754726 0 -0.04123079976303367 -0.0087690279234455149 0 -0.039111133911706557 -0.0083091881379288093 0 -0.039140125198177576 -0.008329395057004094 0 -0.039265939793948379 -0.0083637381569783825 0 -0.038631164100909464 -0.0080730426148122227 0 -0.039265939793948379 -0.0083637381569783825 0 -0.039768980055071665 -0.0085195635998729716 0 -0.039140125198177576 -0.008329395057004094 0 -0.038631164100909464 -0.0080730426148122227 0 -0.039265939793948379 -0.0083637381569783825 0 -0.038631164100909464 -0.0080730426148122227 0 -0.03808885852287603 -0.007586302639479999 0 -0.039768980055071665 -0.0085195635998729716 0 -0.03808885852287603 -0.007586302639479999 0 -0.039768980055071665 -0.0085195635998729716 0 -0.039147917522188283 -0.007808256765649807 0 -0.039768980055071665 -0.0085195635998729716 0 -0.041915678790034938 -0.0086020189208047271 0 -0.039147917522188283 -0.007808256765649807 0 -0.041948138739457512 -0.010245008335521706 0 -0.039768980055071665 -0.0085195635998729716 0 -0.042870129505063359 -0.0095799257485919397 0 -0.039768980055071665 -0.0085195635998729716 0 -0.042870129505063359 -0.0095799257485919397 0 -0.041915678790034938 -0.0086020189208047271 0 -0.041915678790034938 -0.0086020189208047271 0 -0.040400567466863664 -0.007803228307907 0 -0.039147917522188283 -0.007808256765649807 0 -0.041915678790034938 -0.0086020189208047271 0 -0.043101965242121378 -0.0084401546547134554 0 -0.041583073042995758 -0.0078868377220072724 0 -0.041915678790034938 -0.0086020189208047271 0 -0.043101965242121378 -0.0084401546547134554 0 -0.043926069365076828 -0.0093513196166038984 0 -0.042870129505063359 -0.0095799257485919397 0 -0.041915678790034938 -0.0086020189208047271 0 -0.043926069365076828 -0.0093513196166038984 0 -0.044832568969403082 -0.010018585857494591 0 -0.042870129505063359 -0.0095799257485919397 0 -0.043926069365076828 -0.0093513196166038984 0 -0.042273935079901855 -0.006336183155251046 0 -0.042106983215731635 -0.0073555676230376166 0 -0.041300092106954664 -0.0051821099471962275 0 -0.036798411656478652 -0.0094100971776476458 0 -0.035319502323864535 -0.011297719971797335 0 -0.042273935079901855 -0.006336183155251046 0 -0.042106983215731635 -0.0073555676230376166 0 -0.043293131059960722 -0.0074910938470756586 0 -0.043101965242121378 -0.0084401546547134554 0 -0.042106983215731635 -0.0073555676230376166 0 -0.043293131059960722 -0.0074910938470756586 0 -0.043101965242121378 -0.0084401546547134554 0 -0.041583073042995758 -0.0078868377220072724 0 -0.042106983215731635 -0.0073555676230376166 0 -0.041915678790034938 -0.0086020189208047271 0 -0.041583073042995758 -0.0078868377220072724 0 -0.040400567466863664 -0.007803228307907 0 -0.041583073042995758 -0.0078868377220072724 0 -0.042106983215731635 -0.0073555676230376166 0 -0.039967976513870219 -0.007225216219429155 0 -0.041583073042995758 -0.0078868377220072724 0 -0.040400567466863664 -0.007803228307907 0 -0.039967976513870219 -0.007225216219429155 0 -0.042106983215731635 -0.0073555676230376166 0 -0.039967976513870219 -0.007225216219429155 0 -0.040095136179816727 -0.0061887416456468192 0 -0.040400567466863664 -0.007803228307907 0 -0.039967976513870219 -0.007225216219429155 0 -0.03830022443754097 -0.0073164772422781082 0 -0.039967976513870219 -0.007225216219429155 0 -0.03830022443754097 -0.0073164772422781082 0 -0.03750307184186167 -0.0068715743885278974 0 -0.040400567466863664 -0.007803228307907 0 -0.03830022443754097 -0.0073164772422781082 0 -0.039147917522188283 -0.007808256765649807 0 -0.03808885852287603 -0.007586302639479999 0 -0.039147917522188283 -0.007808256765649807 0 -0.037251473996525682 -0.007263793747320159 0 -0.03830022443754097 -0.0073164772422781082 0 -0.039147917522188283 -0.007808256765649807 0 -0.037251473996525682 -0.007263793747320159 0 -0.03830022443754097 -0.0073164772422781082 0 -0.037251473996525682 -0.007263793747320159 0 -0.035973499181380757 -0.0071233317371385777 0 -0.03830022443754097 -0.0073164772422781082 0 -0.03750307184186167 -0.0068715743885278974 0 -0.035973499181380757 -0.0071233317371385777 0 -0.033517762746371915 -0.0070005542128787415 0 -0.03750307184186167 -0.0068715743885278974 0 -0.035973499181380757 -0.0071233317371385777 0 -0.032670571292955967 -0.010403155499526525 0 -0.031477962060607045 -0.011780774708327821 0 -0.033517762746371915 -0.0070005542128787415 0 -0.03750307184186167 -0.0068715743885278974 0 -0.037778777250394663 -0.0046016494620493321 0 -0.039967976513870219 -0.007225216219429155 0 -0.03750307184186167 -0.0068715743885278974 0 -0.040095136179816727 -0.0061887416456468192 0 -0.035319502323864535 -0.011297719971797335 0 -0.031477962060607045 -0.011780774708327821 0 -0.033750005534368743 -0.012463887357740124 0 -0.032995335259871403 -0.010337248506000062 0 -0.032206156980609815 -0.010565087614339186 0 -0.035319502323864535 -0.011297719971797335 0 -0.029931324811723423 -0.013689172782738448 0 -0.036688064144508259 -0.016038208917109126 0 -0.036444952080486585 -0.016594738643658347 0 -0.036976202801020187 -0.016917653058266629 0 -0.03750307184186167 -0.0068715743885278974 0 -0.040095136179816727 -0.0061887416456468192 0 -0.037778777250394663 -0.0046016494620493321 0 -0.036444952080486585 -0.016594738643658347 0 -0.035901379764597126 -0.016264558477956131 0 -0.036168307261089196 -0.017183393052046088 0 -0.036688064144508259 -0.016038208917109126 0 -0.036444952080486585 -0.016594738643658347 0 -0.035901379764597126 -0.016264558477956131 0 -0.036288992985318853 -0.015520990596002582 0 -0.036688064144508259 -0.016038208917109126 0 -0.035901379764597126 -0.016264558477956131 0 -0.038014504389529184 -0.011213394976557021 0 -0.035319502323864535 -0.011297719971797335 0 -0.037103751456161946 -0.0070278062116917762 0 -0.037991548926873689 -0.0076098698716161378 0 -0.037410711766668492 -0.0069636056551771472 0 -0.036884897380518457 -0.0067112967628754055 0 -0.037058374532700694 -0.006863127035043581 0 -0.037410711766668492 -0.0069636056551771472 0 -0.037103751456161946 -0.0070278062116917762 0 -0.037058374532700694 -0.006863127035043581 0 -0.037410711766668492 -0.0069636056551771472 0 -0.037103751456161946 -0.0070278062116917762 0 -0.037058374532700694 -0.006863127035043581 0 -0.037180237109549853 -0.007046780439595393 0 -0.03808885852287603 -0.007586302639479999 0 -0.037251473996525682 -0.007263793747320159 0 -0.037180237109549853 -0.007046780439595393 0 -0.037251473996525682 -0.007263793747320159 0 -0.037180237109549853 -0.007046780439595393 0 -0.036692421719681373 -0.0070827134507303801 0 -0.037251473996525682 -0.007263793747320159 0 -0.036692421719681373 -0.0070827134507303801 0 -0.035973499181380757 -0.0071233317371385777 0 -0.037103751456161946 -0.0070278062116917762 0 -0.036692421719681373 -0.0070827134507303801 0 -0.036301383225159356 -0.0073405955048833245 0 -0.037103751456161946 -0.0070278062116917762 0 -0.037180237109549853 -0.007046780439595393 0 -0.036692421719681373 -0.0070827134507303801 0 -0.036692421719681373 -0.0070827134507303801 0 -0.036301383225159356 -0.0073405955048833245 0 -0.035973499181380757 -0.0071233317371385777 0 -0.036301383225159356 -0.0073405955048833245 0 -0.035973499181380757 -0.0071233317371385777 0 -0.0351819667426874 -0.0075817353338992017 0 -0.033517762746371915 -0.0070005542128787415 0 -0.035973499181380757 -0.0071233317371385777 0 -0.0351819667426874 -0.0075817353338992017 0 -0.033517762746371915 -0.0070005542128787415 0 -0.0351819667426874 -0.0075817353338992017 0 -0.034316726513414275 -0.0095331004686354526 0 -0.036301383225159356 -0.0073405955048833245 0 -0.035995126386098843 -0.0089093707452256119 0 -0.03743957220805013 -0.0082538968918316157 0 -0.0351819667426874 -0.0075817353338992017 0 -0.035995126386098843 -0.0089093707452256119 0 -0.034316726513414275 -0.0095331004686354526 0 -0.036301383225159356 -0.0073405955048833245 0 -0.0351819667426874 -0.0075817353338992017 0 -0.035995126386098843 -0.0089093707452256119 0 -0.035995126386098843 -0.0089093707452256119 0 -0.037141606091785219 -0.0095391438362729501 0 -0.03743957220805013 -0.0082538968918316157 0 -0.037141606091785219 -0.0095391438362729501 0 -0.03743957220805013 -0.0082538968918316157 0 -0.038273706861482917 -0.0094607435207778433 0 -0.037103751456161946 -0.0070278062116917762 0 -0.036301383225159356 -0.0073405955048833245 0 -0.03743957220805013 -0.0082538968918316157 0 -0.037103751456161946 -0.0070278062116917762 0 -0.03743957220805013 -0.0082538968918316157 0 -0.037991548926873689 -0.0076098698716161378 0 -0.034019399542993552 -0.013347981292408955 0 -0.036804445819648951 -0.014258597366262159 0 -0.03743957220805013 -0.0082538968918316157 0 -0.037991548926873689 -0.0076098698716161378 0 -0.038576322767791757 -0.0093792758720302634 0 -0.03743957220805013 -0.0082538968918316157 0 -0.038273706861482917 -0.0094607435207778433 0 -0.038576322767791757 -0.0093792758720302634 0 -0.027874529994651967 -0.018160055876215647 0 -0.027629872327393657 -0.017911566160045383 0 -0.028067294650696149 -0.017608189526674003 0 -0.027629872327393657 -0.017911566160045383 0 -0.027672100958245256 -0.017603705290619401 0 -0.028067294650696149 -0.017608189526674003 0 -0.027629872327393657 -0.017911566160045383 0 -0.027287907690733769 -0.017609397567750741 0 -0.027672100958245256 -0.017603705290619401 0 -0.027629872327393657 -0.017911566160045383 0 -0.027288825767946355 -0.018054220442001674 0 -0.027287907690733769 -0.017609397567750741 0 -0.027288825767946355 -0.018054220442001674 0 -0.027484114130164765 -0.018323411576102622 0 -0.027125290896769572 -0.018345848508068311 0 -0.027629872327393657 -0.017911566160045383 0 -0.027288825767946355 -0.018054220442001674 0 -0.027484114130164765 -0.018323411576102622 0 -0.027874529994651967 -0.018160055876215647 0 -0.027629872327393657 -0.017911566160045383 0 -0.027484114130164765 -0.018323411576102622 0 -0.027484114130164765 -0.018323411576102622 0 -0.027273198832374244 -0.01877724668317669 0 -0.02769489451267974 -0.018703312218405092 0 -0.027874529994651967 -0.018160055876215647 0 -0.027484114130164765 -0.018323411576102622 0 -0.02769489451267974 -0.018703312218405092 0 -0.034019399542993552 -0.013347981292408955 0 -0.032065612969829065 -0.012076770490212007 0 -0.027273198832374244 -0.01877724668317669 0 -0.026888885728391262 -0.018535770739093731 0 -0.026930905179600107 -0.018096729507140634 0 -0.023473700708726172 -0.021450972149660658 0 -0.023045623183201601 -0.022827658793199368 0 -0.027484114130164765 -0.018323411576102622 0 -0.027273198832374244 -0.01877724668317669 0 -0.027125290896769572 -0.018345848508068311 0 -0.027273198832374244 -0.01877724668317669 0 -0.026817601553540772 -0.018951052197726876 0 -0.027521982345500708 -0.019376362716132807 0 -0.032065612969829065 -0.012076770490212007 0 -0.030443060560230648 -0.008195830112786821 0 -0.027273198832374244 -0.01877724668317669 0 -0.02769489451267974 -0.018703312218405092 0 -0.027521982345500708 -0.019376362716132807 0 -0.026011791969541658 -0.0099141721460561365 0 -0.020489095195445176 -0.01439999983339294 0 -0.024485457672175217 0.0057679538599460208 0 -0.029893213195023659 0.00605219307966733 0 -0.024602169018661788 0.0098754309871498386 0 -0.026817601553540772 -0.018951052197726876 0 -0.026529780064756987 -0.018310122186859863 0 -0.026888885728391262 -0.018535770739093731 0 -0.027273198832374244 -0.01877724668317669 0 -0.026817601553540772 -0.018951052197726876 0 -0.026888885728391262 -0.018535770739093731 0 -0.026817601553540772 -0.018951052197726876 0 -0.026529780064756987 -0.018310122186859863 0 -0.025986506895880432 -0.018398402880208248 0 -0.026529780064756987 -0.018310122186859863 0 -0.026888885728391262 -0.018535770739093731 0 -0.026930905179600107 -0.018096729507140634 0 -0.026529780064756987 -0.018310122186859863 0 -0.026930905179600107 -0.018096729507140634 0 -0.026360081274684442 -0.017778559506615787 0 -0.026529780064756987 -0.018310122186859863 0 -0.025986506895880432 -0.018398402880208248 0 -0.026360081274684442 -0.017778559506615787 0 -0.020489095195445176 -0.01439999983339294 0 -0.021421585517232503 -0.014976337230447199 0 -0.025742196271037153 -0.018721797759651226 0 -0.025991455132733553 -0.017785961500035908 0 -0.025281266137025998 -0.018388852124080111 0 -0.017158409217339396 -0.027681411242627806 0 -0.016634688180183089 -0.020305070574431327 0 -0.025742196271037153 -0.018721797759651226 0 -0.025991455132733553 -0.017785961500035908 0 -0.026360081274684442 -0.017778559506615787 0 -0.00041722301378770659 -0.04836389433065745 0 -0.0047225698053217531 -0.047739726348059744 0 -0.0067304750433692081 -0.04235400554128281 0 -0.025991455132733553 -0.017785961500035908 0 -0.026360081274684442 -0.017778559506615787 0 -0.026589540427032907 -0.017331422170024896 0 -0.00041722301378770659 -0.04836389433065745 0 0.0054674041271872932 -0.053943045196391037 0 -0.00059170472397522035 -0.054240562988345661 0 -0.017158409217339396 -0.027681411242627806 0 -0.022748629050629469 -0.030038434966497066 0 -0.00041722301378770659 -0.04836389433065745 0 -0.0032794677637779739 -0.051866672202551464 0 -0.0047225698053217531 -0.047739726348059744 0 -0.00041722301378770659 -0.04836389433065745 0 -0.0032794677637779739 -0.051866672202551464 0 -0.00059170472397522035 -0.054240562988345661 0 -0.027288825767946355 -0.018054220442001674 0 -0.027125290896769572 -0.018345848508068311 0 -0.026935923626324344 -0.017932264126886047 0 -0.026930905179600107 -0.018096729507140634 0 -0.026360081274684442 -0.017778559506615787 0 -0.026589540427032907 -0.017331422170024896 0 -0.023045623183201601 -0.022827658793199368 0 -0.022748629050629469 -0.030038434966497066 0 -0.022748629050629469 -0.030038434966497066 0 -0.033796506372382545 -0.0230847574984211 0 -0.023959005428594728 -0.030454788136483849 0 -0.023514695974767724 -0.029517043750021687 0 -0.024964505201899943 -0.029552620443134631 0 -0.027288825767946355 -0.018054220442001674 0 -0.026935923626324344 -0.017932264126886047 0 -0.027287907690733769 -0.017609397567750741 0 -0.022748629050629469 -0.030038434966497066 0 -0.022114218221103151 -0.034962128609499397 0 -0.003182550866025285 -0.054958701590042867 0 -0.00059170472397522035 -0.054240562988345661 0 -0.0025358973315986514 -0.057630240940837657 0 -0.0032794677637779739 -0.051866672202551464 0 -0.003182550866025285 -0.054958701590042867 0 -0.0053944118692166899 -0.05412820482029862 0 -0.0032794677637779739 -0.051866672202551464 0 -0.003182550866025285 -0.054958701590042867 0 -0.00059170472397522035 -0.054240562988345661 0 0.0054674041271872932 -0.053943045196391037 0 -0.00059170472397522035 -0.054240562988345661 0 0.00053571377258376806 -0.057217094540723712 0 0.00053571377258376806 -0.057217094540723712 0 -0.0012044935485800812 -0.059141945924049831 0 0.0020169026327038031 -0.061013066883439188 0 0.0054674041271872932 -0.053943045196391037 0 0.00053571377258376806 -0.057217094540723712 0 0.0020169026327038031 -0.061013066883439188 0 -0.0012044935485800812 -0.059141945924049831 0 -0.0035878055140189306 -0.059242665825581881 0 -0.0020080898472657946 -0.061040179123832868 0 -0.00059170472397522035 -0.054240562988345661 0 0.00053571377258376806 -0.057217094540723712 0 -0.0025358973315986514 -0.057630240940837657 0 0.00053571377258376806 -0.057217094540723712 0 -0.0012044935485800812 -0.059141945924049831 0 -0.0025358973315986514 -0.057630240940837657 0 -0.003182550866025285 -0.054958701590042867 0 -0.0025358973315986514 -0.057630240940837657 0 -0.0041770179832411039 -0.056827837726005193 0 -0.0025358973315986514 -0.057630240940837657 0 -0.0039057577075462557 -0.058212953361024798 0 -0.0041770179832411039 -0.056827837726005193 0 -0.0025358973315986514 -0.057630240940837657 0 -0.0039057577075462557 -0.058212953361024798 0 -0.0035878055140189306 -0.059242665825581881 0 -0.0012044935485800812 -0.059141945924049831 0 -0.0025358973315986514 -0.057630240940837657 0 -0.0035878055140189306 -0.059242665825581881 0 -0.0052981548919654037 -0.059101748416483683 0 -0.0041770179832411039 -0.056827837726005193 0 -0.0053944118692166899 -0.05412820482029862 0 -0.0052981548919654037 -0.059101748416483683 0 -0.006787144538147067 -0.058848393168483656 0 -0.0062914243980808065 -0.056845858794664444 0 -0.0052981548919654037 -0.059101748416483683 0 -0.0053944118692166899 -0.05412820482029862 0 -0.008951984665435243 -0.050817040210467797 0 -0.0024632630972079603 -0.049107180318654006 0 -0.0030695146155073089 -0.045296507016844838 0 -0.0035878055140189306 -0.059242665825581881 0 -0.0052981548919654037 -0.059101748416483683 0 -0.0051206992496847358 -0.060609633803227189 0 -0.0039057577075462557 -0.058212953361024798 0 -0.0035878055140189306 -0.059242665825581881 0 -0.0052981548919654037 -0.059101748416483683 0 -0.0039057577075462557 -0.058212953361024798 0 -0.0052981548919654037 -0.059101748416483683 0 -0.0041770179832411039 -0.056827837726005193 0 -0.003182550866025285 -0.054958701590042867 0 -0.0041770179832411039 -0.056827837726005193 0 -0.0053944118692166899 -0.05412820482029862 0 -0.006787144538147067 -0.058848393168483656 0 -0.0082950352341603344 -0.058147115740458596 0 -0.0062914243980808065 -0.056845858794664444 0 -0.0052981548919654037 -0.059101748416483683 0 -0.006787144538147067 -0.058848393168483656 0 -0.0063227458138984437 -0.060029295191255209 0 -0.006787144538147067 -0.058848393168483656 0 -0.0076582148524873403 -0.060185999504247974 0 -0.0063227458138984437 -0.060029295191255209 0 -0.0082950352341603344 -0.058147115740458596 0 -0.011237156000636224 -0.057014655979004208 0 -0.009421399505966363 -0.059996724809810949 0 -0.0082950352341603344 -0.058147115740458596 0 -0.009421399505966363 -0.059996724809810949 0 -0.0076582148524873403 -0.060185999504247974 0 -0.006787144538147067 -0.058848393168483656 0 -0.0082950352341603344 -0.058147115740458596 0 -0.0076582148524873403 -0.060185999504247974 0 -0.0084658415247991156 -0.056076682832799978 0 -0.011237156000636224 -0.057014655979004208 0 -0.008403259525075344 -0.053439609071168813 0 -0.0082950352341603344 -0.058147115740458596 0 -0.0084658415247991156 -0.056076682832799978 0 -0.011237156000636224 -0.057014655979004208 0 -0.0084658415247991156 -0.056076682832799978 0 -0.0062914243980808065 -0.056845858794664444 0 -0.0072777858882946238 -0.054227265327051126 0 -0.0082950352341603344 -0.058147115740458596 0 -0.0084658415247991156 -0.056076682832799978 0 -0.0062914243980808065 -0.056845858794664444 0 -0.0030695146155073089 -0.045296507016844838 0 -0.0046417265552145407 -0.033816381769621214 0 -0.0047225698053217531 -0.047739726348059744 0 -0.008951984665435243 -0.050817040210467797 0 -0.012173530453717146 -0.042575417592167354 0 -0.003900106715196641 -0.036026342541448403 0 -0.0046417265552145407 -0.033816381769621214 0 -0.0032794677637779739 -0.051866672202551464 0 -0.0047225698053217531 -0.047739726348059744 0 -0.0057245085631420561 -0.051066174102353742 0 -0.0047225698053217531 -0.047739726348059744 0 -0.0057245085631420561 -0.051066174102353742 0 -0.008951984665435243 -0.050817040210467797 0 -0.0032794677637779739 -0.051866672202551464 0 -0.0053944118692166899 -0.05412820482029862 0 -0.0057245085631420561 -0.051066174102353742 0 -0.0053944118692166899 -0.05412820482029862 0 -0.0057245085631420561 -0.051066174102353742 0 -0.008951984665435243 -0.050817040210467797 0 0.030644669803842724 -0.030465557855941308 0 0.031535853460904997 -0.030573473446561677 0 0.031531175641505593 -0.02951335247572557 0 -0.011237156000636224 -0.057014655979004208 0 -0.011446533666593019 -0.061584846495936887 0 -0.014101584796344652 -0.060666204373395552 0 0.031535853460904997 -0.030573473446561677 0 0.031531175641505593 -0.02951335247572557 0 0.031995169144004403 -0.030083190467647385 0 0.0061660143676107266 -0.042978085858432893 0 0.010676799815996766 -0.060351653061087952 0 -0.011237156000636224 -0.057014655979004208 0 -0.011446533666593019 -0.061584846495936887 0 -0.009421399505966363 -0.059996724809810949 0 0.0061660143676107266 -0.042978085858432893 0 -0.0051348123124367682 -0.03010308383533216 0 0.031535853460904997 -0.030573473446561677 0 0.03126135410326189 -0.031364210431918678 0 0.031904842016451822 -0.031349283978667396 0 0.030644669803842724 -0.030465557855941308 0 0.031535853460904997 -0.030573473446561677 0 0.03126135410326189 -0.031364210431918678 0 0.03126135410326189 -0.031364210431918678 0 0.031650265239276242 -0.032046757749687758 0 0.031904842016451822 -0.031349283978667396 0 0.03126135410326189 -0.031364210431918678 0 0.031095296835602096 -0.031859255347216911 0 0.030553233075321838 -0.031633056893564868 0 0.03126135410326189 -0.031364210431918678 0 0.031095296835602096 -0.031859255347216911 0 0.031650265239276242 -0.032046757749687758 0 0.030644669803842724 -0.030465557855941308 0 0.030553233075321838 -0.031633056893564868 0 0.029602251296579427 -0.031565329505027585 0 0.030644669803842724 -0.030465557855941308 0 0.03126135410326189 -0.031364210431918678 0 0.030553233075321838 -0.031633056893564868 0 0.030553233075321838 -0.031633056893564868 0 0.030921173096731785 -0.032409182024720033 0 0.029602251296579427 -0.031565329505027585 0 -0.011545666650106593 -0.0048697713778252548 0 -0.01282925701923898 -0.0046964378490898231 0 -0.011850291248408929 -0.0056459938202592696 0 -0.010064963820861422 -0.019047094293239197 0 -0.013982283634443671 -0.012531659501437248 0 0.0050070934701624409 -0.024565330279261447 0 -0.0051348123124367682 -0.03010308383533216 0 0.031095296835602096 -0.031859255347216911 0 0.030553233075321838 -0.031633056893564868 0 0.030921173096731785 -0.032409182024720033 0 0.030921173096731785 -0.032409182024720033 0 0.031650265239276242 -0.032046757749687758 0 0.032412292985028346 -0.033181550461398659 0 0.031095296835602096 -0.031859255347216911 0 0.030921173096731785 -0.032409182024720033 0 0.031650265239276242 -0.032046757749687758 0 -0.016634688180183089 -0.020305070574431327 0 -0.0082751763918377606 -0.02276298264367118 0 -0.012997428377887409 -0.0070750523148156745 0 -0.013014454905803528 -0.0070234459606349749 0 -0.012998313370673109 -0.0070186280750048008 0 -0.0067304750433692081 -0.04235400554128281 0 -0.012425075847927182 -0.042348750664767877 0 -0.01331377489967272 -0.036293100020375217 0 -0.012974527992857924 -0.0070462676532149797 0 -0.012997428377887409 -0.0070750523148156745 0 -0.012998313370673109 -0.0070186280750048008 0 -0.0047225698053217531 -0.047739726348059744 0 -0.0067304750433692081 -0.04235400554128281 0 -0.012425075847927182 -0.042348750664767877 0 -0.020489095195445176 -0.01439999983339294 0 -0.016634688180183089 -0.020305070574431327 0 -0.0084658415247991156 -0.056076682832799978 0 -0.0072777858882946238 -0.054227265327051126 0 -0.008403259525075344 -0.053439609071168813 0 -0.0046417265552145407 -0.033816381769621214 0 -0.0051348123124367682 -0.03010308383533216 0 -0.012425075847927182 -0.042348750664767877 0 -0.014310502915034841 -0.037517239561043345 0 -0.01331377489967272 -0.036293100020375217 0 -0.01277454965559203 -0.0042066011281173196 0 -0.012942608858045102 -0.0044102676550019154 0 -0.01282925701923898 -0.0046964378490898231 0 -0.0046417265552145407 -0.033816381769621214 0 -0.0072336566045350797 -0.025185741509091409 0 -0.011508652532495296 -0.028738086836844298 0 -0.0059134583805997938 -0.032570484776711511 0 -0.0086602436287036323 -0.035939954317340816 0 -0.0051348123124367682 -0.03010308383533216 0 -0.0072336566045350797 -0.025185741509091409 0 -0.0072336566045350797 -0.025185741509091409 0 -0.0082751763918377606 -0.02276298264367118 0 -0.010064963820861422 -0.019047094293239197 0 -0.012697755731325595 -0.010136845214787027 0 -0.012986624563496623 -0.006983671216580581 0 -0.012971327286722423 -0.0069716258018136003 0 -0.012999277391174442 -0.0069986235295343424 0 -0.012971327286722423 -0.0069716258018136003 0 -0.012982178237990262 -0.0069861959258261785 0 -0.012999277391174442 -0.0069986235295343424 0 -0.0082751763918377606 -0.02276298264367118 0 -0.0081885194033653429 -0.022506696134865584 0 -0.011545666650106593 -0.0048697713778252548 0 -0.01277454965559203 -0.0042066011281173196 0 -0.01282925701923898 -0.0046964378490898231 0 -0.012971327286722423 -0.0069716258018136003 0 -0.012982178237990262 -0.0069861959258261785 0 -0.012921530651695389 -0.0070080548125539864 0 -0.0064728131951834536 -0.016632849018007122 0 -0.0090756284635434194 -0.019827289136110954 0 -0.0030671928899304382 -0.025251434496542585 0 -0.0072336566045350797 -0.025185741509091409 0 -0.010064963820861422 -0.019047094293239197 0 -0.0082751763918377606 -0.02276298264367118 0 -0.010064963820861422 -0.019047094293239197 0 -0.020489095195445176 -0.01439999983339294 0 -0.019751557260883137 -0.005582586459260395 0 -0.012998313370673109 -0.0070186280750048008 0 -0.012999277391174442 -0.0069986235295343424 0 -0.013021769199361228 -0.0069817825408460907 0 -0.012974527992857924 -0.0070462676532149797 0 -0.012998313370673109 -0.0070186280750048008 0 -0.013021769199361228 -0.0069817825408460907 0 -0.024485457672175217 0.0057679538599460208 0 -0.024602169018661788 0.0098754309871498386 0 -0.021109356105610398 0.0044373749074336395 0 -0.012982178237990262 -0.0069861959258261785 0 -0.012999277391174442 -0.0069986235295343424 0 -0.013021769199361228 -0.0069817825408460907 0 -0.013014454905803528 -0.0070234459606349749 0 -0.012998313370673109 -0.0070186280750048008 0 -0.012999277391174442 -0.0069986235295343424 0 -0.023351556817221196 0.0026351600544636117 0 -0.021109356105610398 0.0044373749074336395 0 -0.021529051160641854 0.00027055422203296124 0 -0.024485457672175217 0.0057679538599460208 0 -0.023351556817221196 0.0026351600544636117 0 -0.021109356105610398 0.0044373749074336395 0 -0.012921530651695389 -0.0070080548125539864 0 -0.012804947628473668 -0.0070258038877247641 0 -0.012896909827804098 -0.0073473324180139583 0 -0.012982178237990262 -0.0069861959258261785 0 -0.013021769199361228 -0.0069817825408460907 0 -0.012921530651695389 -0.0070080548125539864 0 -0.013021769199361228 -0.0069817825408460907 0 -0.012921530651695389 -0.0070080548125539864 0 -0.012896909827804098 -0.0073473324180139583 0 -0.012971327286722423 -0.0069716258018136003 0 -0.012921530651695389 -0.0070080548125539864 0 -0.012804947628473668 -0.0070258038877247641 0 -0.019751557260883137 -0.005582586459260395 0 -0.016900602151735979 -0.0057145204608486959 0 -0.017769037875338334 -0.00097296665554385219 0 -0.021529051160641854 0.00027055422203296124 0 -0.020134168314398047 -0.0024391482874805246 0 -0.021109356105610398 0.0044373749074336395 0 -0.017769037875338334 -0.00097296665554385219 0 -0.021529051160641854 0.00027055422203296124 0 -0.021529051160641854 0.00027055422203296124 0 -0.022643449474862735 -0.0025300176600831881 0 -0.020134168314398047 -0.0024391482874805246 0 -0.021529051160641854 0.00027055422203296124 0 -0.022643449474862735 -0.0025300176600831881 0 -0.024913985025881762 -0.00014711669890027696 0 -0.023351556817221196 0.0026351600544636117 0 -0.021529051160641854 0.00027055422203296124 0 -0.024913985025881762 -0.00014711669890027696 0 -0.011850291248408929 -0.0056459938202592696 0 -0.010998482409223418 -0.0067216173666464988 0 -0.0096107941041230979 -0.0056513548167181496 0 0.0050070934701624409 -0.024565330279261447 0 0.0096222902043213137 -0.022039904347853759 0 -0.011545666650106593 -0.0048697713778252548 0 -0.011850291248408929 -0.0056459938202592696 0 -0.0096107941041230979 -0.0056513548167181496 0 -0.013371457147462225 -0.0043797391409572091 0 -0.012762318034187961 -0.0058775028991078131 0 -0.011850291248408929 -0.0056459938202592696 0 -0.012762318034187961 -0.0058775028991078131 0 -0.011850291248408929 -0.0056459938202592696 0 -0.011952191138784787 -0.006506134771575336 0 -0.012697755731325595 -0.010136845214787027 0 -0.012966320009217996 -0.0087963670972900088 0 -0.012804947628473668 -0.0070258038877247641 0 -0.012896909827804098 -0.0073473324180139583 0 -0.012274099460061151 -0.0076421482053939255 0 -0.012762318034187961 -0.0058775028991078131 0 -0.011952191138784787 -0.006506134771575336 0 -0.012274099460061151 -0.0076421482053939255 0 -0.011952191138784787 -0.006506134771575336 0 -0.010998482409223418 -0.0067216173666464988 0 -0.012274099460061151 -0.0076421482053939255 0 -0.011850291248408929 -0.0056459938202592696 0 -0.011952191138784787 -0.006506134771575336 0 -0.010998482409223418 -0.0067216173666464988 0 -0.010998482409223418 -0.0067216173666464988 0 -0.011362298600199671 -0.0081299925236149751 0 -0.010223052077831788 -0.0075810556610704117 0 -0.010998482409223418 -0.0067216173666464988 0 -0.011362298600199671 -0.0081299925236149751 0 -0.012274099460061151 -0.0076421482053939255 0 -0.011362298600199671 -0.0081299925236149751 0 -0.010625677205258722 -0.0093554251563801229 0 -0.010223052077831788 -0.0075810556610704117 0 -0.011362298600199671 -0.0081299925236149751 0 -0.012274176862191901 -0.0088685439819677914 0 -0.010625677205258722 -0.0093554251563801229 0 -0.016900602151735979 -0.0057145204608486959 0 -0.014443318292497774 -0.0078910965115605667 0 -0.011362298600199671 -0.0081299925236149751 0 -0.012274099460061151 -0.0076421482053939255 0 -0.012274176862191901 -0.0088685439819677914 0 -0.012896909827804098 -0.0073473324180139583 0 -0.012274099460061151 -0.0076421482053939255 0 -0.012274176862191901 -0.0088685439819677914 0 -0.015028537735456074 -0.01011994705870977 0 -0.014657552140362892 -0.0060361159916186144 0 -0.018463728238381796 -0.0079854395890339748 0 -0.013191950631570065 -0.0094689913798404989 0 -0.014443318292497774 -0.0078910965115605667 0 -0.011598770161455853 -0.011116669046573911 0 -0.012274176862191901 -0.0088685439819677914 0 -0.010625677205258722 -0.0093554251563801229 0 -0.020483714553384238 -0.005239008461340732 0 -0.023546396096058048 -0.0052920542509560234 0 -0.022643449474862735 -0.0025300176600831881 0 -0.020483714553384238 -0.005239008461340732 0 -0.022643449474862735 -0.0025300176600831881 0 -0.020134168314398047 -0.0024391482874805246 0 -0.017769037875338334 -0.00097296665554385219 0 -0.014657552140362892 -0.0060361159916186144 0 -0.018293659388911369 -0.0045563586495626354 0 -0.017769037875338334 -0.00097296665554385219 0 -0.020134168314398047 -0.0024391482874805246 0 -0.018293659388911369 -0.0045563586495626354 0 -0.020483714553384238 -0.005239008461340732 0 -0.020134168314398047 -0.0024391482874805246 0 -0.018293659388911369 -0.0045563586495626354 0 -0.020483714553384238 -0.005239008461340732 0 -0.018293659388911369 -0.0045563586495626354 0 -0.018463728238381796 -0.0079854395890339748 0 -0.014657552140362892 -0.0060361159916186144 0 -0.018293659388911369 -0.0045563586495626354 0 -0.018463728238381796 -0.0079854395890339748 0 -0.021674511915217222 -0.010866397448075276 0 -0.018463728238381796 -0.0079854395890339748 0 -0.021815746167372918 -0.0074297251545279086 0 -0.021674511915217222 -0.010866397448075276 0 -0.021815746167372918 -0.0074297251545279086 0 -0.024984412746539873 -0.0076034725528235005 0 -0.020483714553384238 -0.005239008461340732 0 -0.018463728238381796 -0.0079854395890339748 0 -0.021815746167372918 -0.0074297251545279086 0 -0.020483714553384238 -0.005239008461340732 0 -0.023546396096058048 -0.0052920542509560234 0 -0.021815746167372918 -0.0074297251545279086 0 -0.023546396096058048 -0.0052920542509560234 0 -0.021815746167372918 -0.0074297251545279086 0 -0.024984412746539873 -0.0076034725528235005 0 -0.026067398655094717 -0.010096596894358252 0 -0.024984412746539873 -0.0076034725528235005 0 -0.02711275446291337 -0.0070308755849946905 0 -0.024984412746539873 -0.0076034725528235005 0 -0.02711275446291337 -0.0070308755849946905 0 -0.026098188348218913 -0.0053337894250860681 0 -0.023546396096058048 -0.0052920542509560234 0 -0.024984412746539873 -0.0076034725528235005 0 -0.026098188348218913 -0.0053337894250860681 0 -0.023546396096058048 -0.0052920542509560234 0 -0.026098188348218913 -0.0053337894250860681 0 -0.025251738061624909 -0.0031273951646146447 0 -0.026098188348218913 -0.0053337894250860681 0 -0.027002287365895869 -0.0038372807896772704 0 -0.02860200052377659 -0.0048642489878874713 0 -0.02711275446291337 -0.0070308755849946905 0 -0.026098188348218913 -0.0053337894250860681 0 -0.02860200052377659 -0.0048642489878874713 0 -0.026098188348218913 -0.0053337894250860681 0 -0.027002287365895869 -0.0038372807896772704 0 -0.025251738061624909 -0.0031273951646146447 0 -0.027002287365895869 -0.0038372807896772704 0 -0.025251738061624909 -0.0031273951646146447 0 -0.02792776348875816 -0.002184318253728309 0 -0.023546396096058048 -0.0052920542509560234 0 -0.022643449474862735 -0.0025300176600831881 0 -0.025251738061624909 -0.0031273951646146447 0 -0.029945386536609785 -0.0037141641403437408 0 -0.031890243951347361 -0.0043367561458553952 0 -0.030980199628893132 -0.0019508591801663557 0 -0.029945386536609785 -0.0037141641403437408 0 -0.02792776348875816 -0.002184318253728309 0 -0.030980199628893132 -0.0019508591801663557 0 -0.027002287365895869 -0.0038372807896772704 0 -0.02860200052377659 -0.0048642489878874713 0 -0.02792776348875816 -0.002184318253728309 0 -0.029945386536609785 -0.0037141641403437408 0 -0.02860200052377659 -0.0048642489878874713 0 -0.02792776348875816 -0.002184318253728309 0 -0.02860200052377659 -0.0048642489878874713 0 -0.030448261886422145 -0.005277692662888479 0 -0.029879902271533872 -0.0065182159715403568 0 -0.029945386536609785 -0.0037141641403437408 0 -0.02860200052377659 -0.0048642489878874713 0 -0.030448261886422145 -0.005277692662888479 0 -0.030448261886422145 -0.005277692662888479 0 -0.031668724020778326 -0.006014458583588296 0 -0.031890243951347361 -0.0043367561458553952 0 -0.029945386536609785 -0.0037141641403437408 0 -0.030448261886422145 -0.005277692662888479 0 -0.031890243951347361 -0.0043367561458553952 0 -0.030448261886422145 -0.005277692662888479 0 -0.029879902271533872 -0.0065182159715403568 0 -0.031668724020778326 -0.006014458583588296 0 -0.029879902271533872 -0.0065182159715403568 0 -0.032742471054090012 -0.0072894474734369651 0 -0.031668724020778326 -0.006014458583588296 0 -0.029879902271533872 -0.0065182159715403568 0 -0.028626556237178684 -0.0083578327029735205 0 -0.032742471054090012 -0.0072894474734369651 0 -0.02841748903305576 -0.012106122230404394 0 -0.028626556237178684 -0.0083578327029735205 0 -0.032742471054090012 -0.0072894474734369651 0 -0.02711275446291337 -0.0070308755849946905 0 -0.029879902271533872 -0.0065182159715403568 0 -0.028626556237178684 -0.0083578327029735205 0 -0.02711275446291337 -0.0070308755849946905 0 -0.02860200052377659 -0.0048642489878874713 0 -0.029879902271533872 -0.0065182159715403568 0 -0.026067398655094717 -0.010096596894358252 0 -0.02711275446291337 -0.0070308755849946905 0 -0.028626556237178684 -0.0083578327029735205 0 -0.033537713297326785 -0.0085287046610436311 0 -0.034033862434791104 -0.0079025509335182327 0 -0.032742471054090012 -0.0072894474734369651 0 -0.034033862434791104 -0.0079025509335182327 0 -0.033774626298119413 -0.0071622490152077412 0 -0.032742471054090012 -0.0072894474734369651 0 -0.034033862434791104 -0.0079025509335182327 0 -0.034249787085060907 -0.0073947469912929512 0 -0.033774626298119413 -0.0071622490152077412 0 -0.034249787085060907 -0.0073947469912929512 0 -0.033774626298119413 -0.0071622490152077412 0 -0.03424889903741641 -0.0067623403431140983 0 -0.033774626298119413 -0.0071622490152077412 0 -0.032742471054090012 -0.0072894474734369651 0 -0.033353987497838841 -0.006452104139540526 0 -0.032742471054090012 -0.0072894474734369651 0 -0.031668724020778326 -0.006014458583588296 0 -0.033353987497838841 -0.006452104139540526 0 -0.03529536393784026 -0.008152907156923064 0 -0.034686190737730153 -0.0077676095565572386 0 -0.035250013532084908 -0.0075123152837063825 0 -0.035592631078178068 -0.0085804073997093749 0 -0.035967350604521733 -0.0082333811617996116 0 -0.03529536393784026 -0.008152907156923064 0 -0.034230901028943987 -0.0086853898370679271 0 -0.034033862434791104 -0.0079025509335182327 0 -0.034714165667673692 -0.0082441692518863269 0 -0.03529536393784026 -0.008152907156923064 0 -0.034714165667673692 -0.0082441692518863269 0 -0.034686190737730153 -0.0077676095565572386 0 -0.034033862434791104 -0.0079025509335182327 0 -0.034714165667673692 -0.0082441692518863269 0 -0.034686190737730153 -0.0077676095565572386 0 -0.034694559522324628 -0.0072565308887856958 0 -0.035250013532084908 -0.0075123152837063825 0 -0.03507997433793001 -0.0069180539690175315 0 -0.034249787085060907 -0.0073947469912929512 0 -0.034686190737730153 -0.0077676095565572386 0 -0.034694559522324628 -0.0072565308887856958 0 -0.034033862434791104 -0.0079025509335182327 0 -0.034249787085060907 -0.0073947469912929512 0 -0.034686190737730153 -0.0077676095565572386 0 -0.034249787085060907 -0.0073947469912929512 0 -0.034694559522324628 -0.0072565308887856958 0 -0.03424889903741641 -0.0067623403431140983 0 -0.034686190737730153 -0.0077676095565572386 0 -0.034694559522324628 -0.0072565308887856958 0 -0.035250013532084908 -0.0075123152837063825 0 -0.035779712310083513 -0.0078087063636934264 0 -0.03604642710552515 -0.0073212991755143564 0 -0.035250013532084908 -0.0075123152837063825 0 -0.035779712310083513 -0.0078087063636934264 0 -0.03529536393784026 -0.008152907156923064 0 -0.035250013532084908 -0.0075123152837063825 0 -0.03507997433793001 -0.0069180539690175315 0 -0.035902749525845851 -0.0067645639281024225 0 -0.034524950246883249 -0.0063063833700738401 0 -0.03604642710552515 -0.0073212991755143564 0 -0.035250013532084908 -0.0075123152837063825 0 -0.03507997433793001 -0.0069180539690175315 0 -0.03604642710552515 -0.0073212991755143564 0 -0.03507997433793001 -0.0069180539690175315 0 -0.035902749525845851 -0.0067645639281024225 0 -0.034694559522324628 -0.0072565308887856958 0 -0.03507997433793001 -0.0069180539690175315 0 -0.03424889903741641 -0.0067623403431140983 0 -0.03507997433793001 -0.0069180539690175315 0 -0.03424889903741641 -0.0067623403431140983 0 -0.034524950246883249 -0.0063063833700738401 0 -0.032033891808293746 -0.005876860506309302 0 -0.031827271090764706 -0.0058957411627566809 0 -0.033353987497838841 -0.006452104139540526 0 -0.03424889903741641 -0.0067623403431140983 0 -0.034524950246883249 -0.0063063833700738401 0 -0.033353987497838841 -0.006452104139540526 0 -0.031890243951347361 -0.0043367561458553952 0 -0.034253272339134021 -0.0017883677537411699 0 -0.031668724020778326 -0.006014458583588296 0 -0.033353987497838841 -0.006452104139540526 0 -0.031890243951347361 -0.0043367561458553952 0 -0.033774626298119413 -0.0071622490152077412 0 -0.033353987497838841 -0.006452104139540526 0 -0.03424889903741641 -0.0067623403431140983 0 -0.031890243951347361 -0.0043367561458553952 0 -0.034253272339134021 -0.0017883677537411699 0 -0.030980199628893132 -0.0019508591801663557 0 -0.031827271090764706 -0.0058957411627566809 0 -0.030443060560230648 -0.008195830112786821 0 -0.034253272339134021 -0.0017883677537411699 0 -0.031800469345704019 0.0011039583662596577 0 -0.030980199628893132 -0.0019508591801663557 0 -0.034253272339134021 -0.0017883677537411699 0 -0.031800469345704019 0.0011039583662596577 0 -0.035313716531323251 0.0021710994925149768 0 -0.036403358852141882 -0.006383901446161625 0 -0.034524950246883249 -0.0063063833700738401 0 -0.035034015878872816 -0.0051297279785226906 0 -0.036403358852141882 -0.006383901446161625 0 -0.035902749525845851 -0.0067645639281024225 0 -0.034524950246883249 -0.0063063833700738401 0 -0.031911187804199846 -0.008522765097566597 0 -0.030443060560230648 -0.008195830112786821 0 -0.036884897380518457 -0.0067112967628754055 0 -0.036403358852141882 -0.006383901446161625 0 -0.037106163333777399 -0.0066209071418892752 0 -0.036884897380518457 -0.0067112967628754055 0 -0.037410711766668492 -0.0069636056551771472 0 -0.037106163333777399 -0.0066209071418892752 0 -0.029893213195023659 0.00605219307966733 0 -0.031800469345704019 0.0011039583662596577 0 -0.035313716531323251 0.0021710994925149768 0 -0.026011791969541658 -0.0099141721460561365 0 -0.030443060560230648 -0.008195830112786821 0 -0.029893213195023659 0.00605219307966733 0 -0.025858845619202403 0.0031321780158127693 0 -0.028588981340012105 0.00092743598314731443 0 -0.029893213195023659 0.00605219307966733 0 -0.031800469345704019 0.0011039583662596577 0 -0.028588981340012105 0.00092743598314731443 0 -0.024485457672175217 0.0057679538599460208 0 -0.029893213195023659 0.00605219307966733 0 -0.025858845619202403 0.0031321780158127693 0 -0.024485457672175217 0.0057679538599460208 0 -0.023351556817221196 0.0026351600544636117 0 -0.025858845619202403 0.0031321780158127693 0 -0.023351556817221196 0.0026351600544636117 0 -0.025858845619202403 0.0031321780158127693 0 -0.024913985025881762 -0.00014711669890027696 0 -0.025858845619202403 0.0031321780158127693 0 -0.024913985025881762 -0.00014711669890027696 0 -0.028588981340012105 0.00092743598314731443 0 -0.022643449474862735 -0.0025300176600831881 0 -0.025251738061624909 -0.0031273951646146447 0 -0.024913985025881762 -0.00014711669890027696 0 -0.025251738061624909 -0.0031273951646146447 0 -0.024913985025881762 -0.00014711669890027696 0 -0.02792776348875816 -0.002184318253728309 0 -0.024913985025881762 -0.00014711669890027696 0 -0.02792776348875816 -0.002184318253728309 0 -0.028588981340012105 0.00092743598314731443 0 -0.02792776348875816 -0.002184318253728309 0 -0.030980199628893132 -0.0019508591801663557 0 -0.028588981340012105 0.00092743598314731443 0 -0.031800469345704019 0.0011039583662596577 0 -0.030980199628893132 -0.0019508591801663557 0 -0.028588981340012105 0.00092743598314731443 0 -0.055242974903119212 -0.011373320217594043 0 -0.055169578005505961 -0.012447352067589044 0 -0.055057137383832465 -0.012320597607255571 0 -0.055242974903119212 -0.011373320217594043 0 -0.055057137383832465 -0.012320597607255571 0 -0.055032261126712209 -0.0114676959822954 0 -0.055242974903119212 -0.011373320217594043 0 -0.054998251240972858 -0.011859128726745967 0 -0.055000257623246784 -0.0086169485513323436 0 -0.055242974903119212 -0.011373320217594043 0 -0.054998251240972858 -0.011859128726745967 0 -0.055169578005505961 -0.012447352067589044 0 -0.054998251240972858 -0.011859128726745967 0 -0.055164354899927368 -0.013470957287258055 0 -0.055169578005505961 -0.012447352067589044 0 -0.055164354899927368 -0.013470957287258055 0 -0.055169578005505961 -0.012447352067589044 0 -0.054964322231875126 -0.013033315033528886 0 -0.054998251240972858 -0.011859128726745967 0 -0.055164354899927368 -0.013470957287258055 0 -0.054999548936759568 -0.015111622576446212 0 -0.055169578005505961 -0.012447352067589044 0 -0.055057137383832465 -0.012320597607255571 0 -0.054964322231875126 -0.013033315033528886 0 -0.055057137383832465 -0.012320597607255571 0 -0.054979504498208404 -0.013019599762940297 0 -0.054964322231875126 -0.013033315033528886 0 -0.055057137383832465 -0.012320597607255571 0 -0.055019814181046713 -0.0128407754217554 0 -0.0549037391244016 -0.011807534317572354 0 -0.055057137383832465 -0.012320597607255571 0 -0.055019814181046713 -0.0128407754217554 0 -0.054979504498208404 -0.013019599762940297 0 -0.055019814181046713 -0.0128407754217554 0 -0.0549037391244016 -0.011807534317572354 0 -0.055166871528628737 -0.013064707918359097 0 -0.0549037391244016 -0.011807534317572354 0 -0.055032261126712209 -0.0114676959822954 0 -0.054790189411577692 -0.011164374659805226 0 -0.055057137383832465 -0.012320597607255571 0 -0.0549037391244016 -0.011807534317572354 0 -0.055032261126712209 -0.0114676959822954 0 -0.054790189411577692 -0.011164374659805226 0 -0.054865221775756041 -0.010979480353004402 0 -0.055113516051347781 -0.010529067573878961 0 -0.055032261126712209 -0.0114676959822954 0 -0.054790189411577692 -0.011164374659805226 0 -0.055113516051347781 -0.010529067573878961 0 -0.054790189411577692 -0.011164374659805226 0 -0.054234871335717118 -0.011361376223182458 0 -0.054449953821145515 -0.01130954836043337 0 -0.0549037391244016 -0.011807534317572354 0 -0.054790189411577692 -0.011164374659805226 0 -0.054234871335717118 -0.011361376223182458 0 -0.0549037391244016 -0.011807534317572354 0 -0.054234871335717118 -0.011361376223182458 0 -0.053518394037224706 -0.011073659807971932 0 -0.054449953821145515 -0.01130954836043337 0 -0.054106307379354013 -0.011679537956784858 0 -0.05383313415435572 -0.01149595884353697 0 -0.054234871335717118 -0.011361376223182458 0 -0.054449953821145515 -0.01130954836043337 0 -0.05383313415435572 -0.01149595884353697 0 -0.054449953821145515 -0.01130954836043337 0 -0.054865221775756041 -0.010979480353004402 0 -0.05459639028563909 -0.011459643530098006 0 -0.054790189411577692 -0.011164374659805226 0 -0.054449953821145515 -0.01130954836043337 0 -0.054865221775756041 -0.010979480353004402 0 -0.054865221775756041 -0.010979480353004402 0 -0.055113516051347781 -0.010529067573878961 0 -0.055173613552754838 -0.010820525567102121 0 -0.054865221775756041 -0.010979480353004402 0 -0.055173613552754838 -0.010820525567102121 0 -0.05459639028563909 -0.011459643530098006 0 -0.055242974903119212 -0.011373320217594043 0 -0.055032261126712209 -0.0114676959822954 0 -0.055113516051347781 -0.010529067573878961 0 -0.055242974903119212 -0.011373320217594043 0 -0.055113516051347781 -0.010529067573878961 0 -0.055000257623246784 -0.0086169485513323436 0 -0.054999977855021795 -0.0086094274723498426 0 -0.055000021896517717 -0.0054083655828453623 0 -0.056842198176071425 -0.0067731025866067185 0 -0.055113516051347781 -0.010529067573878961 0 -0.055000257623246784 -0.0086169485513323436 0 -0.055173613552754838 -0.010820525567102121 0 -0.055000028791086432 -0.0086092216204833438 0 -0.055307750868519003 -0.008109399147594001 0 -0.055000021896517717 -0.0054083655828453623 0 -0.056842198176071425 -0.0067731025866067185 0 -0.056849841071096113 -0.0041755366108992215 0 -0.055173613552754838 -0.010820525567102121 0 -0.054807019169619227 -0.011930849099415348 0 -0.05459639028563909 -0.011459643530098006 0 -0.055307750868519003 -0.008109399147594001 0 -0.055755350493280419 -0.0068619303945425883 0 -0.056842198176071425 -0.0067731025866067185 0 -0.056849841071096113 -0.0041755366108992215 0 -0.058729747035524048 -0.0049250778383513804 0 -0.056849841071096113 -0.0041755366108992215 0 -0.058414818981715542 -0.0031887314203964991 0 -0.058729747035524048 -0.0049250778383513804 0 -0.055000021896517717 -0.0054083655828453623 0 -0.056849841071096113 -0.0041755366108992215 0 -0.054999754815481722 -0.0022070880189210195 0 -0.056849841071096113 -0.0041755366108992215 0 -0.054999754815481722 -0.0022070880189210195 0 -0.057011665549964924 -0.0022168360236028647 0 -0.056849841071096113 -0.0041755366108992215 0 -0.058414818981715542 -0.0031887314203964991 0 -0.057011665549964924 -0.0022168360236028647 0 -0.058414818981715542 -0.0031887314203964991 0 -0.057011665549964924 -0.0022168360236028647 0 -0.058796527102924032 -0.0015506043437729315 0 -0.057011665549964924 -0.0022168360236028647 0 -0.056637657364261358 9.3980967244098094e-05 0 -0.058796527102924032 -0.0015506043437729315 0 -0.056436099441888543 -0.0022172342355029112 0 -0.056673266398158874 -0.0028525580172513946 0 -0.057088665489423179 5.650831133692672e-05 0 -0.056637657364261358 9.3980967244098094e-05 0 -0.057521690483065831 -0.0004678553357917001 0 -0.056271875550990821 0.00063333435420197997 0 -0.057088665489423179 5.650831133692672e-05 0 -0.056637657364261358 9.3980967244098094e-05 0 -0.054999754815481722 -0.0022070880189210195 0 -0.057011665549964924 -0.0022168360236028647 0 -0.056637657364261358 9.3980967244098094e-05 0 -0.054999622804930766 0.0009951302581060141 0 -0.056271875550990821 0.00063333435420197997 0 -0.054999754815481722 -0.0022070880189210195 0 -0.056271875550990821 0.00063333435420197997 0 -0.054999754815481722 -0.0022070880189210195 0 -0.056637657364261358 9.3980967244098094e-05 0 -0.058452563354724173 9.2604819650391853e-05 0 -0.057766836450545242 0.00023706470831361297 0 -0.058049235184331097 -0.00025127063029759087 0 -0.058452563354724173 9.2604819650391853e-05 0 -0.058049235184331097 -0.00025127063029759087 0 -0.058379463886726941 -0.00047188254158555908 0 -0.057766836450545242 0.00023706470831361297 0 -0.058049235184331097 -0.00025127063029759087 0 -0.057521690483065831 -0.0004678553357917001 0 -0.057766836450545242 0.00023706470831361297 0 -0.057088665489423179 5.650831133692672e-05 0 -0.057521690483065831 -0.0004678553357917001 0 -0.058049235184331097 -0.00025127063029759087 0 -0.057521690483065831 -0.0004678553357917001 0 -0.058088408896099293 -0.00081894761485057604 0 -0.058414818981715542 -0.0031887314203964991 0 -0.058796527102924032 -0.0015506043437729315 0 -0.060686398961302325 -0.0030208694104724241 0 -0.056673266398158874 -0.0028525580172513946 0 -0.056396230408674496 -0.0041933493615852867 0 -0.058049235184331097 -0.00025127063029759087 0 -0.058088408896099293 -0.00081894761485057604 0 -0.058379463886726941 -0.00047188254158555908 0 -0.058115055607665757 -0.00073075954713501708 0 -0.058379463886726941 -0.00047188254158555908 0 -0.058437875546396047 -0.00097287002589744817 0 -0.056396230408674496 -0.0041933493615852867 0 -0.057088015103905994 -0.0033686388156495967 0 -0.054224999008151205 -0.012632976046176428 0 -0.054203431182847324 -0.012006318640688067 0 -0.053752208654666046 -0.012328053480687337 0 -0.056396230408674496 -0.0041933493615852867 0 -0.056307278381099037 -0.0059552820576133205 0 -0.054203431182847324 -0.012006318640688067 0 -0.053750508195188708 -0.011982726249066279 0 -0.053752208654666046 -0.012328053480687337 0 -0.058414818981715542 -0.0031887314203964991 0 -0.060686398961302325 -0.0030208694104724241 0 -0.058729747035524048 -0.0049250778383513804 0 -0.054224999008151205 -0.012632976046176428 0 -0.054203431182847324 -0.012006318640688067 0 -0.054807019169619227 -0.011930849099415348 0 -0.056396230408674496 -0.0041933493615852867 0 -0.055755350493280419 -0.0068619303945425883 0 -0.054203431182847324 -0.012006318640688067 0 -0.054807019169619227 -0.011930849099415348 0 -0.05459639028563909 -0.011459643530098006 0 -0.054203431182847324 -0.012006318640688067 0 -0.054106307379354013 -0.011679537956784858 0 -0.053750508195188708 -0.011982726249066279 0 -0.054203431182847324 -0.012006318640688067 0 -0.05459639028563909 -0.011459643530098006 0 -0.054106307379354013 -0.011679537956784858 0 -0.054449953821145515 -0.01130954836043337 0 -0.05459639028563909 -0.011459643530098006 0 -0.054106307379354013 -0.011679537956784858 0 -0.054106307379354013 -0.011679537956784858 0 -0.053736779619963634 -0.011734391002506363 0 -0.05383313415435572 -0.01149595884353697 0 -0.054106307379354013 -0.011679537956784858 0 -0.053736779619963634 -0.011734391002506363 0 -0.053750508195188708 -0.011982726249066279 0 -0.053736779619963634 -0.011734391002506363 0 -0.0533651224384896 -0.011891451239802793 0 -0.053091654858128917 -0.011555047767707386 0 -0.0533651224384896 -0.011891451239802793 0 -0.05324934206543229 -0.012069451303840682 0 -0.053750508195188708 -0.011982726249066279 0 -0.055867556916216386 -0.007844993722954316 0 -0.056130322711158066 -0.007458216959150229 0 -0.053736779619963634 -0.011734391002506363 0 -0.0533651224384896 -0.011891451239802793 0 -0.053750508195188708 -0.011982726249066279 0 -0.051320875824841801 -0.011099608883611086 0 -0.052173877979749657 -0.011589026791937969 0 -0.051893830905087424 -0.010873634653986504 0 -0.052173877979749657 -0.011589026791937969 0 -0.052285088738625661 -0.01140447976902466 0 -0.05252355853571325 -0.011591908655135491 0 -0.0533651224384896 -0.011891451239802793 0 -0.052173877979749657 -0.011589026791937969 0 -0.053091654858128917 -0.011555047767707386 0 -0.056130322711158066 -0.007458216959150229 0 -0.05580960568222823 -0.0076486817371633565 0 -0.0533651224384896 -0.011891451239802793 0 -0.053004519251124801 -0.012360371301026298 0 -0.052173877979749657 -0.011589026791937969 0 -0.052173877979749657 -0.011589026791937969 0 -0.051893830905087424 -0.010873634653986504 0 -0.052285088738625661 -0.01140447976902466 0 -0.051320875824841801 -0.011099608883611086 0 -0.051304396376331669 -0.010042767233826288 0 -0.051893830905087424 -0.010873634653986504 0 -0.058757737400431963 -0.0012221264913614823 0 -0.058729368717705246 -0.00091364097121825541 0 -0.059054290041603397 -0.00077749258413839148 0 -0.056130322711158066 -0.007458216959150229 0 -0.055585554644110073 -0.0055381344242717706 0 -0.05324934206543229 -0.012069451303840682 0 -0.053750508195188708 -0.011982726249066279 0 -0.053752208654666046 -0.012328053480687337 0 -0.056130322711158066 -0.007458216959150229 0 -0.056307278381099037 -0.0059552820576133205 0 -0.058757737400431963 -0.0012221264913614823 0 -0.058729368717705246 -0.00091364097121825541 0 -0.058437875546396047 -0.00097287002589744817 0 -0.058729368717705246 -0.00091364097121825541 0 -0.058437875546396047 -0.00097287002589744817 0 -0.058665669270263218 -0.00068328775297165874 0 -0.058379463886726941 -0.00047188254158555908 0 -0.058665669270263218 -0.00068328775297165874 0 -0.05883380583863753 -0.0003551599793957557 0 -0.058379463886726941 -0.00047188254158555908 0 -0.058437875546396047 -0.00097287002589744817 0 -0.058665669270263218 -0.00068328775297165874 0 -0.059054290041603397 -0.00077749258413839148 0 -0.05883380583863753 -0.0003551599793957557 0 -0.059327971056829597 -0.00034485909653786428 0 -0.058665669270263218 -0.00068328775297165874 0 -0.059054290041603397 -0.00077749258413839148 0 -0.05883380583863753 -0.0003551599793957557 0 -0.058729368717705246 -0.00091364097121825541 0 -0.058665669270263218 -0.00068328775297165874 0 -0.059054290041603397 -0.00077749258413839148 0 -0.059036620313323344 5.2830265253346544e-05 0 -0.05883380583863753 -0.0003551599793957557 0 -0.059327971056829597 -0.00034485909653786428 0 -0.058452563354724173 9.2604819650391853e-05 0 -0.058379463886726941 -0.00047188254158555908 0 -0.05883380583863753 -0.0003551599793957557 0 -0.058452563354724173 9.2604819650391853e-05 0 -0.059036620313323344 5.2830265253346544e-05 0 -0.05883380583863753 -0.0003551599793957557 0 -0.05126375555999748 -0.0066195395897057007 0 -0.051053289202876738 -0.0085428452973103416 0 -0.052223233835359331 -0.0075779095862281961 0 -0.051053289202876738 -0.0085428452973103416 0 -0.052205807031372731 -0.0094972870054813273 0 -0.052223233835359331 -0.0075779095862281961 0 -0.054356486476064364 -0.0022032240508456616 0 -0.055037574352785626 -0.003922657216784687 0 -0.059588308968331428 5.1953932443385209e-05 0 -0.059036620313323344 5.2830265253346544e-05 0 -0.059327971056829597 -0.00034485909653786428 0 -0.055585554644110073 -0.0055381344242717706 0 -0.055037574352785626 -0.003922657216784687 0 -0.051304396376331669 -0.010042767233826288 0 -0.051053289202876738 -0.0085428452973103416 0 -0.051728490232501062 -0.0099059840429923975 0 -0.051053289202876738 -0.0085428452973103416 0 -0.051728490232501062 -0.0099059840429923975 0 -0.052205807031372731 -0.0094972870054813273 0 -0.052205807031372731 -0.0094972870054813273 0 -0.052168742344277118 -0.010880008638227455 0 -0.052808384698354797 -0.010963833714803868 0 -0.051728490232501062 -0.0099059840429923975 0 -0.052205807031372731 -0.0094972870054813273 0 -0.052168742344277118 -0.010880008638227455 0 -0.051304396376331669 -0.010042767233826288 0 -0.051728490232501062 -0.0099059840429923975 0 -0.051893830905087424 -0.010873634653986504 0 -0.051728490232501062 -0.0099059840429923975 0 -0.052168742344277118 -0.010880008638227455 0 -0.051893830905087424 -0.010873634653986504 0 -0.052168742344277118 -0.010880008638227455 0 -0.052285088738625661 -0.01140447976902466 0 -0.052603897869166687 -0.011630502670796834 0 -0.052168742344277118 -0.010880008638227455 0 -0.051893830905087424 -0.010873634653986504 0 -0.052285088738625661 -0.01140447976902466 0 -0.052168742344277118 -0.010880008638227455 0 -0.052603897869166687 -0.011630502670796834 0 -0.052808384698354797 -0.010963833714803868 0 -0.052603897869166687 -0.011630502670796834 0 -0.053390637142481712 -0.011859352784034716 0 -0.052808384698354797 -0.010963833714803868 0 -0.052603897869166687 -0.011630502670796834 0 -0.053460667019545133 -0.012416275195723862 0 -0.053390637142481712 -0.011859352784034716 0 -0.054512453370188299 -0.013006810735644688 0 -0.05408719553957763 -0.012792713123774715 0 -0.053460667019545133 -0.012416275195723862 0 -0.052603897869166687 -0.011630502670796834 0 -0.052614154004169578 -0.011712811822179621 0 -0.053460667019545133 -0.012416275195723862 0 -0.053919216532886526 -0.012171987700915524 0 -0.053888825242990608 -0.012209997602573618 0 -0.052603897869166687 -0.011630502670796834 0 -0.052614154004169578 -0.011712811822179621 0 -0.05252355853571325 -0.011591908655135491 0 -0.052285088738625661 -0.01140447976902466 0 -0.052603897869166687 -0.011630502670796834 0 -0.05252355853571325 -0.011591908655135491 0 -0.052173877979749657 -0.011589026791937969 0 -0.05252355853571325 -0.011591908655135491 0 -0.053091654858128917 -0.011555047767707386 0 -0.05252355853571325 -0.011591908655135491 0 -0.053186268110483943 -0.011458494228878662 0 -0.053091654858128917 -0.011555047767707386 0 -0.054234871335717118 -0.011361376223182458 0 -0.053186268110483943 -0.011458494228878662 0 -0.05383313415435572 -0.01149595884353697 0 -0.053736779619963634 -0.011734391002506363 0 -0.05383313415435572 -0.01149595884353697 0 -0.053091654858128917 -0.011555047767707386 0 -0.053186268110483943 -0.011458494228878662 0 -0.05383313415435572 -0.01149595884353697 0 -0.053091654858128917 -0.011555047767707386 0 -0.054234871335717118 -0.011361376223182458 0 -0.053186268110483943 -0.011458494228878662 0 -0.053518394037224706 -0.011073659807971932 0 -0.052614154004169578 -0.011712811822179621 0 -0.05252355853571325 -0.011591908655135491 0 -0.053186268110483943 -0.011458494228878662 0 -0.053919216532886526 -0.012171987700915524 0 -0.054067058125008595 -0.012071779760219189 0 -0.052614154004169578 -0.011712811822179621 0 -0.053186268110483943 -0.011458494228878662 0 -0.053518394037224706 -0.011073659807971932 0 -0.054512453370188299 -0.013006810735644688 0 -0.055032873546657209 -0.012704522889066773 0 -0.054738839609132749 -0.013008381561850911 0 -0.0549037391244016 -0.011807534317572354 0 -0.055032873546657209 -0.012704522889066773 0 -0.055166871528628737 -0.013064707918359097 0 -0.054180906543405655 -0.01202408224331618 0 -0.054067058125008595 -0.012071779760219189 0 -0.055032873546657209 -0.012704522889066773 0 -0.055166871528628737 -0.013064707918359097 0 -0.054738839609132749 -0.013008381561850911 0 -0.054738839609132749 -0.013008381561850911 0 -0.054326785844752146 -0.013045972001589516 0 -0.054689553675810104 -0.01352195004296956 0 -0.054326785844752146 -0.013045972001589516 0 -0.05408719553957763 -0.012792713123774715 0 -0.053870122246723398 -0.012747029729767783 0 -0.054738839609132749 -0.013008381561850911 0 -0.054326785844752146 -0.013045972001589516 0 -0.05408719553957763 -0.012792713123774715 0 -0.05408719553957763 -0.012792713123774715 0 -0.053870122246723398 -0.012747029729767783 0 -0.053460667019545133 -0.012416275195723862 0 -0.054512453370188299 -0.013006810735644688 0 -0.054738839609132749 -0.013008381561850911 0 -0.05408719553957763 -0.012792713123774715 0 -0.053870122246723398 -0.012747029729767783 0 -0.053648413545034815 -0.012554485366671956 0 -0.053570772280379431 -0.012322836004276779 0 -0.053870122246723398 -0.012747029729767783 0 -0.053570772280379431 -0.012322836004276779 0 -0.053460667019545133 -0.012416275195723862 0 -0.054326785844752146 -0.013045972001589516 0 -0.053870122246723398 -0.012747029729767783 0 -0.054140038429418801 -0.013143417491257164 0 -0.053870122246723398 -0.012747029729767783 0 -0.053648413545034815 -0.012554485366671956 0 -0.054140038429418801 -0.013143417491257164 0 -0.053648413545034815 -0.012554485366671956 0 -0.052706309377897866 -0.01192093613684758 0 -0.053489847918358382 -0.012491065421104584 0 -0.053648413545034815 -0.012554485366671956 0 -0.053256628928248312 -0.012221241732807669 0 -0.052706309377897866 -0.01192093613684758 0 -0.053256628928248312 -0.012221241732807669 0 -0.052954630836519426 -0.012105910141442926 0 -0.052706309377897866 -0.01192093613684758 0 -0.053648413545034815 -0.012554485366671956 0 -0.053256628928248312 -0.012221241732807669 0 -0.053570772280379431 -0.012322836004276779 0 -0.052954630836519426 -0.012105910141442926 0 -0.05344718010810625 -0.012008040617306232 0 -0.053570772280379431 -0.012322836004276779 0 -0.053256628928248312 -0.012221241732807669 0 -0.052954630836519426 -0.012105910141442926 0 -0.053570772280379431 -0.012322836004276779 0 -0.052954630836519426 -0.012105910141442926 0 -0.053121931363111836 -0.011911090606625169 0 -0.052035188824445917 -0.012118630819996725 0 -0.052954630836519426 -0.012105910141442926 0 -0.053121931363111836 -0.011911090606625169 0 -0.05344718010810625 -0.012008040617306232 0 -0.053121931363111836 -0.011911090606625169 0 -0.05344718010810625 -0.012008040617306232 0 -0.05363421629775178 -0.011618214302527225 0 -0.05344718010810625 -0.012008040617306232 0 -0.053390637142481712 -0.011859352784034716 0 -0.05363421629775178 -0.011618214302527225 0 -0.05344718010810625 -0.012008040617306232 0 -0.053570772280379431 -0.012322836004276779 0 -0.053390637142481712 -0.011859352784034716 0 -0.053570772280379431 -0.012322836004276779 0 -0.053460667019545133 -0.012416275195723862 0 -0.053390637142481712 -0.011859352784034716 0 -0.053390637142481712 -0.011859352784034716 0 -0.053515390580473138 -0.011154203278113378 0 -0.052808384698354797 -0.010963833714803868 0 -0.053390637142481712 -0.011859352784034716 0 -0.053515390580473138 -0.011154203278113378 0 -0.05363421629775178 -0.011618214302527225 0 -0.053515390580473138 -0.011154203278113378 0 -0.053416343511829563 -0.009380935534735603 0 -0.054123961564820591 -0.011011853107399154 0 -0.053515390580473138 -0.011154203278113378 0 -0.054123961564820591 -0.011011853107399154 0 -0.05363421629775178 -0.011618214302527225 0 -0.053515390580473138 -0.011154203278113378 0 -0.052808384698354797 -0.010963833714803868 0 -0.053416343511829563 -0.009380935534735603 0 -0.052205807031372731 -0.0094972870054813273 0 -0.053416343511829563 -0.009380935534735603 0 -0.052223233835359331 -0.0075779095862281961 0 -0.052205807031372731 -0.0094972870054813273 0 -0.052808384698354797 -0.010963833714803868 0 -0.053416343511829563 -0.009380935534735603 0 -0.053416343511829563 -0.009380935534735603 0 -0.054888017070198851 -0.0093550704600832181 0 -0.054123961564820591 -0.011011853107399154 0 -0.053416343511829563 -0.009380935534735603 0 -0.054527924653902139 -0.0078001180094423904 0 -0.054888017070198851 -0.0093550704600832181 0 -0.053416343511829563 -0.009380935534735603 0 -0.054527924653902139 -0.0078001180094423904 0 -0.053771492429189077 -0.0070671430676103562 0 -0.054713661332143081 -0.0048433785213609481 0 -0.054527924653902139 -0.0078001180094423904 0 -0.053771492429189077 -0.0070671430676103562 0 -0.053416343511829563 -0.009380935534735603 0 -0.053771492429189077 -0.0070671430676103562 0 -0.052223233835359331 -0.0075779095862281961 0 -0.053189879950008352 -0.0048130795606526802 0 -0.053771492429189077 -0.0070671430676103562 0 -0.052223233835359331 -0.0075779095862281961 0 -0.053131884573083779 -0.0081712289104191056 0 -0.052339166687196063 -0.0094168793742595361 0 -0.050923061832209002 -0.0084438583710826787 0 -0.050423126507011633 -0.0085882068058050574 0 -0.05097537326593965 -0.0087996846777233535 0 -0.05070058891542617 -0.0081472514696449925 0 -0.050923061832209002 -0.0084438583710826787 0 -0.050423126507011633 -0.0085882068058050574 0 -0.053208537417620355 -0.0081887832014838156 0 -0.053131884573083779 -0.0081712289104191056 0 -0.054713661332143081 -0.0048433785213609481 0 -0.054527924653902139 -0.0078001180094423904 0 -0.056043999680841505 -0.0072028165011868931 0 -0.054527924653902139 -0.0078001180094423904 0 -0.056043999680841505 -0.0072028165011868931 0 -0.054888017070198851 -0.0093550704600832181 0 -0.056043999680841505 -0.0072028165011868931 0 -0.056564451263510306 -0.0077612492376344317 0 -0.054888017070198851 -0.0093550704600832181 0 -0.056564451263510306 -0.0077612492376344317 0 -0.054688942713759146 -0.010995884148168026 0 -0.054888017070198851 -0.0093550704600832181 0 -0.053131884573083779 -0.0081712289104191056 0 -0.053330938817027475 -0.0088110713481668983 0 -0.054688942713759146 -0.010995884148168026 0 -0.054888017070198851 -0.0093550704600832181 0 -0.054123961564820591 -0.011011853107399154 0 -0.05473512175235544 -0.012698242809660551 0 -0.054688942713759146 -0.010995884148168026 0 -0.052754950380182297 -0.012249353057803667 0 -0.054688942713759146 -0.010995884148168026 0 -0.052574097185228028 -0.011840909489947263 0 -0.052754950380182297 -0.012249353057803667 0 -0.054688942713759146 -0.010995884148168026 0 -0.053522611696683521 -0.011561317765522992 0 -0.052574097185228028 -0.011840909489947263 0 -0.054688942713759146 -0.010995884148168026 0 -0.053522611696683521 -0.011561317765522992 0 -0.054123961564820591 -0.011011853107399154 0 -0.053522611696683521 -0.011561317765522992 0 -0.054123961564820591 -0.011011853107399154 0 -0.05363421629775178 -0.011618214302527225 0 -0.053121931363111836 -0.011911090606625169 0 -0.053522611696683521 -0.011561317765522992 0 -0.05363421629775178 -0.011618214302527225 0 -0.053121931363111836 -0.011911090606625169 0 -0.053522611696683521 -0.011561317765522992 0 -0.052323198068581329 -0.011943180424007284 0 -0.052323198068581329 -0.011943180424007284 0 -0.051433227713590539 -0.012038920650658754 0 -0.052574097185228028 -0.011840909489947263 0 -0.052323198068581329 -0.011943180424007284 0 -0.051433227713590539 -0.012038920650658754 0 -0.05088978134003095 -0.012317094553585425 0 -0.051433227713590539 -0.012038920650658754 0 -0.050582659408295323 -0.012045884143279549 0 -0.05088978134003095 -0.012317094553585425 0 -0.051433227713590539 -0.012038920650658754 0 -0.051263282128162065 -0.012288851517544514 0 -0.052574097185228028 -0.011840909489947263 0 -0.051433227713590539 -0.012038920650658754 0 -0.051263282128162065 -0.012288851517544514 0 -0.050582659408295323 -0.012045884143279549 0 -0.053522611696683521 -0.011561317765522992 0 -0.052323198068581329 -0.011943180424007284 0 -0.052574097185228028 -0.011840909489947263 0 -0.051263282128162065 -0.012288851517544514 0 -0.052574097185228028 -0.011840909489947263 0 -0.052754950380182297 -0.012249353057803667 0 -0.051862135679831951 -0.010045637180261347 0 -0.052339166687196063 -0.0094168793742595361 0 -0.050816983569607399 -0.0092529260244028112 0 -0.05097537326593965 -0.0087996846777233535 0 -0.051239584142660347 -0.0085358157490205405 0 -0.050816983569607399 -0.0092529260244028112 0 -0.051239584142660347 -0.0085358157490205405 0 -0.051063445635603937 -0.0089964848396144621 0 -0.051219321901045424 -0.0079628878681195104 0 -0.050923061832209002 -0.0084438583710826787 0 -0.051239584142660347 -0.0085358157490205405 0 -0.050923061832209002 -0.0084438583710826787 0 -0.05097537326593965 -0.0087996846777233535 0 -0.051239584142660347 -0.0085358157490205405 0 -0.051422735940006806 -0.0083766076223129263 0 -0.051459374121572254 -0.0082377194820059604 0 -0.051063445635603937 -0.0089964848396144621 0 -0.051239584142660347 -0.0085358157490205405 0 -0.051459374121572254 -0.0082377194820059604 0 -0.051063445635603937 -0.0089964848396144621 0 -0.051803011251736246 -0.0091617145400126089 0 -0.051422735940006806 -0.0083766076223129263 0 -0.051063445635603937 -0.0089964848396144621 0 -0.051803011251736246 -0.0091617145400126089 0 -0.051063445635603937 -0.0089964848396144621 0 -0.050706437246125322 -0.010840847072211593 0 -0.049191596256701955 -0.010976421905785662 0 -0.049551744584590822 -0.010697414527546207 0 -0.050547515997062378 -0.010984898029229853 0 -0.050230102901950492 -0.0099001919848417854 0 -0.050304455087380004 -0.010113485444480883 0 -0.051803011251736246 -0.0091617145400126089 0 -0.050706437246125322 -0.010840847072211593 0 -0.050547515997062378 -0.010984898029229853 0 -0.051862135679831951 -0.010045637180261347 0 -0.051773349876514371 -0.010283414069033298 0 -0.050816983569607399 -0.0092529260244028112 0 -0.051063445635603937 -0.0089964848396144621 0 -0.050706437246125322 -0.010840847072211593 0 -0.051263282128162065 -0.012288851517544514 0 -0.050706437246125322 -0.010840847072211593 0 -0.050582659408295323 -0.012045884143279549 0 -0.050582659408295323 -0.012045884143279549 0 -0.049616995642121998 -0.012619352366037206 0 -0.05088978134003095 -0.012317094553585425 0 -0.050706437246125322 -0.010840847072211593 0 -0.050582659408295323 -0.012045884143279549 0 -0.050547515997062378 -0.010984898029229853 0 -0.050582659408295323 -0.012045884143279549 0 -0.048143106891625702 -0.013745192007857643 0 -0.049616995642121998 -0.012619352366037206 0 -0.050582659408295323 -0.012045884143279549 0 -0.050547515997062378 -0.010984898029229853 0 -0.050242184452841808 -0.010351737387423052 0 -0.049551744584590822 -0.010697414527546207 0 -0.050547515997062378 -0.010984898029229853 0 -0.050242184452841808 -0.010351737387423052 0 -0.048697992983619633 -0.011626494018147826 0 -0.048233745246557019 -0.011496296374889196 0 -0.047121754435009398 -0.012525121015843339 0 -0.048057223757414579 -0.012931884661735421 0 -0.049329008310628128 -0.012309132048424407 0 -0.048057223757414579 -0.012931884661735421 0 -0.049329008310628128 -0.012309132048424407 0 -0.049616995642121998 -0.012619352366037206 0 -0.048143106891625702 -0.013745192007857643 0 -0.048057223757414579 -0.012931884661735421 0 -0.049616995642121998 -0.012619352366037206 0 -0.047121754435009398 -0.012525121015843339 0 -0.049329008310628128 -0.012309132048424407 0 -0.047726197291619095 -0.011875401574009599 0 -0.049329008310628128 -0.012309132048424407 0 -0.049616995642121998 -0.012619352366037206 0 -0.05088978134003095 -0.012317094553585425 0 -0.049329008310628128 -0.012309132048424407 0 -0.05088978134003095 -0.012317094553585425 0 -0.051597141784412943 -0.012120645889301731 0 -0.05088978134003095 -0.012317094553585425 0 -0.052035188824445917 -0.012118630819996725 0 -0.051597141784412943 -0.012120645889301731 0 -0.052323198068581329 -0.011943180424007284 0 -0.05088978134003095 -0.012317094553585425 0 -0.052035188824445917 -0.012118630819996725 0 -0.053121931363111836 -0.011911090606625169 0 -0.052323198068581329 -0.011943180424007284 0 -0.052035188824445917 -0.012118630819996725 0 -0.052954630836519426 -0.012105910141442926 0 -0.051597141784412943 -0.012120645889301731 0 -0.052706309377897866 -0.01192093613684758 0 -0.052954630836519426 -0.012105910141442926 0 -0.052035188824445917 -0.012118630819996725 0 -0.051597141784412943 -0.012120645889301731 0 -0.049329008310628128 -0.012309132048424407 0 -0.051597141784412943 -0.012120645889301731 0 -0.049225696508626619 -0.011347745054864817 0 -0.051597141784412943 -0.012120645889301731 0 -0.052706309377897866 -0.01192093613684758 0 -0.049225696508626619 -0.011347745054864817 0 -0.052706309377897866 -0.01192093613684758 0 -0.049225696508626619 -0.011347745054864817 0 -0.052171065590139974 -0.011542634438071945 0 -0.049049951767401179 -0.012100689605583383 0 -0.049263582525715791 -0.011872815965824459 0 -0.046726154254664351 -0.011216690503619986 0 -0.049225696508626619 -0.011347745054864817 0 -0.046648648513388534 -0.010257396665973263 0 -0.045341352445369965 -0.010609769767314287 0 -0.046726154254664351 -0.011216690503619986 0 -0.046648648513388534 -0.010257396665973263 0 -0.046301054866249414 -0.01195787627453173 0 -0.046726154254664351 -0.011216690503619986 0 -0.047726197291619095 -0.011875401574009599 0 -0.046726154254664351 -0.011216690503619986 0 -0.047726197291619095 -0.011875401574009599 0 -0.049225696508626619 -0.011347745054864817 0 -0.049329008310628128 -0.012309132048424407 0 -0.047726197291619095 -0.011875401574009599 0 -0.049225696508626619 -0.011347745054864817 0 -0.046648648513388534 -0.010257396665973263 0 -0.046320801600270155 -0.009743435870940273 0 -0.045510173944941362 -0.0096932574849299714 0 -0.044832568969403082 -0.010018585857494591 0 -0.046648648513388534 -0.010257396665973263 0 -0.045510173944941362 -0.0096932574849299714 0 -0.044832568969403082 -0.010018585857494591 0 -0.045341352445369965 -0.010609769767314287 0 -0.046648648513388534 -0.010257396665973263 0 -0.049225696508626619 -0.011347745054864817 0 -0.046648648513388534 -0.010257396665973263 0 -0.047101186793342978 -0.010168663945244493 0 -0.052706309377897866 -0.01192093613684758 0 -0.052171065590139974 -0.011542634438071945 0 -0.053489847918358382 -0.012491065421104584 0 -0.052171065590139974 -0.011542634438071945 0 -0.053693080493939963 -0.012773849917465835 0 -0.053489847918358382 -0.012491065421104584 0 -0.049263582525715791 -0.011872815965824459 0 -0.049369311745087206 -0.012072982437415496 0 -0.047101186793342978 -0.010168663945244493 0 -0.046320801600270155 -0.009743435870940273 0 -0.046025581783856462 -0.009430381071034076 0 -0.046648648513388534 -0.010257396665973263 0 -0.047101186793342978 -0.010168663945244493 0 -0.046320801600270155 -0.009743435870940273 0 -0.046320801600270155 -0.009743435870940273 0 -0.046038151968265724 -0.0097018700028152806 0 -0.046025581783856462 -0.009430381071034076 0 -0.046320801600270155 -0.009743435870940273 0 -0.046038151968265724 -0.0097018700028152806 0 -0.045701454805438788 -0.0095063126860382083 0 -0.046038151968265724 -0.0097018700028152806 0 -0.046025581783856462 -0.009430381071034076 0 -0.045869353330762613 -0.0099709557560671413 0 -0.046025581783856462 -0.009430381071034076 0 -0.045869353330762613 -0.0099709557560671413 0 -0.04522336108448876 -0.010905066072095916 0 -0.045869353330762613 -0.0099709557560671413 0 -0.045579158495759657 -0.010264334981131927 0 -0.045601900392781836 -0.009819533117286958 0 -0.045869353330762613 -0.0099709557560671413 0 -0.045579158495759657 -0.010264334981131927 0 -0.04522336108448876 -0.010905066072095916 0 -0.046038151968265724 -0.0097018700028152806 0 -0.045793100277420756 -0.009657597660698786 0 -0.045701454805438788 -0.0095063126860382083 0 -0.046038151968265724 -0.0097018700028152806 0 -0.045869353330762613 -0.0099709557560671413 0 -0.045793100277420756 -0.009657597660698786 0 -0.045869353330762613 -0.0099709557560671413 0 -0.045793100277420756 -0.009657597660698786 0 -0.045601900392781836 -0.009819533117286958 0 -0.045793100277420756 -0.009657597660698786 0 -0.04549266030880797 -0.0092978196187194426 0 -0.045601900392781836 -0.009819533117286958 0 -0.045353793039459848 -0.0091884058705004289 0 -0.045701454805438788 -0.0095063126860382083 0 -0.04549266030880797 -0.0092978196187194426 0 -0.045793100277420756 -0.009657597660698786 0 -0.045701454805438788 -0.0095063126860382083 0 -0.04549266030880797 -0.0092978196187194426 0 -0.045353793039459848 -0.0091884058705004289 0 -0.045701454805438788 -0.0095063126860382083 0 -0.044857616270515592 -0.0092304104811738556 0 -0.045701454805438788 -0.0095063126860382083 0 -0.045510173944941362 -0.0096932574849299714 0 -0.044857616270515592 -0.0092304104811738556 0 -0.046320801600270155 -0.009743435870940273 0 -0.045701454805438788 -0.0095063126860382083 0 -0.045510173944941362 -0.0096932574849299714 0 -0.043926069365076828 -0.0093513196166038984 0 -0.045510173944941362 -0.0096932574849299714 0 -0.044857616270515592 -0.0092304104811738556 0 -0.044832568969403082 -0.010018585857494591 0 -0.043926069365076828 -0.0093513196166038984 0 -0.045510173944941362 -0.0096932574849299714 0 -0.043101965242121378 -0.0084401546547134554 0 -0.043926069365076828 -0.0093513196166038984 0 -0.044857616270515592 -0.0092304104811738556 0 -0.043101965242121378 -0.0084401546547134554 0 -0.044857616270515592 -0.0092304104811738556 0 -0.045248235215388941 -0.0087426441544716793 0 -0.045353793039459848 -0.0091884058705004289 0 -0.044857616270515592 -0.0092304104811738556 0 -0.045248235215388941 -0.0087426441544716793 0 -0.043101965242121378 -0.0084401546547134554 0 -0.045248235215388941 -0.0087426441544716793 0 -0.044468326284186427 -0.0076654003253718295 0 -0.040963507070961427 -0.0096477794498457115 0 -0.039940908087222983 -0.010718389824912916 0 -0.045248235215388941 -0.0087426441544716793 0 -0.045576844858704023 -0.0091914098930597713 0 -0.045338292944431306 -0.0092372122321123778 0 -0.040317966268986545 -0.010776062266365346 0 -0.039940908087222983 -0.010718389824912916 0 -0.045248235215388941 -0.0087426441544716793 0 -0.04549266030880797 -0.0092978196187194426 0 -0.045338292944431306 -0.0092372122321123778 0 -0.045353793039459848 -0.0091884058705004289 0 -0.045248235215388941 -0.0087426441544716793 0 -0.04549266030880797 -0.0092978196187194426 0 -0.04549266030880797 -0.0092978196187194426 0 -0.045338292944431306 -0.0092372122321123778 0 -0.045387197891208708 -0.0094987254701268588 0 -0.045338292944431306 -0.0092372122321123778 0 -0.045365211931254687 -0.0095333696208796496 0 -0.045387197891208708 -0.0094987254701268588 0 -0.045365211931254687 -0.0095333696208796496 0 -0.045387197891208708 -0.0094987254701268588 0 -0.045412078294256683 -0.0095836437627134126 0 -0.036288992985318853 -0.015520990596002582 0 -0.035881863578647519 -0.014997921306882397 0 -0.035403854035127615 -0.015601747927625373 0 -0.039940908087222983 -0.010718389824912916 0 -0.04051060551656132 -0.012822135011137211 0 -0.045576844858704023 -0.0091914098930597713 0 -0.045338292944431306 -0.0092372122321123778 0 -0.045365211931254687 -0.0095333696208796496 0 -0.038014504389529184 -0.011213394976557021 0 -0.039940908087222983 -0.010718389824912916 0 -0.036288992985318853 -0.015520990596002582 0 -0.035403854035127615 -0.015601747927625373 0 -0.035901379764597126 -0.016264558477956131 0 -0.035403854035127615 -0.015601747927625373 0 -0.035901379764597126 -0.016264558477956131 0 -0.034930292689588929 -0.016207379182792445 0 -0.045365211931254687 -0.0095333696208796496 0 -0.045399979419769199 -0.0095077353500953032 0 -0.045412078294256683 -0.0095836437627134126 0 -0.04051060551656132 -0.012822135011137211 0 -0.040977563761352892 -0.015216848820762447 0 -0.035901379764597126 -0.016264558477956131 0 -0.034930292689588929 -0.016207379182792445 0 -0.035458559818241239 -0.016797173585767395 0 -0.034930292689588929 -0.016207379182792445 0 -0.034950353302296976 -0.017110204361030362 0 -0.035458559818241239 -0.016797173585767395 0 -0.035901379764597126 -0.016264558477956131 0 -0.035458559818241239 -0.016797173585767395 0 -0.036168307261089196 -0.017183393052046088 0 -0.042536152944325702 -0.016559922373886267 0 -0.040465437621033426 -0.020151990170883829 0 -0.043977035650236473 -0.024682634055393615 0 -0.045933850766306086 -0.021760787393283531 0 -0.042998043089741013 -0.02300088559761395 0 -0.043977035650236473 -0.024682634055393615 0 -0.045933850766306086 -0.021760787393283531 0 -0.046101117107116008 -0.025112922031564587 0 -0.045399979419769199 -0.0095077353500953032 0 -0.045519337425728675 -0.0095151094082274838 0 -0.045464121688341651 -0.0094514844664537207 0 -0.040977563761352892 -0.015216848820762447 0 -0.040465437621033426 -0.020151990170883829 0 -0.034930292689588929 -0.016207379182792445 0 -0.034950353302296976 -0.017110204361030362 0 -0.034456205337900121 -0.016815403340155039 0 -0.045399979419769199 -0.0095077353500953032 0 -0.045519337425728675 -0.0095151094082274838 0 -0.045412078294256683 -0.0095836437627134126 0 -0.042536152944325702 -0.016559922373886267 0 -0.043452904817300797 -0.014192553644857039 0 -0.045933850766306086 -0.021760787393283531 0 -0.046335480710090533 -0.017494439505376141 0 -0.043592620972223453 -0.020149633043823882 0 -0.045664823378929166 -0.0097555447656673972 0 -0.045412078294256683 -0.0095836437627134126 0 -0.045469649451063632 -0.0097827813355600042 0 -0.045519337425728675 -0.0095151094082274838 0 -0.045664823378929166 -0.0097555447656673972 0 -0.045412078294256683 -0.0095836437627134126 0 -0.045387197891208708 -0.0094987254701268588 0 -0.045412078294256683 -0.0095836437627134126 0 -0.045469649451063632 -0.0097827813355600042 0 -0.045387197891208708 -0.0094987254701268588 0 -0.045469649451063632 -0.0097827813355600042 0 -0.045601900392781836 -0.009819533117286958 0 -0.045469649451063632 -0.0097827813355600042 0 -0.045601900392781836 -0.009819533117286958 0 -0.045499720590775936 -0.010162557066466968 0 -0.04549266030880797 -0.0092978196187194426 0 -0.045387197891208708 -0.0094987254701268588 0 -0.045601900392781836 -0.009819533117286958 0 -0.043452904817300797 -0.014192553644857039 0 -0.043603277172881386 -0.0130022691944684 0 -0.045664823378929166 -0.0097555447656673972 0 -0.045499720590775936 -0.010162557066466968 0 -0.04522336108448876 -0.010905066072095916 0 -0.045664823378929166 -0.0097555447656673972 0 -0.045469649451063632 -0.0097827813355600042 0 -0.045499720590775936 -0.010162557066466968 0 -0.045579158495759657 -0.010264334981131927 0 -0.045601900392781836 -0.009819533117286958 0 -0.045499720590775936 -0.010162557066466968 0 -0.045579158495759657 -0.010264334981131927 0 -0.045499720590775936 -0.010162557066466968 0 -0.04522336108448876 -0.010905066072095916 0 -0.043995706985750054 -0.015498958865475402 0 -0.04522336108448876 -0.010905066072095916 0 -0.043785344113510184 -0.010883977158117151 0 -0.046335480710090533 -0.017494439505376141 0 -0.043995706985750054 -0.015498958865475402 0 -0.04522336108448876 -0.010905066072095916 0 -0.043995706985750054 -0.015498958865475402 0 -0.040123793684479755 -0.019136982081679559 0 -0.043785344113510184 -0.010883977158117151 0 -0.047995629442963643 -0.016083252559073245 0 -0.048883188148462001 -0.013500740459165224 0 -0.054039880948631096 -0.01449077035238054 0 -0.054059546350008099 -0.014967862549417042 0 -0.054276052993712291 -0.014092584733318264 0 -0.046335480710090533 -0.017494439505376141 0 -0.043995706985750054 -0.015498958865475402 0 -0.043592620972223453 -0.020149633043823882 0 -0.043995706985750054 -0.015498958865475402 0 -0.040123793684479755 -0.019136982081679559 0 -0.043592620972223453 -0.020149633043823882 0 -0.043592620972223453 -0.020149633043823882 0 -0.041846744895886356 -0.021809627688563978 0 -0.042998043089741013 -0.02300088559761395 0 -0.045933850766306086 -0.021760787393283531 0 -0.043592620972223453 -0.020149633043823882 0 -0.042998043089741013 -0.02300088559761395 0 -0.040123793684479755 -0.019136982081679559 0 -0.043592620972223453 -0.020149633043823882 0 -0.041846744895886356 -0.021809627688563978 0 -0.040123793684479755 -0.019136982081679559 0 -0.041394744483848306 -0.022094327325399909 0 -0.041846744895886356 -0.021809627688563978 0 -0.040123793684479755 -0.019136982081679559 0 -0.041394744483848306 -0.022094327325399909 0 -0.042535457321991425 -0.023344541951308258 0 -0.041394744483848306 -0.022094327325399909 0 -0.041846744895886356 -0.021809627688563978 0 -0.040833134226142799 -0.023389012881481042 0 -0.041394744483848306 -0.022094327325399909 0 -0.040833134226142799 -0.023389012881481042 0 -0.042535457321991425 -0.023344541951308258 0 -0.043977035650236473 -0.024682634055393615 0 -0.042998043089741013 -0.02300088559761395 0 -0.04204283693921184 -0.025721638925164641 0 -0.040833134226142799 -0.023389012881481042 0 -0.042998043089741013 -0.02300088559761395 0 -0.04204283693921184 -0.025721638925164641 0 -0.041846744895886356 -0.021809627688563978 0 -0.040833134226142799 -0.023389012881481042 0 -0.042998043089741013 -0.02300088559761395 0 -0.05240271105689271 -0.017168184605566607 0 -0.052214497199960269 -0.017615000266807734 0 -0.050772541304773919 -0.016610128570135222 0 -0.052577459802154954 -0.015233518157478277 0 -0.047570849142823723 -0.016460600487361889 0 -0.049092646027562623 -0.017620608373284604 0 -0.050772541304773919 -0.016610128570135222 0 -0.047570849142823723 -0.016460600487361889 0 -0.049092646027562623 -0.017620608373284604 0 -0.047570849142823723 -0.016460600487361889 0 -0.047601918921792045 -0.018213853058786245 0 -0.050772541304773919 -0.016610128570135222 0 -0.052987720014907057 -0.015649253854434525 0 -0.047205994751132907 -0.019511318306884063 0 -0.040833134226142799 -0.023389012881481042 0 -0.042535457321991425 -0.023344541951308258 0 -0.045620304571821979 -0.019677901555559235 0 -0.050772541304773919 -0.016610128570135222 0 -0.052987720014907057 -0.015649253854434525 0 -0.052577459802154954 -0.015233518157478277 0 -0.054059546350008099 -0.014967862549417042 0 -0.052987720014907057 -0.015649253854434525 0 -0.053440270371353855 -0.015117981071872505 0 -0.052987720014907057 -0.015649253854434525 0 -0.052577459802154954 -0.015233518157478277 0 -0.053440270371353855 -0.015117981071872505 0 -0.047995629442963643 -0.016083252559073245 0 -0.04772911427322659 -0.017742638147331905 0 -0.052577459802154954 -0.015233518157478277 0 -0.053790933182314565 -0.01520999906543659 0 -0.054397234500956307 -0.014247391149505888 0 -0.052577459802154954 -0.015233518157478277 0 -0.053790933182314565 -0.01520999906543659 0 -0.053440270371353855 -0.015117981071872505 0 -0.053790933182314565 -0.01520999906543659 0 -0.054162912519639207 -0.015364415835791838 0 -0.054725053241036062 -0.015500441217034748 0 -0.053790933182314565 -0.01520999906543659 0 -0.054162912519639207 -0.015364415835791838 0 -0.053440270371353855 -0.015117981071872505 0 -0.054162912519639207 -0.015364415835791838 0 -0.053440270371353855 -0.015117981071872505 0 -0.053904964776895603 -0.014932049297930019 0 -0.054059546350008099 -0.014967862549417042 0 -0.053440270371353855 -0.015117981071872505 0 -0.053904964776895603 -0.014932049297930019 0 -0.054039880948631096 -0.01449077035238054 0 -0.053904964776895603 -0.014932049297930019 0 -0.054192981560715031 -0.014549654894161386 0 -0.054039880948631096 -0.01449077035238054 0 -0.054059546350008099 -0.014967862549417042 0 -0.053904964776895603 -0.014932049297930019 0 -0.054162912519639207 -0.015364415835791838 0 -0.053904964776895603 -0.014932049297930019 0 -0.054466542725739503 -0.015138673465757726 0 -0.054162912519639207 -0.015364415835791838 0 -0.054466542725739503 -0.015138673465757726 0 -0.055027966827452895 -0.015807950309564434 0 -0.053904964776895603 -0.014932049297930019 0 -0.054466542725739503 -0.015138673465757726 0 -0.054192981560715031 -0.014549654894161386 0 -0.054466542725739503 -0.015138673465757726 0 -0.05453016328110382 -0.014484484345150175 0 -0.054192981560715031 -0.014549654894161386 0 -0.05453016328110382 -0.014484484345150175 0 -0.054140312985042349 -0.013978077088321579 0 -0.054192981560715031 -0.014549654894161386 0 -0.05453016328110382 -0.014484484345150175 0 -0.054140312985042349 -0.013978077088321579 0 -0.054148631521263667 -0.013520214093853806 0 -0.05453016328110382 -0.014484484345150175 0 -0.054148631521263667 -0.013520214093853806 0 -0.054592727488500387 -0.013883570688407039 0 -0.054140312985042349 -0.013978077088321579 0 -0.053925134696985629 -0.013346068909502556 0 -0.054148631521263667 -0.013520214093853806 0 -0.054140312985042349 -0.013978077088321579 0 -0.054192981560715031 -0.014549654894161386 0 -0.054030622419609375 -0.014018786758735101 0 -0.054039880948631096 -0.01449077035238054 0 -0.054192981560715031 -0.014549654894161386 0 -0.054030622419609375 -0.014018786758735101 0 -0.054030622419609375 -0.014018786758735101 0 -0.054276052993712291 -0.014092584733318264 0 -0.053909433595928619 -0.013358010876502862 0 -0.054039880948631096 -0.01449077035238054 0 -0.054030622419609375 -0.014018786758735101 0 -0.054276052993712291 -0.014092584733318264 0 -0.049369311745087206 -0.012072982437415496 0 -0.048883188148462001 -0.013500740459165224 0 -0.046025581783856462 -0.009430381071034076 0 -0.04522336108448876 -0.010905066072095916 0 -0.043785344113510184 -0.010883977158117151 0 -0.053693080493939963 -0.012773849917465835 0 -0.054276052993712291 -0.014092584733318264 0 -0.053909433595928619 -0.013358010876502862 0 -0.054030622419609375 -0.014018786758735101 0 -0.053909433595928619 -0.013358010876502862 0 -0.053925134696985629 -0.013346068909502556 0 -0.054140312985042349 -0.013978077088321579 0 -0.054030622419609375 -0.014018786758735101 0 -0.053925134696985629 -0.013346068909502556 0 -0.053909433595928619 -0.013358010876502862 0 -0.053925134696985629 -0.013346068909502556 0 -0.053489847918358382 -0.012491065421104584 0 -0.053925134696985629 -0.013346068909502556 0 -0.053489847918358382 -0.012491065421104584 0 -0.05386403576405311 -0.012962898776346573 0 -0.053693080493939963 -0.012773849917465835 0 -0.053909433595928619 -0.013358010876502862 0 -0.053489847918358382 -0.012491065421104584 0 -0.053648413545034815 -0.012554485366671956 0 -0.053489847918358382 -0.012491065421104584 0 -0.05386403576405311 -0.012962898776346573 0 -0.053648413545034815 -0.012554485366671956 0 -0.05386403576405311 -0.012962898776346573 0 -0.054140038429418801 -0.013143417491257164 0 -0.054140038429418801 -0.013143417491257164 0 -0.054148631521263667 -0.013520214093853806 0 -0.054592727488500387 -0.013883570688407039 0 -0.05386403576405311 -0.012962898776346573 0 -0.054140038429418801 -0.013143417491257164 0 -0.054148631521263667 -0.013520214093853806 0 -0.053925134696985629 -0.013346068909502556 0 -0.05386403576405311 -0.012962898776346573 0 -0.054148631521263667 -0.013520214093853806 0 -0.055119266337739829 -0.014211847198508824 0 -0.054689553675810104 -0.01352195004296956 0 -0.055080219927684047 -0.013692298235145266 0 -0.055119266337739829 -0.014211847198508824 0 -0.054592727488500387 -0.013883570688407039 0 -0.054689553675810104 -0.01352195004296956 0 -0.054140038429418801 -0.013143417491257164 0 -0.054592727488500387 -0.013883570688407039 0 -0.054689553675810104 -0.01352195004296956 0 -0.054326785844752146 -0.013045972001589516 0 -0.054140038429418801 -0.013143417491257164 0 -0.054689553675810104 -0.01352195004296956 0 -0.054738839609132749 -0.013008381561850911 0 -0.054689553675810104 -0.01352195004296956 0 -0.055080219927684047 -0.013692298235145266 0 -0.055166871528628737 -0.013064707918359097 0 -0.055080219927684047 -0.013692298235145266 0 -0.055268031098745715 -0.013837186809958732 0 -0.055166871528628737 -0.013064707918359097 0 -0.054738839609132749 -0.013008381561850911 0 -0.055080219927684047 -0.013692298235145266 0 -0.055166871528628737 -0.013064707918359097 0 -0.055268031098745715 -0.013837186809958732 0 -0.055146479560795748 -0.013452476007262588 0 -0.055268031098745715 -0.013837186809958732 0 -0.055555251195499776 -0.014989311902799106 0 -0.055188937276112869 -0.014124412110419843 0 -0.055268031098745715 -0.013837186809958732 0 -0.055354529286207627 -0.01439171544169067 0 -0.055555251195499776 -0.014989311902799106 0 -0.055268031098745715 -0.013837186809958732 0 -0.055188937276112869 -0.014124412110419843 0 -0.055146479560795748 -0.013452476007262588 0 -0.055080219927684047 -0.013692298235145266 0 -0.055268031098745715 -0.013837186809958732 0 -0.055354529286207627 -0.01439171544169067 0 -0.055119266337739829 -0.014211847198508824 0 -0.055080219927684047 -0.013692298235145266 0 -0.055354529286207627 -0.01439171544169067 0 -0.055354529286207627 -0.01439171544169067 0 -0.055566909494714815 -0.015172115530621302 0 -0.055555251195499776 -0.014989311902799106 0 -0.055119266337739829 -0.014211847198508824 0 -0.055354529286207627 -0.01439171544169067 0 -0.055566909494714815 -0.015172115530621302 0 -0.055555251195499776 -0.014989311902799106 0 -0.055745159816684445 -0.016223057186136713 0 -0.055372739936932099 -0.015060191326585289 0 -0.055555251195499776 -0.014989311902799106 0 -0.055932039174550155 -0.016177200401156656 0 -0.055745159816684445 -0.016223057186136713 0 -0.055566909494714815 -0.015172115530621302 0 -0.055555251195499776 -0.014989311902799106 0 -0.055932039174550155 -0.016177200401156656 0 -0.055566909494714815 -0.015172115530621302 0 -0.055932039174550155 -0.016177200401156656 0 -0.055593530008847099 -0.015678692693224892 0 -0.055566909494714815 -0.015172115530621302 0 -0.055593530008847099 -0.015678692693224892 0 -0.055116949268496654 -0.014802628368756718 0 -0.055593530008847099 -0.015678692693224892 0 -0.055116949268496654 -0.014802628368756718 0 -0.055094545629375311 -0.015380552268368791 0 -0.055119266337739829 -0.014211847198508824 0 -0.055566909494714815 -0.015172115530621302 0 -0.055116949268496654 -0.014802628368756718 0 -0.055119266337739829 -0.014211847198508824 0 -0.054592727488500387 -0.013883570688407039 0 -0.055116949268496654 -0.014802628368756718 0 -0.05453016328110382 -0.014484484345150175 0 -0.054592727488500387 -0.013883570688407039 0 -0.055116949268496654 -0.014802628368756718 0 -0.05453016328110382 -0.014484484345150175 0 -0.055116949268496654 -0.014802628368756718 0 -0.055094545629375311 -0.015380552268368791 0 -0.054466542725739503 -0.015138673465757726 0 -0.05453016328110382 -0.014484484345150175 0 -0.055094545629375311 -0.015380552268368791 0 -0.055094545629375311 -0.015380552268368791 0 -0.055027966827452895 -0.015807950309564434 0 -0.055603007718061918 -0.016060088964177092 0 -0.054466542725739503 -0.015138673465757726 0 -0.055094545629375311 -0.015380552268368791 0 -0.055027966827452895 -0.015807950309564434 0 -0.055603007718061918 -0.016060088964177092 0 -0.05601591098790417 -0.016459672509196645 0 -0.056082193453887173 -0.016699863851229731 0 -0.055593530008847099 -0.015678692693224892 0 -0.055603007718061918 -0.016060088964177092 0 -0.056082193453887173 -0.016699863851229731 0 -0.055593530008847099 -0.015678692693224892 0 -0.055094545629375311 -0.015380552268368791 0 -0.055603007718061918 -0.016060088964177092 0 -0.055027966827452895 -0.015807950309564434 0 -0.055603007718061918 -0.016060088964177092 0 -0.05601591098790417 -0.016459672509196645 0 -0.054162912519639207 -0.015364415835791838 0 -0.055027966827452895 -0.015807950309564434 0 -0.054725053241036062 -0.015500441217034748 0 -0.055027966827452895 -0.015807950309564434 0 -0.05601591098790417 -0.016459672509196645 0 -0.054725053241036062 -0.015500441217034748 0 -0.053790933182314565 -0.01520999906543659 0 -0.054725053241036062 -0.015500441217034748 0 -0.054397234500956307 -0.014247391149505888 0 -0.054725053241036062 -0.015500441217034748 0 -0.055637558014205668 -0.014976256376738557 0 -0.054397234500956307 -0.014247391149505888 0 -0.05601591098790417 -0.016459672509196645 0 -0.054725053241036062 -0.015500441217034748 0 -0.055637558014205668 -0.014976256376738557 0 -0.05601591098790417 -0.016459672509196645 0 -0.055637558014205668 -0.014976256376738557 0 -0.057000292348067895 -0.014899037367586314 0 -0.056424831613838419 -0.018131645661755791 0 -0.056270200558800297 -0.018662903541978044 0 -0.055637558014205668 -0.014976256376738557 0 -0.056117068716787212 -0.013834531973285187 0 -0.057000292348067895 -0.014899037367586314 0 -0.052669981673287757 -0.018940574246392144 0 -0.052214497199960269 -0.017615000266807734 0 -0.055637558014205668 -0.014976256376738557 0 -0.056117068716787212 -0.013834531973285187 0 -0.054397234500956307 -0.014247391149505888 0 -0.046547615167118493 -0.017434923285535555 0 -0.047570849142823723 -0.016460600487361889 0 -0.04701663413349777 -0.018079405889933366 0 -0.047570849142823723 -0.016460600487361889 0 -0.047601918921792045 -0.018213853058786245 0 -0.04701663413349777 -0.018079405889933366 0 -0.054692241019240348 -0.021635651848632899 0 -0.056062041785143166 -0.021997564626616346 0 -0.059890579366212358 -0.025184073431909614 0 -0.062298884962635741 -0.02447973742681098 0 -0.057285035653893576 -0.020791875307918199 0 -0.056604831603648598 -0.018849833634631042 0 -0.056650324560646829 -0.019300586522248774 0 -0.057285035653893576 -0.020791875307918199 0 -0.055490764180700244 -0.021630072001671555 0 -0.054692241019240348 -0.021635651848632899 0 -0.052669981673287757 -0.018940574246392144 0 -0.054692241019240348 -0.021635651848632899 0 -0.056604831603648598 -0.018849833634631042 0 -0.056543720941199332 -0.018727704075801394 0 -0.056650324560646829 -0.019300586522248774 0 -0.054692241019240348 -0.021635651848632899 0 -0.056270200558800297 -0.018662903541978044 0 -0.056117068716787212 -0.013834531973285187 0 -0.057971604025133613 -0.01356721987481955 0 -0.057000292348067895 -0.014899037367586314 0 -0.05601591098790417 -0.016459672509196645 0 -0.056543720941199332 -0.018727704075801394 0 -0.056395153132664494 -0.017952455514196605 0 -0.056543720941199332 -0.018727704075801394 0 -0.056650324560646829 -0.019300586522248774 0 -0.056395153132664494 -0.017952455514196605 0 -0.056650324560646829 -0.019300586522248774 0 -0.056636841590900058 -0.019091279872415951 0 -0.057285035653893576 -0.020791875307918199 0 -0.056650324560646829 -0.019300586522248774 0 -0.056636841590900058 -0.019091279872415951 0 -0.056395153132664494 -0.017952455514196605 0 -0.056636841590900058 -0.019091279872415951 0 -0.056261166110399739 -0.017617659361797273 0 -0.056357055093024563 -0.01916342335864572 0 -0.056636841590900058 -0.019091279872415951 0 -0.056395153132664494 -0.017952455514196605 0 -0.056261166110399739 -0.017617659361797273 0 -0.056395153132664494 -0.017952455514196605 0 -0.056082193453887173 -0.016699863851229731 0 -0.056261166110399739 -0.017617659361797273 0 -0.05601591098790417 -0.016459672509196645 0 -0.056395153132664494 -0.017952455514196605 0 -0.056082193453887173 -0.016699863851229731 0 -0.055932039174550155 -0.016177200401156656 0 -0.056082193453887173 -0.016699863851229731 0 -0.056261166110399739 -0.017617659361797273 0 -0.055932039174550155 -0.016177200401156656 0 -0.055593530008847099 -0.015678692693224892 0 -0.056082193453887173 -0.016699863851229731 0 -0.055932039174550155 -0.016177200401156656 0 -0.056261166110399739 -0.017617659361797273 0 -0.055745159816684445 -0.016223057186136713 0 -0.056261166110399739 -0.017617659361797273 0 -0.055602564861715761 -0.017863154131191501 0 -0.056357055093024563 -0.01916342335864572 0 -0.056261166110399739 -0.017617659361797273 0 -0.055602564861715761 -0.017863154131191501 0 -0.055745159816684445 -0.016223057186136713 0 -0.055602564861715761 -0.017863154131191501 0 -0.055629705624833173 -0.020301174327584614 0 -0.053809183126973449 -0.018113679024901092 0 -0.055602564861715761 -0.017863154131191501 0 -0.053809183126973449 -0.018113679024901092 0 -0.054804103235103409 -0.016903527375959727 0 -0.055629705624833173 -0.020301174327584614 0 -0.056357055093024563 -0.01916342335864572 0 -0.057285035653893576 -0.020791875307918199 0 -0.055602564861715761 -0.017863154131191501 0 -0.055629705624833173 -0.020301174327584614 0 -0.056357055093024563 -0.01916342335864572 0 -0.056636841590900058 -0.019091279872415951 0 -0.056357055093024563 -0.01916342335864572 0 -0.057285035653893576 -0.020791875307918199 0 -0.057285035653893576 -0.020791875307918199 0 -0.055679966068083002 -0.022475861751509778 0 -0.056332317026569684 -0.024018479823091559 0 -0.055629705624833173 -0.020301174327584614 0 -0.055679966068083002 -0.022475861751509778 0 -0.054743295275548429 -0.02229103126061242 0 -0.055629705624833173 -0.020301174327584614 0 -0.057285035653893576 -0.020791875307918199 0 -0.055679966068083002 -0.022475861751509778 0 -0.056332317026569684 -0.024018479823091559 0 -0.055140865516702109 -0.024394713570783908 0 -0.055608216570065615 -0.026025798981110362 0 -0.055679966068083002 -0.022475861751509778 0 -0.056332317026569684 -0.024018479823091559 0 -0.055140865516702109 -0.024394713570783908 0 -0.056332317026569684 -0.024018479823091559 0 -0.055608216570065615 -0.026025798981110362 0 -0.056401544422510531 -0.026221100140841148 0 -0.056332317026569684 -0.024018479823091559 0 -0.057306997326709012 -0.025732539096163708 0 -0.056401544422510531 -0.026221100140841148 0 -0.057285035653893576 -0.020791875307918199 0 -0.056332317026569684 -0.024018479823091559 0 -0.057719823426833995 -0.024431493935178076 0 -0.059890579366212358 -0.025184073431909614 0 -0.057285035653893576 -0.020791875307918199 0 -0.057719823426833995 -0.024431493935178076 0 -0.056332317026569684 -0.024018479823091559 0 -0.057719823426833995 -0.024431493935178076 0 -0.057306997326709012 -0.025732539096163708 0 -0.055134789829380478 -0.026586288362935053 0 -0.055140865516702109 -0.024394713570783908 0 -0.054994535357518345 -0.025684702590579207 0 -0.055134789829380478 -0.026586288362935053 0 -0.054994535357518345 -0.025684702590579207 0 -0.055000435035138004 -0.027700081914124989 0 -0.055134789829380478 -0.026586288362935053 0 -0.055140865516702109 -0.024394713570783908 0 -0.055608216570065615 -0.026025798981110362 0 -0.055140865516702109 -0.024394713570783908 0 -0.054743295275548429 -0.02229103126061242 0 -0.054994535357518345 -0.025684702590579207 0 -0.055679966068083002 -0.022475861751509778 0 -0.055140865516702109 -0.024394713570783908 0 -0.054743295275548429 -0.02229103126061242 0 -0.055000006630641293 -0.025688119265919813 0 -0.056204041775858499 -0.023403008597125394 0 -0.054999984270528469 -0.023873171098314133 0 -0.05499980035641059 -0.02568343846227376 0 -0.055519606570171659 -0.022421740339011492 0 -0.054743295275548429 -0.02229103126061242 0 -0.054994535357518345 -0.025684702590579207 0 -0.053622051770642595 -0.021462096727085777 0 -0.056204041775858499 -0.023403008597125394 0 -0.054999984270528469 -0.023873171098314133 0 -0.055000007529398917 -0.022058312950581298 0 -0.055629705624833173 -0.020301174327584614 0 -0.054743295275548429 -0.02229103126061242 0 -0.053809183126973449 -0.018113679024901092 0 -0.054743295275548429 -0.02229103126061242 0 -0.053622051770642595 -0.021462096727085777 0 -0.053809183126973449 -0.018113679024901092 0 -0.055519606570171659 -0.022421740339011492 0 -0.055839355744037956 -0.019921471332240558 0 -0.056204041775858499 -0.023403008597125394 0 -0.055000007529398917 -0.022058312950581298 0 -0.056022925386249679 -0.02124087452721166 0 -0.056204041775858499 -0.023403008597125394 0 -0.057376927840099373 -0.021147004017779348 0 -0.056022925386249679 -0.02124087452721166 0 -0.054999414791947469 -0.022069995978311489 0 -0.055843499100730179 -0.020194032042063065 0 -0.055000007529398917 -0.022058312950581298 0 -0.056022925386249679 -0.02124087452721166 0 -0.055157935100244193 -0.020270895220793419 0 -0.057376927840099373 -0.021147004017779348 0 -0.056022925386249679 -0.02124087452721166 0 -0.056539551350257379 -0.019954294669997773 0 -0.055157935100244193 -0.020270895220793419 0 -0.056539551350257379 -0.019954294669997773 0 -0.05530805395884416 -0.018496825545644479 0 -0.055843499100730179 -0.020194032042063065 0 -0.055093022920846259 -0.018205373804159097 0 -0.054847782701517696 -0.020231487608526503 0 -0.054999852675503988 -0.018363714245595662 0 -0.055289376477063737 -0.018405029130518408 0 -0.056022925386249679 -0.02124087452721166 0 -0.055157935100244193 -0.020270895220793419 0 -0.056539551350257379 -0.019954294669997773 0 -0.056539551350257379 -0.019954294669997773 0 -0.05530805395884416 -0.018496825545644479 0 -0.0569275169797063 -0.018716232665994471 0 -0.054291362380931116 -0.014324902578164824 0 -0.054561057760074722 -0.014095178980392226 0 -0.054466239591668214 -0.013725739019379702 0 -0.055093022920846259 -0.018205373804159097 0 -0.055156200299667897 -0.015917096419009305 0 -0.055000292487643515 -0.018364103923516908 0 -0.055304335807593398 -0.018405011573145797 0 -0.055542253930056872 -0.016086430084313114 0 -0.055001028827254439 -0.018360841014032445 0 -0.055093022920846259 -0.018205373804159097 0 -0.055093022920846259 -0.018205373804159097 0 -0.055526342136804928 -0.018067771159211769 0 -0.054291362380931116 -0.014324902578164824 0 -0.054561057760074722 -0.014095178980392226 0 -0.05460081862687436 -0.014379929622944045 0 -0.054656261851321018 -0.014370921682429264 0 -0.054696112805274817 -0.014291997234400704 0 -0.054679615872049239 -0.014033433694258206 0 -0.054561057760074722 -0.014095178980392226 0 -0.054656261851321018 -0.014370921682429264 0 -0.054679615872049239 -0.014033433694258206 0 -0.054561057760074722 -0.014095178980392226 0 -0.054656261851321018 -0.014370921682429264 0 -0.05460081862687436 -0.014379929622944045 0 -0.055526342136804928 -0.018067771159211769 0 -0.055887756211868103 -0.018219702850958131 0 -0.054656261851321018 -0.014370921682429264 0 -0.05460081862687436 -0.014379929622944045 0 -0.054662866808197499 -0.014498949964779366 0 -0.056539551350257379 -0.019954294669997773 0 -0.0569275169797063 -0.018716232665994471 0 -0.05854416175711271 -0.018932591416792915 0 -0.057376927840099373 -0.021147004017779348 0 -0.056539551350257379 -0.019954294669997773 0 -0.05854416175711271 -0.018932591416792915 0 -0.055839355744037956 -0.019921471332240558 0 -0.055887756211868103 -0.018219702850958131 0 -0.055602564861715761 -0.017863154131191501 0 -0.054804103235103409 -0.016903527375959727 0 -0.055185636297615165 -0.015698191553462002 0 -0.053809183126973449 -0.018113679024901092 0 -0.054804103235103409 -0.016903527375959727 0 -0.054311901917712582 -0.015866697717207886 0 -0.054804103235103409 -0.016903527375959727 0 -0.055185636297615165 -0.015698191553462002 0 -0.054311901917712582 -0.015866697717207886 0 -0.055617801946103926 -0.01797294932836957 0 -0.055887756211868103 -0.018219702850958131 0 -0.055602564861715761 -0.017863154131191501 0 -0.055745159816684445 -0.016223057186136713 0 -0.055185636297615165 -0.015698191553462002 0 -0.055745159816684445 -0.016223057186136713 0 -0.055185636297615165 -0.015698191553462002 0 -0.055372739936932099 -0.015060191326585289 0 -0.055185636297615165 -0.015698191553462002 0 -0.055372739936932099 -0.015060191326585289 0 -0.055080834703936155 -0.014541838190010776 0 -0.055372739936932099 -0.015060191326585289 0 -0.055080834703936155 -0.014541838190010776 0 -0.055188937276112869 -0.014124412110419843 0 -0.055555251195499776 -0.014989311902799106 0 -0.055372739936932099 -0.015060191326585289 0 -0.055188937276112869 -0.014124412110419843 0 -0.054656261851321018 -0.014370921682429264 0 -0.054616782006801264 -0.014649990984301085 0 -0.054662866808197499 -0.014498949964779366 0 -0.055928371333822398 -0.018026288032904052 0 -0.055887756211868103 -0.018219702850958131 0 -0.055185636297615165 -0.015698191553462002 0 -0.054616782006801264 -0.014649990984301085 0 -0.054348750595712828 -0.015146974842757403 0 -0.055185636297615165 -0.015698191553462002 0 -0.055080834703936155 -0.014541838190010776 0 -0.054616782006801264 -0.014649990984301085 0 -0.055080834703936155 -0.014541838190010776 0 -0.054616782006801264 -0.014649990984301085 0 -0.054821313642775121 -0.014378944362971807 0 -0.054656261851321018 -0.014370921682429264 0 -0.054616782006801264 -0.014649990984301085 0 -0.054696112805274817 -0.014291997234400704 0 -0.054616782006801264 -0.014649990984301085 0 -0.054821313642775121 -0.014378944362971807 0 -0.054696112805274817 -0.014291997234400704 0 -0.054830879407203562 -0.013970174249886018 0 -0.055188937276112869 -0.014124412110419843 0 -0.05498957211773154 -0.013433674809133067 0 -0.054821313642775121 -0.014378944362971807 0 -0.054696112805274817 -0.014291997234400704 0 -0.054830879407203562 -0.013970174249886018 0 -0.054696112805274817 -0.014291997234400704 0 -0.054830879407203562 -0.013970174249886018 0 -0.054679615872049239 -0.014033433694258206 0 -0.055080834703936155 -0.014541838190010776 0 -0.054821313642775121 -0.014378944362971807 0 -0.054830879407203562 -0.013970174249886018 0 -0.054830879407203562 -0.013970174249886018 0 -0.05498957211773154 -0.013433674809133067 0 -0.054869294566185174 -0.013430574978714025 0 -0.055080834703936155 -0.014541838190010776 0 -0.054830879407203562 -0.013970174249886018 0 -0.055188937276112869 -0.014124412110419843 0 -0.055188937276112869 -0.014124412110419843 0 -0.055146479560795748 -0.013452476007262588 0 -0.05498957211773154 -0.013433674809133067 0 -0.055019814181046713 -0.0128407754217554 0 -0.055166871528628737 -0.013064707918359097 0 -0.055146479560795748 -0.013452476007262588 0 -0.055019814181046713 -0.0128407754217554 0 -0.055146479560795748 -0.013452476007262588 0 -0.05498957211773154 -0.013433674809133067 0 -0.05498957211773154 -0.013433674809133067 0 -0.054979504498208404 -0.013019599762940297 0 -0.054869294566185174 -0.013430574978714025 0 -0.055019814181046713 -0.0128407754217554 0 -0.05498957211773154 -0.013433674809133067 0 -0.054979504498208404 -0.013019599762940297 0 -0.054979504498208404 -0.013019599762940297 0 -0.054964322231875126 -0.013033315033528886 0 -0.054869294566185174 -0.013430574978714025 0 -0.054964322231875126 -0.013033315033528886 0 -0.054869294566185174 -0.013430574978714025 0 -0.054793409211281514 -0.01347894420961096 0 -0.054869294566185174 -0.013430574978714025 0 -0.054793409211281514 -0.01347894420961096 0 -0.054754192766541102 -0.013691669359045821 0 -0.055164354899927368 -0.013470957287258055 0 -0.054793409211281514 -0.01347894420961096 0 -0.054466239591668214 -0.013725739019379702 0 -0.055186931985488914 -0.015143267477580314 0 -0.055156200299667897 -0.015917096419009305 0 -0.055164354899927368 -0.013470957287258055 0 -0.054964322231875126 -0.013033315033528886 0 -0.054793409211281514 -0.01347894420961096 0 -0.055164354899927368 -0.013470957287258055 0 -0.054999548936759568 -0.015111622576446212 0 -0.055542253930056872 -0.016086430084313114 0 -0.054793409211281514 -0.01347894420961096 0 -0.054466239591668214 -0.013725739019379702 0 -0.054658010305128749 -0.013796294642471622 0 -0.055000292487643515 -0.018364103923516908 0 -0.054999548936759568 -0.015111622576446212 0 -0.055542253930056872 -0.016086430084313114 0 -0.054561057760074722 -0.014095178980392226 0 -0.054466239591668214 -0.013725739019379702 0 -0.054658010305128749 -0.013796294642471622 0 -0.054561057760074722 -0.014095178980392226 0 -0.054679615872049239 -0.014033433694258206 0 -0.054658010305128749 -0.013796294642471622 0 -0.054830879407203562 -0.013970174249886018 0 -0.054679615872049239 -0.014033433694258206 0 -0.054754192766541102 -0.013691669359045821 0 -0.054830879407203562 -0.013970174249886018 0 -0.054869294566185174 -0.013430574978714025 0 -0.054754192766541102 -0.013691669359045821 0 -0.054793409211281514 -0.01347894420961096 0 -0.054754192766541102 -0.013691669359045821 0 -0.054658010305128749 -0.013796294642471622 0 -0.054679615872049239 -0.014033433694258206 0 -0.054754192766541102 -0.013691669359045821 0 -0.054658010305128749 -0.013796294642471622 0 -0.057050693592192218 -0.039699226050696694 0 -0.058586027949113689 -0.038299324043244258 0 -0.05675973829613843 -0.037238282212394822 0 -0.057050693592192218 -0.039699226050696694 0 -0.054999761043949651 -0.039436084970647337 0 -0.05675973829613843 -0.037238282212394822 0 -0.054999761043949651 -0.039436084970647337 0 -0.056911476652176211 -0.041815339154480366 0 -0.054999986096423002 -0.042677172041948729 0 -0.057050693592192218 -0.039699226050696694 0 -0.054999761043949651 -0.039436084970647337 0 -0.056911476652176211 -0.041815339154480366 0 -0.057050693592192218 -0.039699226050696694 0 -0.058687466021735461 -0.041428280559476158 0 -0.056911476652176211 -0.041815339154480366 0 -0.058687466021735461 -0.041428280559476158 0 -0.059210781466246573 -0.040827139592980018 0 -0.059645405159619046 -0.041786755499280404 0 -0.057050693592192218 -0.039699226050696694 0 -0.058687466021735461 -0.041428280559476158 0 -0.058586027949113689 -0.038299324043244258 0 -0.058687466021735461 -0.041428280559476158 0 -0.059210781466246573 -0.040827139592980018 0 -0.058558331405512205 -0.040826197039457862 0 -0.058479847440122287 -0.040015543358295214 0 -0.05828064055424903 -0.039131015979822152 0 -0.058558331405512205 -0.040826197039457862 0 -0.058862043100872653 -0.040355729413426036 0 -0.058326020262972122 -0.040024290326340577 0 -0.059210781466246573 -0.040827139592980018 0 -0.058558331405512205 -0.040826197039457862 0 -0.058862043100872653 -0.040355729413426036 0 -0.05828064055424903 -0.039131015979822152 0 -0.05776965338837696 -0.037217787498485221 0 -0.059210781466246573 -0.040827139592980018 0 -0.058862043100872653 -0.040355729413426036 0 -0.059327381292144182 -0.040115837208685598 0 -0.059210781466246573 -0.040827139592980018 0 -0.059327381292144182 -0.040115837208685598 0 -0.059680851614846944 -0.040512994907823494 0 -0.057383092889087994 -0.0335096462370051 0 -0.056041489150358122 -0.032254357072767859 0 -0.058862043100872653 -0.040355729413426036 0 -0.059327381292144182 -0.040115837208685598 0 -0.059012375365149257 -0.039614983090473746 0 -0.059327381292144182 -0.040115837208685598 0 -0.059012375365149257 -0.039614983090473746 0 -0.059870054757826717 -0.040032983523647168 0 -0.058862043100872653 -0.040355729413426036 0 -0.058326020262972122 -0.040024290326340577 0 -0.059012375365149257 -0.039614983090473746 0 -0.058101405977983731 -0.03552365057214503 0 -0.05675973829613843 -0.037238282212394822 0 -0.056306583269333167 -0.03453011571706982 0 -0.058586027949113689 -0.038299324043244258 0 -0.058101405977983731 -0.03552365057214503 0 -0.05675973829613843 -0.037238282212394822 0 -0.054999761043949651 -0.039436084970647337 0 -0.05675973829613843 -0.037238282212394822 0 -0.054999947712062319 -0.036194429612388487 0 -0.054999947712062319 -0.036194429612388487 0 -0.056306583269333167 -0.03453011571706982 0 -0.054999917782339772 -0.032952903712657175 0 -0.05675973829613843 -0.037238282212394822 0 -0.054999947712062319 -0.036194429612388487 0 -0.056306583269333167 -0.03453011571706982 0 -0.056306583269333167 -0.03453011571706982 0 -0.056214456412389403 -0.033142956931381883 0 -0.054999917782339772 -0.032952903712657175 0 -0.056306583269333167 -0.03453011571706982 0 -0.056214456412389403 -0.033142956931381883 0 -0.057555442825667977 -0.032864828154398625 0 -0.056214456412389403 -0.033142956931381883 0 -0.054999917782339772 -0.032952903712657175 0 -0.055506713900739392 -0.031804633017281106 0 -0.05776965338837696 -0.037217787498485221 0 -0.05672942511587295 -0.033692067312683975 0 -0.058101405977983731 -0.03552365057214503 0 -0.056306583269333167 -0.03453011571706982 0 -0.057555442825667977 -0.032864828154398625 0 -0.058046114270854737 -0.03278143985365032 0 -0.057556831775852552 -0.030659300206339161 0 -0.055506713900739392 -0.031804633017281106 0 -0.057712932843929074 -0.029345716955838239 0 -0.057390506272093383 -0.029880543229249695 0 -0.05712460704272055 -0.029230952486760282 0 -0.057712932843929074 -0.029345716955838239 0 -0.057390506272093383 -0.029880543229249695 0 -0.057556831775852552 -0.030659300206339161 0 -0.05672942511587295 -0.033692067312683975 0 -0.056676837248822449 -0.032858989674695492 0 -0.057390506272093383 -0.029880543229249695 0 -0.057556831775852552 -0.030659300206339161 0 -0.057659173408115078 -0.030392290530647393 0 -0.057556831775852552 -0.030659300206339161 0 -0.055506713900739392 -0.031804633017281106 0 -0.055000315041899832 -0.029710957592471055 0 -0.054999917782339772 -0.032952903712657175 0 -0.055506713900739392 -0.031804633017281106 0 -0.055000315041899832 -0.029710957592471055 0 -0.056214456412389403 -0.033142956931381883 0 -0.057555442825667977 -0.032864828154398625 0 -0.055506713900739392 -0.031804633017281106 0 -0.05672942511587295 -0.033692067312683975 0 -0.056311295082203464 -0.033286756593585175 0 -0.057556831775852552 -0.030659300206339161 0 -0.055000315041899832 -0.029710957592471055 0 -0.057659173408115078 -0.030392290530647393 0 -0.054998436484960819 -0.029707729469362391 0 -0.055323239160754656 -0.028535259930086137 0 -0.055154524416439053 -0.028235015243326635 0 -0.054998436484960819 -0.029707729469362391 0 -0.05539727729620348 -0.028635281972188825 0 -0.055323239160754656 -0.028535259930086137 0 -0.055001129824689389 -0.029711400047707167 0 -0.055999342790910629 -0.029810430739342038 0 -0.05539727729620348 -0.028635281972188825 0 -0.055485576398063327 -0.028429477608049095 0 -0.055323239160754656 -0.028535259930086137 0 -0.05539727729620348 -0.028635281972188825 0 -0.055485576398063327 -0.028429477608049095 0 -0.056010652578858067 -0.028616714085077207 0 -0.055617708515877849 -0.02806137263284281 0 -0.055485576398063327 -0.028429477608049095 0 -0.056010652578858067 -0.028616714085077207 0 -0.055617708515877849 -0.02806137263284281 0 -0.055323239160754656 -0.028535259930086137 0 -0.055391033023755115 -0.0275014874512233 0 -0.055617708515877849 -0.02806137263284281 0 -0.055485576398063327 -0.028429477608049095 0 -0.055323239160754656 -0.028535259930086137 0 -0.055134789829380478 -0.026586288362935053 0 -0.055391033023755115 -0.0275014874512233 0 -0.055608216570065615 -0.026025798981110362 0 -0.055617708515877849 -0.02806137263284281 0 -0.055391033023755115 -0.0275014874512233 0 -0.05594525831438437 -0.027259747762920068 0 -0.055391033023755115 -0.0275014874512233 0 -0.055608216570065615 -0.026025798981110362 0 -0.05594525831438437 -0.027259747762920068 0 -0.054998436484960819 -0.029707729469362391 0 -0.055000435035138004 -0.027700081914124989 0 -0.055154524416439053 -0.028235015243326635 0 -0.055134789829380478 -0.026586288362935053 0 -0.055391033023755115 -0.0275014874512233 0 -0.055154524416439053 -0.028235015243326635 0 -0.055134789829380478 -0.026586288362935053 0 -0.055000435035138004 -0.027700081914124989 0 -0.055154524416439053 -0.028235015243326635 0 -0.055323239160754656 -0.028535259930086137 0 -0.055391033023755115 -0.0275014874512233 0 -0.055154524416439053 -0.028235015243326635 0 -0.057011653208978462 -0.027561693045736829 0 -0.058465135752171424 -0.026150002341895576 0 -0.059385738813518774 -0.027333527178617933 0 -0.059890579366212358 -0.025184073431909614 0 -0.057719823426833995 -0.024431493935178076 0 -0.058465135752171424 -0.026150002341895576 0 -0.057719823426833995 -0.024431493935178076 0 -0.058465135752171424 -0.026150002341895576 0 -0.057306997326709012 -0.025732539096163708 0 -0.057011653208978462 -0.027561693045736829 0 -0.058465135752171424 -0.026150002341895576 0 -0.057306997326709012 -0.025732539096163708 0 -0.057011653208978462 -0.027561693045736829 0 -0.057306997326709012 -0.025732539096163708 0 -0.056401544422510531 -0.026221100140841148 0 -0.055608216570065615 -0.026025798981110362 0 -0.056401544422510531 -0.026221100140841148 0 -0.05594525831438437 -0.027259747762920068 0 -0.057011653208978462 -0.027561693045736829 0 -0.056401544422510531 -0.026221100140841148 0 -0.05594525831438437 -0.027259747762920068 0 -0.057011653208978462 -0.027561693045736829 0 -0.056220950841366017 -0.02827653520180606 0 -0.056663785811091986 -0.028867127565180457 0 -0.057011653208978462 -0.027561693045736829 0 -0.05594525831438437 -0.027259747762920068 0 -0.056220950841366017 -0.02827653520180606 0 -0.055617708515877849 -0.02806137263284281 0 -0.056220950841366017 -0.02827653520180606 0 -0.056010652578858067 -0.028616714085077207 0 -0.055617708515877849 -0.02806137263284281 0 -0.05594525831438437 -0.027259747762920068 0 -0.056220950841366017 -0.02827653520180606 0 -0.056220950841366017 -0.02827653520180606 0 -0.056010652578858067 -0.028616714085077207 0 -0.056663785811091986 -0.028867127565180457 0 -0.056010652578858067 -0.028616714085077207 0 -0.056663785811091986 -0.028867127565180457 0 -0.056855464992034595 -0.029511635485058689 0 -0.054915420853430826 -0.026266321145790382 0 -0.054834979285225252 -0.025339519592020257 0 -0.057011653208978462 -0.027561693045736829 0 -0.057192532293971643 -0.029461627191269851 0 -0.059385738813518774 -0.027333527178617933 0 -0.057011653208978462 -0.027561693045736829 0 -0.056663785811091986 -0.028867127565180457 0 -0.057192532293971643 -0.029461627191269851 0 -0.057192532293971643 -0.029461627191269851 0 -0.056700617699030231 -0.029183563644400959 0 -0.055792807939903932 -0.029684770116820535 0 -0.056663785811091986 -0.028867127565180457 0 -0.057192532293971643 -0.029461627191269851 0 -0.056855464992034595 -0.029511635485058689 0 -0.057192532293971643 -0.029461627191269851 0 -0.056700617699030231 -0.029183563644400959 0 -0.056855464992034595 -0.029511635485058689 0 -0.056700617699030231 -0.029183563644400959 0 -0.056855464992034595 -0.029511635485058689 0 -0.056833152709324763 -0.029035730163457198 0 -0.05539727729620348 -0.028635281972188825 0 -0.056010652578858067 -0.028616714085077207 0 -0.056855464992034595 -0.029511635485058689 0 -0.057390506272093383 -0.029880543229249695 0 -0.057659173408115078 -0.030392290530647393 0 -0.056855464992034595 -0.029511635485058689 0 -0.055999342790910629 -0.029810430739342038 0 -0.05644505198575956 -0.029875967562652476 0 -0.056855464992034595 -0.029511635485058689 0 -0.05712460704272055 -0.029230952486760282 0 -0.056833152709324763 -0.029035730163457198 0 -0.057390506272093383 -0.029880543229249695 0 -0.056855464992034595 -0.029511635485058689 0 -0.05712460704272055 -0.029230952486760282 0 -0.057712932843929074 -0.029345716955838239 0 -0.05712460704272055 -0.029230952486760282 0 -0.056942699743893752 -0.028372661897972478 0 -0.05672942511587295 -0.033692067312683975 0 -0.057383092889087994 -0.0335096462370051 0 -0.058326020262972122 -0.040024290326340577 0 -0.058124328694876742 -0.039168197157765865 0 -0.059012375365149257 -0.039614983090473746 0 -0.05712460704272055 -0.029230952486760282 0 -0.056833152709324763 -0.029035730163457198 0 -0.056942699743893752 -0.028372661897972478 0 -0.056525822254597673 -0.028731862036588434 0 -0.056942699743893752 -0.028372661897972478 0 -0.056060799596048941 -0.028152676606399366 0 -0.056700617699030231 -0.029183563644400959 0 -0.056525822254597673 -0.028731862036588434 0 -0.055887996206932772 -0.028825401632211287 0 -0.056700617699030231 -0.029183563644400959 0 -0.056525822254597673 -0.028731862036588434 0 -0.056833152709324763 -0.029035730163457198 0 -0.056525822254597673 -0.028731862036588434 0 -0.056833152709324763 -0.029035730163457198 0 -0.056942699743893752 -0.028372661897972478 0 -0.056060799596048941 -0.028152676606399366 0 -0.055887996206932772 -0.028825401632211287 0 -0.05506059738557683 -0.028112438868866701 0 -0.055887996206932772 -0.028825401632211287 0 -0.05506059738557683 -0.028112438868866701 0 -0.054867372143427094 -0.029082522264704869 0 -0.056525822254597673 -0.028731862036588434 0 -0.056060799596048941 -0.028152676606399366 0 -0.055887996206932772 -0.028825401632211287 0 -0.05506059738557683 -0.028112438868866701 0 -0.053843592106657477 -0.028824263974217824 0 -0.053014861209904209 -0.026373046091727092 0 -0.05506059738557683 -0.028112438868866701 0 -0.053843592106657477 -0.028824263974217824 0 -0.054867372143427094 -0.029082522264704869 0 -0.053843592106657477 -0.028824263974217824 0 -0.054044150983019117 -0.029384595320992107 0 -0.054867372143427094 -0.029082522264704869 0 -0.054044150983019117 -0.029384595320992107 0 -0.054867372143427094 -0.029082522264704869 0 -0.054634002204931184 -0.02978326398415064 0 -0.054867372143427094 -0.029082522264704869 0 -0.054634002204931184 -0.02978326398415064 0 -0.055792807939903932 -0.029684770116820535 0 -0.054044150983019117 -0.029384595320992107 0 -0.054634002204931184 -0.02978326398415064 0 -0.053786740930857474 -0.029988393186152609 0 -0.055887996206932772 -0.028825401632211287 0 -0.054867372143427094 -0.029082522264704869 0 -0.055792807939903932 -0.029684770116820535 0 -0.056700617699030231 -0.029183563644400959 0 -0.055887996206932772 -0.028825401632211287 0 -0.055792807939903932 -0.029684770116820535 0 -0.055792807939903932 -0.029684770116820535 0 -0.054827744169204003 -0.030587595925619181 0 -0.056129754436170257 -0.031075714114633553 0 -0.057192532293971643 -0.029461627191269851 0 -0.055792807939903932 -0.029684770116820535 0 -0.056129754436170257 -0.031075714114633553 0 -0.054827744169204003 -0.030587595925619181 0 -0.053682270482597522 -0.031027480739910084 0 -0.053786740930857474 -0.029988393186152609 0 -0.054634002204931184 -0.02978326398415064 0 -0.055792807939903932 -0.029684770116820535 0 -0.054827744169204003 -0.030587595925619181 0 -0.054634002204931184 -0.02978326398415064 0 -0.054827744169204003 -0.030587595925619181 0 -0.053786740930857474 -0.029988393186152609 0 -0.055180222724733032 -0.032283411677015192 0 -0.055072987295554217 -0.031678985065298329 0 -0.053682270482597522 -0.031027480739910084 0 -0.054827744169204003 -0.030587595925619181 0 -0.055072987295554217 -0.031678985065298329 0 -0.053682270482597522 -0.031027480739910084 0 -0.054692241019240348 -0.021635651848632899 0 -0.050642643111611485 -0.024272855191062599 0 -0.046547615167118493 -0.017434923285535555 0 -0.045327012799804244 -0.017661522217385976 0 -0.046666275610458899 -0.018675774246506301 0 -0.059890579366212358 -0.025184073431909614 0 -0.061548723944245438 -0.024721513172590408 0 -0.059385738813518774 -0.027333527178617933 0 -0.055180222724733032 -0.032283411677015192 0 -0.055072987295554217 -0.031678985065298329 0 -0.056129754436170257 -0.031075714114633553 0 -0.054692241019240348 -0.021635651848632899 0 -0.054834979285225252 -0.025339519592020257 0 -0.054827744169204003 -0.030587595925619181 0 -0.055072987295554217 -0.031678985065298329 0 -0.056129754436170257 -0.031075714114633553 0 -0.059890579366212358 -0.025184073431909614 0 -0.058465135752171424 -0.026150002341895576 0 -0.059385738813518774 -0.027333527178617933 0 -0.047664035031388476 -0.01877271907984962 0 -0.04701663413349777 -0.018079405889933366 0 -0.046666275610458899 -0.018675774246506301 0 -0.047664035031388476 -0.01877271907984962 0 -0.047601918921792045 -0.018213853058786245 0 -0.047815750184382305 -0.01865391025563401 0 -0.047664035031388476 -0.01877271907984962 0 -0.047601918921792045 -0.018213853058786245 0 -0.04701663413349777 -0.018079405889933366 0 -0.046547615167118493 -0.017434923285535555 0 -0.04701663413349777 -0.018079405889933366 0 -0.046666275610458899 -0.018675774246506301 0 -0.053682270482597522 -0.031027480739910084 0 -0.053786740930857474 -0.029988393186152609 0 -0.052444716482219225 -0.029971428788357096 0 -0.047664035031388476 -0.01877271907984962 0 -0.048272722803288225 -0.01844435161760084 0 -0.047205994751132907 -0.019511318306884063 0 -0.050642643111611485 -0.024272855191062599 0 -0.0475361773409924 -0.026848050994646724 0 -0.047664035031388476 -0.01877271907984962 0 -0.046666275610458899 -0.018675774246506301 0 -0.048272722803288225 -0.01844435161760084 0 -0.048052590192038488 -0.034393172698543979 0 -0.051115672714140185 -0.031725043270576819 0 -0.047944329194288551 -0.030279994751049356 0 -0.0475361773409924 -0.026848050994646724 0 -0.04924836895758565 -0.027485107372529315 0 -0.053786740930857474 -0.029988393186152609 0 -0.052444716482219225 -0.029971428788357096 0 -0.053309187907472785 -0.029312312066444 0 -0.054044150983019117 -0.029384595320992107 0 -0.053786740930857474 -0.029988393186152609 0 -0.053309187907472785 -0.029312312066444 0 -0.053843592106657477 -0.028824263974217824 0 -0.054044150983019117 -0.029384595320992107 0 -0.053309187907472785 -0.029312312066444 0 -0.053843592106657477 -0.028824263974217824 0 -0.050844082467096222 -0.028558161264551272 0 -0.053014861209904209 -0.026373046091727092 0 -0.050060530328829497 -0.027427943978827248 0 -0.04924836895758565 -0.027485107372529315 0 -0.053843592106657477 -0.028824263974217824 0 -0.051115672714140185 -0.031725043270576819 0 -0.050844082467096222 -0.028558161264551272 0 -0.050844082467096222 -0.028558161264551272 0 -0.047944329194288551 -0.030279994751049356 0 -0.047944493769872004 -0.026348768631285772 0 -0.051115672714140185 -0.031725043270576819 0 -0.050844082467096222 -0.028558161264551272 0 -0.047944329194288551 -0.030279994751049356 0 -0.046294424526775117 -0.026907783826258296 0 -0.047739761114357238 -0.025002258666104577 0 -0.049990021776225912 -0.026486151533885994 0 -0.046294424526775117 -0.026907783826258296 0 -0.047739761114357238 -0.025002258666104577 0 -0.044276858456245738 -0.024229893722384672 0 -0.047739761114357238 -0.025002258666104577 0 -0.047109474698998725 -0.022905215300838326 0 -0.044276858456245738 -0.024229893722384672 0 -0.047739761114357238 -0.025002258666104577 0 -0.047109474698998725 -0.022905215300838326 0 -0.050402646645927821 -0.02443464213255615 0 -0.054137967843209671 -0.032666654268608465 0 -0.055297828008823297 -0.032519301575420073 0 -0.061424381951776741 -0.040888134926458201 0 -0.060646603231398054 -0.040466821677477123 0 -0.060538419768819574 -0.041011078849663547 0 -0.047917237601491719 -0.028722417625206043 0 -0.051685610023267159 -0.029717771191871446 0 -0.047739761114357238 -0.025002258666104577 0 -0.050402646645927821 -0.02443464213255615 0 -0.049990021776225912 -0.026486151533885994 0 -0.050844082467096222 -0.028558161264551272 0 -0.047944493769872004 -0.026348768631285772 0 -0.053014861209904209 -0.026373046091727092 0 -0.051685610023267159 -0.029717771191871446 0 -0.056041489150358122 -0.032254357072767859 0 -0.05506059738557683 -0.028112438868866701 0 -0.053014861209904209 -0.026373046091727092 0 -0.055619746608945884 -0.026864432940350617 0 -0.050402646645927821 -0.02443464213255615 0 -0.049990021776225912 -0.026486151533885994 0 -0.053741297458581888 -0.026025721041463196 0 -0.055297828008823297 -0.032519301575420073 0 -0.056041489150358122 -0.032254357072767859 0 -0.056921591209608331 -0.032941663270642921 0 -0.056041489150358122 -0.032254357072767859 0 -0.056942699743893752 -0.028372661897972478 0 -0.056060799596048941 -0.028152676606399366 0 -0.055619746608945884 -0.026864432940350617 0 -0.059327381292144182 -0.040115837208685598 0 -0.059890547113477424 -0.040062640991113292 0 -0.059680851614846944 -0.040512994907823494 0 -0.056060799596048941 -0.028152676606399366 0 -0.05506059738557683 -0.028112438868866701 0 -0.055619746608945884 -0.026864432940350617 0 -0.059210781466246573 -0.040827139592980018 0 -0.059680851614846944 -0.040512994907823494 0 -0.059921122352459784 -0.041016881201768315 0 -0.059890547113477424 -0.040062640991113292 0 -0.059680851614846944 -0.040512994907823494 0 -0.060113603858477589 -0.040593845775141989 0 -0.059680851614846944 -0.040512994907823494 0 -0.060113603858477589 -0.040593845775141989 0 -0.059921122352459784 -0.041016881201768315 0 -0.060646603231398054 -0.040466821677477123 0 -0.059890547113477424 -0.040062640991113292 0 -0.060113603858477589 -0.040593845775141989 0 -0.060646603231398054 -0.040466821677477123 0 -0.060113603858477589 -0.040593845775141989 0 -0.060538419768819574 -0.041011078849663547 0 -0.060113603858477589 -0.040593845775141989 0 -0.060538419768819574 -0.041011078849663547 0 -0.059921122352459784 -0.041016881201768315 0 -0.060538419768819574 -0.041011078849663547 0 -0.059921122352459784 -0.041016881201768315 0 -0.060308907115838126 -0.041648338480066154 0 -0.060538419768819574 -0.041011078849663547 0 -0.060308907115838126 -0.041648338480066154 0 -0.06087266209071359 -0.041437587730572809 0 -0.059210781466246573 -0.040827139592980018 0 -0.059921122352459784 -0.041016881201768315 0 -0.059645405159619046 -0.041786755499280404 0 -0.059921122352459784 -0.041016881201768315 0 -0.059645405159619046 -0.041786755499280404 0 -0.060308907115838126 -0.041648338480066154 0 -0.059645405159619046 -0.041786755499280404 0 -0.060308907115838126 -0.041648338480066154 0 -0.060405217729059178 -0.042544108455762737 0 -0.060308907115838126 -0.041648338480066154 0 -0.061045248335349619 -0.042136997885195315 0 -0.060405217729059178 -0.042544108455762737 0 -0.061045248335349619 -0.042136997885195315 0 -0.06154414430632859 -0.041611777584033068 0 -0.06087266209071359 -0.041437587730572809 0 -0.060308907115838126 -0.041648338480066154 0 -0.061045248335349619 -0.042136997885195315 0 -0.06087266209071359 -0.041437587730572809 0 -0.061045248335349619 -0.042136997885195315 0 -0.06154414430632859 -0.041611777584033068 0 -0.062036644847542843 -0.042244058235436394 0 -0.061424381951776741 -0.040888134926458201 0 -0.06154414430632859 -0.041611777584033068 0 -0.06087266209071359 -0.041437587730572809 0 -0.061424381951776741 -0.040888134926458201 0 -0.06154414430632859 -0.041611777584033068 0 -0.062258046080361187 -0.041340913906964337 0 -0.061424381951776741 -0.040888134926458201 0 -0.060538419768819574 -0.041011078849663547 0 -0.06087266209071359 -0.041437587730572809 0 -0.053263716286839055 -0.033337034848608407 0 -0.054223492830830035 -0.035761798890957201 0 -0.042296406513327799 -0.021760161973646646 0 -0.043984909704630148 -0.021448019819615909 0 -0.04110993030030359 -0.019828322355878409 0 -0.042296406513327799 -0.021760161973646646 0 -0.041300457452179182 -0.021550277052555352 0 -0.04110993030030359 -0.019828322355878409 0 -0.042296406513327799 -0.021760161973646646 0 -0.041300457452179182 -0.021550277052555352 0 -0.041348644749555685 -0.022929920231330003 0 -0.042296406513327799 -0.021760161973646646 0 -0.043984909704630148 -0.021448019819615909 0 -0.044276858456245738 -0.024229893722384672 0 -0.054137967843209671 -0.032666654268608465 0 -0.053263716286839055 -0.033337034848608407 0 -0.06154414430632859 -0.041611777584033068 0 -0.062258046080361187 -0.041340913906964337 0 -0.062036644847542843 -0.042244058235436394 0 -0.062258046080361187 -0.041340913906964337 0 -0.062036644847542843 -0.042244058235436394 0 -0.062555985987370985 -0.041810151442726672 0 -0.062036644847542843 -0.042244058235436394 0 -0.062613093442728043 -0.042209910185073612 0 -0.062555985987370985 -0.041810151442726672 0 -0.062258046080361187 -0.041340913906964337 0 -0.062555985987370985 -0.041810151442726672 0 -0.063112076729261432 -0.041848185075875455 0 -0.062613093442728043 -0.042209910185073612 0 -0.062555985987370985 -0.041810151442726672 0 -0.062933550854244819 -0.042069690618984606 0 -0.062555985987370985 -0.041810151442726672 0 -0.062933550854244819 -0.042069690618984606 0 -0.063112076729261432 -0.041848185075875455 0 -0.062933550854244819 -0.042069690618984606 0 -0.063112076729261432 -0.041848185075875455 0 -0.063087171079345999 -0.041975993084517806 0 -0.062613093442728043 -0.042209910185073612 0 -0.062933550854244819 -0.042069690618984606 0 -0.062922275100369865 -0.042339847684358702 0 -0.062922275100369865 -0.042339847684358702 0 -0.063072359012484328 -0.042250901951308567 0 -0.063120942905252928 -0.042427763723962737 0 -0.062933550854244819 -0.042069690618984606 0 -0.062922275100369865 -0.042339847684358702 0 -0.063072359012484328 -0.042250901951308567 0 -0.040019932567444294 -0.019911777613580622 0 -0.04110993030030359 -0.019828322355878409 0 -0.038624106082047811 -0.019240428130890903 0 -0.063072359012484328 -0.042250901951308567 0 -0.063133688576583802 -0.042112522416025276 0 -0.063246622907918285 -0.04230513949407274 0 -0.063072359012484328 -0.042250901951308567 0 -0.063246622907918285 -0.04230513949407274 0 -0.063120942905252928 -0.042427763723962737 0 -0.054223492830830035 -0.035761798890957201 0 -0.048192375143178624 -0.036139501943795185 0 -0.063317139024370389 -0.042062146600343436 0 -0.063112076729261432 -0.041848185075875455 0 -0.063906779745486655 -0.042337749270023428 0 -0.063317139024370389 -0.042062146600343436 0 -0.063430733746601173 -0.042155054951915599 0 -0.063906779745486655 -0.042337749270023428 0 -0.054223492830830035 -0.035761798890957201 0 -0.060204123683190933 -0.039038738221588994 0 -0.04110993030030359 -0.019828322355878409 0 -0.037062581786190651 -0.0179774036714682 0 -0.038624106082047811 -0.019240428130890903 0 -0.062933550854244819 -0.042069690618984606 0 -0.063133688576583802 -0.042112522416025276 0 -0.063087171079345999 -0.041975993084517806 0 -0.062933550854244819 -0.042069690618984606 0 -0.063072359012484328 -0.042250901951308567 0 -0.063133688576583802 -0.042112522416025276 0 -0.063133688576583802 -0.042112522416025276 0 -0.063087171079345999 -0.041975993084517806 0 -0.063190392000602627 -0.042030373677767963 0 -0.063133688576583802 -0.042112522416025276 0 -0.063281120177760317 -0.042158000679852051 0 -0.063190392000602627 -0.042030373677767963 0 -0.063133688576583802 -0.042112522416025276 0 -0.063281120177760317 -0.042158000679852051 0 -0.063246622907918285 -0.04230513949407274 0 -0.063317139024370389 -0.042062146600343436 0 -0.063281120177760317 -0.042158000679852051 0 -0.063190392000602627 -0.042030373677767963 0 -0.063281120177760317 -0.042158000679852051 0 -0.063246622907918285 -0.04230513949407274 0 -0.063393540130833662 -0.042252135219341125 0 -0.063393540130833662 -0.042252135219341125 0 -0.063567605981701372 -0.042266814117169711 0 -0.063436441734568652 -0.042377382426548371 0 -0.063246622907918285 -0.04230513949407274 0 -0.063393540130833662 -0.042252135219341125 0 -0.063436441734568652 -0.042377382426548371 0 -0.063393540130833662 -0.042252135219341125 0 -0.063567605981701372 -0.042266814117169711 0 -0.063430733746601173 -0.042155054951915599 0 -0.063567605981701372 -0.042266814117169711 0 -0.063622242245958263 -0.042403245363461996 0 -0.063436441734568652 -0.042377382426548371 0 -0.063281120177760317 -0.042158000679852051 0 -0.063393540130833662 -0.042252135219341125 0 -0.063430733746601173 -0.042155054951915599 0 -0.063317139024370389 -0.042062146600343436 0 -0.063281120177760317 -0.042158000679852051 0 -0.063430733746601173 -0.042155054951915599 0 -0.039385965427647746 -0.019824863404201316 0 -0.040019932567444294 -0.019911777613580622 0 -0.038624106082047811 -0.019240428130890903 0 -0.039050609724991706 -0.019746031502183115 0 -0.039385965427647746 -0.019824863404201316 0 -0.038624106082047811 -0.019240428130890903 0 -0.039050609724991706 -0.019746031502183115 0 -0.038635493501922726 -0.019972329226620379 0 -0.039265975336988578 -0.020307611032445255 0 -0.039385965427647746 -0.019824863404201316 0 -0.039863645664335846 -0.020264052141227139 0 -0.039265975336988578 -0.020307611032445255 0 -0.039050609724991706 -0.019746031502183115 0 -0.039385965427647746 -0.019824863404201316 0 -0.039265975336988578 -0.020307611032445255 0 -0.039385965427647746 -0.019824863404201316 0 -0.040019932567444294 -0.019911777613580622 0 -0.039863645664335846 -0.020264052141227139 0 -0.040019932567444294 -0.019911777613580622 0 -0.040402864336210972 -0.02015929633387592 0 -0.039863645664335846 -0.020264052141227139 0 -0.040019932567444294 -0.019911777613580622 0 -0.040402864336210972 -0.02015929633387592 0 -0.04110993030030359 -0.019828322355878409 0 -0.040402864336210972 -0.02015929633387592 0 -0.04110993030030359 -0.019828322355878409 0 -0.040558020324514402 -0.020459451713769474 0 -0.063112076729261432 -0.041848185075875455 0 -0.063087171079345999 -0.041975993084517806 0 -0.063190392000602627 -0.042030373677767963 0 -0.063317139024370389 -0.042062146600343436 0 -0.063112076729261432 -0.041848185075875455 0 -0.063190392000602627 -0.042030373677767963 0 -0.061665125380518014 -0.041140065924804951 0 -0.063906779745486655 -0.042337749270023428 0 -0.064114290262867038 -0.042055586974626462 0 -0.037062581786190651 -0.0179774036714682 0 -0.036740245473656452 -0.018706593536626306 0 -0.035980958095454318 -0.018598194541591364 0 -0.06409953889189314 -0.042356596416441974 0 -0.064114290262867038 -0.042055586974626462 0 -0.064318961681429282 -0.042430663544745416 0 -0.06409953889189314 -0.042356596416441974 0 -0.063906779745486655 -0.042337749270023428 0 -0.064114290262867038 -0.042055586974626462 0 -0.037062581786190651 -0.0179774036714682 0 -0.037616202858220357 -0.018706746292223856 0 -0.037216021481432257 -0.018767248165157478 0 -0.037062581786190651 -0.0179774036714682 0 -0.037216021481432257 -0.018767248165157478 0 -0.036740245473656452 -0.018706593536626306 0 -0.063567605981701372 -0.042266814117169711 0 -0.063430733746601173 -0.042155054951915599 0 -0.063906779745486655 -0.042337749270023428 0 -0.063567605981701372 -0.042266814117169711 0 -0.063906779745486655 -0.042337749270023428 0 -0.063729260891231904 -0.042378980330744373 0 -0.063567605981701372 -0.042266814117169711 0 -0.063622242245958263 -0.042403245363461996 0 -0.063729260891231904 -0.042378980330744373 0 -0.037062581786190651 -0.0179774036714682 0 -0.038624106082047811 -0.019240428130890903 0 -0.037616202858220357 -0.018706746292223856 0 -0.038624106082047811 -0.019240428130890903 0 -0.038635493501922726 -0.019972329226620379 0 -0.038085053512598284 -0.019675548146929647 0 -0.039050609724991706 -0.019746031502183115 0 -0.038624106082047811 -0.019240428130890903 0 -0.038635493501922726 -0.019972329226620379 0 -0.038085053512598284 -0.019675548146929647 0 -0.037672921983066286 -0.019250007891287897 0 -0.037415057141942737 -0.01991780939743229 0 -0.038624106082047811 -0.019240428130890903 0 -0.038085053512598284 -0.019675548146929647 0 -0.037672921983066286 -0.019250007891287897 0 -0.038624106082047811 -0.019240428130890903 0 -0.037672921983066286 -0.019250007891287897 0 -0.037616202858220357 -0.018706746292223856 0 -0.037672921983066286 -0.019250007891287897 0 -0.037616202858220357 -0.018706746292223856 0 -0.037216021481432257 -0.018767248165157478 0 -0.037216021481432257 -0.018767248165157478 0 -0.037029332775679061 -0.019201459151927398 0 -0.036740245473656452 -0.018706593536626306 0 -0.037672921983066286 -0.019250007891287897 0 -0.037216021481432257 -0.018767248165157478 0 -0.037029332775679061 -0.019201459151927398 0 -0.037672921983066286 -0.019250007891287897 0 -0.037029332775679061 -0.019201459151927398 0 -0.037415057141942737 -0.01991780939743229 0 -0.037029332775679061 -0.019201459151927398 0 -0.037415057141942737 -0.01991780939743229 0 -0.036398771904594895 -0.019990416389727896 0 -0.037029332775679061 -0.019201459151927398 0 -0.036346605402488033 -0.01917079469147713 0 -0.036398771904594895 -0.019990416389727896 0 -0.036346605402488033 -0.01917079469147713 0 -0.036740245473656452 -0.018706593536626306 0 -0.035980958095454318 -0.018598194541591364 0 -0.037029332775679061 -0.019201459151927398 0 -0.036346605402488033 -0.01917079469147713 0 -0.036740245473656452 -0.018706593536626306 0 -0.036398771904594895 -0.019990416389727896 0 -0.037130933936912969 -0.020698116153767095 0 -0.036186138005226555 -0.021392043393606442 0 -0.037130933936912969 -0.020698116153767095 0 -0.037536962964470316 -0.021655351141061974 0 -0.036186138005226555 -0.021392043393606442 0 -0.037415057141942737 -0.01991780939743229 0 -0.036398771904594895 -0.019990416389727896 0 -0.037130933936912969 -0.020698116153767095 0 -0.037415057141942737 -0.01991780939743229 0 -0.037130933936912969 -0.020698116153767095 0 -0.037975641711222932 -0.020475088662688597 0 -0.037130933936912969 -0.020698116153767095 0 -0.037975641711222932 -0.020475088662688597 0 -0.037536962964470316 -0.021655351141061974 0 -0.037975641711222932 -0.020475088662688597 0 -0.038564680969716013 -0.021575080108962981 0 -0.037536962964470316 -0.021655351141061974 0 -0.038635493501922726 -0.019972329226620379 0 -0.038085053512598284 -0.019675548146929647 0 -0.037975641711222932 -0.020475088662688597 0 -0.038085053512598284 -0.019675548146929647 0 -0.037415057141942737 -0.01991780939743229 0 -0.037975641711222932 -0.020475088662688597 0 -0.038635493501922726 -0.019972329226620379 0 -0.037975641711222932 -0.020475088662688597 0 -0.038736759119628733 -0.020615073415919644 0 -0.038635493501922726 -0.019972329226620379 0 -0.038736759119628733 -0.020615073415919644 0 -0.039265975336988578 -0.020307611032445255 0 -0.038736759119628733 -0.020615073415919644 0 -0.038564680969716013 -0.021575080108962981 0 -0.039347522101985416 -0.021049883221166795 0 -0.037975641711222932 -0.020475088662688597 0 -0.038736759119628733 -0.020615073415919644 0 -0.038564680969716013 -0.021575080108962981 0 -0.038564680969716013 -0.021575080108962981 0 -0.039083377691446403 -0.022518312901975365 0 -0.038251292547864128 -0.022888135411276409 0 -0.038564680969716013 -0.021575080108962981 0 -0.037536962964470316 -0.021655351141061974 0 -0.038251292547864128 -0.022888135411276409 0 -0.037536962964470316 -0.021655351141061974 0 -0.037017043066313531 -0.02251618500120835 0 -0.036186138005226555 -0.021392043393606442 0 -0.037536962964470316 -0.021655351141061974 0 -0.037017043066313531 -0.02251618500120835 0 -0.038251292547864128 -0.022888135411276409 0 -0.041300457452179182 -0.021550277052555352 0 -0.04110993030030359 -0.019828322355878409 0 -0.04076716977820178 -0.020881756135813574 0 -0.040117272824678071 -0.021257014646970232 0 -0.04076716977820178 -0.020881756135813574 0 -0.040251912362834014 -0.020670540337422966 0 -0.040650192644554065 -0.021442256018378542 0 -0.040117272824678071 -0.021257014646970232 0 -0.04076716977820178 -0.020881756135813574 0 -0.041300457452179182 -0.021550277052555352 0 -0.040650192644554065 -0.021442256018378542 0 -0.04076716977820178 -0.020881756135813574 0 -0.04110993030030359 -0.019828322355878409 0 -0.04076716977820178 -0.020881756135813574 0 -0.040558020324514402 -0.020459451713769474 0 -0.04076716977820178 -0.020881756135813574 0 -0.040558020324514402 -0.020459451713769474 0 -0.040251912362834014 -0.020670540337422966 0 -0.040402864336210972 -0.02015929633387592 0 -0.040558020324514402 -0.020459451713769474 0 -0.040251912362834014 -0.020670540337422966 0 -0.040402864336210972 -0.02015929633387592 0 -0.040251912362834014 -0.020670540337422966 0 -0.039863645664335846 -0.020264052141227139 0 -0.039863645664335846 -0.020264052141227139 0 -0.039788187494454404 -0.020681844579789135 0 -0.039265975336988578 -0.020307611032445255 0 -0.040251912362834014 -0.020670540337422966 0 -0.039863645664335846 -0.020264052141227139 0 -0.039788187494454404 -0.020681844579789135 0 -0.038736759119628733 -0.020615073415919644 0 -0.039265975336988578 -0.020307611032445255 0 -0.039347522101985416 -0.021049883221166795 0 -0.039788187494454404 -0.020681844579789135 0 -0.039265975336988578 -0.020307611032445255 0 -0.039347522101985416 -0.021049883221166795 0 -0.040117272824678071 -0.021257014646970232 0 -0.039788187494454404 -0.020681844579789135 0 -0.039347522101985416 -0.021049883221166795 0 -0.040117272824678071 -0.021257014646970232 0 -0.039347522101985416 -0.021049883221166795 0 -0.039582382490831194 -0.021851104950804449 0 -0.040117272824678071 -0.021257014646970232 0 -0.040251912362834014 -0.020670540337422966 0 -0.039788187494454404 -0.020681844579789135 0 -0.040117272824678071 -0.021257014646970232 0 -0.039582382490831194 -0.021851104950804449 0 -0.040511370327581508 -0.0221019871871075 0 -0.038564680969716013 -0.021575080108962981 0 -0.039582382490831194 -0.021851104950804449 0 -0.039083377691446403 -0.022518312901975365 0 -0.038564680969716013 -0.021575080108962981 0 -0.039347522101985416 -0.021049883221166795 0 -0.039582382490831194 -0.021851104950804449 0 -0.039582382490831194 -0.021851104950804449 0 -0.039083377691446403 -0.022518312901975365 0 -0.039846196691400694 -0.022599632882038843 0 -0.039582382490831194 -0.021851104950804449 0 -0.039846196691400694 -0.022599632882038843 0 -0.040511370327581508 -0.0221019871871075 0 -0.039846196691400694 -0.022599632882038843 0 -0.040511370327581508 -0.0221019871871075 0 -0.040372459243896354 -0.023275829695964971 0 -0.041300457452179182 -0.021550277052555352 0 -0.040511370327581508 -0.0221019871871075 0 -0.041348644749555685 -0.022929920231330003 0 -0.040650192644554065 -0.021442256018378542 0 -0.040117272824678071 -0.021257014646970232 0 -0.040511370327581508 -0.0221019871871075 0 -0.041300457452179182 -0.021550277052555352 0 -0.040650192644554065 -0.021442256018378542 0 -0.040511370327581508 -0.0221019871871075 0 -0.040372459243896354 -0.023275829695964971 0 -0.041079755209949456 -0.024423561998694249 0 -0.041348644749555685 -0.022929920231330003 0 -0.040511370327581508 -0.0221019871871075 0 -0.040372459243896354 -0.023275829695964971 0 -0.041348644749555685 -0.022929920231330003 0 -0.039846196691400694 -0.022599632882038843 0 -0.040372459243896354 -0.023275829695964971 0 -0.039352966377480085 -0.023460692798347178 0 -0.039083377691446403 -0.022518312901975365 0 -0.039846196691400694 -0.022599632882038843 0 -0.039352966377480085 -0.023460692798347178 0 -0.040372459243896354 -0.023275829695964971 0 -0.039352966377480085 -0.023460692798347178 0 -0.039872000452097364 -0.024521138105938752 0 -0.039352966377480085 -0.023460692798347178 0 -0.039872000452097364 -0.024521138105938752 0 -0.038694963838783715 -0.024255094519901464 0 -0.039872000452097364 -0.024521138105938752 0 -0.038694963838783715 -0.024255094519901464 0 -0.039236970760543138 -0.025758115642780854 0 -0.040372459243896354 -0.023275829695964971 0 -0.039872000452097364 -0.024521138105938752 0 -0.041079755209949456 -0.024423561998694249 0 -0.039872000452097364 -0.024521138105938752 0 -0.041079755209949456 -0.024423561998694249 0 -0.040497331437370304 -0.025531589442230655 0 -0.037017043066313531 -0.02251618500120835 0 -0.037437238364699525 -0.023756592981503344 0 -0.035587287676081672 -0.023005367067663707 0 -0.037017043066313531 -0.02251618500120835 0 -0.037437238364699525 -0.023756592981503344 0 -0.038251292547864128 -0.022888135411276409 0 -0.039352966377480085 -0.023460692798347178 0 -0.038251292547864128 -0.022888135411276409 0 -0.038694963838783715 -0.024255094519901464 0 -0.037437238364699525 -0.023756592981503344 0 -0.038251292547864128 -0.022888135411276409 0 -0.038694963838783715 -0.024255094519901464 0 -0.039083377691446403 -0.022518312901975365 0 -0.039352966377480085 -0.023460692798347178 0 -0.038251292547864128 -0.022888135411276409 0 -0.037437238364699525 -0.023756592981503344 0 -0.038694963838783715 -0.024255094519901464 0 -0.037901353850514637 -0.025036313404808469 0 -0.038694963838783715 -0.024255094519901464 0 -0.037901353850514637 -0.025036313404808469 0 -0.039236970760543138 -0.025758115642780854 0 -0.037437238364699525 -0.023756592981503344 0 -0.037901353850514637 -0.025036313404808469 0 -0.036306426127724584 -0.025331888074702168 0 -0.037953523093667667 -0.026293637700188239 0 -0.037058961984810845 -0.027395054834112826 0 -0.036306426127724584 -0.025331888074702168 0 -0.037901353850514637 -0.025036313404808469 0 -0.037953523093667667 -0.026293637700188239 0 -0.036306426127724584 -0.025331888074702168 0 -0.037953523093667667 -0.026293637700188239 0 -0.039128925531958611 -0.027233636453160591 0 -0.039236970760543138 -0.025758115642780854 0 -0.037901353850514637 -0.025036313404808469 0 -0.037953523093667667 -0.026293637700188239 0 -0.039236970760543138 -0.025758115642780854 0 -0.037953523093667667 -0.026293637700188239 0 -0.039128925531958611 -0.027233636453160591 0 -0.037058961984810845 -0.027395054834112826 0 -0.040497331437370304 -0.025531589442230655 0 -0.039236970760543138 -0.025758115642780854 0 -0.04026775396084338 -0.026821864972142635 0 -0.040497331437370304 -0.025531589442230655 0 -0.04026775396084338 -0.026821864972142635 0 -0.041616280707641735 -0.025880262368255833 0 -0.039872000452097364 -0.024521138105938752 0 -0.040497331437370304 -0.025531589442230655 0 -0.039236970760543138 -0.025758115642780854 0 -0.039128925531958611 -0.027233636453160591 0 -0.04026775396084338 -0.026821864972142635 0 -0.040354842334520385 -0.028333043996641015 0 -0.039128925531958611 -0.027233636453160591 0 -0.039236970760543138 -0.025758115642780854 0 -0.04026775396084338 -0.026821864972142635 0 -0.04026775396084338 -0.026821864972142635 0 -0.041058888967503898 -0.027438192839238887 0 -0.041616280707641735 -0.025880262368255833 0 -0.041058888967503898 -0.027438192839238887 0 -0.04244763161283447 -0.027206922451035953 0 -0.041616280707641735 -0.025880262368255833 0 -0.041616280707641735 -0.025880262368255833 0 -0.042292078290042938 -0.024187358339260171 0 -0.043332447419956718 -0.025664168297322078 0 -0.04244763161283447 -0.027206922451035953 0 -0.041616280707641735 -0.025880262368255833 0 -0.043332447419956718 -0.025664168297322078 0 -0.041079755209949456 -0.024423561998694249 0 -0.040497331437370304 -0.025531589442230655 0 -0.041616280707641735 -0.025880262368255833 0 -0.042296406513327799 -0.021760161973646646 0 -0.042292078290042938 -0.024187358339260171 0 -0.044276858456245738 -0.024229893722384672 0 -0.041079755209949456 -0.024423561998694249 0 -0.041616280707641735 -0.025880262368255833 0 -0.042292078290042938 -0.024187358339260171 0 -0.042296406513327799 -0.021760161973646646 0 -0.042292078290042938 -0.024187358339260171 0 -0.041348644749555685 -0.022929920231330003 0 -0.041079755209949456 -0.024423561998694249 0 -0.042292078290042938 -0.024187358339260171 0 -0.041348644749555685 -0.022929920231330003 0 -0.047109474698998725 -0.022905215300838326 0 -0.043984909704630148 -0.021448019819615909 0 -0.044276858456245738 -0.024229893722384672 0 -0.042292078290042938 -0.024187358339260171 0 -0.044276858456245738 -0.024229893722384672 0 -0.043332447419956718 -0.025664168297322078 0 -0.046294424526775117 -0.026907783826258296 0 -0.044276858456245738 -0.024229893722384672 0 -0.043332447419956718 -0.025664168297322078 0 -0.046294424526775117 -0.026907783826258296 0 -0.04244763161283447 -0.027206922451035953 0 -0.043332447419956718 -0.025664168297322078 0 -0.047917237601491719 -0.028722417625206043 0 -0.045862305553905976 -0.028553153805051665 0 -0.047944493769872004 -0.026348768631285772 0 -0.04244763161283447 -0.027206922451035953 0 -0.044810215569197544 -0.028825380288212354 0 -0.047944329194288551 -0.030279994751049356 0 -0.047944493769872004 -0.026348768631285772 0 -0.044810215569197544 -0.028825380288212354 0 -0.044810215569197544 -0.028825380288212354 0 -0.041072045412478962 -0.02900559605622784 0 -0.044735032710332766 -0.031858662405426001 0 -0.047944329194288551 -0.030279994751049356 0 -0.044810215569197544 -0.028825380288212354 0 -0.044735032710332766 -0.031858662405426001 0 -0.041058888967503898 -0.027438192839238887 0 -0.041072045412478962 -0.02900559605622784 0 -0.040354842334520385 -0.028333043996641015 0 -0.041058888967503898 -0.027438192839238887 0 -0.04244763161283447 -0.027206922451035953 0 -0.041072045412478962 -0.02900559605622784 0 -0.04244763161283447 -0.027206922451035953 0 -0.044810215569197544 -0.028825380288212354 0 -0.041072045412478962 -0.02900559605622784 0 -0.044154012322043655 -0.02711834300358244 0 -0.045085856052927795 -0.027198246516221186 0 -0.041072045412478962 -0.02900559605622784 0 -0.04045265923765938 -0.029062220778626871 0 -0.040049535654852267 -0.028981406854083507 0 -0.041072045412478962 -0.02900559605622784 0 -0.04045265923765938 -0.029062220778626871 0 -0.040354842334520385 -0.028333043996641015 0 -0.04045265923765938 -0.029062220778626871 0 -0.040049535654852267 -0.028981406854083507 0 -0.040206794423924448 -0.029133275218640991 0 -0.041072045412478962 -0.02900559605622784 0 -0.040049535654852267 -0.028981406854083507 0 -0.039127341869939776 -0.029065033210153295 0 -0.040049535654852267 -0.028981406854083507 0 -0.039127341869939776 -0.029065033210153295 0 -0.039275594554097827 -0.028427455102184883 0 -0.040049535654852267 -0.028981406854083507 0 -0.039275594554097827 -0.028427455102184883 0 -0.040006548010514058 -0.028813873684588827 0 -0.040049535654852267 -0.028981406854083507 0 -0.040006548010514058 -0.028813873684588827 0 -0.040206794423924448 -0.029133275218640991 0 -0.038233298748305992 -0.028496661733438986 0 -0.039127341869939776 -0.029065033210153295 0 -0.039275594554097827 -0.028427455102184883 0 -0.048052590192038488 -0.034393172698543979 0 -0.047944329194288551 -0.030279994751049356 0 -0.044735032710332766 -0.031858662405426001 0 -0.0475361773409924 -0.026848050994646724 0 -0.045085856052927795 -0.027198246516221186 0 -0.038233298748305992 -0.028496661733438986 0 -0.039275594554097827 -0.028427455102184883 0 -0.038693417697733587 -0.027274328066623606 0 -0.0475361773409924 -0.026848050994646724 0 -0.044238548667667313 -0.025440317017144946 0 -0.048272722803288225 -0.01844435161760084 0 -0.045620304571821979 -0.019677901555559235 0 -0.047205994751132907 -0.019511318306884063 0 -0.039275594554097827 -0.028427455102184883 0 -0.039527142117670597 -0.027949910811743292 0 -0.038693417697733587 -0.027274328066623606 0 -0.039275594554097827 -0.028427455102184883 0 -0.039527142117670597 -0.027949910811743292 0 -0.040006548010514058 -0.028813873684588827 0 -0.043246184636561623 -0.025013362247609548 0 -0.044238548667667313 -0.025440317017144946 0 -0.039527142117670597 -0.027949910811743292 0 -0.038693417697733587 -0.027274328066623606 0 -0.040308556390622328 -0.026957944907840016 0 -0.042535457321991425 -0.023344541951308258 0 -0.045620304571821979 -0.019677901555559235 0 -0.047205994751132907 -0.019511318306884063 0 -0.04772911427322659 -0.017742638147331905 0 -0.047658916361336089 -0.018204246318635969 0 -0.049092646027562623 -0.017620608373284604 0 -0.050772541304773919 -0.016610128570135222 0 -0.047205994751132907 -0.019511318306884063 0 -0.049092646027562623 -0.017620608373284604 0 -0.047815750184382305 -0.01865391025563401 0 -0.047205994751132907 -0.019511318306884063 0 -0.049092646027562623 -0.017620608373284604 0 -0.047601918921792045 -0.018213853058786245 0 -0.047815750184382305 -0.01865391025563401 0 -0.047664035031388476 -0.01877271907984962 0 -0.047815750184382305 -0.01865391025563401 0 -0.047205994751132907 -0.019511318306884063 0 -0.043977035650236473 -0.024682634055393615 0 -0.04204283693921184 -0.025721638925164641 0 -0.042740401856647542 -0.027703712119425773 0 -0.04204283693921184 -0.025721638925164641 0 -0.040308556390622328 -0.026957944907840016 0 -0.041338697416026249 -0.027599853898640895 0 -0.04204283693921184 -0.025721638925164641 0 -0.041338697416026249 -0.027599853898640895 0 -0.042740401856647542 -0.027703712119425773 0 -0.040833134226142799 -0.023389012881481042 0 -0.04204283693921184 -0.025721638925164641 0 -0.040308556390622328 -0.026957944907840016 0 -0.040833134226142799 -0.023389012881481042 0 -0.038693417697733587 -0.027274328066623606 0 -0.040308556390622328 -0.026957944907840016 0 -0.040308556390622328 -0.026957944907840016 0 -0.040079067927028804 -0.028180271329435846 0 -0.040406593032588166 -0.02867236088423095 0 -0.040308556390622328 -0.026957944907840016 0 -0.040406593032588166 -0.02867236088423095 0 -0.041338697416026249 -0.027599853898640895 0 -0.039527142117670597 -0.027949910811743292 0 -0.040308556390622328 -0.026957944907840016 0 -0.040079067927028804 -0.028180271329435846 0 -0.039527142117670597 -0.027949910811743292 0 -0.040079067927028804 -0.028180271329435846 0 -0.040006548010514058 -0.028813873684588827 0 -0.040079067927028804 -0.028180271329435846 0 -0.040006548010514058 -0.028813873684588827 0 -0.040406593032588166 -0.02867236088423095 0 -0.040006548010514058 -0.028813873684588827 0 -0.040406593032588166 -0.02867236088423095 0 -0.040147591786412813 -0.029397052126687025 0 -0.040406593032588166 -0.02867236088423095 0 -0.041338697416026249 -0.027599853898640895 0 -0.040177054621065147 -0.030553946146079689 0 -0.040406593032588166 -0.02867236088423095 0 -0.040177054621065147 -0.030553946146079689 0 -0.040147591786412813 -0.029397052126687025 0 -0.041338697416026249 -0.027599853898640895 0 -0.040177054621065147 -0.030553946146079689 0 -0.042740401856647542 -0.027703712119425773 0 -0.040177054621065147 -0.030553946146079689 0 -0.039719959655511991 -0.029477200140376612 0 -0.037320932465938976 -0.029255279114014529 0 -0.040177054621065147 -0.030553946146079689 0 -0.039719959655511991 -0.029477200140376612 0 -0.040147591786412813 -0.029397052126687025 0 -0.040006548010514058 -0.028813873684588827 0 -0.040147591786412813 -0.029397052126687025 0 -0.040206794423924448 -0.029133275218640991 0 -0.039719959655511991 -0.029477200140376612 0 -0.040147591786412813 -0.029397052126687025 0 -0.040101830175110091 -0.029118828353198619 0 -0.04045265923765938 -0.029062220778626871 0 -0.040101830175110091 -0.029118828353198619 0 -0.040206794423924448 -0.029133275218640991 0 -0.040147591786412813 -0.029397052126687025 0 -0.040101830175110091 -0.029118828353198619 0 -0.040206794423924448 -0.029133275218640991 0 -0.04045265923765938 -0.029062220778626871 0 -0.040101830175110091 -0.029118828353198619 0 -0.040354842334520385 -0.028333043996641015 0 -0.040101830175110091 -0.029118828353198619 0 -0.040354842334520385 -0.028333043996641015 0 -0.039195198001550413 -0.028429294590018358 0 -0.039719959655511991 -0.029477200140376612 0 -0.040101830175110091 -0.029118828353198619 0 -0.039195198001550413 -0.028429294590018358 0 -0.039128925531958611 -0.027233636453160591 0 -0.040354842334520385 -0.028333043996641015 0 -0.039195198001550413 -0.028429294590018358 0 -0.04026775396084338 -0.026821864972142635 0 -0.041058888967503898 -0.027438192839238887 0 -0.040354842334520385 -0.028333043996641015 0 -0.039195198001550413 -0.028429294590018358 0 -0.037320932465938976 -0.029255279114014529 0 -0.037058961984810845 -0.027395054834112826 0 -0.039719959655511991 -0.029477200140376612 0 -0.039195198001550413 -0.028429294590018358 0 -0.037320932465938976 -0.029255279114014529 0 -0.039128925531958611 -0.027233636453160591 0 -0.039195198001550413 -0.028429294590018358 0 -0.037058961984810845 -0.027395054834112826 0 -0.035243192576859587 -0.028216070717152493 0 -0.037320932465938976 -0.029255279114014529 0 -0.037058961984810845 -0.027395054834112826 0 -0.035243192576859587 -0.028216070717152493 0 -0.032719176879149575 -0.029386635456243513 0 -0.037320932465938976 -0.029255279114014529 0 -0.035243192576859587 -0.028216070717152493 0 -0.032719176879149575 -0.029386635456243513 0 -0.033759598066076972 -0.026897516535934002 0 -0.032719176879149575 -0.029386635456243513 0 -0.037320932465938976 -0.029255279114014529 0 -0.034515994036037022 -0.033027622358886392 0 -0.028361659004612936 -0.034313311199709574 0 -0.028718670376465076 -0.038154347222645137 0 -0.025709800710569348 -0.036609865488278305 0 -0.032845084169652372 -0.0292123822473308 0 -0.034948281592802936 -0.026504469941786978 0 -0.040177054621065147 -0.030553946146079689 0 -0.037320932465938976 -0.029255279114014529 0 -0.034515994036037022 -0.033027622358886392 0 -0.040177054621065147 -0.030553946146079689 0 -0.042740401856647542 -0.027703712119425773 0 -0.047745397295776669 -0.029219821336097143 0 -0.037934645467514218 -0.027058472849069006 0 -0.034948281592802936 -0.026504469941786978 0 -0.034948281592802936 -0.026504469941786978 0 -0.040465437621033426 -0.020151990170883829 0 -0.03466521641842199 -0.017648960706082698 0 -0.034950353302296976 -0.017110204361030362 0 -0.034456205337900121 -0.016815403340155039 0 -0.042740401856647542 -0.027703712119425773 0 -0.047745397295776669 -0.029219821336097143 0 -0.046207241190406714 -0.023345923590884752 0 -0.040536990831388828 -0.021886171921513844 0 -0.040465437621033426 -0.020151990170883829 0 -0.043977035650236473 -0.024682634055393615 0 -0.042740401856647542 -0.027703712119425773 0 -0.046101117107116008 -0.025112922031564587 0 -0.035458559818241239 -0.016797173585767395 0 -0.035440201434576865 -0.01740450071104643 0 -0.036168307261089196 -0.017183393052046088 0 -0.030578077059673022 -0.024370666462367262 0 -0.028553370788319193 -0.020325544931825281 0 -0.034950353302296976 -0.017110204361030362 0 -0.035458559818241239 -0.016797173585767395 0 -0.035440201434576865 -0.01740450071104643 0 -0.028718670376465076 -0.038154347222645137 0 -0.025210865133228438 -0.038884979138140964 0 -0.025709800710569348 -0.036609865488278305 0 -0.03466521641842199 -0.017648960706082698 0 -0.034950353302296976 -0.017110204361030362 0 -0.035440201434576865 -0.01740450071104643 0 -0.034948281592802936 -0.026504469941786978 0 -0.030578077059673022 -0.024370666462367262 0 -0.025210865133228438 -0.038884979138140964 0 -0.022821882984843049 -0.036633351522849369 0 -0.021994653474008089 -0.039383617788776915 0 -0.025210865133228438 -0.038884979138140964 0 -0.022821882984843049 -0.036633351522849369 0 -0.025709800710569348 -0.036609865488278305 0 -0.022821882984843049 -0.036633351522849369 0 -0.025709800710569348 -0.036609865488278305 0 -0.023566936968441976 -0.034447464355021287 0 -0.022821882984843049 -0.036633351522849369 0 -0.023566936968441976 -0.034447464355021287 0 -0.021239019947280197 -0.033585816745450435 0 -0.028361659004612936 -0.034313311199709574 0 -0.025709800710569348 -0.036609865488278305 0 -0.023566936968441976 -0.034447464355021287 0 -0.028361659004612936 -0.034313311199709574 0 -0.023566936968441976 -0.034447464355021287 0 -0.021779479221038973 -0.03119476440457861 0 -0.023566936968441976 -0.034447464355021287 0 -0.021779479221038973 -0.03119476440457861 0 -0.021239019947280197 -0.033585816745450435 0 -0.021779479221038973 -0.03119476440457861 0 -0.020431600203279544 -0.033457105565467993 0 -0.021022438525325936 -0.032555096924681289 0 -0.021779479221038973 -0.03119476440457861 0 -0.01932945779139271 -0.034077369850875436 0 -0.016687277442248561 -0.034809646343695426 0 -0.02568298199526621 -0.032762484361916887 0 -0.026862063372219396 -0.032569302804533219 0 -0.021779479221038973 -0.03119476440457861 0 -0.01932945779139271 -0.034077369850875436 0 -0.020431600203279544 -0.033457105565467993 0 -0.01932945779139271 -0.034077369850875436 0 -0.016687277442248561 -0.034809646343695426 0 -0.018017681679224757 -0.035881053206641277 0 -0.01932945779139271 -0.034077369850875436 0 -0.019361862442354622 -0.035450130825022762 0 -0.020431600203279544 -0.033457105565467993 0 -0.01932945779139271 -0.034077369850875436 0 -0.019361862442354622 -0.035450130825022762 0 -0.018017681679224757 -0.035881053206641277 0 -0.021779479221038973 -0.03119476440457861 0 -0.025894403049132129 -0.023201647794117371 0 -0.028821749868945416 -0.027110348006907686 0 -0.025894403049132129 -0.023201647794117371 0 -0.028821749868945416 -0.027110348006907686 0 -0.030166779770034072 -0.023188583443128279 0 -0.032845084169652372 -0.0292123822473308 0 -0.031643872581828832 -0.027730887383612436 0 -0.028361659004612936 -0.034313311199709574 0 -0.021779479221038973 -0.03119476440457861 0 -0.028821749868945416 -0.027110348006907686 0 -0.028821749868945416 -0.027110348006907686 0 -0.033759598066076972 -0.026897516535934002 0 -0.03191676385236783 -0.025049680170280846 0 -0.032719176879149575 -0.029386635456243513 0 -0.028821749868945416 -0.027110348006907686 0 -0.033759598066076972 -0.026897516535934002 0 -0.033759598066076972 -0.026897516535934002 0 -0.037058961984810845 -0.027395054834112826 0 -0.036306426127724584 -0.025331888074702168 0 -0.035243192576859587 -0.028216070717152493 0 -0.033759598066076972 -0.026897516535934002 0 -0.037058961984810845 -0.027395054834112826 0 -0.036306426127724584 -0.025331888074702168 0 -0.033884579143125433 -0.024420048028125588 0 -0.035587287676081672 -0.023005367067663707 0 -0.033759598066076972 -0.026897516535934002 0 -0.036306426127724584 -0.025331888074702168 0 -0.033884579143125433 -0.024420048028125588 0 -0.033884579143125433 -0.024420048028125588 0 -0.034077389007652378 -0.022806027180383635 0 -0.035587287676081672 -0.023005367067663707 0 -0.037437238364699525 -0.023756592981503344 0 -0.036306426127724584 -0.025331888074702168 0 -0.035587287676081672 -0.023005367067663707 0 -0.028821749868945416 -0.027110348006907686 0 -0.03191676385236783 -0.025049680170280846 0 -0.030166779770034072 -0.023188583443128279 0 -0.033759598066076972 -0.026897516535934002 0 -0.033884579143125433 -0.024420048028125588 0 -0.03191676385236783 -0.025049680170280846 0 -0.033884579143125433 -0.024420048028125588 0 -0.03191676385236783 -0.025049680170280846 0 -0.032657230080625169 -0.022471107906306832 0 -0.033884579143125433 -0.024420048028125588 0 -0.034077389007652378 -0.022806027180383635 0 -0.032657230080625169 -0.022471107906306832 0 -0.03191676385236783 -0.025049680170280846 0 -0.030166779770034072 -0.023188583443128279 0 -0.032657230080625169 -0.022471107906306832 0 -0.030166779770034072 -0.023188583443128279 0 -0.031393342439044757 -0.021227549117981311 0 -0.032657230080625169 -0.022471107906306832 0 -0.030166779770034072 -0.023188583443128279 0 -0.031393342439044757 -0.021227549117981311 0 -0.029670256386649059 -0.020591886129970444 0 -0.032657230080625169 -0.022471107906306832 0 -0.032819476869536839 -0.020691905221161808 0 -0.03439165468027696 -0.02149749078928136 0 -0.031393342439044757 -0.021227549117981311 0 -0.032657230080625169 -0.022471107906306832 0 -0.032819476869536839 -0.020691905221161808 0 -0.031393342439044757 -0.021227549117981311 0 -0.032819476869536839 -0.020691905221161808 0 -0.031597791598695447 -0.019872356207453163 0 -0.032819476869536839 -0.020691905221161808 0 -0.034021144723438528 -0.019891888538285805 0 -0.032818733120940496 -0.019313756489108453 0 -0.032819476869536839 -0.020691905221161808 0 -0.031597791598695447 -0.019872356207453163 0 -0.032818733120940496 -0.019313756489108453 0 -0.031393342439044757 -0.021227549117981311 0 -0.031597791598695447 -0.019872356207453163 0 -0.029670256386649059 -0.020591886129970444 0 -0.031597791598695447 -0.019872356207453163 0 -0.030672832343001687 -0.019092552642892856 0 -0.029670256386649059 -0.020591886129970444 0 -0.037017043066313531 -0.02251618500120835 0 -0.035587287676081672 -0.023005367067663707 0 -0.036186138005226555 -0.021392043393606442 0 -0.035587287676081672 -0.023005367067663707 0 -0.036186138005226555 -0.021392043393606442 0 -0.03439165468027696 -0.02149749078928136 0 -0.034077389007652378 -0.022806027180383635 0 -0.032657230080625169 -0.022471107906306832 0 -0.03439165468027696 -0.02149749078928136 0 -0.034077389007652378 -0.022806027180383635 0 -0.035587287676081672 -0.023005367067663707 0 -0.03439165468027696 -0.02149749078928136 0 -0.03439165468027696 -0.02149749078928136 0 -0.034021144723438528 -0.019891888538285805 0 -0.035223446868484644 -0.020182972821862009 0 -0.032819476869536839 -0.020691905221161808 0 -0.03439165468027696 -0.02149749078928136 0 -0.034021144723438528 -0.019891888538285805 0 -0.036186138005226555 -0.021392043393606442 0 -0.03439165468027696 -0.02149749078928136 0 -0.035223446868484644 -0.020182972821862009 0 -0.036398771904594895 -0.019990416389727896 0 -0.036186138005226555 -0.021392043393606442 0 -0.035223446868484644 -0.020182972821862009 0 -0.048192375143178624 -0.036139501943795185 0 -0.040126996260318619 -0.040251238162754811 0 -0.037062581786190651 -0.0179774036714682 0 -0.033927299981458575 -0.017550517788675092 0 -0.035045729963670107 -0.018124880999550542 0 -0.064114290262867038 -0.042055586974626462 0 -0.065150112713610403 -0.042500667461413996 0 -0.064318961681429282 -0.042430663544745416 0 -0.037062581786190651 -0.0179774036714682 0 -0.033927299981458575 -0.017550517788675092 0 -0.032130156346240377 -0.016187226321953671 0 -0.035980958095454318 -0.018598194541591364 0 -0.035637315832828767 -0.019298588909974428 0 -0.035155033134519606 -0.018686465326863803 0 -0.036346605402488033 -0.01917079469147713 0 -0.035980958095454318 -0.018598194541591364 0 -0.035637315832828767 -0.019298588909974428 0 -0.036346605402488033 -0.01917079469147713 0 -0.036398771904594895 -0.019990416389727896 0 -0.035637315832828767 -0.019298588909974428 0 -0.036398771904594895 -0.019990416389727896 0 -0.035223446868484644 -0.020182972821862009 0 -0.035637315832828767 -0.019298588909974428 0 -0.035223446868484644 -0.020182972821862009 0 -0.035637315832828767 -0.019298588909974428 0 -0.034696088130308611 -0.019146920361313605 0 -0.035980958095454318 -0.018598194541591364 0 -0.035155033134519606 -0.018686465326863803 0 -0.035045729963670107 -0.018124880999550542 0 -0.035637315832828767 -0.019298588909974428 0 -0.035155033134519606 -0.018686465326863803 0 -0.034696088130308611 -0.019146920361313605 0 -0.035155033134519606 -0.018686465326863803 0 -0.03458486078954532 -0.01851999801865193 0 -0.035045729963670107 -0.018124880999550542 0 -0.03458486078954532 -0.01851999801865193 0 -0.034696088130308611 -0.019146920361313605 0 -0.033856862964930019 -0.018550250120953411 0 -0.03458486078954532 -0.01851999801865193 0 -0.033856862964930019 -0.018550250120953411 0 -0.03416438502478681 -0.018091923342641161 0 -0.035155033134519606 -0.018686465326863803 0 -0.03458486078954532 -0.01851999801865193 0 -0.034696088130308611 -0.019146920361313605 0 -0.034021144723438528 -0.019891888538285805 0 -0.035223446868484644 -0.020182972821862009 0 -0.034696088130308611 -0.019146920361313605 0 -0.034021144723438528 -0.019891888538285805 0 -0.034696088130308611 -0.019146920361313605 0 -0.033856862964930019 -0.018550250120953411 0 -0.034021144723438528 -0.019891888538285805 0 -0.033856862964930019 -0.018550250120953411 0 -0.032818733120940496 -0.019313756489108453 0 -0.033553501611122007 -0.017959500447564603 0 -0.033927299981458575 -0.017550517788675092 0 -0.033083263763562069 -0.017664338779686328 0 -0.033856862964930019 -0.018550250120953411 0 -0.033553501611122007 -0.017959500447564603 0 -0.032764503541515284 -0.018156703204901602 0 -0.033856862964930019 -0.018550250120953411 0 -0.033553501611122007 -0.017959500447564603 0 -0.03416438502478681 -0.018091923342641161 0 -0.033553501611122007 -0.017959500447564603 0 -0.033927299981458575 -0.017550517788675092 0 -0.03416438502478681 -0.018091923342641161 0 -0.033927299981458575 -0.017550517788675092 0 -0.03416438502478681 -0.018091923342641161 0 -0.035045729963670107 -0.018124880999550542 0 -0.03458486078954532 -0.01851999801865193 0 -0.03416438502478681 -0.018091923342641161 0 -0.035045729963670107 -0.018124880999550542 0 -0.037062581786190651 -0.0179774036714682 0 -0.035980958095454318 -0.018598194541591364 0 -0.035045729963670107 -0.018124880999550542 0 -0.030841072582106402 -0.017936121051555322 0 -0.029339967435957359 -0.01921617001539885 0 -0.03078611635104616 -0.015859125405296076 0 -0.030672832343001687 -0.019092552642892856 0 -0.030841072582106402 -0.017936121051555322 0 -0.029339967435957359 -0.01921617001539885 0 -0.031833991277538817 -0.018678867481782092 0 -0.031934282410729355 -0.017794626637422699 0 -0.030841072582106402 -0.017936121051555322 0 -0.030672832343001687 -0.019092552642892856 0 -0.031833991277538817 -0.018678867481782092 0 -0.030841072582106402 -0.017936121051555322 0 -0.031597791598695447 -0.019872356207453163 0 -0.030672832343001687 -0.019092552642892856 0 -0.031833991277538817 -0.018678867481782092 0 -0.031597791598695447 -0.019872356207453163 0 -0.032818733120940496 -0.019313756489108453 0 -0.031833991277538817 -0.018678867481782092 0 -0.033856862964930019 -0.018550250120953411 0 -0.032818733120940496 -0.019313756489108453 0 -0.032764503541515284 -0.018156703204901602 0 -0.032818733120940496 -0.019313756489108453 0 -0.031833991277538817 -0.018678867481782092 0 -0.032764503541515284 -0.018156703204901602 0 -0.031833991277538817 -0.018678867481782092 0 -0.031934282410729355 -0.017794626637422699 0 -0.032764503541515284 -0.018156703204901602 0 -0.031934282410729355 -0.017794626637422699 0 -0.032506829823304682 -0.017610524468241656 0 -0.032764503541515284 -0.018156703204901602 0 -0.033927299981458575 -0.017550517788675092 0 -0.032632349727382264 -0.01709188848153673 0 -0.032130156346240377 -0.016187226321953671 0 -0.031934282410729355 -0.017794626637422699 0 -0.032506829823304682 -0.017610524468241656 0 -0.032074332030829232 -0.017200781139146689 0 -0.033553501611122007 -0.017959500447564603 0 -0.032764503541515284 -0.018156703204901602 0 -0.033083263763562069 -0.017664338779686328 0 -0.032506829823304682 -0.017610524468241656 0 -0.032764503541515284 -0.018156703204901602 0 -0.033083263763562069 -0.017664338779686328 0 -0.033927299981458575 -0.017550517788675092 0 -0.033083263763562069 -0.017664338779686328 0 -0.032632349727382264 -0.01709188848153673 0 -0.032506829823304682 -0.017610524468241656 0 -0.033083263763562069 -0.017664338779686328 0 -0.032632349727382264 -0.01709188848153673 0 -0.031934282410729355 -0.017794626637422699 0 -0.032074332030829232 -0.017200781139146689 0 -0.031551587660795542 -0.017007680425738404 0 -0.032632349727382264 -0.01709188848153673 0 -0.032074332030829232 -0.017200781139146689 0 -0.032130156346240377 -0.016187226321953671 0 -0.032074332030829232 -0.017200781139146689 0 -0.031551587660795542 -0.017007680425738404 0 -0.032130156346240377 -0.016187226321953671 0 -0.032506829823304682 -0.017610524468241656 0 -0.032632349727382264 -0.01709188848153673 0 -0.032074332030829232 -0.017200781139146689 0 -0.031551587660795542 -0.017007680425738404 0 -0.030841072582106402 -0.017936121051555322 0 -0.03078611635104616 -0.015859125405296076 0 -0.031934282410729355 -0.017794626637422699 0 -0.031551587660795542 -0.017007680425738404 0 -0.030841072582106402 -0.017936121051555322 0 -0.030383124229265097 -0.033934670365540612 0 -0.035609833529369105 -0.039642744117193145 0 -0.014671296949062641 -0.038721268527233614 0 -0.016874931420896414 -0.04077387166193535 0 -0.016733175889446259 -0.037350178519108719 0 -0.030383124229265097 -0.033934670365540612 0 -0.029857773045826579 -0.040699562940113669 0 -0.014671296949062641 -0.038721268527233614 0 -0.016874931420896414 -0.04077387166193535 0 -0.016805630000536722 -0.04391368808913524 0 -0.016733175889446259 -0.037350178519108719 0 -0.016259448487148498 -0.042282672195377478 0 -0.01769076617240262 -0.040532718660804982 0 -0.016874931420896414 -0.04077387166193535 0 -0.016733175889446259 -0.037350178519108719 0 -0.019289268566259253 -0.043179148320443415 0 -0.016733175889446259 -0.037350178519108719 0 -0.01769076617240262 -0.040532718660804982 0 -0.018342414542279317 -0.038784753010953896 0 -0.017236427041529327 -0.040887705343894 0 -0.018025372803023527 -0.043595191815350716 0 -0.016733175889446259 -0.037350178519108719 0 -0.018403049243441844 -0.036957977777959519 0 -0.018342414542279317 -0.038784753010953896 0 -0.019361862442354622 -0.035450130825022762 0 -0.018403049243441844 -0.036957977777959519 0 -0.018017681679224757 -0.035881053206641277 0 -0.016687277442248561 -0.034809646343695426 0 -0.016733175889446259 -0.037350178519108719 0 -0.018017681679224757 -0.035881053206641277 0 -0.016733175889446259 -0.037350178519108719 0 -0.018403049243441844 -0.036957977777959519 0 -0.018017681679224757 -0.035881053206641277 0 -0.026862063372219396 -0.032569302804533219 0 -0.030383124229265097 -0.033934670365540612 0 -0.016687277442248561 -0.034809646343695426 0 -0.014671296949062641 -0.038721268527233614 0 -0.016733175889446259 -0.037350178519108719 0 -0.025894403049132129 -0.023201647794117371 0 -0.02887176637120583 -0.018352783177676951 0 -0.029670256386649059 -0.020591886129970444 0 -0.025894403049132129 -0.023201647794117371 0 -0.030166779770034072 -0.023188583443128279 0 -0.029670256386649059 -0.020591886129970444 0 -0.030672832343001687 -0.019092552642892856 0 -0.029339967435957359 -0.01921617001539885 0 -0.029670256386649059 -0.020591886129970444 0 -0.030383124229265097 -0.033934670365540612 0 -0.029868320067545091 -0.03219634450549478 0 -0.036296946437145317 -0.044346854820285705 0 -0.036377822600510243 -0.044143741318196261 0 -0.036495892465074953 -0.044466744871655403 0 -0.036296946437145317 -0.044346854820285705 0 -0.036366075322904659 -0.044486324863262719 0 -0.036495892465074953 -0.044466744871655403 0 -0.036296946437145317 -0.044346854820285705 0 -0.036377822600510243 -0.044143741318196261 0 -0.036271514671409759 -0.04422297848935814 0 -0.036296946437145317 -0.044346854820285705 0 -0.036271514671409759 -0.04422297848935814 0 -0.036192889208961555 -0.044279087426428228 0 -0.036296946437145317 -0.044346854820285705 0 -0.036181651694386224 -0.044398717618122141 0 -0.036230635624571593 -0.044484636250572494 0 -0.036296946437145317 -0.044346854820285705 0 -0.036366075322904659 -0.044486324863262719 0 -0.036230635624571593 -0.044484636250572494 0 -0.036296946437145317 -0.044346854820285705 0 -0.036192889208961555 -0.044279087426428228 0 -0.036181651694386224 -0.044398717618122141 0 -0.019340245555542659 -0.044522817306363233 0 -0.019289268566259253 -0.043179148320443415 0 -0.021359837483247161 -0.048746959738924824 0 -0.029857773045826579 -0.040699562940113669 0 -0.030074266561788403 -0.046931934625937193 0 -0.019340245555542659 -0.044522817306363233 0 -0.019102347701368157 -0.048495534458830702 0 -0.021359837483247161 -0.048746959738924824 0 -0.019340245555542659 -0.044522817306363233 0 -0.017139144341956278 -0.043875848609418136 0 -0.019102347701368157 -0.048495534458830702 0 -0.018025372803023527 -0.043595191815350716 0 -0.019420373937982419 -0.04819296895455899 0 -0.019340245555542659 -0.044522817306363233 0 -0.019289268566259253 -0.043179148320443415 0 -0.016805630000536722 -0.04391368808913524 0 -0.027974992907375699 -0.040509497285679541 0 -0.029857773045826579 -0.040699562940113669 0 -0.016259448487148498 -0.042282672195377478 0 -0.01769076617240262 -0.040532718660804982 0 -0.017923080258401107 -0.04237954635036445 0 -0.016874931420896414 -0.04077387166193535 0 -0.019289268566259253 -0.043179148320443415 0 -0.016805630000536722 -0.04391368808913524 0 -0.03061372942344185 -0.038066245869333507 0 -0.031656412668088094 -0.040744264762992977 0 -0.029765089123853037 -0.04018954441357226 0 -0.036377822600510243 -0.044143741318196261 0 -0.036271514671409759 -0.04422297848935814 0 -0.036164254601521631 -0.044081855087505666 0 -0.029857773045826579 -0.040699562940113669 0 -0.035609833529369105 -0.039642744117193145 0 -0.036271514671409759 -0.04422297848935814 0 -0.036164254601521631 -0.044081855087505666 0 -0.036192889208961555 -0.044279087426428228 0 -0.036304941077144756 -0.043782630973990093 0 -0.0361250942577096 -0.043733763558257067 0 -0.036060692755384406 -0.044370626052880967 0 -0.040126996260318619 -0.040251238162754811 0 -0.044069102158284447 -0.043116717255779972 0 -0.035609833529369105 -0.039642744117193145 0 -0.040126996260318619 -0.040251238162754811 0 -0.031551587660795542 -0.017007680425738404 0 -0.03078611635104616 -0.015859125405296076 0 -0.032130156346240377 -0.016187226321953671 0 -0.065150112713610403 -0.042500667461413996 0 -0.064318961681429282 -0.042430663544745416 0 -0.064607610352305458 -0.04285008947737904 0 -0.065150112713610403 -0.042500667461413996 0 -0.064607610352305458 -0.04285008947737904 0 -0.064712124840042781 -0.043572065174052335 0 -0.064318961681429282 -0.042430663544745416 0 -0.064607610352305458 -0.04285008947737904 0 -0.064249035957093831 -0.042919651182225224 0 -0.064607610352305458 -0.04285008947737904 0 -0.064712124840042781 -0.043572065174052335 0 -0.064249035957093831 -0.042919651182225224 0 -0.064712124840042781 -0.043572065174052335 0 -0.063871314576543534 -0.043269358957246574 0 -0.064249035957093831 -0.042919651182225224 0 -0.035609833529369105 -0.039642744117193145 0 -0.035139502692555016 -0.042036790966857945 0 -0.036164254601521631 -0.044081855087505666 0 -0.036192889208961555 -0.044279087426428228 0 -0.036060692755384406 -0.044370626052880967 0 -0.0361250942577096 -0.043733763558257067 0 -0.035891212925411434 -0.044375380492759187 0 -0.036060692755384406 -0.044370626052880967 0 -0.035891212925411434 -0.044375380492759187 0 -0.036060692755384406 -0.044370626052880967 0 -0.03605905160705148 -0.044517229801990889 0 -0.036060692755384406 -0.044370626052880967 0 -0.036181651694386224 -0.044398717618122141 0 -0.03605905160705148 -0.044517229801990889 0 -0.036192889208961555 -0.044279087426428228 0 -0.036060692755384406 -0.044370626052880967 0 -0.036181651694386224 -0.044398717618122141 0 -0.036181651694386224 -0.044398717618122141 0 -0.03605905160705148 -0.044517229801990889 0 -0.036230635624571593 -0.044484636250572494 0 -0.03605905160705148 -0.044517229801990889 0 -0.035763971504243063 -0.044792612410397087 0 -0.036178306819442826 -0.04467443715608068 0 -0.03605905160705148 -0.044517229801990889 0 -0.036178306819442826 -0.04467443715608068 0 -0.036230635624571593 -0.044484636250572494 0 -0.035891212925411434 -0.044375380492759187 0 -0.03605905160705148 -0.044517229801990889 0 -0.035763971504243063 -0.044792612410397087 0 -0.064712124840042781 -0.043572065174052335 0 -0.064265838370926587 -0.044636807986874111 0 -0.063862815859750177 -0.044047876381213484 0 -0.044069102158284447 -0.043116717255779972 0 -0.041728060478138942 -0.05050845921661995 0 -0.041728060478138942 -0.05050845921661995 0 -0.034094052579251251 -0.051435109372410651 0 -0.034330486687849451 -0.062756361006117437 0 -0.031188430774296044 -0.063344472787250611 0 -0.031640381895293813 -0.061321647785285489 0 -0.031188430774296044 -0.063344472787250611 0 -0.029786529304209049 -0.062483540607067074 0 -0.031640381895293813 -0.061321647785285489 0 -0.031188430774296044 -0.063344472787250611 0 -0.029786529304209049 -0.062483540607067074 0 -0.028029561407834733 -0.063931436036482256 0 -0.029786529304209049 -0.062483540607067074 0 -0.02912524989642238 -0.061767495964061753 0 -0.029793502084613652 -0.061045113375974853 0 -0.036178306819442826 -0.04467443715608068 0 -0.036366075322904659 -0.044486324863262719 0 -0.036537440451173409 -0.044586196878114791 0 -0.034094052579251251 -0.051435109372410651 0 -0.030593455642205423 -0.049585346953472935 0 -0.036178306819442826 -0.04467443715608068 0 -0.036366075322904659 -0.044486324863262719 0 -0.036230635624571593 -0.044484636250572494 0 -0.019102347701368157 -0.048495534458830702 0 -0.019949920773914286 -0.050045092227478771 0 -0.021359837483247161 -0.048746959738924824 0 -0.030074266561788403 -0.046931934625937193 0 -0.030593455642205423 -0.049585346953472935 0 -0.036366075322904659 -0.044486324863262719 0 -0.036495892465074953 -0.044466744871655403 0 -0.036537440451173409 -0.044586196878114791 0 -0.028327138660198835 -0.06276274664826903 0 -0.027622778872521837 -0.060130229918843821 0 -0.027402335053632799 -0.062401545047706952 0 -0.028029561407834733 -0.063931436036482256 0 -0.028327138660198835 -0.06276274664826903 0 -0.027402335053632799 -0.062401545047706952 0 -0.029786529304209049 -0.062483540607067074 0 -0.028029561407834733 -0.063931436036482256 0 -0.028327138660198835 -0.06276274664826903 0 -0.030593455642205423 -0.049585346953472935 0 -0.028783378726700518 -0.053287759044101345 0 -0.028327138660198835 -0.06276274664826903 0 -0.02912524989642238 -0.061767495964061753 0 -0.028703269554051645 -0.060955448104011052 0 -0.029786529304209049 -0.062483540607067074 0 -0.028327138660198835 -0.06276274664826903 0 -0.02912524989642238 -0.061767495964061753 0 -0.027865373644818243 -0.061074096636235066 0 -0.027548774063959017 -0.05982477095744089 0 -0.028327138660198835 -0.06276274664826903 0 -0.028703269554051645 -0.060955448104011052 0 -0.027699775056925811 -0.060203727821587873 0 -0.02912524989642238 -0.061767495964061753 0 -0.028703269554051645 -0.060955448104011052 0 -0.029793502084613652 -0.061045113375974853 0 -0.028703269554051645 -0.060955448104011052 0 -0.029793502084613652 -0.061045113375974853 0 -0.029087716727957697 -0.059837433471729755 0 -0.028703269554051645 -0.060955448104011052 0 -0.027699775056925811 -0.060203727821587873 0 -0.029087716727957697 -0.059837433471729755 0 -0.029793502084613652 -0.061045113375974853 0 -0.030373483334307585 -0.059874953892862549 0 -0.031640381895293813 -0.061321647785285489 0 -0.029786529304209049 -0.062483540607067074 0 -0.029793502084613652 -0.061045113375974853 0 -0.031640381895293813 -0.061321647785285489 0 -0.029793502084613652 -0.061045113375974853 0 -0.030373483334307585 -0.059874953892862549 0 -0.029087716727957697 -0.059837433471729755 0 -0.030373483334307585 -0.059874953892862549 0 -0.029867839638713891 -0.058599336130015993 0 -0.031712811081719416 -0.059107491993005142 0 -0.030373483334307585 -0.059874953892862549 0 -0.029867839638713891 -0.058599336130015993 0 -0.029087716727957697 -0.059837433471729755 0 -0.027699775056925811 -0.060203727821587873 0 -0.028458884394390649 -0.058613706027664317 0 -0.027016672842712065 -0.057617347771164049 0 -0.027699775056925811 -0.060203727821587873 0 -0.029087716727957697 -0.059837433471729755 0 -0.028458884394390649 -0.058613706027664317 0 -0.029867839638713891 -0.058599336130015993 0 -0.029087716727957697 -0.059837433471729755 0 -0.028458884394390649 -0.058613706027664317 0 -0.029867839638713891 -0.058599336130015993 0 -0.028458884394390649 -0.058613706027664317 0 -0.028625961880835556 -0.056797672099901796 0 -0.028458884394390649 -0.058613706027664317 0 -0.028625961880835556 -0.056797672099901796 0 -0.027016672842712065 -0.057617347771164049 0 -0.029867839638713891 -0.058599336130015993 0 -0.028625961880835556 -0.056797672099901796 0 -0.03095409270321256 -0.057014246800892204 0 -0.029867839638713891 -0.058599336130015993 0 -0.03095409270321256 -0.057014246800892204 0 -0.031712811081719416 -0.059107491993005142 0 -0.029338513582819685 -0.054999977482863047 0 -0.032363265127621436 -0.054999983075090589 0 -0.03095409270321256 -0.057014246800892204 0 -0.028625961880835556 -0.056797672099901796 0 -0.029338513582819685 -0.054999977482863047 0 -0.03095409270321256 -0.057014246800892204 0 -0.028625961880835556 -0.056797672099901796 0 -0.029338513582819685 -0.054999977482863047 0 -0.026313789227772867 -0.054999991525650022 0 -0.032363265127621436 -0.054999983075090589 0 -0.033807937956882646 -0.057644038744409751 0 -0.035388072754254679 -0.054999958479409521 0 -0.032363265127621436 -0.054999983075090589 0 -0.03095409270321256 -0.057014246800892204 0 -0.033807937956882646 -0.057644038744409751 0 -0.03095409270321256 -0.057014246800892204 0 -0.033807937956882646 -0.057644038744409751 0 -0.031712811081719416 -0.059107491993005142 0 -0.033807937956882646 -0.057644038744409751 0 -0.033409989933013029 -0.06015934884213088 0 -0.035558380569346078 -0.059947402461857834 0 -0.033807937956882646 -0.057644038744409751 0 -0.031712811081719416 -0.059107491993005142 0 -0.033409989933013029 -0.06015934884213088 0 -0.031712811081719416 -0.059107491993005142 0 -0.031640381895293813 -0.061321647785285489 0 -0.033409989933013029 -0.06015934884213088 0 -0.030373483334307585 -0.059874953892862549 0 -0.031712811081719416 -0.059107491993005142 0 -0.031640381895293813 -0.061321647785285489 0 -0.034330486687849451 -0.062756361006117437 0 -0.031640381895293813 -0.061321647785285489 0 -0.033409989933013029 -0.06015934884213088 0 -0.034679656730614107 -0.0625486352413403 0 -0.03578753608072012 -0.059874036419679116 0 -0.037430437751047485 -0.062072528509222832 0 -0.034330486687849451 -0.062756361006117437 0 -0.033409989933013029 -0.06015934884213088 0 -0.035558380569346078 -0.059947402461857834 0 -0.041728060478138942 -0.05050845921661995 0 -0.037308711417759349 -0.058458786363541612 0 -0.03578753608072012 -0.059874036419679116 0 -0.038229045121021848 -0.059311697087151109 0 -0.037430437751047485 -0.062072528509222832 0 -0.037308711417759349 -0.058458786363541612 0 -0.037098206190928781 -0.058297410984562092 0 -0.03578753608072012 -0.059874036419679116 0 -0.036845793262865634 -0.057098836895696559 0 -0.038229045121021848 -0.059311697087151109 0 -0.033807937956882646 -0.057644038744409751 0 -0.035558380569346078 -0.059947402461857834 0 -0.036845793262865634 -0.057098836895696559 0 -0.036845793262865634 -0.057098836895696559 0 -0.035388072754254679 -0.054999958479409521 0 -0.038412879360618622 -0.054999979880160373 0 -0.033807937956882646 -0.057644038744409751 0 -0.036845793262865634 -0.057098836895696559 0 -0.035388072754254679 -0.054999958479409521 0 -0.038412879360618622 -0.054999979880160373 0 -0.038769511957600089 -0.056883062393114456 0 -0.04143761114056381 -0.054999971588771068 0 -0.036845793262865634 -0.057098836895696559 0 -0.038412879360618622 -0.054999979880160373 0 -0.038769511957600089 -0.056883062393114456 0 -0.038769511957600089 -0.056883062393114456 0 -0.040317635204573272 -0.058252951664685665 0 -0.038229045121021848 -0.059311697087151109 0 -0.036845793262865634 -0.057098836895696559 0 -0.038769511957600089 -0.056883062393114456 0 -0.038229045121021848 -0.059311697087151109 0 -0.038769511957600089 -0.056883062393114456 0 -0.040317635204573272 -0.058252951664685665 0 -0.04143761114056381 -0.054999971588771068 0 -0.040317635204573272 -0.058252951664685665 0 -0.040292486041935652 -0.061600935083268714 0 -0.042120273469049313 -0.059453785020727699 0 -0.040317635204573272 -0.058252951664685665 0 -0.038229045121021848 -0.059311697087151109 0 -0.040292486041935652 -0.061600935083268714 0 -0.038229045121021848 -0.059311697087151109 0 -0.040292486041935652 -0.061600935083268714 0 -0.037430437751047485 -0.062072528509222832 0 -0.062340125525418878 -0.045151046183148968 0 -0.062494884686970516 -0.044317630807481551 0 -0.061876914768743338 -0.044726526080512821 0 -0.062097113442948333 -0.043889266045284668 0 -0.061579505996955095 -0.043511740666933321 0 -0.062494884686970516 -0.044317630807481551 0 -0.062464009035575543 -0.043540103183471679 0 -0.061338933262550015 -0.043377597098282927 0 -0.062494884686970516 -0.044317630807481551 0 -0.063263440726729098 -0.043864984487510215 0 -0.062464009035575543 -0.043540103183471679 0 -0.062494884686970516 -0.044317630807481551 0 -0.063228234059684668 -0.044876708280846257 0 -0.063263440726729098 -0.043864984487510215 0 -0.062340125525418878 -0.045151046183148968 0 -0.062494884686970516 -0.044317630807481551 0 -0.063228234059684668 -0.044876708280846257 0 -0.050941897168209307 -0.052160914857665275 0 -0.048785149040984341 -0.05159195268785053 0 -0.041728060478138942 -0.05050845921661995 0 -0.048785149040984341 -0.05159195268785053 0 -0.064265838370926587 -0.044636807986874111 0 -0.063228234059684668 -0.044876708280846257 0 -0.063862815859750177 -0.044047876381213484 0 -0.063228234059684668 -0.044876708280846257 0 -0.063862815859750177 -0.044047876381213484 0 -0.063263440726729098 -0.043864984487510215 0 -0.063263440726729098 -0.043864984487510215 0 -0.063367515169291497 -0.043179728515271798 0 -0.06289081036004586 -0.043098626540474173 0 -0.063263440726729098 -0.043864984487510215 0 -0.063367515169291497 -0.043179728515271798 0 -0.063871314576543534 -0.043269358957246574 0 -0.063367515169291497 -0.043179728515271798 0 -0.063871314576543534 -0.043269358957246574 0 -0.063591186489013379 -0.042735948005761346 0 -0.063367515169291497 -0.043179728515271798 0 -0.063238580592642368 -0.04285046452249789 0 -0.06289081036004586 -0.043098626540474173 0 -0.063862815859750177 -0.044047876381213484 0 -0.063263440726729098 -0.043864984487510215 0 -0.063871314576543534 -0.043269358957246574 0 -0.064712124840042781 -0.043572065174052335 0 -0.063862815859750177 -0.044047876381213484 0 -0.063871314576543534 -0.043269358957246574 0 -0.063871314576543534 -0.043269358957246574 0 -0.064249035957093831 -0.042919651182225224 0 -0.063917127560078904 -0.042793183647389064 0 -0.064249035957093831 -0.042919651182225224 0 -0.063917127560078904 -0.042793183647389064 0 -0.064058160943954515 -0.042546297872514294 0 -0.063871314576543534 -0.043269358957246574 0 -0.063917127560078904 -0.042793183647389064 0 -0.063591186489013379 -0.042735948005761346 0 -0.063917127560078904 -0.042793183647389064 0 -0.06381848114985908 -0.042511183858580097 0 -0.063591186489013379 -0.042735948005761346 0 -0.063622242245958263 -0.042403245363461996 0 -0.06381848114985908 -0.042511183858580097 0 -0.063591186489013379 -0.042735948005761346 0 -0.063622242245958263 -0.042403245363461996 0 -0.063729260891231904 -0.042378980330744373 0 -0.06381848114985908 -0.042511183858580097 0 -0.063906779745486655 -0.042337749270023428 0 -0.063729260891231904 -0.042378980330744373 0 -0.06381848114985908 -0.042511183858580097 0 -0.064318961681429282 -0.042430663544745416 0 -0.064249035957093831 -0.042919651182225224 0 -0.064058160943954515 -0.042546297872514294 0 -0.063917127560078904 -0.042793183647389064 0 -0.06381848114985908 -0.042511183858580097 0 -0.064058160943954515 -0.042546297872514294 0 -0.063906779745486655 -0.042337749270023428 0 -0.06381848114985908 -0.042511183858580097 0 -0.064058160943954515 -0.042546297872514294 0 -0.06409953889189314 -0.042356596416441974 0 -0.063906779745486655 -0.042337749270023428 0 -0.064058160943954515 -0.042546297872514294 0 -0.06409953889189314 -0.042356596416441974 0 -0.064318961681429282 -0.042430663544745416 0 -0.064058160943954515 -0.042546297872514294 0 -0.063238580592642368 -0.04285046452249789 0 -0.063323229689236565 -0.042556789155209912 0 -0.063012520095313954 -0.042686170103859854 0 -0.063367515169291497 -0.043179728515271798 0 -0.063238580592642368 -0.04285046452249789 0 -0.063591186489013379 -0.042735948005761346 0 -0.063238580592642368 -0.04285046452249789 0 -0.063591186489013379 -0.042735948005761346 0 -0.063323229689236565 -0.042556789155209912 0 -0.063622242245958263 -0.042403245363461996 0 -0.063591186489013379 -0.042735948005761346 0 -0.06349706572161555 -0.042523149537386291 0 -0.063591186489013379 -0.042735948005761346 0 -0.06349706572161555 -0.042523149537386291 0 -0.063323229689236565 -0.042556789155209912 0 -0.063622242245958263 -0.042403245363461996 0 -0.06349706572161555 -0.042523149537386291 0 -0.063436441734568652 -0.042377382426548371 0 -0.06349706572161555 -0.042523149537386291 0 -0.063436441734568652 -0.042377382426548371 0 -0.063323229689236565 -0.042556789155209912 0 -0.063246622907918285 -0.04230513949407274 0 -0.063323229689236565 -0.042556789155209912 0 -0.063120942905252928 -0.042427763723962737 0 -0.063323229689236565 -0.042556789155209912 0 -0.063120942905252928 -0.042427763723962737 0 -0.063012520095313954 -0.042686170103859854 0 -0.063246622907918285 -0.04230513949407274 0 -0.063436441734568652 -0.042377382426548371 0 -0.063323229689236565 -0.042556789155209912 0 -0.062609789683413283 -0.042586144377540686 0 -0.062187062573160173 -0.042984753279652163 0 -0.06289081036004586 -0.043098626540474173 0 -0.062922275100369865 -0.042339847684358702 0 -0.063120942905252928 -0.042427763723962737 0 -0.063012520095313954 -0.042686170103859854 0 -0.062922275100369865 -0.042339847684358702 0 -0.063012520095313954 -0.042686170103859854 0 -0.062609789683413283 -0.042586144377540686 0 -0.063012520095313954 -0.042686170103859854 0 -0.062609789683413283 -0.042586144377540686 0 -0.06289081036004586 -0.043098626540474173 0 -0.063238580592642368 -0.04285046452249789 0 -0.063012520095313954 -0.042686170103859854 0 -0.06289081036004586 -0.043098626540474173 0 -0.062613093442728043 -0.042209910185073612 0 -0.062922275100369865 -0.042339847684358702 0 -0.062609789683413283 -0.042586144377540686 0 -0.062036644847542843 -0.042244058235436394 0 -0.062609789683413283 -0.042586144377540686 0 -0.062187062573160173 -0.042984753279652163 0 -0.062036644847542843 -0.042244058235436394 0 -0.062187062573160173 -0.042984753279652163 0 -0.061338933262550015 -0.043377597098282927 0 -0.062036644847542843 -0.042244058235436394 0 -0.062613093442728043 -0.042209910185073612 0 -0.062609789683413283 -0.042586144377540686 0 -0.062187062573160173 -0.042984753279652163 0 -0.062464009035575543 -0.043540103183471679 0 -0.061338933262550015 -0.043377597098282927 0 -0.062187062573160173 -0.042984753279652163 0 -0.062464009035575543 -0.043540103183471679 0 -0.06289081036004586 -0.043098626540474173 0 -0.063263440726729098 -0.043864984487510215 0 -0.062464009035575543 -0.043540103183471679 0 -0.06289081036004586 -0.043098626540474173 0 -0.061579505996955095 -0.043511740666933321 0 -0.060691315121127756 -0.04283225490945676 0 -0.061877054530459087 -0.043923531054694952 0 -0.060990039945723294 -0.043020617195909473 0 -0.061183902417483012 -0.04450607456313433 0 -0.061045248335349619 -0.042136997885195315 0 -0.062036644847542843 -0.042244058235436394 0 -0.061338933262550015 -0.043377597098282927 0 -0.061045248335349619 -0.042136997885195315 0 -0.061338933262550015 -0.043377597098282927 0 -0.060405217729059178 -0.042544108455762737 0 -0.060112779635267108 -0.042392982913347158 0 -0.060691315121127756 -0.04283225490945676 0 -0.059645405159619046 -0.041786755499280404 0 -0.060990039945723294 -0.043020617195909473 0 -0.059942394980608535 -0.043057551511192949 0 -0.059942394980608535 -0.043057551511192949 0 -0.06035701263829605 -0.043938334661846053 0 -0.059590421438678071 -0.043678876687110971 0 -0.06035701263829605 -0.043938334661846053 0 -0.059842281262612221 -0.044463124068752601 0 -0.059590421438678071 -0.043678876687110971 0 -0.060990039945723294 -0.043020617195909473 0 -0.059942394980608535 -0.043057551511192949 0 -0.06035701263829605 -0.043938334661846053 0 -0.060990039945723294 -0.043020617195909473 0 -0.06035701263829605 -0.043938334661846053 0 -0.061183902417483012 -0.04450607456313433 0 -0.06035701263829605 -0.043938334661846053 0 -0.060310152723358094 -0.044939413877996659 0 -0.061183902417483012 -0.04450607456313433 0 -0.06035701263829605 -0.043938334661846053 0 -0.059842281262612221 -0.044463124068752601 0 -0.060310152723358094 -0.044939413877996659 0 -0.059842281262612221 -0.044463124068752601 0 -0.060310152723358094 -0.044939413877996659 0 -0.059470290987357281 -0.0451299372075981 0 -0.060310152723358094 -0.044939413877996659 0 -0.059641872332922667 -0.045828505685789937 0 -0.059470290987357281 -0.0451299372075981 0 -0.060310152723358094 -0.044939413877996659 0 -0.059641872332922667 -0.045828505685789937 0 -0.060411647163756153 -0.045658182714614068 0 -0.060310152723358094 -0.044939413877996659 0 -0.060891156290474688 -0.045142692304969124 0 -0.061183902417483012 -0.04450607456313433 0 -0.060310152723358094 -0.044939413877996659 0 -0.060891156290474688 -0.045142692304969124 0 -0.060411647163756153 -0.045658182714614068 0 -0.060891156290474688 -0.045142692304969124 0 -0.060411647163756153 -0.045658182714614068 0 -0.061050450693540259 -0.045613559048477012 0 -0.061326852590595164 -0.045111889060197786 0 -0.061876914768743338 -0.044726526080512821 0 -0.061529191405956495 -0.045604101708349783 0 -0.061326852590595164 -0.045111889060197786 0 -0.061183902417483012 -0.04450607456313433 0 -0.061876914768743338 -0.044726526080512821 0 -0.060891156290474688 -0.045142692304969124 0 -0.061326852590595164 -0.045111889060197786 0 -0.061050450693540259 -0.045613559048477012 0 -0.060891156290474688 -0.045142692304969124 0 -0.061326852590595164 -0.045111889060197786 0 -0.061183902417483012 -0.04450607456313433 0 -0.062494884686970516 -0.044317630807481551 0 -0.061877054530459087 -0.043923531054694952 0 -0.061876914768743338 -0.044726526080512821 0 -0.061877054530459087 -0.043923531054694952 0 -0.061183902417483012 -0.04450607456313433 0 -0.061876914768743338 -0.044726526080512821 0 -0.062340125525418878 -0.045151046183148968 0 -0.061876914768743338 -0.044726526080512821 0 -0.061529191405956495 -0.045604101708349783 0 -0.050941897168209307 -0.052160914857665275 0 -0.052474321936938531 -0.051983318279421341 0 -0.040292486041935652 -0.061600935083268714 0 -0.043228062973125272 -0.061088908357734638 0 -0.042120273469049313 -0.059453785020727699 0 -0.043228062973125272 -0.061088908357734638 0 -0.04442383117979886 -0.05943428532779866 0 -0.046169833204041409 -0.060539052495979587 0 -0.052474321936938531 -0.051983318279421341 0 -0.055468728127395651 -0.050633897211189827 0 -0.061326852590595164 -0.045111889060197786 0 -0.061529191405956495 -0.045604101708349783 0 -0.061050450693540259 -0.045613559048477012 0 -0.043228062973125272 -0.061088908357734638 0 -0.04442383117979886 -0.05943428532779866 0 -0.042120273469049313 -0.059453785020727699 0 -0.04442383117979886 -0.05943428532779866 0 -0.042120273469049313 -0.059453785020727699 0 -0.042968678914577313 -0.057449783350241146 0 -0.040317635204573272 -0.058252951664685665 0 -0.042120273469049313 -0.059453785020727699 0 -0.042968678914577313 -0.057449783350241146 0 -0.040317635204573272 -0.058252951664685665 0 -0.042968678914577313 -0.057449783350241146 0 -0.04143761114056381 -0.054999971588771068 0 -0.042968678914577313 -0.057449783350241146 0 -0.044462404701554062 -0.054999967925138969 0 -0.045638759938438474 -0.057868947828904192 0 -0.04442383117979886 -0.05943428532779866 0 -0.042968678914577313 -0.057449783350241146 0 -0.045638759938438474 -0.057868947828904192 0 -0.042968678914577313 -0.057449783350241146 0 -0.044462404701554062 -0.054999967925138969 0 -0.04143761114056381 -0.054999971588771068 0 -0.046823176827356303 -0.056561065012136348 0 -0.047487080105177153 -0.054999963032421037 0 -0.048564758525238533 -0.056602290912368777 0 -0.047494104336676828 -0.054997759735528007 0 -0.050456097624359313 -0.054651096811783234 0 -0.044462404701554062 -0.054999967925138969 0 -0.046823176827356303 -0.056561065012136348 0 -0.045638759938438474 -0.057868947828904192 0 -0.044462404701554062 -0.054999967925138969 0 -0.046823176827356303 -0.056561065012136348 0 -0.047487080105177153 -0.054999963032421037 0 -0.046823176827356303 -0.056561065012136348 0 -0.047724586564502507 -0.057722517588006617 0 -0.048564758525238533 -0.056602290912368777 0 -0.045638759938438474 -0.057868947828904192 0 -0.047724586564502507 -0.057722517588006617 0 -0.047921634349285355 -0.059376022424288001 0 -0.046823176827356303 -0.056561065012136348 0 -0.045638759938438474 -0.057868947828904192 0 -0.047724586564502507 -0.057722517588006617 0 -0.054091433941360477 -0.052363822364204282 0 -0.055468728127395651 -0.050633897211189827 0 -0.045638759938438474 -0.057868947828904192 0 -0.047921634349285355 -0.059376022424288001 0 -0.046169833204041409 -0.060539052495979587 0 -0.059547025202750563 -0.047108978899320801 0 -0.060368918322232352 -0.046536244804285899 0 -0.059539616199944363 -0.046693747974057058 0 -0.04442383117979886 -0.05943428532779866 0 -0.045638759938438474 -0.057868947828904192 0 -0.046169833204041409 -0.060539052495979587 0 -0.061529191405956495 -0.045604101708349783 0 -0.060571227725217766 -0.046031035222610227 0 -0.061050450693540259 -0.045613559048477012 0 -0.060411647163756153 -0.045658182714614068 0 -0.060449333577553943 -0.046336635901538158 0 -0.061050450693540259 -0.045613559048477012 0 -0.055468728127395651 -0.050633897211189827 0 -0.057305833336519452 -0.049289542708124766 0 -0.060449333577553943 -0.046336635901538158 0 -0.059539616199944363 -0.046693747974057058 0 -0.059916944907227022 -0.046167398053900237 0 -0.055468728127395651 -0.050633897211189827 0 -0.057092082483462502 -0.04998965981410107 0 -0.059539616199944363 -0.046693747974057058 0 -0.059916944907227022 -0.046167398053900237 0 -0.059459854862385898 -0.04632207907029115 0 -0.060411647163756153 -0.045658182714614068 0 -0.060449333577553943 -0.046336635901538158 0 -0.059916944907227022 -0.046167398053900237 0 -0.059641872332922667 -0.045828505685789937 0 -0.060411647163756153 -0.045658182714614068 0 -0.059916944907227022 -0.046167398053900237 0 -0.059641872332922667 -0.045828505685789937 0 -0.059916944907227022 -0.046167398053900237 0 -0.059459854862385898 -0.04632207907029115 0 -0.059641872332922667 -0.045828505685789937 0 -0.059459854862385898 -0.04632207907029115 0 -0.059037015063597542 -0.046296636746711667 0 -0.059641872332922667 -0.045828505685789937 0 -0.059037015063597542 -0.046296636746711667 0 -0.058907108265434091 -0.045788649935666531 0 -0.059037015063597542 -0.046296636746711667 0 -0.058499631377739281 -0.046238595863258763 0 -0.058907108265434091 -0.045788649935666531 0 -0.059037015063597542 -0.046296636746711667 0 -0.058684771504274494 -0.046794580466963664 0 -0.059149068770676334 -0.046744670805622904 0 -0.059037015063597542 -0.046296636746711667 0 -0.058684771504274494 -0.046794580466963664 0 -0.058499631377739281 -0.046238595863258763 0 -0.059459854862385898 -0.04632207907029115 0 -0.059037015063597542 -0.046296636746711667 0 -0.059149068770676334 -0.046744670805622904 0 -0.059539616199944363 -0.046693747974057058 0 -0.059459854862385898 -0.04632207907029115 0 -0.059149068770676334 -0.046744670805622904 0 -0.058684771504274494 -0.046794580466963664 0 -0.057848691205138442 -0.046474950231731697 0 -0.058499631377739281 -0.046238595863258763 0 -0.057848691205138442 -0.046474950231731697 0 -0.058499631377739281 -0.046238595863258763 0 -0.058094111280142212 -0.045842117992251054 0 -0.054130630457524954 -0.053154784422458953 0 -0.054832996598724065 -0.052032108717189801 0 -0.058684771504274494 -0.046794580466963664 0 -0.057848691205138442 -0.046474950231731697 0 -0.058693639960120482 -0.047672005335358002 0 -0.060458603665123498 -0.051890449969712697 0 -0.059969945174138783 -0.052215626098960424 0 -0.058039002783962922 -0.05106280172259104 0 -0.058527281323462875 -0.048952132233043004 0 -0.060458603665123498 -0.051890449969712697 0 -0.058039002783962922 -0.05106280172259104 0 -0.055459413832935872 -0.04961299144132799 0 -0.053608213772920361 -0.053294354661266086 0 -0.054091433941360477 -0.052363822364204282 0 -0.053608213772920361 -0.053294354661266086 0 -0.059547025202750563 -0.047108978899320801 0 -0.058997899625665477 -0.047122103286011213 0 -0.058693639960120482 -0.047672005335358002 0 -0.047724586564502507 -0.057722517588006617 0 -0.047921634349285355 -0.059376022424288001 0 -0.049664364500693982 -0.058209554142512498 0 -0.058684771504274494 -0.046794580466963664 0 -0.058997899625665477 -0.047122103286011213 0 -0.058693639960120482 -0.047672005335358002 0 -0.059547025202750563 -0.047108978899320801 0 -0.059149068770676334 -0.046744670805622904 0 -0.058997899625665477 -0.047122103286011213 0 -0.059547025202750563 -0.047108978899320801 0 -0.059539616199944363 -0.046693747974057058 0 -0.059149068770676334 -0.046744670805622904 0 -0.058684771504274494 -0.046794580466963664 0 -0.059149068770676334 -0.046744670805622904 0 -0.058997899625665477 -0.047122103286011213 0 -0.047724586564502507 -0.057722517588006617 0 -0.049664364500693982 -0.058209554142512498 0 -0.048564758525238533 -0.056602290912368777 0 -0.049625149835356604 -0.056966953436991374 0 -0.049875602494213737 -0.057766403061504684 0 -0.048611140105581326 -0.056629883563608166 0 -0.053608213772920361 -0.053294354661266086 0 -0.050456097624359313 -0.054651096811783234 0 -0.04972796698470143 -0.058247471974706998 0 -0.049875602494213737 -0.057766403061504684 0 -0.048611140105581326 -0.056629883563608166 0 -0.053890933820744259 -0.052525793002520894 0 -0.054360650006449358 -0.052212082666964386 0 -0.054573308261163363 -0.052927296938944088 0 -0.053608213772920361 -0.053294354661266086 0 -0.054130630457524954 -0.053154784422458953 0 -0.04972796698470143 -0.058247471974706998 0 -0.049875602494213737 -0.057766403061504684 0 -0.050180396607615231 -0.057943649114011994 0 -0.049875602494213737 -0.057766403061504684 0 -0.050179802852858668 -0.057945626973436935 0 -0.050224633988390693 -0.057224416398440038 0 -0.054100253374997256 -0.053166888465378703 0 -0.054130630457524954 -0.053154784422458953 0 -0.054130630457524954 -0.053154784422458953 0 -0.053280820662728039 -0.053811879779549994 0 -0.050179802852858668 -0.057945626973436935 0 -0.051423935173900488 -0.057115896429759248 0 -0.050224633988390693 -0.057224416398440038 0 -0.049625149835356604 -0.056966953436991374 0 -0.050224633988390693 -0.057224416398440038 0 -0.050018135092565565 -0.056326001028935077 0 -0.051423935173900488 -0.057115896429759248 0 -0.050224633988390693 -0.057224416398440038 0 -0.050018135092565565 -0.056326001028935077 0 -0.049625149835356604 -0.056966953436991374 0 -0.049875602494213737 -0.057766403061504684 0 -0.050224633988390693 -0.057224416398440038 0 -0.051423935173900488 -0.057115896429759248 0 -0.050018135092565565 -0.056326001028935077 0 -0.050801160569786744 -0.054999978780589848 0 -0.053280820662728039 -0.053811879779549994 0 -0.050807276298148726 -0.054998377526738564 0 -0.047487213157097398 -0.054999993817384567 0 -0.050018135092565565 -0.056326001028935077 0 -0.050801160569786744 -0.054999978780589848 0 -0.047487213157097398 -0.054999993817384567 0 -0.050018135092565565 -0.056326001028935077 0 -0.048611140105581326 -0.056629883563608166 0 -0.049625149835356604 -0.056966953436991374 0 -0.050018135092565565 -0.056326001028935077 0 -0.048611140105581326 -0.056629883563608166 0 -0.050802808197410308 -0.054999270769687289 0 -0.054999622647251785 -0.054999786849446973 0 -0.054514583760864863 -0.054979493369170004 0 -0.054999622647251785 -0.054999786849446973 0 -0.055914050180548451 -0.052406685123873101 0 -0.054999114905967261 -0.049160700179130511 0 -0.054999622647251785 -0.054999786849446973 0 -0.054514583760864863 -0.054979493369170004 0 -0.055914050180548451 -0.052406685123873101 0 -0.054514583760864863 -0.054979493369170004 0 -0.056523769220378946 -0.05403540386060935 0 -0.055914050180548451 -0.052406685123873101 0 -0.053863023372898625 -0.05404375296785198 0 -0.053742327976432185 -0.053982855259094971 0 -0.051510951647760199 -0.057145717204298951 0 -0.050802808197410308 -0.054999270769687289 0 -0.05298630478329204 -0.056143504141449731 0 -0.050802808197410308 -0.054999270769687289 0 -0.054514583760864863 -0.054979493369170004 0 -0.05298630478329204 -0.056143504141449731 0 -0.053280820662728039 -0.053811879779549994 0 -0.053742327976432185 -0.053982855259094971 0 -0.053280820662728039 -0.053811879779549994 0 -0.054832996598724065 -0.052032108717189801 0 -0.056523769220378946 -0.05403540386060935 0 -0.057014930971389564 -0.052625387880238662 0 -0.055914050180548451 -0.052406685123873101 0 -0.058085243440759271 -0.053043233608811691 0 -0.057014930971389564 -0.052625387880238662 0 -0.057531004624639955 -0.05106099068144053 0 -0.058085243440759271 -0.053043233608811691 0 -0.056523769220378946 -0.05403540386060935 0 -0.057014930971389564 -0.052625387880238662 0 -0.057014930971389564 -0.052625387880238662 0 -0.055914050180548451 -0.052406685123873101 0 -0.057531004624639955 -0.05106099068144053 0 -0.055914050180548451 -0.052406685123873101 0 -0.056164429321381881 -0.050157264015483947 0 -0.054999114905967261 -0.049160700179130511 0 -0.055914050180548451 -0.052406685123873101 0 -0.056164429321381881 -0.050157264015483947 0 -0.057531004624639955 -0.05106099068144053 0 -0.055220142782883168 -0.050649385989852982 0 -0.054832996598724065 -0.052032108717189801 0 -0.054832996598724065 -0.052032108717189801 0 -0.055241774230179161 -0.050315306426378929 0 -0.058527281323462875 -0.048952132233043004 0 -0.058039002783962922 -0.05106280172259104 0 -0.057143119894138679 -0.047856629743869145 0 -0.056504242720099337 -0.0500244519371369 0 -0.058070021221345892 -0.050955249224282649 0 -0.057143119894138679 -0.047856629743869145 0 -0.056504242720099337 -0.0500244519371369 0 -0.054999974914841231 -0.049159760418619088 0 -0.057143119894138679 -0.047856629743869145 0 -0.055220142782883168 -0.050649385989852982 0 -0.054999527775125422 -0.049163419439935359 0 -0.056621812505767762 -0.045888552461450509 0 -0.054999954139101928 -0.045917263085213551 0 -0.057143119894138679 -0.047856629743869145 0 -0.054999974914841231 -0.049159760418619088 0 -0.054999954139101928 -0.045917263085213551 0 -0.057143119894138679 -0.047856629743869145 0 -0.056621812505767762 -0.045888552461450509 0 -0.054999954139101928 -0.045917263085213551 0 -0.056511482342369079 -0.044030901475011562 0 -0.056621812505767762 -0.045888552461450509 0 -0.057310704723990455 -0.044720796074644416 0 -0.056511482342369079 -0.044030901475011562 0 -0.056621812505767762 -0.045888552461450509 0 -0.057310704723990455 -0.044720796074644416 0 -0.057880800983514599 -0.045186810541846013 0 -0.057848691205138442 -0.046474950231731697 0 -0.056621812505767762 -0.045888552461450509 0 -0.058094111280142212 -0.045842117992251054 0 -0.058527281323462875 -0.048952132233043004 0 -0.056621812505767762 -0.045888552461450509 0 -0.057143119894138679 -0.047856629743869145 0 -0.055459413832935872 -0.04961299144132799 0 -0.055470193055170161 -0.047999698703698218 0 -0.056621812505767762 -0.045888552461450509 0 -0.058094111280142212 -0.045842117992251054 0 -0.057880800983514599 -0.045186810541846013 0 -0.058499631377739281 -0.046238595863258763 0 -0.058094111280142212 -0.045842117992251054 0 -0.058907108265434091 -0.045788649935666531 0 -0.058094111280142212 -0.045842117992251054 0 -0.058907108265434091 -0.045788649935666531 0 -0.058688920308661421 -0.045136888968935078 0 -0.058094111280142212 -0.045842117992251054 0 -0.057880800983514599 -0.045186810541846013 0 -0.058688920308661421 -0.045136888968935078 0 -0.059641872332922667 -0.045828505685789937 0 -0.058907108265434091 -0.045788649935666531 0 -0.059470290987357281 -0.0451299372075981 0 -0.058907108265434091 -0.045788649935666531 0 -0.059470290987357281 -0.0451299372075981 0 -0.058688920308661421 -0.045136888968935078 0 -0.059842281262612221 -0.044463124068752601 0 -0.059470290987357281 -0.0451299372075981 0 -0.0592367178379909 -0.044517853524499988 0 -0.059470290987357281 -0.0451299372075981 0 -0.0592367178379909 -0.044517853524499988 0 -0.058688920308661421 -0.045136888968935078 0 -0.0592367178379909 -0.044517853524499988 0 -0.058688920308661421 -0.045136888968935078 0 -0.058477774648717694 -0.044204755180632146 0 -0.059842281262612221 -0.044463124068752601 0 -0.0592367178379909 -0.044517853524499988 0 -0.059590421438678071 -0.043678876687110971 0 -0.057310704723990455 -0.044720796074644416 0 -0.057880800983514599 -0.045186810541846013 0 -0.058477774648717694 -0.044204755180632146 0 -0.057880800983514599 -0.045186810541846013 0 -0.058688920308661421 -0.045136888968935078 0 -0.058477774648717694 -0.044204755180632146 0 -0.057310704723990455 -0.044720796074644416 0 -0.058477774648717694 -0.044204755180632146 0 -0.057822399214114778 -0.043376980685404957 0 -0.058477774648717694 -0.044204755180632146 0 -0.059113086781208961 -0.042834571947593499 0 -0.057822399214114778 -0.043376980685404957 0 -0.058477774648717694 -0.044204755180632146 0 -0.059590421438678071 -0.043678876687110971 0 -0.059113086781208961 -0.042834571947593499 0 -0.059942394980608535 -0.043057551511192949 0 -0.059590421438678071 -0.043678876687110971 0 -0.059113086781208961 -0.042834571947593499 0 -0.0592367178379909 -0.044517853524499988 0 -0.058477774648717694 -0.044204755180632146 0 -0.059590421438678071 -0.043678876687110971 0 -0.058687466021735461 -0.041428280559476158 0 -0.059645405159619046 -0.041786755499280404 0 -0.059113086781208961 -0.042834571947593499 0 -0.059645405159619046 -0.041786755499280404 0 -0.059942394980608535 -0.043057551511192949 0 -0.059113086781208961 -0.042834571947593499 0 -0.058687466021735461 -0.041428280559476158 0 -0.059113086781208961 -0.042834571947593499 0 -0.057822399214114778 -0.043376980685404957 0 -0.058687466021735461 -0.041428280559476158 0 -0.056911476652176211 -0.041815339154480366 0 -0.057822399214114778 -0.043376980685404957 0 -0.056911476652176211 -0.041815339154480366 0 -0.054999986096423002 -0.042677172041948729 0 -0.056511482342369079 -0.044030901475011562 0 -0.054999954139101928 -0.045917263085213551 0 -0.054999986096423002 -0.042677172041948729 0 -0.056511482342369079 -0.044030901475011562 0 -0.057310704723990455 -0.044720796074644416 0 -0.056511482342369079 -0.044030901475011562 0 -0.057822399214114778 -0.043376980685404957 0 -0.056911476652176211 -0.041815339154480366 0 -0.056511482342369079 -0.044030901475011562 0 -0.057822399214114778 -0.043376980685404957 0 -0.0082892807354454767 -0.06858126998300787 0 -0.0077768409341868313 -0.070390159620436404 0 -0.01075787840289179 -0.06804132796661104 0 -0.019206067297669677 -0.054197133326317544 0 -0.026996444248671224 -0.051061974479087981 0 -0.0082892807354454767 -0.06858126998300787 0 -0.01075787840289179 -0.06804132796661104 0 -0.0091015913104743069 -0.066910678659258718 0 -0.0082892807354454767 -0.06858126998300787 0 -0.006596258199763106 -0.067624938212421118 0 -0.0078161703190092486 -0.067022755096533077 0 -0.0082892807354454767 -0.06858126998300787 0 -0.006596258199763106 -0.067624938212421118 0 -0.0066440160794501574 -0.068892496137778078 0 -0.0082892807354454767 -0.06858126998300787 0 -0.0066440160794501574 -0.068892496137778078 0 -0.0069959614654375585 -0.069206574971399787 0 -0.006094566609991226 -0.068811116342572753 0 -0.0066440160794501574 -0.068892496137778078 0 -0.0069959614654375585 -0.069206574971399787 0 -0.054512144305337316 -0.026891724089601735 0 -0.051019049630772285 -0.025886038859003889 0 -0.049744280414602375 -0.03379768863354192 0 -0.054512144305337316 -0.026891724089601735 0 -0.051019049630772285 -0.025886038859003889 0 -0.051825191948898799 -0.021856319207853043 0 -0.017608264599896593 -0.058683959573252627 0 -0.019206067297669677 -0.054197133326317544 0 -0.051019049630772285 -0.025886038859003889 0 -0.047750281757128837 -0.026946517057049795 0 -0.049744280414602375 -0.03379768863354192 0 -0.051019049630772285 -0.025886038859003889 0 -0.047750281757128837 -0.026946517057049795 0 -0.04830836900634345 -0.022906225022070858 0 -0.047750281757128837 -0.026946517057049795 0 -0.044002667386600469 -0.024065606061515536 0 -0.04830836900634345 -0.022906225022070858 0 -0.044382656934985582 -0.028679403723266529 0 -0.044002667386600469 -0.024065606061515536 0 -0.039079614214306613 -0.026320849055691011 0 -0.047750281757128837 -0.026946517057049795 0 -0.044382656934985582 -0.028679403723266529 0 -0.044002667386600469 -0.024065606061515536 0 -0.043371005216816201 -0.0326292421540215 0 -0.049744280414602375 -0.03379768863354192 0 -0.041646313178837373 -0.037118147109617555 0 -0.044382656934985582 -0.028679403723266529 0 -0.043371005216816201 -0.0326292421540215 0 -0.049744280414602375 -0.03379768863354192 0 -0.044382656934985582 -0.028679403723266529 0 -0.043371005216816201 -0.0326292421540215 0 -0.03915491489581778 -0.031353751977439621 0 -0.043371005216816201 -0.0326292421540215 0 -0.041646313178837373 -0.037118147109617555 0 -0.03915491489581778 -0.031353751977439621 0 -0.047750281757128837 -0.026946517057049795 0 -0.044382656934985582 -0.028679403723266529 0 -0.049744280414602375 -0.03379768863354192 0 -0.01075787840289179 -0.06804132796661104 0 -0.010867736104976988 -0.06633058683444075 0 -0.014073859401643313 -0.066119327929250502 0 -0.026996444248671224 -0.051061974479087981 0 -0.027321917735181962 -0.05377808581327756 0 -0.01075787840289179 -0.06804132796661104 0 -0.010867736104976988 -0.06633058683444075 0 -0.0091015913104743069 -0.066910678659258718 0 -0.049744280414602375 -0.03379768863354192 0 -0.041646313178837373 -0.037118147109617555 0 -0.043695087298412469 -0.04276381797560478 0 -0.014073859401643313 -0.066119327929250502 0 -0.01077039833777841 -0.064723200278818019 0 -0.014947716062986387 -0.064619457746118006 0 -0.010867736104976988 -0.06633058683444075 0 -0.014073859401643313 -0.066119327929250502 0 -0.01077039833777841 -0.064723200278818019 0 -0.010867736104976988 -0.06633058683444075 0 -0.01077039833777841 -0.064723200278818019 0 -0.009428967576624139 -0.065917992342629753 0 -0.011967163398420806 -0.065615220651049383 0 -0.009000340780605201 -0.065220592630925125 0 -0.0097936728094213093 -0.064656986305657568 0 -0.01077039833777841 -0.064723200278818019 0 -0.009428967576624139 -0.065917992342629753 0 -0.0073184193223921412 -0.065654403010104612 0 -0.011967163398420806 -0.065615220651049383 0 -0.008493382974642933 -0.066020503533287145 0 -0.009000340780605201 -0.065220592630925125 0 -0.010957872707918693 -0.0651430448584083 0 -0.0084319840814975344 -0.065820181529874761 0 -0.010867736104976988 -0.06633058683444075 0 -0.009428967576624139 -0.065917992342629753 0 -0.0091015913104743069 -0.066910678659258718 0 -0.009428967576624139 -0.065917992342629753 0 -0.0084969585304359649 -0.066339160379339721 0 -0.0073184193223921412 -0.065654403010104612 0 -0.0082892807354454767 -0.06858126998300787 0 -0.0091015913104743069 -0.066910678659258718 0 -0.0078161703190092486 -0.067022755096533077 0 -0.009428967576624139 -0.065917992342629753 0 -0.0084969585304359649 -0.066339160379339721 0 -0.0091015913104743069 -0.066910678659258718 0 -0.0084969585304359649 -0.066339160379339721 0 -0.0091015913104743069 -0.066910678659258718 0 -0.0078161703190092486 -0.067022755096533077 0 -0.006596258199763106 -0.067624938212421118 0 -0.0078161703190092486 -0.067022755096533077 0 -0.0073184193223921412 -0.065654403010104612 0 -0.0079745340381784293 -0.065417902436925732 0 -0.008493382974642933 -0.066020503533287145 0 -0.0046781594659587172 -0.066255101298551819 0 -0.0084969585304359649 -0.066339160379339721 0 -0.0078161703190092486 -0.067022755096533077 0 -0.0073184193223921412 -0.065654403010104612 0 -0.0079745340381784293 -0.065417902436925732 0 -0.008493382974642933 -0.066020503533287145 0 -0.009000340780605201 -0.065220592630925125 0 -0.009000340780605201 -0.065220592630925125 0 -0.0082441048621352056 -0.064649099371692359 0 -0.0097936728094213093 -0.064656986305657568 0 -0.0079745340381784293 -0.065417902436925732 0 -0.009000340780605201 -0.065220592630925125 0 -0.0080930797269881047 -0.065036333787041226 0 -0.009000340780605201 -0.065220592630925125 0 -0.0080930797269881047 -0.065036333787041226 0 -0.0082441048621352056 -0.064649099371692359 0 -0.0079745340381784293 -0.065417902436925732 0 -0.0080930797269881047 -0.065036333787041226 0 -0.0072979954331115196 -0.064866766056379296 0 -0.0080930797269881047 -0.065036333787041226 0 -0.0072979954331115196 -0.064866766056379296 0 -0.0082441048621352056 -0.064649099371692359 0 -0.0079745340381784293 -0.065417902436925732 0 -0.0072979954331115196 -0.064866766056379296 0 -0.0055702776923026017 -0.065032798495446298 0 -0.0079745340381784293 -0.065417902436925732 0 -0.0035161520306438488 -0.062830745483026973 0 -0.0046781594659587172 -0.066255101298551819 0 -0.0057303499915270766 -0.064494495040085198 0 -0.0038661512796865807 -0.063971429495588983 0 -0.0035161520306438488 -0.062830745483026973 0 -0.0021789544411908706 -0.06523755278984926 0 -0.00049684119332762608 -0.063878246768105204 0 -0.0035161520306438488 -0.062830745483026973 0 -0.0021789544411908706 -0.06523755278984926 0 -0.0046781594659587172 -0.066255101298551819 0 -0.0021789544411908706 -0.06523755278984926 0 -0.0046781594659587172 -0.066255101298551819 0 -0.0014740274068563569 -0.068476699843187674 0 -0.0084319840814975344 -0.065820181529874761 0 -0.0069286400449645198 -0.066230402333318644 0 -0.006596258199763106 -0.067624938212421118 0 -0.0073184193223921412 -0.065654403010104612 0 -0.0046781594659587172 -0.066255101298551819 0 -0.00049684119332762608 -0.063878246768105204 0 0.0019292849240602884 -0.064328796109397166 0 0.001318657353720779 -0.061117462796850645 0 0.0019292849240602884 -0.064328796109397166 0 0.001318657353720779 -0.061117462796850645 0 0.0038686050243983993 -0.063047447343822907 0 0.0019292849240602884 -0.064328796109397166 0 0.0038686050243983993 -0.063047447343822907 0 0.0041344765841857967 -0.064891187941367917 0 -0.0035161520306438488 -0.062830745483026973 0 -0.00049684119332762608 -0.063878246768105204 0 0.001318657353720779 -0.061117462796850645 0 -0.0038661512796865807 -0.063971429495588983 0 -0.0001137313103411639 -0.06308423185324466 0 -0.0021789544411908706 -0.06523755278984926 0 2.4659557520240016e-05 -0.065774114561866714 0 -0.0014740274068563569 -0.068476699843187674 0 -0.0021789544411908706 -0.06523755278984926 0 -0.00049684119332762608 -0.063878246768105204 0 2.4659557520240016e-05 -0.065774114561866714 0 -0.00049684119332762608 -0.063878246768105204 0 2.4659557520240016e-05 -0.065774114561866714 0 0.0019292849240602884 -0.064328796109397166 0 0.0019292849240602884 -0.064328796109397166 0 0.0028789747590461426 -0.067736223199749312 0 0.0041344765841857967 -0.064891187941367917 0 2.4659557520240016e-05 -0.065774114561866714 0 0.0019292849240602884 -0.064328796109397166 0 0.0028789747590461426 -0.067736223199749312 0 0.0028789747590461426 -0.067736223199749312 0 -0.0014740274068563569 -0.068476699843187674 0 0.0030209737817128543 -0.072872664673581417 0 2.4659557520240016e-05 -0.065774114561866714 0 0.0028789747590461426 -0.067736223199749312 0 -0.0014740274068563569 -0.068476699843187674 0 -0.0014740274068563569 -0.068476699843187674 0 -0.0057696380679382198 -0.069529667427956215 0 -0.0026773812554105473 -0.073563765255043184 0 -0.006596258199763106 -0.067624938212421118 0 -0.0066440160794501574 -0.068892496137778078 0 -0.0057696380679382198 -0.069529667427956215 0 -0.006596258199763106 -0.067624938212421118 0 -0.0046781594659587172 -0.066255101298551819 0 -0.0057696380679382198 -0.069529667427956215 0 -0.0046781594659587172 -0.066255101298551819 0 -0.0014740274068563569 -0.068476699843187674 0 -0.0057696380679382198 -0.069529667427956215 0 -0.006094566609991226 -0.068811116342572753 0 -0.0066440160794501574 -0.068892496137778078 0 -0.0057696380679382198 -0.069529667427956215 0 -0.006094566609991226 -0.068811116342572753 0 -0.0057696380679382198 -0.069529667427956215 0 -0.0055324380989769835 -0.06782131058818161 0 -0.0057696380679382198 -0.069529667427956215 0 -0.0055324380989769835 -0.06782131058818161 0 -0.008497615692511732 -0.067755753728524479 0 -0.0032786182843775476 -0.068091520605867054 0 -0.0021148039391224328 -0.067875223537611717 0 -0.008497615692511732 -0.067755753728524479 0 -0.0076552559325038291 -0.065408026753537213 0 -0.011444483546060638 -0.064426693836810933 0 -0.0055324380989769835 -0.06782131058818161 0 -0.008497615692511732 -0.067755753728524479 0 -0.0076552559325038291 -0.065408026753537213 0 -0.0055324380989769835 -0.06782131058818161 0 -0.0076552559325038291 -0.065408026753537213 0 -0.0053957938497867898 -0.065426245653149515 0 -0.0014740274068563569 -0.068476699843187674 0 -0.0026773812554105473 -0.073563765255043184 0 0.0030209737817128543 -0.072872664673581417 0 -0.0021148039391224328 -0.067875223537611717 0 0.001696834234392223 -0.065967357861473216 0 -0.0026773812554105473 -0.073563765255043184 0 0.0030209737817128543 -0.072872664673581417 0 0.00013145142052186661 -0.077712921460844062 0 0.0030209737817128543 -0.072872664673581417 0 0.00013145142052186661 -0.077712921460844062 0 0.0042646477482637521 -0.077802683036946971 0 0.001696834234392223 -0.065967357861473216 0 0.010676799815996766 -0.060351653061087952 0 0.00013145142052186661 -0.077712921460844062 0 0.0041911747109486365 -0.081385524404052403 0 0.0042646477482637521 -0.077802683036946971 0 -0.011444483546060638 -0.064426693836810933 0 -0.011446533666593019 -0.061584846495936887 0 -0.0085819095856342897 -0.062359263202929407 0 -0.011446533666593019 -0.061584846495936887 0 -0.0085819095856342897 -0.062359263202929407 0 -0.009421399505966363 -0.059996724809810949 0 -0.011444483546060638 -0.064426693836810933 0 -0.011446533666593019 -0.061584846495936887 0 -0.014101584796344652 -0.060666204373395552 0 0.00013145142052186661 -0.077712921460844062 0 0.0032133405477775159 -0.082576566655906805 0 0.0041911747109486365 -0.081385524404052403 0 0.010676799815996766 -0.060351653061087952 0 0.0096478185373759587 -0.061925238292688027 0 -0.0053957938497867898 -0.065426245653149515 0 -0.006146109932651413 -0.063289614881496051 0 -0.0037194496337393519 -0.062468780417496025 0 -0.0076552559325038291 -0.065408026753537213 0 -0.0053957938497867898 -0.065426245653149515 0 -0.006146109932651413 -0.063289614881496051 0 -0.0076552559325038291 -0.065408026753537213 0 -0.011444483546060638 -0.064426693836810933 0 -0.0085819095856342897 -0.062359263202929407 0 -0.0076552559325038291 -0.065408026753537213 0 -0.006146109932651413 -0.063289614881496051 0 -0.0085819095856342897 -0.062359263202929407 0 -0.0085819095856342897 -0.062359263202929407 0 -0.0076582148524873403 -0.060185999504247974 0 -0.0064462362376715718 -0.061393010688026828 0 -0.0085819095856342897 -0.062359263202929407 0 -0.009421399505966363 -0.059996724809810949 0 -0.0076582148524873403 -0.060185999504247974 0 -0.0076582148524873403 -0.060185999504247974 0 -0.0063227458138984437 -0.060029295191255209 0 -0.0064462362376715718 -0.061393010688026828 0 -0.006146109932651413 -0.063289614881496051 0 -0.0085819095856342897 -0.062359263202929407 0 -0.0064462362376715718 -0.061393010688026828 0 -0.006146109932651413 -0.063289614881496051 0 -0.0064462362376715718 -0.061393010688026828 0 -0.0050651804085413863 -0.061657532893866433 0 -0.006146109932651413 -0.063289614881496051 0 -0.0050651804085413863 -0.061657532893866433 0 -0.0037194496337393519 -0.062468780417496025 0 -0.0064462362376715718 -0.061393010688026828 0 -0.0050651804085413863 -0.061657532893866433 0 -0.0051206992496847358 -0.060609633803227189 0 -0.0063227458138984437 -0.060029295191255209 0 -0.0064462362376715718 -0.061393010688026828 0 -0.0051206992496847358 -0.060609633803227189 0 -0.0052981548919654037 -0.059101748416483683 0 -0.0063227458138984437 -0.060029295191255209 0 -0.0051206992496847358 -0.060609633803227189 0 -0.0035878055140189306 -0.059242665825581881 0 -0.0051206992496847358 -0.060609633803227189 0 -0.0020080898472657946 -0.061040179123832868 0 -0.015616031569396203 -0.039129994121503336 0 -0.016600619203336903 -0.038688440254938131 0 -0.0050651804085413863 -0.061657532893866433 0 -0.0051206992496847358 -0.060609633803227189 0 -0.0040800319568003252 -0.060545772752181717 0 -0.016600619203336903 -0.038688440254938131 0 -0.022114218221103151 -0.034962128609499397 0 -0.0012044935485800812 -0.059141945924049831 0 -0.0020080898472657946 -0.061040179123832868 0 0.0020169026327038031 -0.061013066883439188 0 -0.022076722983774576 -0.033462112475824153 0 -0.018708036915342008 -0.033334917436707426 0 -0.021086969092865206 -0.038406745245849423 0 -0.055121911387453641 -0.0086881729691675909 0 -0.056704671587052752 -0.012025031023057201 0 -0.052690162097955323 -0.011744146275029607 0 -0.022114218221103151 -0.034962128609499397 0 -0.01891777134700617 -0.040474820542107437 0 -0.0050651804085413863 -0.061657532893866433 0 -0.0040800319568003252 -0.060545772752181717 0 -0.0037194496337393519 -0.062468780417496025 0 -0.016600619203336903 -0.038688440254938131 0 -0.01891777134700617 -0.040474820542107437 0 -0.055121911387453641 -0.0086881729691675909 0 -0.052690162097955323 -0.011744146275029607 0 -0.04912497309647991 -0.0084207513333365656 0 -0.022114218221103151 -0.034962128609499397 0 -0.033796506372382545 -0.0230847574984211 0 -0.052690162097955323 -0.011744146275029607 0 -0.051168296084727172 -0.014728240328761416 0 -0.049135710036446137 -0.012208766490096225 0 -0.052690162097955323 -0.011744146275029607 0 -0.053794536741049614 -0.015000481634180066 0 -0.051168296084727172 -0.014728240328761416 0 -0.056704671587052752 -0.012025031023057201 0 -0.052690162097955323 -0.011744146275029607 0 -0.053794536741049614 -0.015000481634180066 0 -0.053794536741049614 -0.015000481634180066 0 -0.051168296084727172 -0.014728240328761416 0 -0.052293110513357562 -0.017833867544705648 0 -0.0053957938497867898 -0.065426245653149515 0 -0.0042080103262434601 -0.062769228031424165 0 -0.0035417796068380985 -0.066803502365687537 0 -0.056704671587052752 -0.012025031023057201 0 -0.053794536741049614 -0.015000481634180066 0 -0.05549959941580667 -0.019229212551403977 0 -0.018906163357830269 -0.048339493438500407 0 -0.01891777134700617 -0.040474820542107437 0 -0.01891777134700617 -0.040474820542107437 0 -0.022292132803880371 -0.04366271782529723 0 -0.0055324380989769835 -0.06782131058818161 0 -0.0053957938497867898 -0.065426245653149515 0 -0.0035417796068380985 -0.066803502365687537 0 -0.053794536741049614 -0.015000481634180066 0 -0.05549959941580667 -0.019229212551403977 0 -0.052293110513357562 -0.017833867544705648 0 -0.051168296084727172 -0.014728240328761416 0 -0.052293110513357562 -0.017833867544705648 0 -0.049144221670762912 -0.018463241938668645 0 -0.052293110513357562 -0.017833867544705648 0 -0.051825191948898799 -0.021856319207853043 0 -0.049144221670762912 -0.018463241938668645 0 -0.05549959941580667 -0.019229212551403977 0 -0.052293110513357562 -0.017833867544705648 0 -0.051825191948898799 -0.021856319207853043 0 -0.054512144305337316 -0.026891724089601735 0 -0.05549959941580667 -0.019229212551403977 0 -0.051825191948898799 -0.021856319207853043 0 -0.019206067297669677 -0.054197133326317544 0 -0.022292132803880371 -0.04366271782529723 0 -0.0028809577210470562 -0.070830053324386716 0 -0.0055324380989769835 -0.06782131058818161 0 -0.0035417796068380985 -0.066803502365687537 0 -0.019206067297669677 -0.054197133326317544 0 -0.010228712114603813 -0.064104548012873713 0 -0.006094566609991226 -0.068811116342572753 0 -0.0069959614654375585 -0.069206574971399787 0 -0.0055324380989769835 -0.06782131058818161 0 -0.04597010616834922 -0.020564040448528591 0 -0.044002667386600469 -0.024065606061515536 0 -0.042699185031598086 -0.019376200828611804 0 -0.044002667386600469 -0.024065606061515536 0 -0.042699185031598086 -0.019376200828611804 0 -0.039867730070370012 -0.021587411983077676 0 -0.04597010616834922 -0.020564040448528591 0 -0.044002667386600469 -0.024065606061515536 0 -0.04830836900634345 -0.022906225022070858 0 -0.051825191948898799 -0.021856319207853043 0 -0.04830836900634345 -0.022906225022070858 0 -0.049144221670762912 -0.018463241938668645 0 -0.04597010616834922 -0.020564040448528591 0 -0.04830836900634345 -0.022906225022070858 0 -0.049144221670762912 -0.018463241938668645 0 -0.051019049630772285 -0.025886038859003889 0 -0.051825191948898799 -0.021856319207853043 0 -0.04830836900634345 -0.022906225022070858 0 -0.04597010616834922 -0.020564040448528591 0 -0.049144221670762912 -0.018463241938668645 0 -0.04538133303613831 -0.017667348102356564 0 -0.049144221670762912 -0.018463241938668645 0 -0.04538133303613831 -0.017667348102356564 0 -0.046866261657673207 -0.014726045959314014 0 -0.04597010616834922 -0.020564040448528591 0 -0.04538133303613831 -0.017667348102356564 0 -0.042699185031598086 -0.019376200828611804 0 -0.04538133303613831 -0.017667348102356564 0 -0.042699185031598086 -0.019376200828611804 0 -0.042971195092295141 -0.01593548880886092 0 -0.042971195092295141 -0.01593548880886092 0 -0.043579498469396988 -0.013151448741618613 0 -0.046866261657673207 -0.014726045959314014 0 -0.04538133303613831 -0.017667348102356564 0 -0.042971195092295141 -0.01593548880886092 0 -0.046866261657673207 -0.014726045959314014 0 -0.043579498469396988 -0.013151448741618613 0 -0.046866261657673207 -0.014726045959314014 0 -0.045834204565984228 -0.011391299446755418 0 -0.051168296084727172 -0.014728240328761416 0 -0.046866261657673207 -0.014726045959314014 0 -0.049135710036446137 -0.012208766490096225 0 -0.051168296084727172 -0.014728240328761416 0 -0.049144221670762912 -0.018463241938668645 0 -0.046866261657673207 -0.014726045959314014 0 -0.046866261657673207 -0.014726045959314014 0 -0.049135710036446137 -0.012208766490096225 0 -0.045834204565984228 -0.011391299446755418 0 -0.033796506372382545 -0.0230847574984211 0 -0.035543569402679151 -0.018061199825428604 0 -0.048741120342157211 -0.0087360369170623436 0 -0.045834204565984228 -0.011391299446755418 0 -0.044600738659463214 -0.0085371779813734252 0 -0.052690162097955323 -0.011744146275029607 0 -0.049135710036446137 -0.012208766490096225 0 -0.04912497309647991 -0.0084207513333365656 0 -0.049135710036446137 -0.012208766490096225 0 -0.04912497309647991 -0.0084207513333365656 0 -0.045834204565984228 -0.011391299446755418 0 -0.033796506372382545 -0.0230847574984211 0 -0.03834280828745696 -0.018892796281316775 0 -0.035543569402679151 -0.018061199825428604 0 -0.036804445819648951 -0.014258597366262159 0 -0.042732598737367636 -0.010837829277356895 0 -0.044600738659463214 -0.0085371779813734252 0 -0.040285456432536622 -0.008372009241782814 0 -0.043579498469396988 -0.013151448741618613 0 -0.042732598737367636 -0.010837829277356895 0 -0.045834204565984228 -0.011391299446755418 0 -0.042732598737367636 -0.010837829277356895 0 -0.045834204565984228 -0.011391299446755418 0 -0.044600738659463214 -0.0085371779813734252 0 -0.043579498469396988 -0.013151448741618613 0 -0.042732598737367636 -0.010837829277356895 0 -0.039063979391868765 -0.012520610935769274 0 -0.042732598737367636 -0.010837829277356895 0 -0.040285456432536622 -0.008372009241782814 0 -0.039063979391868765 -0.012520610935769274 0 -0.036804445819648951 -0.014258597366262159 0 -0.037511412565634998 -0.013511641642556036 0 -0.039726820151939547 -0.0095434382783610768 0 -0.039207172784844625 -0.012732167040734625 0 -0.038134636019968006 -0.01069356603055157 0 -0.038273706861482917 -0.0094607435207778433 0 -0.039726820151939547 -0.0095434382783610768 0 -0.038134636019968006 -0.01069356603055157 0 -0.036920385582438597 -0.014166585696283011 0 -0.036804445819648951 -0.014258597366262159 0 -0.037511412565634998 -0.013511641642556036 0 -0.037519471342313995 -0.014000273696665729 0 -0.039063979391868765 -0.012520610935769274 0 -0.040340995500076797 -0.017389723546644288 0 -0.03805550959998065 -0.016505411752896691 0 -0.042971195092295141 -0.01593548880886092 0 -0.043579498469396988 -0.013151448741618613 0 -0.039063979391868765 -0.012520610935769274 0 -0.042971195092295141 -0.01593548880886092 0 -0.039063979391868765 -0.012520610935769274 0 -0.040340995500076797 -0.017389723546644288 0 -0.039207172784844625 -0.012732167040734625 0 -0.036290439264717381 -0.014432620286911283 0 -0.036807635048994945 -0.011375772570356412 0 -0.039207172784844625 -0.012732167040734625 0 -0.036290439264717381 -0.014432620286911283 0 -0.03805550959998065 -0.016505411752896691 0 -0.039207172784844625 -0.012732167040734625 0 -0.036807635048994945 -0.011375772570356412 0 -0.038134636019968006 -0.01069356603055157 0 -0.037141606091785219 -0.0095391438362729501 0 -0.038273706861482917 -0.0094607435207778433 0 -0.038134636019968006 -0.01069356603055157 0 -0.035995126386098843 -0.0089093707452256119 0 -0.037141606091785219 -0.0095391438362729501 0 -0.036807635048994945 -0.011375772570356412 0 -0.037141606091785219 -0.0095391438362729501 0 -0.036807635048994945 -0.011375772570356412 0 -0.038134636019968006 -0.01069356603055157 0 -0.035995126386098843 -0.0089093707452256119 0 -0.034316726513414275 -0.0095331004686354526 0 -0.034546520115078638 -0.012548226936664133 0 -0.035995126386098843 -0.0089093707452256119 0 -0.036807635048994945 -0.011375772570356412 0 -0.034546520115078638 -0.012548226936664133 0 -0.033517762746371915 -0.0070005542128787415 0 -0.034316726513414275 -0.0095331004686354526 0 -0.031872803228406681 -0.012583367881550497 0 -0.034316726513414275 -0.0095331004686354526 0 -0.031872803228406681 -0.012583367881550497 0 -0.034546520115078638 -0.012548226936664133 0 -0.031922218486711257 -0.015182369834929448 0 -0.034546520115078638 -0.012548226936664133 0 -0.033367398314211427 -0.016740722532184883 0 -0.031872803228406681 -0.012583367881550497 0 -0.031922218486711257 -0.015182369834929448 0 -0.034546520115078638 -0.012548226936664133 0 -0.036290439264717381 -0.014432620286911283 0 -0.036807635048994945 -0.011375772570356412 0 -0.034546520115078638 -0.012548226936664133 0 -0.036290439264717381 -0.014432620286911283 0 -0.034546520115078638 -0.012548226936664133 0 -0.033367398314211427 -0.016740722532184883 0 -0.036290439264717381 -0.014432620286911283 0 -0.033367398314211427 -0.016740722532184883 0 -0.035105054494945602 -0.018384487887371275 0 -0.033367398314211427 -0.016740722532184883 0 -0.033248067875746481 -0.018936491639337968 0 -0.035105054494945602 -0.018384487887371275 0 -0.033248067875746481 -0.018936491639337968 0 -0.035105054494945602 -0.018384487887371275 0 -0.033485387393909577 -0.020577562575414446 0 -0.033367398314211427 -0.016740722532184883 0 -0.030099122383740205 -0.017696090349125847 0 -0.031473291815669588 -0.02003586851330488 0 -0.031922218486711257 -0.015182369834929448 0 -0.033367398314211427 -0.016740722532184883 0 -0.030099122383740205 -0.017696090349125847 0 -0.033367398314211427 -0.016740722532184883 0 -0.033248067875746481 -0.018936491639337968 0 -0.031473291815669588 -0.02003586851330488 0 -0.030099122383740205 -0.017696090349125847 0 -0.031473291815669588 -0.02003586851330488 0 -0.028362876055133764 -0.020691076759717441 0 -0.031473291815669588 -0.02003586851330488 0 -0.029715878937368819 -0.023032819338701577 0 -0.028362876055133764 -0.020691076759717441 0 -0.031473291815669588 -0.02003586851330488 0 -0.031912091076131466 -0.023176761963715084 0 -0.033485387393909577 -0.020577562575414446 0 -0.031473291815669588 -0.02003586851330488 0 -0.031912091076131466 -0.023176761963715084 0 -0.029715878937368819 -0.023032819338701577 0 -0.033485387393909577 -0.020577562575414446 0 -0.034921890878453522 -0.021514961104666549 0 -0.030083868814296446 -0.027963152125493815 0 -0.035105054494945602 -0.018384487887371275 0 -0.033485387393909577 -0.020577562575414446 0 -0.034921890878453522 -0.021514961104666549 0 -0.033248067875746481 -0.018936491639337968 0 -0.031473291815669588 -0.02003586851330488 0 -0.033485387393909577 -0.020577562575414446 0 -0.035105054494945602 -0.018384487887371275 0 -0.034921890878453522 -0.021514961104666549 0 -0.037386739780620258 -0.019675720958081202 0 -0.034921890878453522 -0.021514961104666549 0 -0.036985567959031754 -0.022945549321376119 0 -0.037386739780620258 -0.019675720958081202 0 -0.034921890878453522 -0.021514961104666549 0 -0.036985567959031754 -0.022945549321376119 0 -0.034904215774545812 -0.026338546609967529 0 -0.036985567959031754 -0.022945549321376119 0 -0.039867730070370012 -0.021587411983077676 0 -0.039079614214306613 -0.026320849055691011 0 -0.044002667386600469 -0.024065606061515536 0 -0.039867730070370012 -0.021587411983077676 0 -0.039079614214306613 -0.026320849055691011 0 -0.036985567959031754 -0.022945549321376119 0 -0.039867730070370012 -0.021587411983077676 0 -0.037386739780620258 -0.019675720958081202 0 -0.042699185031598086 -0.019376200828611804 0 -0.039867730070370012 -0.021587411983077676 0 -0.040340995500076797 -0.017389723546644288 0 -0.039867730070370012 -0.021587411983077676 0 -0.040340995500076797 -0.017389723546644288 0 -0.037386739780620258 -0.019675720958081202 0 -0.042699185031598086 -0.019376200828611804 0 -0.042971195092295141 -0.01593548880886092 0 -0.040340995500076797 -0.017389723546644288 0 -0.040340995500076797 -0.017389723546644288 0 -0.03805550959998065 -0.016505411752896691 0 -0.037386739780620258 -0.019675720958081202 0 -0.036290439264717381 -0.014432620286911283 0 -0.035105054494945602 -0.018384487887371275 0 -0.03805550959998065 -0.016505411752896691 0 -0.035105054494945602 -0.018384487887371275 0 -0.03805550959998065 -0.016505411752896691 0 -0.037386739780620258 -0.019675720958081202 0 -0.022821882984843049 -0.036633351522849369 0 -0.021994653474008089 -0.039383617788776915 0 -0.020433108976629553 -0.035697782359459911 0 -0.015850872133030221 -0.01278370208955867 0 -0.018788888225950151 -0.01411451945190078 0 -0.018655354271510258 -0.017510446331172252 0 -0.028553370788319193 -0.020325544931825281 0 -0.024572516853123959 -0.024411494315881722 0 -0.036444952080486585 -0.016594738643658347 0 -0.036168307261089196 -0.017183393052046088 0 -0.036976202801020187 -0.016917653058266629 0 -0.015850872133030221 -0.01278370208955867 0 -0.020774867759261746 -0.011277559444374481 0 -0.018788888225950151 -0.01411451945190078 0 -0.028553370788319193 -0.020325544931825281 0 -0.029931324811723423 -0.013689172782738448 0 -0.029931324811723423 -0.013689172782738448 0 -0.031477962060607045 -0.011780774708327821 0 -0.029931324811723423 -0.013689172782738448 0 -0.027113177959174031 -0.015481414317553057 0 -0.020774867759261746 -0.011277559444374481 0 -0.018788888225950151 -0.01411451945190078 0 -0.02260529128407026 -0.016390546415549597 0 -0.018788888225950151 -0.01411451945190078 0 -0.02260529128407026 -0.016390546415549597 0 -0.018655354271510258 -0.017510446331172252 0 -0.021939565447762852 -0.0099209240394889375 0 -0.023931789780446425 -0.016019236668054684 0 -0.027291786091244441 -0.012880368027499626 0 -0.023931789780446425 -0.016019236668054684 0 -0.027291786091244441 -0.012880368027499626 0 -0.028569249226358066 -0.015382877057164179 0 -0.033517762746371915 -0.0070005542128787415 0 -0.027291786091244441 -0.012880368027499626 0 -0.02397646546297439 -0.0085104333708409981 0 -0.021939565447762852 -0.0099209240394889375 0 -0.027291786091244441 -0.012880368027499626 0 -0.024356163881728472 -0.009226493611789106 0 -0.030286388261767071 -0.01104992529549312 0 -0.031477962060607045 -0.011780774708327821 0 -0.033517762746371915 -0.0070005542128787415 0 -0.031872803228406681 -0.012583367881550497 0 -0.027291786091244441 -0.012880368027499626 0 -0.031872803228406681 -0.012583367881550497 0 -0.027291786091244441 -0.012880368027499626 0 -0.028569249226358066 -0.015382877057164179 0 -0.031922218486711257 -0.015182369834929448 0 -0.030099122383740205 -0.017696090349125847 0 -0.028569249226358066 -0.015382877057164179 0 -0.031872803228406681 -0.012583367881550497 0 -0.031922218486711257 -0.015182369834929448 0 -0.028569249226358066 -0.015382877057164179 0 -0.030099122383740205 -0.017696090349125847 0 -0.028569249226358066 -0.015382877057164179 0 -0.027052463928924481 -0.018266790577113046 0 -0.030099122383740205 -0.017696090349125847 0 -0.027052463928924481 -0.018266790577113046 0 -0.028362876055133764 -0.020691076759717441 0 -0.029715878937368819 -0.023032819338701577 0 -0.028362876055133764 -0.020691076759717441 0 -0.026879089571008683 -0.023757256149646532 0 -0.028362876055133764 -0.020691076759717441 0 -0.026879089571008683 -0.023757256149646532 0 -0.024632195567014129 -0.021757486786954647 0 -0.027052463928924481 -0.018266790577113046 0 -0.028362876055133764 -0.020691076759717441 0 -0.024632195567014129 -0.021757486786954647 0 -0.027113177959174031 -0.015481414317553057 0 -0.026939912747890118 -0.017872409283973042 0 -0.02260529128407026 -0.016390546415549597 0 -0.024632195567014129 -0.021757486786954647 0 -0.021469509557769106 -0.02246259569619382 0 -0.023931789780446425 -0.016019236668054684 0 -0.028569249226358066 -0.015382877057164179 0 -0.027052463928924481 -0.018266790577113046 0 -0.023931789780446425 -0.016019236668054684 0 -0.027052463928924481 -0.018266790577113046 0 -0.024632195567014129 -0.021757486786954647 0 -0.023799140166650079 -0.027631680732921368 0 -0.024572516853123959 -0.024411494315881722 0 -0.02260529128407026 -0.016390546415549597 0 -0.021469509557769106 -0.02246259569619382 0 -0.018655354271510258 -0.017510446331172252 0 -0.020809862689029634 -0.033015830696531745 0 -0.021239019947280197 -0.033585816745450435 0 -0.020433108976629553 -0.035697782359459911 0 -0.020809862689029634 -0.033015830696531745 0 -0.021239019947280197 -0.033585816745450435 0 -0.021017734493188989 -0.032963802574761586 0 -0.022821882984843049 -0.036633351522849369 0 -0.021239019947280197 -0.033585816745450435 0 -0.020433108976629553 -0.035697782359459911 0 -0.019361862442354622 -0.035450130825022762 0 -0.020533743537582045 -0.035264891236719859 0 -0.020431600203279544 -0.033457105565467993 0 -0.020533743537582045 -0.035264891236719859 0 -0.020986963863288768 -0.033615061336989632 0 -0.020431600203279544 -0.033457105565467993 0 -0.020986963863288768 -0.033615061336989632 0 -0.020431600203279544 -0.033457105565467993 0 -0.021022438525325936 -0.032555096924681289 0 -0.021779479221038973 -0.03119476440457861 0 -0.021239019947280197 -0.033585816745450435 0 -0.021022438525325936 -0.032555096924681289 0 -0.021239019947280197 -0.033585816745450435 0 -0.021022438525325936 -0.032555096924681289 0 -0.021017734493188989 -0.032963802574761586 0 -0.020986963863288768 -0.033615061336989632 0 -0.021022438525325936 -0.032555096924681289 0 -0.021017734493188989 -0.032963802574761586 0 -0.020986963863288768 -0.033615061336989632 0 -0.021017734493188989 -0.032963802574761586 0 -0.021544531281873006 -0.033395999231708391 0 -0.020809862689029634 -0.033015830696531745 0 -0.021017734493188989 -0.032963802574761586 0 -0.021544531281873006 -0.033395999231708391 0 -0.020986963863288768 -0.033615061336989632 0 -0.021544531281873006 -0.033395999231708391 0 -0.021764384933062913 -0.034861924713960414 0 -0.020533743537582045 -0.035264891236719859 0 -0.020986963863288768 -0.033615061336989632 0 -0.021764384933062913 -0.034861924713960414 0 -0.021544531281873006 -0.033395999231708391 0 -0.021764384933062913 -0.034861924713960414 0 -0.023414763258930851 -0.033589509842808063 0 -0.021764384933062913 -0.034861924713960414 0 -0.023414763258930851 -0.033589509842808063 0 -0.023142275805590921 -0.036660206116588635 0 -0.023414763258930851 -0.033589509842808063 0 -0.02645582773973924 -0.036064113279556151 0 -0.023142275805590921 -0.036660206116588635 0 -0.020809862689029634 -0.033015830696531745 0 -0.021544531281873006 -0.033395999231708391 0 -0.023414763258930851 -0.033589509842808063 0 -0.026879089571008683 -0.023757256149646532 0 -0.024632195567014129 -0.021757486786954647 0 -0.023765729493619228 -0.028349200723402412 0 -0.024632195567014129 -0.021757486786954647 0 -0.021469509557769106 -0.02246259569619382 0 -0.023765729493619228 -0.028349200723402412 0 -0.023799140166650079 -0.027631680732921368 0 -0.024825892184285249 -0.031069323353133307 0 -0.023765729493619228 -0.028349200723402412 0 -0.028333118930885758 -0.025882149492116795 0 -0.028417911373660246 -0.030075045613726325 0 -0.026879089571008683 -0.023757256149646532 0 -0.023765729493619228 -0.028349200723402412 0 -0.028333118930885758 -0.025882149492116795 0 -0.029715878937368819 -0.023032819338701577 0 -0.026879089571008683 -0.023757256149646532 0 -0.028333118930885758 -0.025882149492116795 0 -0.023765729493619228 -0.028349200723402412 0 -0.028417911373660246 -0.030075045613726325 0 -0.02645582773973924 -0.036064113279556151 0 -0.024825892184285249 -0.031069323353133307 0 -0.025881785252033579 -0.033295333495653265 0 -0.028417911373660246 -0.030075045613726325 0 -0.02645582773973924 -0.036064113279556151 0 -0.030249714840418402 -0.037613664356074432 0 -0.02645582773973924 -0.036064113279556151 0 -0.024504300161802935 -0.038184403523569332 0 -0.023142275805590921 -0.036660206116588635 0 -0.02645582773973924 -0.036064113279556151 0 -0.026079958584142075 -0.039369643692273672 0 -0.024504300161802935 -0.038184403523569332 0 -0.02645582773973924 -0.036064113279556151 0 -0.026079958584142075 -0.039369643692273672 0 -0.030249714840418402 -0.037613664356074432 0 -0.026079958584142075 -0.039369643692273672 0 -0.030249714840418402 -0.037613664356074432 0 -0.02630383474567749 -0.043900633212456852 0 -0.026079958584142075 -0.039369643692273672 0 -0.023421157976768144 -0.040407661921378311 0 -0.02630383474567749 -0.043900633212456852 0 -0.026079958584142075 -0.039369643692273672 0 -0.023421157976768144 -0.040407661921378311 0 -0.024504300161802935 -0.038184403523569332 0 -0.023421157976768144 -0.040407661921378311 0 -0.022257746147228644 -0.038699410296615985 0 -0.024504300161802935 -0.038184403523569332 0 -0.023421157976768144 -0.040407661921378311 0 -0.022257746147228644 -0.038699410296615985 0 -0.020801277784353499 -0.040962653970280594 0 -0.022257746147228644 -0.038699410296615985 0 -0.024504300161802935 -0.038184403523569332 0 -0.023142275805590921 -0.036660206116588635 0 -0.020533743537582045 -0.035264891236719859 0 -0.021764384933062913 -0.034861924713960414 0 -0.021031501825856599 -0.037508335794068315 0 -0.022257746147228644 -0.038699410296615985 0 -0.023142275805590921 -0.036660206116588635 0 -0.021031501825856599 -0.037508335794068315 0 -0.021764384933062913 -0.034861924713960414 0 -0.023142275805590921 -0.036660206116588635 0 -0.021031501825856599 -0.037508335794068315 0 -0.022257746147228644 -0.038699410296615985 0 -0.021031501825856599 -0.037508335794068315 0 -0.020801277784353499 -0.040962653970280594 0 -0.021031501825856599 -0.037508335794068315 0 -0.020801277784353499 -0.040962653970280594 0 -0.01954892159814086 -0.039494555616198301 0 -0.020801277784353499 -0.040962653970280594 0 -0.01954892159814086 -0.039494555616198301 0 -0.018871343979161674 -0.041402869640876035 0 -0.01954892159814086 -0.039494555616198301 0 -0.01769076617240262 -0.040532718660804982 0 -0.018871343979161674 -0.041402869640876035 0 -0.01954892159814086 -0.039494555616198301 0 -0.01769076617240262 -0.040532718660804982 0 -0.018342414542279317 -0.038784753010953896 0 -0.01954892159814086 -0.039494555616198301 0 -0.018342414542279317 -0.038784753010953896 0 -0.019581489637353202 -0.037224412071714681 0 -0.018403049243441844 -0.036957977777959519 0 -0.018342414542279317 -0.038784753010953896 0 -0.019581489637353202 -0.037224412071714681 0 -0.021031501825856599 -0.037508335794068315 0 -0.01954892159814086 -0.039494555616198301 0 -0.019581489637353202 -0.037224412071714681 0 -0.020533743537582045 -0.035264891236719859 0 -0.021031501825856599 -0.037508335794068315 0 -0.019581489637353202 -0.037224412071714681 0 -0.019361862442354622 -0.035450130825022762 0 -0.020533743537582045 -0.035264891236719859 0 -0.019581489637353202 -0.037224412071714681 0 -0.019361862442354622 -0.035450130825022762 0 -0.018403049243441844 -0.036957977777959519 0 -0.019581489637353202 -0.037224412071714681 0 -0.034706165675560029 -0.031024898205982546 0 -0.034904215774545812 -0.026338546609967529 0 -0.029280297723933542 -0.030790573321096078 0 -0.034706165675560029 -0.031024898205982546 0 -0.029280297723933542 -0.030790573321096078 0 -0.031686796594156172 -0.036517113235227855 0 -0.034706165675560029 -0.031024898205982546 0 -0.031686796594156172 -0.036517113235227855 0 -0.036719607989083539 -0.035716163518620753 0 -0.034706165675560029 -0.031024898205982546 0 -0.03915491489581778 -0.031353751977439621 0 -0.036719607989083539 -0.035716163518620753 0 -0.041646313178837373 -0.037118147109617555 0 -0.03915491489581778 -0.031353751977439621 0 -0.036719607989083539 -0.035716163518620753 0 -0.034706165675560029 -0.031024898205982546 0 -0.03915491489581778 -0.031353751977439621 0 -0.039079614214306613 -0.026320849055691011 0 -0.044382656934985582 -0.028679403723266529 0 -0.03915491489581778 -0.031353751977439621 0 -0.039079614214306613 -0.026320849055691011 0 -0.036985567959031754 -0.022945549321376119 0 -0.039079614214306613 -0.026320849055691011 0 -0.034904215774545812 -0.026338546609967529 0 -0.034921890878453522 -0.021514961104666549 0 -0.034904215774545812 -0.026338546609967529 0 -0.029280297723933542 -0.030790573321096078 0 -0.034706165675560029 -0.031024898205982546 0 -0.039079614214306613 -0.026320849055691011 0 -0.034904215774545812 -0.026338546609967529 0 -0.031988996378677213 -0.027199056263225288 0 -0.030872167401765942 -0.032032079723367676 0 -0.034921890878453522 -0.021514961104666549 0 -0.030083868814296446 -0.027963152125493815 0 -0.034258841408809013 -0.029550253810660451 0 -0.032214737699495656 -0.025302279678485251 0 -0.031129768435251479 -0.029191251386541633 0 -0.031912091076131466 -0.023176761963715084 0 -0.033485387393909577 -0.020577562575414446 0 -0.03329301235306633 -0.028242896594014973 0 -0.031912091076131466 -0.023176761963715084 0 -0.030645208571007946 -0.025813115004463798 0 -0.03329301235306633 -0.028242896594014973 0 -0.028417911373660246 -0.030075045613726325 0 -0.030645208571007946 -0.025813115004463798 0 -0.03329301235306633 -0.028242896594014973 0 -0.031912091076131466 -0.023176761963715084 0 -0.029715878937368819 -0.023032819338701577 0 -0.030645208571007946 -0.025813115004463798 0 -0.029715878937368819 -0.023032819338701577 0 -0.028333118930885758 -0.025882149492116795 0 -0.030645208571007946 -0.025813115004463798 0 -0.028333118930885758 -0.025882149492116795 0 -0.028417911373660246 -0.030075045613726325 0 -0.030645208571007946 -0.025813115004463798 0 -0.030083868814296446 -0.027963152125493815 0 -0.03101654706734381 -0.033078961717709993 0 -0.027430020659786142 -0.036683990613107405 0 -0.028417911373660246 -0.030075045613726325 0 -0.03329301235306633 -0.028242896594014973 0 -0.030249714840418402 -0.037613664356074432 0 -0.031129768435251479 -0.029191251386541633 0 -0.029170630338165544 -0.03585290465061567 0 -0.030083868814296446 -0.027963152125493815 0 -0.034258841408809013 -0.029550253810660451 0 -0.03101654706734381 -0.033078961717709993 0 -0.034258841408809013 -0.029550253810660451 0 -0.03101654706734381 -0.033078961717709993 0 -0.032862043504358646 -0.03842618991783401 0 -0.03101654706734381 -0.033078961717709993 0 -0.027430020659786142 -0.036683990613107405 0 -0.032862043504358646 -0.03842618991783401 0 -0.030872167401765942 -0.032032079723367676 0 -0.028733931724458123 -0.040990539620181156 0 -0.027430020659786142 -0.036683990613107405 0 -0.029173780626982258 -0.041176838639740712 0 -0.02630383474567749 -0.043900633212456852 0 -0.029170630338165544 -0.03585290465061567 0 -0.02803030356082464 -0.039591307723762084 0 -0.027430020659786142 -0.036683990613107405 0 -0.029173780626982258 -0.041176838639740712 0 -0.032862043504358646 -0.03842618991783401 0 -0.024749582629566776 -0.042871369184251773 0 -0.035014467345548021 -0.043998394070186839 0 -0.028299923133211113 -0.049551829831052351 0 -0.024749582629566776 -0.042871369184251773 0 -0.031686796594156172 -0.036517113235227855 0 -0.035014467345548021 -0.043998394070186839 0 -0.031686796594156172 -0.036517113235227855 0 -0.036719607989083539 -0.035716163518620753 0 -0.035014467345548021 -0.043998394070186839 0 -0.029280297723933542 -0.030790573321096078 0 -0.024749582629566776 -0.042871369184251773 0 -0.031686796594156172 -0.036517113235227855 0 -0.041646313178837373 -0.037118147109617555 0 -0.036719607989083539 -0.035716163518620753 0 -0.035014467345548021 -0.043998394070186839 0 -0.041646313178837373 -0.037118147109617555 0 -0.043695087298412469 -0.04276381797560478 0 -0.035014467345548021 -0.043998394070186839 0 -0.043695087298412469 -0.04276381797560478 0 -0.035014467345548021 -0.043998394070186839 0 -0.034419669557021325 -0.053374411555160622 0 -0.027321917735181962 -0.05377808581327756 0 -0.025656960871388853 -0.057074136594993434 0 -0.014073859401643313 -0.066119327929250502 0 -0.017351365748124872 -0.064669603571152229 0 -0.014947716062986387 -0.064619457746118006 0 -0.017351365748124872 -0.064669603571152229 0 -0.015740362267492845 -0.063312467451394974 0 -0.014947716062986387 -0.064619457746118006 0 -0.017351365748124872 -0.064669603571152229 0 -0.015740362267492845 -0.063312467451394974 0 -0.017764759193211199 -0.062037314568624054 0 -0.015740362267492845 -0.063312467451394974 0 -0.017764759193211199 -0.062037314568624054 0 -0.015623352415991582 -0.061935156336364788 0 -0.025656960871388853 -0.057074136594993434 0 -0.024424380300203254 -0.058670184294368842 0 -0.017351365748124872 -0.064669603571152229 0 -0.017764759193211199 -0.062037314568624054 0 -0.022027130544196992 -0.061139356293169127 0 -0.034419669557021325 -0.053374411555160622 0 -0.020822806357552282 -0.057090074823291703 0 -0.022027130544196992 -0.061139356293169127 0 -0.035014467345548021 -0.043998394070186839 0 -0.034419669557021325 -0.053374411555160622 0 -0.028299923133211113 -0.049551829831052351 0 -0.034419669557021325 -0.053374411555160622 0 -0.028299923133211113 -0.049551829831052351 0 -0.020822806357552282 -0.057090074823291703 0 -0.028733931724458123 -0.040990539620181156 0 -0.026619520987375054 -0.049490057438125269 0 -0.024749582629566776 -0.042871369184251773 0 -0.028299923133211113 -0.049551829831052351 0 -0.020822806357552282 -0.057090074823291703 0 -0.029173780626982258 -0.041176838639740712 0 -0.032862043504358646 -0.03842618991783401 0 -0.030759160191830795 -0.045466555191854656 0 -0.029173780626982258 -0.041176838639740712 0 -0.030759160191830795 -0.045466555191854656 0 -0.02630383474567749 -0.043900633212456852 0 -0.026791851912699033 -0.048360204455654053 0 -0.030759160191830795 -0.045466555191854656 0 -0.02630383474567749 -0.043900633212456852 0 -0.020822806357552282 -0.057090074823291703 0 -0.021337744063472483 -0.061856755731521176 0 -0.022027130544196992 -0.061139356293169127 0 -0.026791851912699033 -0.048360204455654053 0 -0.030759160191830795 -0.045466555191854656 0 -0.028112888899274567 -0.051507317340900985 0 -0.021337744063472483 -0.061856755731521176 0 -0.022027130544196992 -0.061139356293169127 0 -0.019777449624488502 -0.060893190114223041 0 -0.026619520987375054 -0.049490057438125269 0 -0.025212382571448762 -0.054214695344236362 0 -0.026791851912699033 -0.048360204455654053 0 -0.028112888899274567 -0.051507317340900985 0 -0.025054209934281924 -0.052766684140961383 0 -0.026791851912699033 -0.048360204455654053 0 -0.025054209934281924 -0.052766684140961383 0 -0.024128908050617088 -0.051166507522866334 0 -0.028112888899274567 -0.051507317340900985 0 -0.025054209934281924 -0.052766684140961383 0 -0.022359705433778413 -0.05686876347172546 0 -0.025054209934281924 -0.052766684140961383 0 -0.024128908050617088 -0.051166507522866334 0 -0.023354574022009474 -0.054316532876348189 0 -0.025212382571448762 -0.054214695344236362 0 -0.024599959342257092 -0.055289013382756533 0 -0.021337744063472483 -0.061856755731521176 0 -0.020175448405593217 -0.05933847096713387 0 -0.018738053764662591 -0.060095610887242891 0 -0.021337744063472483 -0.061856755731521176 0 -0.020175448405593217 -0.05933847096713387 0 -0.022359705433778413 -0.05686876347172546 0 -0.020175448405593217 -0.05933847096713387 0 -0.018738053764662591 -0.060095610887242891 0 -0.017697790821463166 -0.058754080175296132 0 -0.018738053764662591 -0.060095610887242891 0 -0.015734105046340194 -0.059660606318787231 0 -0.017204347731630019 -0.060760658596996961 0 -0.018738053764662591 -0.060095610887242891 0 -0.015734105046340194 -0.059660606318787231 0 -0.017697790821463166 -0.058754080175296132 0 -0.015734105046340194 -0.059660606318787231 0 -0.017204347731630019 -0.060760658596996961 0 -0.015248624627572835 -0.060826344189631648 0 -0.017204347731630019 -0.060760658596996961 0 -0.015248624627572835 -0.060826344189631648 0 -0.015623352415991582 -0.061935156336364788 0 -0.017764759193211199 -0.062037314568624054 0 -0.017204347731630019 -0.060760658596996961 0 -0.015623352415991582 -0.061935156336364788 0 -0.017764759193211199 -0.062037314568624054 0 -0.017204347731630019 -0.060760658596996961 0 -0.019777449624488502 -0.060893190114223041 0 -0.021337744063472483 -0.061856755731521176 0 -0.018738053764662591 -0.060095610887242891 0 -0.019777449624488502 -0.060893190114223041 0 -0.017764759193211199 -0.062037314568624054 0 -0.022027130544196992 -0.061139356293169127 0 -0.019777449624488502 -0.060893190114223041 0 -0.018738053764662591 -0.060095610887242891 0 -0.017204347731630019 -0.060760658596996961 0 -0.019777449624488502 -0.060893190114223041 0 -0.018007195916034006 -0.044642533300039713 0 -0.019638649698761727 -0.047121706647268516 0 -0.016880773218718371 -0.048084218027305142 0 -0.016259448487148498 -0.042282672195377478 0 -0.018007195916034006 -0.044642533300039713 0 -0.016880773218718371 -0.048084218027305142 0 -0.016259448487148498 -0.042282672195377478 0 -0.018007195916034006 -0.044642533300039713 0 -0.017923080258401107 -0.04237954635036445 0 -0.01769076617240262 -0.040532718660804982 0 -0.017923080258401107 -0.04237954635036445 0 -0.018871343979161674 -0.041402869640876035 0 -0.020801277784353499 -0.040962653970280594 0 -0.018871343979161674 -0.041402869640876035 0 -0.018789328169160045 -0.043184276663543034 0 -0.017923080258401107 -0.04237954635036445 0 -0.018871343979161674 -0.041402869640876035 0 -0.018789328169160045 -0.043184276663543034 0 -0.018007195916034006 -0.044642533300039713 0 -0.017923080258401107 -0.04237954635036445 0 -0.018789328169160045 -0.043184276663543034 0 -0.018007195916034006 -0.044642533300039713 0 -0.018789328169160045 -0.043184276663543034 0 -0.020196637401597186 -0.04411689977022909 0 -0.020801277784353499 -0.040962653970280594 0 -0.018789328169160045 -0.043184276663543034 0 -0.020196637401597186 -0.04411689977022909 0 -0.020801277784353499 -0.040962653970280594 0 -0.020196637401597186 -0.04411689977022909 0 -0.022529121981199003 -0.043371987559713658 0 -0.020196637401597186 -0.04411689977022909 0 -0.021328645869071836 -0.045972974380534389 0 -0.022529121981199003 -0.043371987559713658 0 -0.020196637401597186 -0.04411689977022909 0 -0.021328645869071836 -0.045972974380534389 0 -0.019638649698761727 -0.047121706647268516 0 -0.018007195916034006 -0.044642533300039713 0 -0.020196637401597186 -0.04411689977022909 0 -0.019638649698761727 -0.047121706647268516 0 -0.021328645869071836 -0.045972974380534389 0 -0.019638649698761727 -0.047121706647268516 0 -0.021518427489907312 -0.048831603263980242 0 -0.02319268593326157 -0.04603203175279201 0 -0.024465570506891163 -0.048058443763155032 0 -0.021518427489907312 -0.048831603263980242 0 -0.021328645869071836 -0.045972974380534389 0 -0.02319268593326157 -0.04603203175279201 0 -0.021518427489907312 -0.048831603263980242 0 -0.021328645869071836 -0.045972974380534389 0 -0.02319268593326157 -0.04603203175279201 0 -0.022529121981199003 -0.043371987559713658 0 -0.023421157976768144 -0.040407661921378311 0 -0.020801277784353499 -0.040962653970280594 0 -0.022529121981199003 -0.043371987559713658 0 -0.023421157976768144 -0.040407661921378311 0 -0.022529121981199003 -0.043371987559713658 0 -0.02630383474567749 -0.043900633212456852 0 -0.02319268593326157 -0.04603203175279201 0 -0.022529121981199003 -0.043371987559713658 0 -0.02630383474567749 -0.043900633212456852 0 -0.02319268593326157 -0.04603203175279201 0 -0.02630383474567749 -0.043900633212456852 0 -0.024465570506891163 -0.048058443763155032 0 -0.026791851912699033 -0.048360204455654053 0 -0.02630383474567749 -0.043900633212456852 0 -0.024465570506891163 -0.048058443763155032 0 -0.024465570506891163 -0.048058443763155032 0 -0.024128908050617088 -0.051166507522866334 0 -0.022357904911060739 -0.05162212195879954 0 -0.026791851912699033 -0.048360204455654053 0 -0.024465570506891163 -0.048058443763155032 0 -0.024128908050617088 -0.051166507522866334 0 -0.024128908050617088 -0.051166507522866334 0 -0.022357904911060739 -0.05162212195879954 0 -0.023354574022009474 -0.054316532876348189 0 -0.022357904911060739 -0.05162212195879954 0 -0.022017395355090699 -0.054248921056398135 0 -0.023354574022009474 -0.054316532876348189 0 -0.022357904911060739 -0.05162212195879954 0 -0.020772979265324544 -0.052326895100060861 0 -0.022017395355090699 -0.054248921056398135 0 -0.022357904911060739 -0.05162212195879954 0 -0.021518427489907312 -0.048831603263980242 0 -0.020772979265324544 -0.052326895100060861 0 -0.024465570506891163 -0.048058443763155032 0 -0.022357904911060739 -0.05162212195879954 0 -0.021518427489907312 -0.048831603263980242 0 -0.021518427489907312 -0.048831603263980242 0 -0.019534806121752169 -0.049960586490940324 0 -0.020772979265324544 -0.052326895100060861 0 -0.019638649698761727 -0.047121706647268516 0 -0.021518427489907312 -0.048831603263980242 0 -0.019534806121752169 -0.049960586490940324 0 -0.020772979265324544 -0.052326895100060861 0 -0.018625596651725789 -0.053220938516811485 0 -0.020950620711005938 -0.054471508425069273 0 -0.019534806121752169 -0.049960586490940324 0 -0.020772979265324544 -0.052326895100060861 0 -0.018625596651725789 -0.053220938516811485 0 -0.022727449485225534 -0.052970996752123745 0 -0.020977547494365444 -0.052245950705285385 0 -0.021359837483247161 -0.048746959738924824 0 -0.02082097171693682 -0.052199356665294128 0 -0.019420373937982419 -0.04819296895455899 0 -0.019534806121752169 -0.049960586490940324 0 -0.018625596651725789 -0.053220938516811485 0 -0.016880773218718371 -0.048084218027305142 0 -0.019949920773914286 -0.050045092227478771 0 -0.020977547494365444 -0.052245950705285385 0 -0.021359837483247161 -0.048746959738924824 0 -0.019638649698761727 -0.047121706647268516 0 -0.019534806121752169 -0.049960586490940324 0 -0.016880773218718371 -0.048084218027305142 0 -0.027622778872521837 -0.060130229918843821 0 -0.026383319873979291 -0.059896859509154896 0 -0.026948891711293291 -0.057574281177387152 0 -0.027548774063959017 -0.05982477095744089 0 -0.026958747575658665 -0.057516542422006739 0 -0.026690641299602851 -0.055550260381686326 0 -0.025347585235830285 -0.055671173336873117 0 -0.027622778872521837 -0.060130229918843821 0 -0.027402335053632799 -0.062401545047706952 0 -0.026383319873979291 -0.059896859509154896 0 -0.022727449485225534 -0.052970996752123745 0 -0.020977547494365444 -0.052245950705285385 0 -0.022452609329600821 -0.054802691759567639 0 -0.028783378726700518 -0.053287759044101345 0 -0.026690641299602851 -0.055550260381686326 0 -0.02082097171693682 -0.052199356665294128 0 -0.0219007217646628 -0.054581452324960283 0 -0.018625596651725789 -0.053220938516811485 0 -0.020950620711005938 -0.054471508425069273 0 -0.02105023100037659 -0.056129107453220618 0 -0.022727449485225534 -0.052970996752123745 0 -0.022452609329600821 -0.054802691759567639 0 -0.023510290430316112 -0.055512446801538093 0 -0.020950620711005938 -0.054471508425069273 0 -0.02105023100037659 -0.056129107453220618 0 -0.021936081694752318 -0.055661805557745199 0 -0.022452609329600821 -0.054802691759567639 0 -0.023510290430316112 -0.055512446801538093 0 -0.023463789285121543 -0.055866039065550141 0 -0.02105023100037659 -0.056129107453220618 0 -0.021936081694752318 -0.055661805557745199 0 -0.022198917937182115 -0.056130380123107636 0 -0.021936081694752318 -0.055661805557745199 0 -0.022096145793012889 -0.056133782887729224 0 -0.022198917937182115 -0.056130380123107636 0 -0.020950620711005938 -0.054471508425069273 0 -0.021936081694752318 -0.055661805557745199 0 -0.022017395355090699 -0.054248921056398135 0 -0.020772979265324544 -0.052326895100060861 0 -0.020950620711005938 -0.054471508425069273 0 -0.022017395355090699 -0.054248921056398135 0 -0.021936081694752318 -0.055661805557745199 0 -0.022017395355090699 -0.054248921056398135 0 -0.022572661909496455 -0.055569449217564029 0 -0.022017395355090699 -0.054248921056398135 0 -0.023354574022009474 -0.054316532876348189 0 -0.022572661909496455 -0.055569449217564029 0 -0.021936081694752318 -0.055661805557745199 0 -0.022572661909496455 -0.055569449217564029 0 -0.022096145793012889 -0.056133782887729224 0 -0.022572661909496455 -0.055569449217564029 0 -0.022096145793012889 -0.056133782887729224 0 -0.022359705433778413 -0.05686876347172546 0 -0.022096145793012889 -0.056133782887729224 0 -0.021997742328658369 -0.055891071253704079 0 -0.020686369144612585 -0.056084757364162255 0 -0.022096145793012889 -0.056133782887729224 0 -0.021997742328658369 -0.055891071253704079 0 -0.022198917937182115 -0.056130380123107636 0 -0.021997742328658369 -0.055891071253704079 0 -0.021387261760979416 -0.054999584187281091 0 -0.020686369144612585 -0.056084757364162255 0 -0.021997742328658369 -0.055891071253704079 0 -0.021387261760979416 -0.054999584187281091 0 -0.023438650461197256 -0.055686085670388352 0 -0.021387261760979416 -0.054999584187281091 0 -0.023438650461197256 -0.055686085670388352 0 -0.024362674579546877 -0.055000304907715417 0 -0.021997742328658369 -0.055891071253704079 0 -0.023438650461197256 -0.055686085670388352 0 -0.022198917937182115 -0.056130380123107636 0 -0.02105023100037659 -0.056129107453220618 0 -0.023438650461197256 -0.055686085670388352 0 -0.022198917937182115 -0.056130380123107636 0 -0.0219007217646628 -0.054581452324960283 0 -0.022303414186920452 -0.055137107131019575 0 -0.023510290430316112 -0.055512446801538093 0 -0.023438650461197256 -0.055686085670388352 0 -0.023463789285121543 -0.055866039065550141 0 -0.025391503628666857 -0.057464366129971321 0 -0.02436640844295335 -0.054999984585355363 0 -0.026313605032973659 -0.054999984856365439 0 -0.023438650461197256 -0.055686085670388352 0 -0.023463789285121543 -0.055866039065550141 0 -0.024362674579546877 -0.055000304907715417 0 -0.025347585235830285 -0.055671173336873117 0 -0.024367670064544579 -0.055000402516080432 0 -0.026314385078011222 -0.055002530479292336 0 -0.026958747575658665 -0.057516542422006739 0 -0.028625961880835556 -0.056797672099901796 0 -0.026313789227772867 -0.054999991525650022 0 -0.027016672842712065 -0.057617347771164049 0 -0.025391503628666857 -0.057464366129971321 0 -0.026313605032973659 -0.054999984856365439 0 -0.026948891711293291 -0.057574281177387152 0 -0.026383319873979291 -0.059896859509154896 0 -0.025391503628666857 -0.057464366129971321 0 -0.026948891711293291 -0.057574281177387152 0 -0.01710221643990591 -0.057221456577610727 0 -0.022359705433778413 -0.05686876347172546 0 -0.018100339830413634 -0.056082660655155873 0 -0.01710221643990591 -0.057221456577610727 0 -0.014453377347471033 -0.056500843073415845 0 -0.0148722254555672 -0.058340783701552761 0 -0.01710221643990591 -0.057221456577610727 0 -0.017697790821463166 -0.058754080175296132 0 -0.0148722254555672 -0.058340783701552761 0 -0.015734105046340194 -0.059660606318787231 0 -0.017697790821463166 -0.058754080175296132 0 -0.0148722254555672 -0.058340783701552761 0 -0.01710221643990591 -0.057221456577610727 0 -0.017697790821463166 -0.058754080175296132 0 -0.022359705433778413 -0.05686876347172546 0 -0.020175448405593217 -0.05933847096713387 0 -0.017697790821463166 -0.058754080175296132 0 -0.022359705433778413 -0.05686876347172546 0 -0.025054209934281924 -0.052766684140961383 0 -0.023354574022009474 -0.054316532876348189 0 -0.022359705433778413 -0.05686876347172546 0 -0.023354574022009474 -0.054316532876348189 0 -0.022572661909496455 -0.055569449217564029 0 -0.022359705433778413 -0.05686876347172546 0 -0.022096145793012889 -0.056133782887729224 0 -0.022359705433778413 -0.05686876347172546 0 -0.020686369144612585 -0.056084757364162255 0 -0.022359705433778413 -0.05686876347172546 0 -0.020686369144612585 -0.056084757364162255 0 -0.018100339830413634 -0.056082660655155873 0 -0.021387261760979416 -0.054999584187281091 0 -0.020686369144612585 -0.056084757364162255 0 -0.0184080640693212 -0.054999154593196528 0 -0.020686369144612585 -0.056084757364162255 0 -0.0184080640693212 -0.054999154593196528 0 -0.018100339830413634 -0.056082660655155873 0 -0.0184080640693212 -0.054999154593196528 0 -0.018100339830413634 -0.056082660655155873 0 -0.015428032799213193 -0.05499904868432471 0 -0.01710221643990591 -0.057221456577610727 0 -0.018100339830413634 -0.056082660655155873 0 -0.014453377347471033 -0.056500843073415845 0 -0.015428032799213193 -0.05499904868432471 0 -0.01244756728987317 -0.054999422861586295 0 -0.014453377347471033 -0.056500843073415845 0 -0.018100339830413634 -0.056082660655155873 0 -0.015428032799213193 -0.05499904868432471 0 -0.014453377347471033 -0.056500843073415845 0 -0.01244756728987317 -0.054999422861586295 0 -0.011215297672190355 -0.056343043017375603 0 -0.014453377347471033 -0.056500843073415845 0 -0.01244756728987317 -0.054999422861586295 0 -0.011215297672190355 -0.056343043017375603 0 -0.009467403601279345 -0.054999495394199162 0 -0.011215297672190355 -0.056343043017375603 0 -0.0096470909806893913 -0.057741699991606839 0 -0.012666191351885871 -0.057992332402075165 0 -0.011215297672190355 -0.056343043017375603 0 -0.014453377347471033 -0.056500843073415845 0 -0.012666191351885871 -0.057992332402075165 0 -0.009467403601279345 -0.054999495394199162 0 -0.0080645647563998973 -0.056439063137337875 0 -0.0064872917863686153 -0.054999693231387987 0 -0.011215297672190355 -0.056343043017375603 0 -0.009467403601279345 -0.054999495394199162 0 -0.0080645647563998973 -0.056439063137337875 0 -0.011215297672190355 -0.056343043017375603 0 -0.0080645647563998973 -0.056439063137337875 0 -0.0096470909806893913 -0.057741699991606839 0 -0.0080645647563998973 -0.056439063137337875 0 -0.0072524875532980282 -0.058262041892421894 0 -0.0096470909806893913 -0.057741699991606839 0 -0.006668839496231393 -0.058051717904362123 0 -0.007499753223036784 -0.058907840652743453 0 -0.0072524875532980282 -0.058262041892421894 0 -0.0096470909806893913 -0.057741699991606839 0 -0.0089343757680191392 -0.06002034107246431 0 -0.0096470909806893913 -0.057741699991606839 0 -0.0089343757680191392 -0.06002034107246431 0 -0.012666191351885871 -0.057992332402075165 0 -0.0089343757680191392 -0.06002034107246431 0 -0.012666191351885871 -0.057992332402075165 0 -0.010108844326023969 -0.06112735205777358 0 -0.0089343757680191392 -0.06002034107246431 0 -0.010108844326023969 -0.06112735205777358 0 -0.0079594403962847862 -0.06144925869020406 0 -0.0089343757680191392 -0.06002034107246431 0 -0.0079594403962847862 -0.06144925869020406 0 -0.0066300156459189463 -0.06001855522963883 0 -0.0068657765275677296 -0.057944686780515148 0 -0.0089343757680191392 -0.06002034107246431 0 -0.0066300156459189463 -0.06001855522963883 0 -0.014453377347471033 -0.056500843073415845 0 -0.012666191351885871 -0.057992332402075165 0 -0.0148722254555672 -0.058340783701552761 0 -0.011530539312371153 -0.058887358196080215 0 -0.010479707933323187 -0.060059547743051084 0 -0.012666191351885871 -0.057992332402075165 0 -0.013761917377281808 -0.059305660013117677 0 -0.012855747280058581 -0.059666307993899402 0 -0.012666191351885871 -0.057992332402075165 0 -0.012855747280058581 -0.059666307993899402 0 -0.011987223614142692 -0.059417274833031448 0 -0.015734105046340194 -0.059660606318787231 0 -0.0148722254555672 -0.058340783701552761 0 -0.013761917377281808 -0.059305660013117677 0 -0.012666191351885871 -0.057992332402075165 0 -0.0148722254555672 -0.058340783701552761 0 -0.013761917377281808 -0.059305660013117677 0 -0.015734105046340194 -0.059660606318787231 0 -0.013761917377281808 -0.059305660013117677 0 -0.013972221136642596 -0.060302753976833642 0 -0.015734105046340194 -0.059660606318787231 0 -0.013972221136642596 -0.060302753976833642 0 -0.015248624627572835 -0.060826344189631648 0 -0.013972221136642596 -0.060302753976833642 0 -0.015248624627572835 -0.060826344189631648 0 -0.013925695573922699 -0.061481794386303308 0 -0.015248624627572835 -0.060826344189631648 0 -0.013925695573922699 -0.061481794386303308 0 -0.015623352415991582 -0.061935156336364788 0 -0.013925695573922699 -0.061481794386303308 0 -0.01276311910902697 -0.060943738121102799 0 -0.012611085683346469 -0.06234958062182739 0 -0.01276311910902697 -0.060943738121102799 0 -0.011805625603493249 -0.061526915080753579 0 -0.012611085683346469 -0.06234958062182739 0 -0.013972221136642596 -0.060302753976833642 0 -0.013925695573922699 -0.061481794386303308 0 -0.01276311910902697 -0.060943738121102799 0 -0.01276311910902697 -0.060943738121102799 0 -0.012855747280058581 -0.059666307993899402 0 -0.01191709326463441 -0.060606484059533373 0 -0.013972221136642596 -0.060302753976833642 0 -0.01276311910902697 -0.060943738121102799 0 -0.012855747280058581 -0.059666307993899402 0 -0.013761917377281808 -0.059305660013117677 0 -0.013972221136642596 -0.060302753976833642 0 -0.012855747280058581 -0.059666307993899402 0 -0.011987223614142692 -0.059417274833031448 0 -0.01191709326463441 -0.060606484059533373 0 -0.010290714651053605 -0.061429500342790863 0 -0.010479707933323187 -0.060059547743051084 0 -0.0085376651034455749 -0.061695471189370701 0 -0.012855747280058581 -0.059666307993899402 0 -0.011987223614142692 -0.059417274833031448 0 -0.01191709326463441 -0.060606484059533373 0 -0.0079594403962847862 -0.06144925869020406 0 -0.0079083278261433895 -0.063906115642025974 0 -0.0060628732801429426 -0.062018421154961818 0 -0.010108844326023969 -0.06112735205777358 0 -0.0079594403962847862 -0.06144925869020406 0 -0.0079083278261433895 -0.063906115642025974 0 -0.01191709326463441 -0.060606484059533373 0 -0.010290714651053605 -0.061429500342790863 0 -0.011805625603493249 -0.061526915080753579 0 -0.010290714651053605 -0.061429500342790863 0 -0.011805625603493249 -0.061526915080753579 0 -0.011315939261528333 -0.062505985543908182 0 -0.01276311910902697 -0.060943738121102799 0 -0.01191709326463441 -0.060606484059533373 0 -0.011805625603493249 -0.061526915080753579 0 -0.011805625603493249 -0.061526915080753579 0 -0.011315939261528333 -0.062505985543908182 0 -0.012611085683346469 -0.06234958062182739 0 -0.011315939261528333 -0.062505985543908182 0 -0.011982409686602606 -0.063579147830242516 0 -0.012611085683346469 -0.06234958062182739 0 -0.0097413841178159346 -0.062454561036083128 0 -0.010318296924619072 -0.062893480781696098 0 -0.0082095020592961379 -0.060223053682172865 0 -0.0083384530980451094 -0.062374555851578008 0 -0.0066250703466870309 -0.062590568569022217 0 -0.0085376651034455749 -0.061695471189370701 0 -0.0081243143195374855 -0.062025538960096716 0 -0.0085376651034455749 -0.061695471189370701 0 -0.0097413841178159346 -0.062454561036083128 0 -0.0082095020592961379 -0.060223053682172865 0 -0.0099646179789629735 -0.061886096643876135 0 -0.0083384530980451094 -0.062374555851578008 0 -0.0099646179789629735 -0.061886096643876135 0 -0.0083384530980451094 -0.062374555851578008 0 -0.0089558521322676797 -0.063673734545130548 0 -0.0083384530980451094 -0.062374555851578008 0 -0.0071168602477367391 -0.064082466597096835 0 -0.0066250703466870309 -0.062590568569022217 0 -0.0083384530980451094 -0.062374555851578008 0 -0.0089558521322676797 -0.063673734545130548 0 -0.0071168602477367391 -0.064082466597096835 0 -0.0089558521322676797 -0.063673734545130548 0 -0.0082441048621352056 -0.064649099371692359 0 -0.0097936728094213093 -0.064656986305657568 0 -0.0072979954331115196 -0.064866766056379296 0 -0.0082441048621352056 -0.064649099371692359 0 -0.0071168602477367391 -0.064082466597096835 0 -0.0089558521322676797 -0.063673734545130548 0 -0.0082441048621352056 -0.064649099371692359 0 -0.0071168602477367391 -0.064082466597096835 0 -0.0099646179789629735 -0.061886096643876135 0 -0.010543993208566884 -0.063921289146166071 0 -0.011982409686602606 -0.063579147830242516 0 -0.0099646179789629735 -0.061886096643876135 0 -0.0089558521322676797 -0.063673734545130548 0 -0.010543993208566884 -0.063921289146166071 0 -0.011967163398420806 -0.065615220651049383 0 -0.010543993208566884 -0.063921289146166071 0 -0.011982409686602606 -0.063579147830242516 0 -0.0089558521322676797 -0.063673734545130548 0 -0.010543993208566884 -0.063921289146166071 0 -0.0097936728094213093 -0.064656986305657568 0 -0.011967163398420806 -0.065615220651049383 0 -0.010543993208566884 -0.063921289146166071 0 -0.0097936728094213093 -0.064656986305657568 0 -0.010957872707918693 -0.0651430448584083 0 -0.012466885938382438 -0.064731031408044232 0 -0.011967163398420806 -0.065615220651049383 0 -0.011982409686602606 -0.063579147830242516 0 -0.013560539902408795 -0.063625923721232561 0 -0.011967163398420806 -0.065615220651049383 0 -0.013560539902408795 -0.063625923721232561 0 -0.014947716062986387 -0.064619457746118006 0 -0.015740362267492845 -0.063312467451394974 0 -0.013560539902408795 -0.063625923721232561 0 -0.014947716062986387 -0.064619457746118006 0 -0.015740362267492845 -0.063312467451394974 0 -0.013560539902408795 -0.063625923721232561 0 -0.014226398789253237 -0.06263980638021005 0 -0.015740362267492845 -0.063312467451394974 0 -0.015623352415991582 -0.061935156336364788 0 -0.014226398789253237 -0.06263980638021005 0 -0.013925695573922699 -0.061481794386303308 0 -0.015623352415991582 -0.061935156336364788 0 -0.014226398789253237 -0.06263980638021005 0 -0.013925695573922699 -0.061481794386303308 0 -0.014226398789253237 -0.06263980638021005 0 -0.012611085683346469 -0.06234958062182739 0 -0.011982409686602606 -0.063579147830242516 0 -0.013560539902408795 -0.063625923721232561 0 -0.012611085683346469 -0.06234958062182739 0 -0.013560539902408795 -0.063625923721232561 0 -0.014226398789253237 -0.06263980638021005 0 -0.012611085683346469 -0.06234958062182739 0 -0.0035223625479956478 -0.063473004631286301 0 -0.0033961307834880646 -0.062493378571993254 0 -0.002505010797630752 -0.063168332344067921 0 -0.0035223625479956478 -0.063473004631286301 0 -0.0033961307834880646 -0.062493378571993254 0 -0.0041368988635190765 -0.062860037843106051 0 -0.0033961307834880646 -0.062493378571993254 0 -0.0041368988635190765 -0.062860037843106051 0 -0.0043727244041722856 -0.062172563725443011 0 -0.0033961307834880646 -0.062493378571993254 0 -0.002505010797630752 -0.063168332344067921 0 -0.002497808724333779 -0.062225727862650453 0 -0.0017177647241035058 -0.06276909454990752 0 -0.002505010797630752 -0.063168332344067921 0 -0.002497808724333779 -0.062225727862650453 0 -0.0017177647241035058 -0.06276909454990752 0 -0.0016688822630022721 -0.061963495077137172 0 -0.00095770779805346036 -0.062457935011198097 0 -0.0017177647241035058 -0.06276909454990752 0 -0.0016688822630022721 -0.061963495077137172 0 -0.002497808724333779 -0.062225727862650453 0 -0.0017177647241035058 -0.06276909454990752 0 -0.0016635354403325493 -0.063607257129405709 0 -0.0010212668533759041 -0.063207782223437606 0 -0.0017177647241035058 -0.06276909454990752 0 -0.002505010797630752 -0.063168332344067921 0 -0.0016635354403325493 -0.063607257129405709 0 -0.0001137313103411639 -0.06308423185324466 0 0.0024768899850152125 -0.062681648764577852 0 -0.0023961146881622802 -0.064570642319192392 0 -0.0016635354403325493 -0.063607257129405709 0 -0.00072438893200576658 -0.064162718126550916 0 -0.002505010797630752 -0.063168332344067921 0 -0.0023961146881622802 -0.064570642319192392 0 -0.0016635354403325493 -0.063607257129405709 0 -0.0035223625479956478 -0.063473004631286301 0 -0.0023961146881622802 -0.064570642319192392 0 -0.0044337462998080635 -0.06440948029743597 0 -0.0001137313103411639 -0.06308423185324466 0 -0.0039025717300528754 -0.063430047036391032 0 -0.0055702776923026017 -0.065032798495446298 0 -0.0032451125332616012 -0.064466332617139688 0 -0.0052432758264256592 -0.064286661534704373 0 -0.0035223625479956478 -0.063473004631286301 0 -0.002505010797630752 -0.063168332344067921 0 -0.0023961146881622802 -0.064570642319192392 0 -0.0055702776923026017 -0.065032798495446298 0 -0.0052432758264256592 -0.064286661534704373 0 -0.0071168602477367391 -0.064082466597096835 0 -0.0035223625479956478 -0.063473004631286301 0 -0.0044337462998080635 -0.06440948029743597 0 -0.004426772805412346 -0.063448291730580059 0 -0.0044337462998080635 -0.06440948029743597 0 -0.0052715328296700824 -0.063635664783566026 0 -0.004426772805412346 -0.063448291730580059 0 -0.0052715328296700824 -0.063635664783566026 0 -0.0071168602477367391 -0.064082466597096835 0 -0.0059525747667420218 -0.063295183349151157 0 -0.0072979954331115196 -0.064866766056379296 0 -0.0055702776923026017 -0.065032798495446298 0 -0.0071168602477367391 -0.064082466597096835 0 -0.0044337462998080635 -0.06440948029743597 0 -0.0052715328296700824 -0.063635664783566026 0 -0.0071168602477367391 -0.064082466597096835 0 -0.0039025717300528754 -0.063430047036391032 0 -0.0052691877090112168 -0.063498988776939672 0 -0.0071168602477367391 -0.064082466597096835 0 -0.0066250703466870309 -0.062590568569022217 0 -0.0059525747667420218 -0.063295183349151157 0 -0.0071027601241347611 -0.06164002043290491 0 -0.0066250703466870309 -0.062590568569022217 0 -0.0056983600309274893 -0.061850824036275752 0 -0.0066250703466870309 -0.062590568569022217 0 -0.0059525747667420218 -0.063295183349151157 0 -0.0051415877640669421 -0.062857020384147658 0 -0.0066250703466870309 -0.062590568569022217 0 -0.0051415877640669421 -0.062857020384147658 0 -0.0056983600309274893 -0.061850824036275752 0 -0.004426772805412346 -0.063448291730580059 0 -0.0041368988635190765 -0.062860037843106051 0 -0.0051415877640669421 -0.062857020384147658 0 -0.0035223625479956478 -0.063473004631286301 0 -0.004426772805412346 -0.063448291730580059 0 -0.0041368988635190765 -0.062860037843106051 0 -0.0052715328296700824 -0.063635664783566026 0 -0.004426772805412346 -0.063448291730580059 0 -0.0051415877640669421 -0.062857020384147658 0 -0.0052715328296700824 -0.063635664783566026 0 -0.0059525747667420218 -0.063295183349151157 0 -0.0051415877640669421 -0.062857020384147658 0 -0.0051415877640669421 -0.062857020384147658 0 -0.0043727244041722856 -0.062172563725443011 0 -0.0056983600309274893 -0.061850824036275752 0 -0.0041368988635190765 -0.062860037843106051 0 -0.0051415877640669421 -0.062857020384147658 0 -0.0043727244041722856 -0.062172563725443011 0 -0.0043727244041722856 -0.062172563725443011 0 -0.0047769319229366168 -0.06137789294682218 0 -0.0033494339117737478 -0.061562261678743589 0 -0.0047769319229366168 -0.06137789294682218 0 -0.0040354871301510149 -0.060714272304704817 0 -0.0033494339117737478 -0.061562261678743589 0 -0.0043727244041722856 -0.062172563725443011 0 -0.0047769319229366168 -0.06137789294682218 0 -0.0056983600309274893 -0.061850824036275752 0 -0.0071027601241347611 -0.06164002043290491 0 -0.0056983600309274893 -0.061850824036275752 0 -0.0058050698345684945 -0.060642112716041849 0 -0.0047769319229366168 -0.06137789294682218 0 -0.0056983600309274893 -0.061850824036275752 0 -0.0058050698345684945 -0.060642112716041849 0 -0.0085376651034455749 -0.061695471189370701 0 -0.0070084197115957885 -0.060988635284728698 0 -0.0079594403962847862 -0.06144925869020406 0 -0.0060628732801429426 -0.062018421154961818 0 -0.0066300156459189463 -0.06001855522963883 0 -0.0047769319229366168 -0.06137789294682218 0 -0.0058050698345684945 -0.060642112716041849 0 -0.0040354871301510149 -0.060714272304704817 0 -0.0058050698345684945 -0.060642112716041849 0 -0.0040354871301510149 -0.060714272304704817 0 -0.0044146731216852435 -0.059884022307467394 0 -0.0070084197115957885 -0.060988635284728698 0 -0.0062847810546786719 -0.060517079935762198 0 -0.0040354871301510149 -0.060714272304704817 0 -0.0032708931840615281 -0.060166738392060333 0 -0.0044146731216852435 -0.059884022307467394 0 -0.0040354871301510149 -0.060714272304704817 0 -0.0033494339117737478 -0.061562261678743589 0 -0.0025268514348192887 -0.060790522592123565 0 -0.0032708931840615281 -0.060166738392060333 0 -0.0025268514348192887 -0.060790522592123565 0 -0.0025491831839699482 -0.059430743449010968 0 -0.0040354871301510149 -0.060714272304704817 0 -0.0032708931840615281 -0.060166738392060333 0 -0.0025268514348192887 -0.060790522592123565 0 -0.0033494339117737478 -0.061562261678743589 0 -0.0023025352491252231 -0.06151991336504594 0 -0.0025268514348192887 -0.060790522592123565 0 -0.0033494339117737478 -0.061562261678743589 0 -0.002497808724333779 -0.062225727862650453 0 -0.0023025352491252231 -0.06151991336504594 0 -0.0033961307834880646 -0.062493378571993254 0 -0.0033494339117737478 -0.061562261678743589 0 -0.002497808724333779 -0.062225727862650453 0 -0.0033961307834880646 -0.062493378571993254 0 -0.0043727244041722856 -0.062172563725443011 0 -0.0033494339117737478 -0.061562261678743589 0 -0.0016688822630022721 -0.061963495077137172 0 -0.002497808724333779 -0.062225727862650453 0 -0.0023025352491252231 -0.06151991336504594 0 -0.0023025352491252231 -0.06151991336504594 0 -0.0014811403715125112 -0.061075611537354441 0 -0.0025268514348192887 -0.060790522592123565 0 -0.0016688822630022721 -0.061963495077137172 0 -0.0023025352491252231 -0.06151991336504594 0 -0.0014811403715125112 -0.061075611537354441 0 -0.0014811403715125112 -0.061075611537354441 0 -0.0025268514348192887 -0.060790522592123565 0 -0.0011780620833815641 -0.059906606646614631 0 -0.0025268514348192887 -0.060790522592123565 0 -0.0025491831839699482 -0.059430743449010968 0 -0.0011780620833815641 -0.059906606646614631 0 -0.0015726095896282557 -0.058978652192388362 0 -0.0025491831839699482 -0.059430743449010968 0 -0.0011780620833815641 -0.059906606646614631 0 -0.0015726095896282557 -0.058978652192388362 0 -0.0025491831839699482 -0.059430743449010968 0 -0.0026296265796936949 -0.058485332497974857 0 -0.0032708931840615281 -0.060166738392060333 0 -0.0034546555429875989 -0.059060116236186275 0 -0.0025491831839699482 -0.059430743449010968 0 -0.0032708931840615281 -0.060166738392060333 0 -0.0034546555429875989 -0.059060116236186275 0 -0.0044146731216852435 -0.059884022307467394 0 -0.0034546555429875989 -0.059060116236186275 0 -0.0025491831839699482 -0.059430743449010968 0 -0.0026296265796936949 -0.058485332497974857 0 -0.0034546555429875989 -0.059060116236186275 0 -0.0026296265796936949 -0.058485332497974857 0 -0.0032995109497746412 -0.05788353169126359 0 -0.0026296265796936949 -0.058485332497974857 0 -0.0032995109497746412 -0.05788353169126359 0 -0.0023358512363720473 -0.05744928066232851 0 -0.0026296265796936949 -0.058485332497974857 0 -0.0017429237861124461 -0.058148596763577948 0 -0.0023358512363720473 -0.05744928066232851 0 -0.0017429237861124461 -0.058148596763577948 0 -0.0015963192874922409 -0.057365747121467657 0 -0.00063528675054290418 -0.058645406959364661 0 -0.0017429237861124461 -0.058148596763577948 0 -0.0015963192874922409 -0.057365747121467657 0 -0.0023358512363720473 -0.05744928066232851 0 -0.0015726095896282557 -0.058978652192388362 0 -0.0017429237861124461 -0.058148596763577948 0 -0.00063528675054290418 -0.058645406959364661 0 -0.0015726095896282557 -0.058978652192388362 0 -0.0026296265796936949 -0.058485332497974857 0 -0.0017429237861124461 -0.058148596763577948 0 -0.0060628732801429426 -0.062018421154961818 0 -0.0066300156459189463 -0.06001855522963883 0 -0.0044146731216852435 -0.059884022307467394 0 -0.0066300156459189463 -0.06001855522963883 0 -0.0044146731216852435 -0.059884022307467394 0 -0.004788132275052058 -0.058256599502290597 0 -0.0034546555429875989 -0.059060116236186275 0 -0.0044146731216852435 -0.059884022307467394 0 -0.004788132275052058 -0.058256599502290597 0 -0.0034546555429875989 -0.059060116236186275 0 -0.0032995109497746412 -0.05788353169126359 0 -0.004788132275052058 -0.058256599502290597 0 -0.0032995109497746412 -0.05788353169126359 0 -0.004788132275052058 -0.058256599502290597 0 -0.0039574929570781216 -0.056945070284142578 0 -0.0068657765275677296 -0.057944686780515148 0 -0.0066300156459189463 -0.06001855522963883 0 -0.004788132275052058 -0.058256599502290597 0 -0.0080645647563998973 -0.056439063137337875 0 -0.0072524875532980282 -0.058262041892421894 0 -0.0054067461597082445 -0.05671249998266574 0 -0.0068657765275677296 -0.057944686780515148 0 -0.004788132275052058 -0.058256599502290597 0 -0.0050856458296058317 -0.056410299022776389 0 -0.006668839496231393 -0.058051717904362123 0 -0.0051503868636360254 -0.056565537719300618 0 -0.004788132275052058 -0.058256599502290597 0 -0.0050856458296058317 -0.056410299022776389 0 -0.0039574929570781216 -0.056945070284142578 0 -0.0051503868636360254 -0.056565537719300618 0 -0.0035089898809230646 -0.055001475763730344 0 -0.0054067461597082445 -0.05671249998266574 0 -0.0035073095258252199 -0.055000014469490689 0 -0.0064872917863686153 -0.054999693231387987 0 -0.0050856458296058317 -0.056410299022776389 0 -0.0039574929570781216 -0.056945070284142578 0 -0.0035065064322248336 -0.054999653914940376 0 -0.0080645647563998973 -0.056439063137337875 0 -0.0054067461597082445 -0.05671249998266574 0 -0.0064872917863686153 -0.054999693231387987 0 -0.0011312046770624565 -0.056636125678192893 0 -0.0015963192874922409 -0.057365747121467657 0 -0.00063528675054290418 -0.058645406959364661 0 -0.0019999305332982975 -0.056678973126532993 0 -0.0013840383869037224 -0.056695107926019346 0 -0.0015963192874922409 -0.057365747121467657 0 -0.0013840383869037224 -0.056695107926019346 0 -0.0010216664796122966 -0.056633788925099779 0 -0.0018324645655932109 -0.055959410811825296 0 -0.0019999305332982975 -0.056678973126532993 0 -0.0013840383869037224 -0.056695107926019346 0 -0.0018324645655932109 -0.055959410811825296 0 -0.0013840383869037224 -0.056695107926019346 0 -0.0011312046770624565 -0.056636125678192893 0 -0.0015963192874922409 -0.057365747121467657 0 0.00010216618640273817 -0.05652126722679731 0 0.00014185005062021552 -0.056514169424815137 0 -0.0019999305332982975 -0.056678973126532993 0 -0.0015963192874922409 -0.057365747121467657 0 -0.0023358512363720473 -0.05744928066232851 0 -0.0032995109497746412 -0.05788353169126359 0 -0.0023358512363720473 -0.05744928066232851 0 -0.0028174549167574478 -0.056634032835437366 0 -0.0032995109497746412 -0.05788353169126359 0 -0.0039574929570781216 -0.056945070284142578 0 -0.0028174549167574478 -0.056634032835437366 0 -0.0019999305332982975 -0.056678973126532993 0 -0.0023358512363720473 -0.05744928066232851 0 -0.0028174549167574478 -0.056634032835437366 0 -0.0019999305332982975 -0.056678973126532993 0 -0.0028174549167574478 -0.056634032835437366 0 -0.0018324645655932109 -0.055959410811825296 0 -0.0035065064322248336 -0.054999653914940376 0 -0.0010571474304984217 -0.054999972340349604 0 -0.0018324645655932109 -0.055959410811825296 0 -0.0039574929570781216 -0.056945070284142578 0 -0.0035065064322248336 -0.054999653914940376 0 -0.0028174549167574478 -0.056634032835437366 0 -0.0035065064322248336 -0.054999653914940376 0 -0.0028174549167574478 -0.056634032835437366 0 -0.0018324645655932109 -0.055959410811825296 0 -0.0010216664796122966 -0.056633788925099779 0 -0.0010571474304984217 -0.054999972340349604 0 -0.0018324645655932109 -0.055959410811825296 0 0.00014185005062021552 -0.056514169424815137 0 -0.001053545886827701 -0.055001572886762828 0 -0.00026642911726664723 -0.057003761507295511 0 -0.0010555708242923859 -0.054999997142611924 0 0.0017092348382163956 -0.054999995668864994 0 -0.00026642911726664723 -0.057003761507295511 0 0.0017092348382163956 -0.054999995668864994 0 0.0027205891426054264 -0.056400827935075615 0 0.00014185005062021552 -0.056514169424815137 0 0.002951046917971073 -0.056180899948142508 0 0.00078504124069810456 -0.056876614684952788 0 0.0030667176517559991 -0.058030619635356558 0 0.0017567324343001158 -0.059339048098806718 0 0.00078504124069810456 -0.056876614684952788 0 0.0030667176517559991 -0.058030619635356558 0 0.0033240932553021641 -0.056353955157361413 0 0.0030667176517559991 -0.058030619635356558 0 0.0033240932553021641 -0.056353955157361413 0 0.0047714605026301302 -0.057696314750303096 0 0.0017092348382163956 -0.054999995668864994 0 0.0027205891426054264 -0.056400827935075615 0 0.004474035427010273 -0.055000004153682558 0 0.0033240932553021641 -0.056353955157361413 0 0.0059331489157542112 -0.05578850536551027 0 0.0057676389229098131 -0.057004813468708351 0 0.002951046917971073 -0.056180899948142508 0 0.0055559781904506141 -0.055745918477668639 0 0.0027205891426054264 -0.056400827935075615 0 0.004474035427010273 -0.055000004153682558 0 0.0057100088977489211 -0.055799170770177133 0 0.004474035427010273 -0.055000004153682558 0 0.0057100088977489211 -0.055799170770177133 0 0.007238892825116321 -0.054999978782287545 0 0.0059331489157542112 -0.05578850536551027 0 0.0069685139688285885 -0.056669773898382007 0 0.0057676389229098131 -0.057004813468708351 0 0.0057676389229098131 -0.057004813468708351 0 0.0067920409505341462 -0.058006648739440413 0 0.0047714605026301302 -0.057696314750303096 0 0.0061833358406512429 -0.057933714977905053 0 0.0058296930319196435 -0.057879780978316281 0 0.0069685139688285885 -0.056669773898382007 0 0.0057676389229098131 -0.057004813468708351 0 0.0067920409505341462 -0.058006648739440413 0 0.0033240932553021641 -0.056353955157361413 0 0.0057676389229098131 -0.057004813468708351 0 0.0047714605026301302 -0.057696314750303096 0 0.0030667176517559991 -0.058030619635356558 0 0.0047714605026301302 -0.057696314750303096 0 0.0047025492631221147 -0.059871743386634237 0 0.0066752156780008013 -0.057951973553630631 0 0.0047714605026301302 -0.057696314750303096 0 0.0047025492631221147 -0.059871743386634237 0 0.0061833358406512429 -0.057933714977905053 0 0.0036188024691375981 -0.059368791821813281 0 0.0036624033710639585 -0.057007170451861829 0 0.0032181912163585851 -0.05957126281853125 0 0.0018837083860743355 -0.058728884827029808 0 0.0032181912163585851 -0.05957126281853125 0 0.0018837083860743355 -0.058728884827029808 0 0.0021503406911956868 -0.060860930782428817 0 0.0030667176517559991 -0.058030619635356558 0 0.0047025492631221147 -0.059871743386634237 0 0.0017567324343001158 -0.059339048098806718 0 0.0036188024691375981 -0.059368791821813281 0 0.0019119640229368722 -0.060273774823032068 0 0.0047025492631221147 -0.059871743386634237 0 0.0017567324343001158 -0.059339048098806718 0 0.0027211391245554589 -0.061793299822693368 0 0.00095867162065945387 -0.058678774236818734 0 0.0019119640229368722 -0.060273774823032068 0 -0.0015726095896282557 -0.058978652192388362 0 -0.0011780620833815641 -0.059906606646614631 0 -0.00063528675054290418 -0.058645406959364661 0 -0.0011780620833815641 -0.059906606646614631 0 -0.00063528675054290418 -0.058645406959364661 0 5.5014912589516812e-05 -0.060571628854063364 0 0.00014185005062021552 -0.056514169424815137 0 0.00095867162065945387 -0.058678774236818734 0 0.0134916309736627 -0.05811679211143881 0 0.012703759898985867 -0.058088438611257828 0 0.013409768325784761 -0.057083171755717518 0 0.012703759898985867 -0.058088438611257828 0 0.013409768325784761 -0.057083171755717518 0 0.0117677388601311 -0.057343215060202887 0 0.013409768325784761 -0.057083171755717518 0 0.01257245225006803 -0.056170100983216481 0 0.0117677388601311 -0.057343215060202887 0 0.012344267194542116 -0.05499998088826908 0 0.01257245225006803 -0.056170100983216481 0 0.014684830443050551 -0.05500000464242074 0 0.013409768325784761 -0.057083171755717518 0 0.01257245225006803 -0.056170100983216481 0 0.014684830443050551 -0.05500000464242074 0 0.012344267194542116 -0.05499998088826908 0 0.01257245225006803 -0.056170100983216481 0 0.010768833251907112 -0.05627258869698646 0 0.01257245225006803 -0.056170100983216481 0 0.010768833251907112 -0.05627258869698646 0 0.0117677388601311 -0.057343215060202887 0 0.012344267194542116 -0.05499998088826908 0 0.010768833251907112 -0.05627258869698646 0 0.010003764742871186 -0.054999987450198101 0 0.010103226654837118 -0.057548778162466209 0 0.0095492732435830136 -0.058617497965938105 0 0.011424175988272061 -0.058864458086260577 0 0.010768833251907112 -0.05627258869698646 0 0.0117677388601311 -0.057343215060202887 0 0.010103226654837118 -0.057548778162466209 0 0.012703759898985867 -0.058088438611257828 0 0.0117677388601311 -0.057343215060202887 0 0.011424175988272061 -0.058864458086260577 0 0.0117677388601311 -0.057343215060202887 0 0.010103226654837118 -0.057548778162466209 0 0.011424175988272061 -0.058864458086260577 0 0.010768833251907112 -0.05627258869698646 0 0.010103226654837118 -0.057548778162466209 0 0.0083713702125309212 -0.056610451640880084 0 0.010103226654837118 -0.057548778162466209 0 0.0083713702125309212 -0.056610451640880084 0 0.0095550560904020879 -0.058600783484566245 0 0.0089067435018322944 -0.058031050875715376 0 0.008816218686955828 -0.058117426169954967 0 0.010003601341614484 -0.055000016768987879 0 0.0087019597220869827 -0.055191122360445259 0 0.007238892825116321 -0.054999978782287545 0 0.010768833251907112 -0.05627258869698646 0 0.010003764742871186 -0.054999987450198101 0 0.0083713702125309212 -0.056610451640880084 0 0.010001366164215139 -0.055001504378706989 0 0.0081705120018106606 -0.056450801771721452 0 0.010003601341614484 -0.055000016768987879 0 0.0087019597220869827 -0.055191122360445259 0 0.008344674796289064 -0.056543865668362607 0 0.0055559781904506141 -0.055745918477668639 0 0.0070312437783475942 -0.05547006032477049 0 0.0069685139688285885 -0.056669773898382007 0 0.0087019597220869827 -0.055191122360445259 0 0.008344674796289064 -0.056543865668362607 0 0.0059331489157542112 -0.05578850536551027 0 0.0069685139688285885 -0.056669773898382007 0 0.0087019597220869827 -0.055191122360445259 0 0.0057100088977489211 -0.055799170770177133 0 0.0087019597220869827 -0.055191122360445259 0 0.007238892825116321 -0.054999978782287545 0 0.0061833358406512429 -0.057933714977905053 0 0.0081705120018106606 -0.056450801771721452 0 0.0067213138517657452 -0.058218362290030613 0 0.0083713702125309212 -0.056610451640880084 0 0.0095550560904020879 -0.058600783484566245 0 0.0069685139688285885 -0.056669773898382007 0 0.0067920409505341462 -0.058006648739440413 0 0.008344674796289064 -0.056543865668362607 0 0.0061833358406512429 -0.057933714977905053 0 0.008816218686955828 -0.058117426169954967 0 0.0036624033710639585 -0.057007170451861829 0 0.0047842223769682668 -0.05933345847051389 0 0.0058464711373170056 -0.057301515999062344 0 0.0036624033710639585 -0.057007170451861829 0 0.0032181912163585851 -0.05957126281853125 0 0.0047842223769682668 -0.05933345847051389 0 0.0097088460573609703 -0.060625024971892864 0 0.01077274026584802 -0.058633469983091192 0 0.011383114683154958 -0.060071061153283138 0 0.0097088460573609703 -0.060625024971892864 0 0.011383114683154958 -0.060071061153283138 0 0.011812799733780495 -0.061812106720177097 0 0.007735039256541453 -0.060128835156241886 0 0.008816218686955828 -0.058117426169954967 0 0.01077274026584802 -0.058633469983091192 0 0.012139568254210302 -0.058844607259337989 0 0.011383114683154958 -0.060071061153283138 0 0.008816218686955828 -0.058117426169954967 0 0.01072162712701792 -0.058459512378688287 0 0.012139568254210302 -0.058844607259337989 0 0.011383114683154958 -0.060071061153283138 0 0.012740506900980907 -0.060455849101638127 0 0.011383114683154958 -0.060071061153283138 0 0.012740506900980907 -0.060455849101638127 0 0.011812799733780495 -0.061812106720177097 0 0.012740506900980907 -0.060455849101638127 0 0.014139880229031234 -0.058632956750721416 0 0.014154289736471872 -0.05961171308690881 0 0.012740506900980907 -0.060455849101638127 0 0.013695137790023447 -0.061756324259308611 0 0.014149757401598064 -0.060449396254454404 0 0.012740506900980907 -0.060455849101638127 0 0.014154289736471872 -0.05961171308690881 0 0.014149757401598064 -0.060449396254454404 0 0.012740506900980907 -0.060455849101638127 0 0.013375734766098307 -0.059050250421494005 0 0.0137753285921327 -0.059029818613235717 0 0.01072162712701792 -0.058459512378688287 0 0.011467647802147306 -0.058585772032839774 0 0.012139568254210302 -0.058844607259337989 0 0.012740506900980907 -0.060455849101638127 0 0.013375734766098307 -0.059050250421494005 0 0.013626621004237624 -0.059294513148274379 0 0.01426599746845115 -0.058480482947451666 0 0.012703759898985867 -0.058088438611257828 0 0.011424175988272061 -0.058864458086260577 0 0.013375734766098307 -0.059050250421494005 0 0.0134916309736627 -0.05811679211143881 0 0.013375734766098307 -0.059050250421494005 0 0.0137753285921327 -0.059029818613235717 0 0.0134916309736627 -0.05811679211143881 0 0.012703759898985867 -0.058088438611257828 0 0.013375734766098307 -0.059050250421494005 0 0.012740506900980907 -0.060455849101638127 0 0.013695137790023447 -0.061756324259308611 0 0.011812799733780495 -0.061812106720177097 0 0.013593920703223754 -0.063326350044821941 0 0.013695137790023447 -0.061756324259308611 0 0.011812799733780495 -0.061812106720177097 0 0.017156841128107149 -0.061072218111785224 0 0.0149307591595757 -0.061246395441285378 0 0.013593920703223754 -0.063326350044821941 0 0.011812799733780495 -0.061812106720177097 0 0.01153895318043985 -0.063763383577919761 0 0.011812799733780495 -0.061812106720177097 0 0.010249630387175676 -0.062618617690984701 0 0.01153895318043985 -0.063763383577919761 0 0.010249630387175676 -0.062618617690984701 0 0.0095606778070653538 -0.064216349745353077 0 0.01153895318043985 -0.063763383577919761 0 0.0097088460573609703 -0.060625024971892864 0 0.011812799733780495 -0.061812106720177097 0 0.010249630387175676 -0.062618617690984701 0 0.007735039256541453 -0.060128835156241886 0 0.0071292950861286493 -0.061949666635441068 0 0.0032181912163585851 -0.05957126281853125 0 0.0047842223769682668 -0.05933345847051389 0 0.0037170619785258873 -0.061363496993503949 0 0.0097088460573609703 -0.060625024971892864 0 0.010249630387175676 -0.062618617690984701 0 0.0086488435391459863 -0.062676006628794759 0 0.010249630387175676 -0.062618617690984701 0 0.0095606778070653538 -0.064216349745353077 0 0.0086488435391459863 -0.062676006628794759 0 0.015738850401230218 -0.058568736538453674 0 0.013287223293470384 -0.060286027017312477 0 0.014971975895867197 -0.062411705298483312 0 0.015738850401230218 -0.058568736538453674 0 0.018253001044672843 -0.061695002846656702 0 0.014971975895867197 -0.062411705298483312 0 0.015738850401230218 -0.058568736538453674 0 0.018253001044672843 -0.061695002846656702 0 0.019381470106885953 -0.058305120696249269 0 0.012057987613886606 -0.061594478469459812 0 0.0149307591595757 -0.061246395441285378 0 0.019381470106885953 -0.058305120696249269 0 0.020850465835212172 -0.060320999068938584 0 0.021877688847995309 -0.05971162126226285 0 0.018253001044672843 -0.061695002846656702 0 0.019381470106885953 -0.058305120696249269 0 0.020850465835212172 -0.060320999068938584 0 0.018253001044672843 -0.061695002846656702 0 0.020850465835212172 -0.060320999068938584 0 0.020578725555738208 -0.06180972147925004 0 0.020850465835212172 -0.060320999068938584 0 0.020578725555738208 -0.06180972147925004 0 0.022841185429747134 -0.061313096502514236 0 0.020850465835212172 -0.060320999068938584 0 0.022841185429747134 -0.061313096502514236 0 0.02282039912013234 -0.060479495532584332 0 0.020850465835212172 -0.060320999068938584 0 0.021877688847995309 -0.05971162126226285 0 0.02282039912013234 -0.060479495532584332 0 0.022008074023399157 -0.05893051533263275 0 0.021877688847995309 -0.05971162126226285 0 0.022673301596632712 -0.05982682647746549 0 0.022008074023399157 -0.05893051533263275 0 0.019381470106885953 -0.058305120696249269 0 0.021877688847995309 -0.05971162126226285 0 0.0003875607678686253 -0.061218610957530756 0 0.00095669834158708866 -0.061711539357089062 0 0.00011957773743244769 -0.061761726457610425 0 0.0003875607678686253 -0.061218610957530756 0 0.00011957773743244769 -0.061761726457610425 0 -0.00012112402651740206 -0.06129930520603942 0 0.0003875607678686253 -0.061218610957530756 0 -0.00012112402651740206 -0.06129930520603942 0 -0.00021470342401622299 -0.060828943370755777 0 0.0003875607678686253 -0.061218610957530756 0 0.00095669834158708866 -0.061711539357089062 0 0.0010964591245028138 -0.060595443462554188 0 0.00095669834158708866 -0.061711539357089062 0 0.00025509736357875779 -0.062424187966855518 0 0.0010140481386525493 -0.062815713059453021 0 0.00095669834158708866 -0.061711539357089062 0 0.00011957773743244769 -0.061761726457610425 0 0.00025509736357875779 -0.062424187966855518 0 0.00011957773743244769 -0.061761726457610425 0 -0.00035199621626442042 -0.062190940467453638 0 0.00025509736357875779 -0.062424187966855518 0 -0.00035199621626442042 -0.062190940467453638 0 -0.00092603524065608606 -0.061757087878350179 0 -0.00040236364894687089 -0.06164098599155287 0 0.00011957773743244769 -0.061761726457610425 0 -0.00035199621626442042 -0.062190940467453638 0 -0.00040236364894687089 -0.06164098599155287 0 -0.0016688822630022721 -0.061963495077137172 0 -0.00092603524065608606 -0.061757087878350179 0 -0.00095770779805346036 -0.062457935011198097 0 -0.00035199621626442042 -0.062190940467453638 0 -0.00092603524065608606 -0.061757087878350179 0 -0.00095770779805346036 -0.062457935011198097 0 -0.0016688822630022721 -0.061963495077137172 0 -0.0014811403715125112 -0.061075611537354441 0 -0.00092603524065608606 -0.061757087878350179 0 -0.0014811403715125112 -0.061075611537354441 0 -0.00092603524065608606 -0.061757087878350179 0 -0.00069092175205172596 -0.061162175986463674 0 0.00011957773743244769 -0.061761726457610425 0 -0.00040236364894687089 -0.06164098599155287 0 -0.00012112402651740206 -0.06129930520603942 0 -0.00092603524065608606 -0.061757087878350179 0 -0.00040236364894687089 -0.06164098599155287 0 -0.00069092175205172596 -0.061162175986463674 0 -0.00040236364894687089 -0.06164098599155287 0 -0.00069092175205172596 -0.061162175986463674 0 -0.00012112402651740206 -0.06129930520603942 0 -0.00021470342401622299 -0.060828943370755777 0 -0.00072636873788110574 -0.060637206155936832 0 5.5014912589516812e-05 -0.060571628854063364 0 -0.0011780620833815641 -0.059906606646614631 0 -0.00072636873788110574 -0.060637206155936832 0 5.5014912589516812e-05 -0.060571628854063364 0 -0.00069092175205172596 -0.061162175986463674 0 -0.00012112402651740206 -0.06129930520603942 0 -0.00021470342401622299 -0.060828943370755777 0 -0.0014811403715125112 -0.061075611537354441 0 -0.0011780620833815641 -0.059906606646614631 0 -0.00072636873788110574 -0.060637206155936832 0 -0.00069092175205172596 -0.061162175986463674 0 -0.00021470342401622299 -0.060828943370755777 0 -0.00072636873788110574 -0.060637206155936832 0 -0.0014811403715125112 -0.061075611537354441 0 -0.00069092175205172596 -0.061162175986463674 0 -0.00072636873788110574 -0.060637206155936832 0 0.0018837083860743355 -0.058728884827029808 0 9.6887210344388902e-05 -0.060457099823305396 0 0.0010964591245028138 -0.060595443462554188 0 0.0003875607678686253 -0.061218610957530756 0 9.6887210344388902e-05 -0.060457099823305396 0 0.0010964591245028138 -0.060595443462554188 0 0.0003875607678686253 -0.061218610957530756 0 -0.00021470342401622299 -0.060828943370755777 0 8.7114540883844691e-05 -0.060534208445435327 0 0.0018567338152373546 -0.060308096555744928 0 0.0019119640229368722 -0.060273774823032068 0 0.0018497112632768179 -0.060317971444247234 0 0.0019119640229368722 -0.060273774823032068 0 0.0018837083860743355 -0.058728884827029808 0 0.0010964591245028138 -0.060595443462554188 0 0.0021503406911956868 -0.060860930782428817 0 0.00095669834158708866 -0.061711539357089062 0 0.0010964591245028138 -0.060595443462554188 0 0.0021503406911956868 -0.060860930782428817 0 0.0032181912163585851 -0.05957126281853125 0 0.0021503406911956868 -0.060860930782428817 0 0.0037170619785258873 -0.061363496993503949 0 0.0037170619785258873 -0.061363496993503949 0 0.0025602031128836144 -0.061946935142114523 0 0.0026545936067909788 -0.063372367813088415 0 0.0021503406911956868 -0.060860930782428817 0 0.0037170619785258873 -0.061363496993503949 0 0.0025602031128836144 -0.061946935142114523 0 0.00095669834158708866 -0.061711539357089062 0 0.0021503406911956868 -0.060860930782428817 0 0.0017177398308333071 -0.062188906419845744 0 0.0021503406911956868 -0.060860930782428817 0 0.0025602031128836144 -0.061946935142114523 0 0.0017177398308333071 -0.062188906419845744 0 0.00095669834158708866 -0.061711539357089062 0 0.0017177398308333071 -0.062188906419845744 0 0.0010140481386525493 -0.062815713059453021 0 0.0025602031128836144 -0.061946935142114523 0 0.0017177398308333071 -0.062188906419845744 0 0.0026545936067909788 -0.063372367813088415 0 0.0017177398308333071 -0.062188906419845744 0 0.0026545936067909788 -0.063372367813088415 0 0.0010140481386525493 -0.062815713059453021 0 0.0079054215401903119 -0.062277669593670079 0 0.0050757509153793205 -0.062389066519923354 0 0.0026545936067909788 -0.063372367813088415 0 0.0009522152497016403 -0.063775204235714672 0 0.0010140481386525493 -0.062815713059453021 0 0.015738850401230218 -0.058568736538453674 0 0.011930958914457787 -0.059137242485861947 0 0.013287223293470384 -0.060286027017312477 0 0.0071292950861286493 -0.061949666635441068 0 0.0079054215401903119 -0.062277669593670079 0 0.012057987613886606 -0.061594478469459812 0 0.0079054215401903119 -0.062277669593670079 0 0.0095606778070653538 -0.064216349745353077 0 0.0086488435391459863 -0.062676006628794759 0 0.0076058555261991553 -0.064692375479485684 0 0.0079054215401903119 -0.062277669593670079 0 0.0080127563316376837 -0.062124067817322978 0 0.013287223293470384 -0.060286027017312477 0 0.012175663290871023 -0.061461157330649364 0 0.014971975895867197 -0.062411705298483312 0 0.013287223293470384 -0.060286027017312477 0 0.012175663290871023 -0.061461157330649364 0 0.011508960798125028 -0.059860960656846325 0 0.011930958914457787 -0.059137242485861947 0 0.013287223293470384 -0.060286027017312477 0 0.011508960798125028 -0.059860960656846325 0 0.011897333762339353 -0.059118483620888493 0 0.011508960798125028 -0.059860960656846325 0 0.0087099821243604679 -0.059856773938066987 0 0.010104290699156466 -0.060657470638575947 0 0.011508960798125028 -0.059860960656846325 0 0.0087099821243604679 -0.059856773938066987 0 0.012175663290871023 -0.061461157330649364 0 0.010104290699156466 -0.060657470638575947 0 0.011508960798125028 -0.059860960656846325 0 0.012175663290871023 -0.061461157330649364 0 0.010104290699156466 -0.060657470638575947 0 0.010594586765768962 -0.062105619619536812 0 0.0050757509153793205 -0.062389066519923354 0 0.0024768899850152125 -0.062681648764577852 0 0.010104290699156466 -0.060657470638575947 0 0.0065304090921025444 -0.061801064211194787 0 0.010594586765768962 -0.062105619619536812 0 0.010104290699156466 -0.060657470638575947 0 0.0087099821243604679 -0.059856773938066987 0 0.0065304090921025444 -0.061801064211194787 0 0.0087099821243604679 -0.059856773938066987 0 0.0065304090921025444 -0.061801064211194787 0 0.005557224994193981 -0.060631904808081644 0 0.0009522152497016403 -0.063775204235714672 0 -0.0001896409890131616 -0.063117234705862502 0 -0.00072438893200576658 -0.064162718126550916 0 0.0009522152497016403 -0.063775204235714672 0 0.0010140481386525493 -0.062815713059453021 0 -0.0001896409890131616 -0.063117234705862502 0 0.00025509736357875779 -0.062424187966855518 0 0.0010140481386525493 -0.062815713059453021 0 -0.0001896409890131616 -0.063117234705862502 0 -0.00035199621626442042 -0.062190940467453638 0 0.00025509736357875779 -0.062424187966855518 0 -0.0001896409890131616 -0.063117234705862502 0 -0.0017177647241035058 -0.06276909454990752 0 -0.00095770779805346036 -0.062457935011198097 0 -0.0010212668533759041 -0.063207782223437606 0 -0.00035199621626442042 -0.062190940467453638 0 -0.00095770779805346036 -0.062457935011198097 0 -0.0001896409890131616 -0.063117234705862502 0 -0.00095770779805346036 -0.062457935011198097 0 -0.0001896409890131616 -0.063117234705862502 0 -0.0010212668533759041 -0.063207782223437606 0 -0.0001896409890131616 -0.063117234705862502 0 -0.0010212668533759041 -0.063207782223437606 0 -0.00072438893200576658 -0.064162718126550916 0 -0.0016635354403325493 -0.063607257129405709 0 -0.0010212668533759041 -0.063207782223437606 0 -0.00072438893200576658 -0.064162718126550916 0 -0.0001137313103411639 -0.06308423185324466 0 0.0053271693348645741 -0.062641430486325742 0 0.0023482648758093908 -0.061440006594568948 0 0.0065304090921025444 -0.061801064211194787 0 0.005557224994193981 -0.060631904808081644 0 0.0060033405648999907 -0.061441654533455563 0 0.0038686050243983993 -0.063047447343822907 0 0.0059851237623231813 -0.064376150174928107 0 0.001318657353720779 -0.061117462796850645 0 0.0060033405648999907 -0.061441654533455563 0 0.0038686050243983993 -0.063047447343822907 0 0.0038686050243983993 -0.063047447343822907 0 0.0041344765841857967 -0.064891187941367917 0 0.0059851237623231813 -0.064376150174928107 0 0.0053271693348645741 -0.062641430486325742 0 0.0077310238613256897 -0.0626084663777738 0 0.0060033405648999907 -0.061441654533455563 0 0.0081801930750648334 -0.063511593076543485 0 0.0059851237623231813 -0.064376150174928107 0 0.0060033405648999907 -0.061441654533455563 0 0.0081801930750648334 -0.063511593076543485 0 0.010594586765768962 -0.062105619619536812 0 0.0082838225027396847 -0.066117183594100543 0 0.0059851237623231813 -0.064376150174928107 0 0.0056101916433469795 -0.066667846259231334 0 0.0081801930750648334 -0.063511593076543485 0 0.0082838225027396847 -0.066117183594100543 0 0.0059851237623231813 -0.064376150174928107 0 0.0081801930750648334 -0.063511593076543485 0 0.0082838225027396847 -0.066117183594100543 0 0.010291306484650051 -0.064174379461880787 0 0.0028789747590461426 -0.067736223199749312 0 0.0041344765841857967 -0.064891187941367917 0 0.0056101916433469795 -0.066667846259231334 0 0.0041344765841857967 -0.064891187941367917 0 0.0059851237623231813 -0.064376150174928107 0 0.0056101916433469795 -0.066667846259231334 0 0.0028789747590461426 -0.067736223199749312 0 0.0056101916433469795 -0.066667846259231334 0 0.0071217692444641859 -0.069525369315325894 0 0.0028789747590461426 -0.067736223199749312 0 0.0030209737817128543 -0.072872664673581417 0 0.0071217692444641859 -0.069525369315325894 0 0.0082838225027396847 -0.066117183594100543 0 0.0056101916433469795 -0.066667846259231334 0 0.0071217692444641859 -0.069525369315325894 0 0.0082838225027396847 -0.066117183594100543 0 0.0071217692444641859 -0.069525369315325894 0 0.010931821955423972 -0.068086802761584977 0 0.014329244424621503 -0.066286768789413558 0 0.021689225943569111 -0.060768826413108469 0 0.020074468959992778 -0.067017318485807331 0 0.013531772734065658 -0.068579070592035288 0 0.017233077605718621 -0.065819353967826039 0 0.010839403392747284 -0.071196355744155143 0 0.010931821955423972 -0.068086802761584977 0 0.014034712124853948 -0.068937042299012805 0 0.0071217692444641859 -0.069525369315325894 0 0.010839403392747284 -0.071196355744155143 0 0.010931821955423972 -0.068086802761584977 0 0.010931821955423972 -0.068086802761584977 0 0.013707987327229307 -0.066807476089410969 0 0.011737530247067156 -0.065701196083565366 0 0.010931821955423972 -0.068086802761584977 0 0.013707987327229307 -0.066807476089410969 0 0.014034712124853948 -0.068937042299012805 0 0.011737530247067156 -0.065701196083565366 0 0.012596143979482968 -0.063434003414175377 0 0.014582312695985256 -0.064807464648701144 0 0.013707987327229307 -0.066807476089410969 0 0.011737530247067156 -0.065701196083565366 0 0.014582312695985256 -0.064807464648701144 0 0.011737530247067156 -0.065701196083565366 0 0.010291306484650051 -0.064174379461880787 0 0.012596143979482968 -0.063434003414175377 0 0.0082838225027396847 -0.066117183594100543 0 0.010931821955423972 -0.068086802761584977 0 0.011737530247067156 -0.065701196083565366 0 0.0082838225027396847 -0.066117183594100543 0 0.011737530247067156 -0.065701196083565366 0 0.010291306484650051 -0.064174379461880787 0 0.0081801930750648334 -0.063511593076543485 0 0.010291306484650051 -0.064174379461880787 0 0.010594586765768962 -0.062105619619536812 0 0.010291306484650051 -0.064174379461880787 0 0.010594586765768962 -0.062105619619536812 0 0.012596143979482968 -0.063434003414175377 0 0.012175663290871023 -0.061461157330649364 0 0.012596143979482968 -0.063434003414175377 0 0.014971975895867197 -0.062411705298483312 0 0.012175663290871023 -0.061461157330649364 0 0.010594586765768962 -0.062105619619536812 0 0.012596143979482968 -0.063434003414175377 0 0.012596143979482968 -0.063434003414175377 0 0.014971975895867197 -0.062411705298483312 0 0.014582312695985256 -0.064807464648701144 0 0.014971975895867197 -0.062411705298483312 0 0.017086582036191816 -0.063878825977613254 0 0.014582312695985256 -0.064807464648701144 0 0.018253001044672843 -0.061695002846656702 0 0.014971975895867197 -0.062411705298483312 0 0.017086582036191816 -0.063878825977613254 0 0.018253001044672843 -0.061695002846656702 0 0.017086582036191816 -0.063878825977613254 0 0.020238641131861454 -0.064021400655973004 0 0.020148794260136695 -0.06385167374065244 0 0.021771713880835465 -0.062708580632503425 0 0.017086582036191816 -0.063878825977613254 0 0.01724663153816999 -0.066500024919814979 0 0.020238641131861454 -0.064021400655973004 0 0.013707987327229307 -0.066807476089410969 0 0.01724663153816999 -0.066500024919814979 0 0.014582312695985256 -0.064807464648701144 0 0.017086582036191816 -0.063878825977613254 0 0.01724663153816999 -0.066500024919814979 0 0.014582312695985256 -0.064807464648701144 0 0.022841185429747134 -0.061313096502514236 0 0.023233650446587584 -0.061865689921277167 0 0.02418654758361263 -0.061801318940917394 0 0.020578725555738208 -0.06180972147925004 0 0.022841185429747134 -0.061313096502514236 0 0.020238641131861454 -0.064021400655973004 0 0.022419681363583063 -0.062148795453141691 0 0.021771713880835465 -0.062708580632503425 0 0.018253001044672843 -0.061695002846656702 0 0.020578725555738208 -0.06180972147925004 0 0.020238641131861454 -0.064021400655973004 0 0.025504274781088965 -0.060432715975404179 0 0.02418654758361263 -0.061801318940917394 0 0.024767405359122287 -0.06074430027481386 0 0.02418654758361263 -0.061801318940917394 0 0.023863624457644977 -0.061296549881685571 0 0.024767405359122287 -0.06074430027481386 0 0.023384310863283984 -0.059945069015464814 0 0.023546694117376442 -0.058741466685235395 0 0.023233650446587584 -0.061865689921277167 0 0.023863624457644977 -0.061296549881685571 0 0.023331422304767979 -0.060673830745164047 0 0.023233650446587584 -0.061865689921277167 0 0.02418654758361263 -0.061801318940917394 0 0.023863624457644977 -0.061296549881685571 0 0.023863624457644977 -0.061296549881685571 0 0.023331422304767979 -0.060673830745164047 0 0.024767405359122287 -0.06074430027481386 0 0.023331422304767979 -0.060673830745164047 0 0.024767405359122287 -0.06074430027481386 0 0.02475774401249772 -0.059861542600723988 0 0.024767405359122287 -0.06074430027481386 0 0.02475774401249772 -0.059861542600723988 0 0.025911139101040443 -0.061320303758590169 0 0.023331422304767979 -0.060673830745164047 0 0.02475774401249772 -0.059861542600723988 0 0.023076006970028838 -0.058708537397891739 0 0.023546694117376442 -0.058741466685235395 0 0.023658796528940363 -0.057215670687778206 0 0.025504274781088965 -0.060432715975404179 0 0.021689225943569111 -0.060768826413108469 0 0.025911139101040443 -0.061320303758590169 0 0.020148794260136695 -0.06385167374065244 0 0.017233077605718621 -0.065819353967826039 0 0.013707987327229307 -0.066807476089410969 0 0.01724663153816999 -0.066500024919814979 0 0.014034712124853948 -0.068937042299012805 0 0.025504274781088965 -0.060432715975404179 0 0.024767405359122287 -0.06074430027481386 0 0.025911139101040443 -0.061320303758590169 0 0.02475774401249772 -0.059861542600723988 0 0.025911139101040443 -0.061320303758590169 0 0.025942678498032699 -0.05919405579327227 0 0.026096973327827743 -0.062335860071068429 0 0.026021404494657292 -0.062739512593758831 0 0.025911139101040443 -0.061320303758590169 0 0.028003949947854153 -0.057863353573428887 0 0.025942678498032699 -0.05919405579327227 0 0.021689225943569111 -0.060768826413108469 0 0.025911139101040443 -0.061320303758590169 0 0.020074468959992778 -0.067017318485807331 0 0.025911139101040443 -0.061320303758590169 0 0.024831411618062633 -0.06965119308931593 0 0.020074468959992778 -0.067017318485807331 0 0.024831411618062633 -0.06965119308931593 0 0.020074468959992778 -0.067017318485807331 0 0.019800959747847423 -0.073070992533019477 0 0.025942678498032699 -0.05919405579327227 0 0.026343832592607839 -0.056798958726238302 0 0.025004758520938138 -0.057945766155407127 0 0.028003949947854153 -0.057863353573428887 0 0.025942678498032699 -0.05919405579327227 0 0.026343832592607839 -0.056798958726238302 0 0.026343832592607839 -0.056798958726238302 0 0.027780916710136386 -0.055891986995093561 0 0.026561817760457348 -0.054637266777745858 0 0.028003949947854153 -0.057863353573428887 0 0.026343832592607839 -0.056798958726238302 0 0.027780916710136386 -0.055891986995093561 0 0.024831411618062633 -0.06965119308931593 0 0.022780708060677102 -0.077156041843571679 0 0.019800959747847423 -0.073070992533019477 0 0.026021404494657292 -0.062739512593758831 0 0.026160459529212511 -0.061265932127794506 0 0.028003949947854153 -0.057863353573428887 0 0.027780916710136386 -0.055891986995093561 0 0.028904941886353574 -0.054911452514460592 0 0.027780916710136386 -0.055891986995093561 0 0.029117430132505239 -0.054907785051270856 0 0.027917120387990369 -0.054718401204402911 0 0.026785674364191513 -0.060503329104738691 0 0.026160459529212511 -0.061265932127794506 0 0.022780708060677102 -0.077156041843571679 0 0.017974221885151104 -0.077248031619743501 0 0.019800959747847423 -0.073070992533019477 0 0.02475774401249772 -0.059861542600723988 0 0.023076006970028838 -0.058708537397891739 0 0.025004758520938138 -0.057945766155407127 0 0.023076006970028838 -0.058708537397891739 0 0.025004758520938138 -0.057945766155407127 0 0.024918596795547535 -0.055875897502051526 0 0.02475774401249772 -0.059861542600723988 0 0.025942678498032699 -0.05919405579327227 0 0.025004758520938138 -0.057945766155407127 0 0.024918596795547535 -0.055875897502051526 0 0.023717454363945931 -0.054705638841031919 0 0.024833912743893478 -0.053972440811155896 0 0.026343832592607839 -0.056798958726238302 0 0.024918596795547535 -0.055875897502051526 0 0.026561817760457348 -0.054637266777745858 0 0.026343832592607839 -0.056798958726238302 0 0.025004758520938138 -0.057945766155407127 0 0.024918596795547535 -0.055875897502051526 0 0.023658796528940363 -0.057215670687778206 0 0.02372149044463508 -0.056237483241470133 0 0.023076006970028838 -0.058708537397891739 0 0.024918596795547535 -0.055875897502051526 0 0.023717454363945931 -0.054705638841031919 0 0.024232191778333547 -0.055505959693816803 0 0.023717454363945931 -0.054705638841031919 0 0.02380031776109149 -0.054476199401468466 0 0.023717454363945931 -0.054705638841031919 0 0.023348310610377856 -0.05367037604835407 0 0.02380031776109149 -0.054476199401468466 0 0.023717454363945931 -0.054705638841031919 0 0.023348310610377856 -0.05367037604835407 0 0.024833912743893478 -0.053972440811155896 0 0.023348310610377856 -0.05367037604835407 0 0.024833912743893478 -0.053972440811155896 0 0.024231926370818488 -0.052556874495555662 0 0.024918596795547535 -0.055875897502051526 0 0.024833912743893478 -0.053972440811155896 0 0.026561817760457348 -0.054637266777745858 0 0.024833912743893478 -0.053972440811155896 0 0.026561817760457348 -0.054637266777745858 0 0.026396895201553219 -0.052703865379083836 0 0.025537801584237803 -0.052097983708075654 0 0.024231926370818488 -0.052556874495555662 0 0.02313538936566898 -0.050141963200256795 0 0.024833912743893478 -0.053972440811155896 0 0.025537801584237803 -0.052097983708075654 0 0.026396895201553219 -0.052703865379083836 0 0.025537801584237803 -0.052097983708075654 0 0.026746781035398005 -0.051362201358543802 0 0.025855759603813318 -0.049798180816355619 0 0.025537801584237803 -0.052097983708075654 0 0.026396895201553219 -0.052703865379083836 0 0.026746781035398005 -0.051362201358543802 0 0.024833912743893478 -0.053972440811155896 0 0.025537801584237803 -0.052097983708075654 0 0.024231926370818488 -0.052556874495555662 0 0.023348310610377856 -0.05367037604835407 0 0.023893859464051242 -0.054016666324984745 0 0.023097449431615909 -0.054771243099756527 0 0.025040707982777091 -0.05117904078661218 0 0.026087068408252142 -0.048196303439572784 0 0.023348310610377856 -0.05367037604835407 0 0.024231926370818488 -0.052556874495555662 0 0.02313538936566898 -0.050141963200256795 0 0.029051051722126475 -0.058503952753646199 0 0.030129503261221213 -0.053684886338528193 0 0.032992534888344457 -0.054854560657406959 0 0.026160459529212511 -0.061265932127794506 0 0.028723082462785928 -0.053952294337269995 0 0.028289798409669643 -0.053417502911842121 0 0.029117430132505239 -0.054907785051270856 0 0.030038292729951142 -0.051881710902387607 0 0.028289798409669643 -0.053417502911842121 0 0.029117430132505239 -0.054907785051270856 0 0.027917120387990369 -0.054718401204402911 0 0.028289798409669643 -0.053417502911842121 0 0.027917120387990369 -0.054718401204402911 0 0.026561817760457348 -0.054637266777745858 0 0.028289798409669643 -0.053417502911842121 0 0.026561817760457348 -0.054637266777745858 0 0.028071068398606767 -0.050936570404954869 0 0.027780916710136386 -0.055891986995093561 0 0.027917120387990369 -0.054718401204402911 0 0.026561817760457348 -0.054637266777745858 0 0.026561817760457348 -0.054637266777745858 0 0.026396895201553219 -0.052703865379083836 0 0.028669644255687157 -0.051271426945653904 0 0.027743484825912008 -0.052418714953748217 0 0.028657037403630962 -0.05046484858119097 0 0.026396895201553219 -0.052703865379083836 0 0.026746781035398005 -0.051362201358543802 0 0.028669644255687157 -0.051271426945653904 0 0.026746781035398005 -0.051362201358543802 0 0.028669644255687157 -0.051271426945653904 0 0.02734458954965515 -0.050281451731250308 0 0.028289798409669643 -0.053417502911842121 0 0.028071068398606767 -0.050936570404954869 0 0.030038292729951142 -0.051881710902387607 0 0.030129503261221213 -0.053684886338528193 0 0.032992534888344457 -0.054854560657406959 0 0.033110294268411652 -0.051566643540805576 0 0.032992534888344457 -0.054854560657406959 0 0.033110294268411652 -0.051566643540805576 0 0.036828677471524629 -0.051232628183660846 0 0.022780708060677102 -0.077156041843571679 0 0.016941588846490298 -0.081497727420149324 0 0.017974221885151104 -0.077248031619743501 0 0.026160459529212511 -0.061265932127794506 0 0.023289745442232616 -0.063942047750279049 0 0.016941588846490298 -0.081497727420149324 0 0.017974221885151104 -0.077248031619743501 0 0.014335882012712062 -0.07873197313097853 0 0.017974221885151104 -0.077248031619743501 0 0.014335882012712062 -0.07873197313097853 0 0.016255042384399343 -0.075377071644498209 0 0.016941588846490298 -0.081497727420149324 0 0.014335882012712062 -0.07873197313097853 0 0.01236663076766481 -0.081232288702192054 0 0.014335882012712062 -0.07873197313097853 0 0.0099741954380525976 -0.078947360020632976 0 0.01152310522202646 -0.075790784265273067 0 0.014335882012712062 -0.07873197313097853 0 0.01236663076766481 -0.081232288702192054 0 0.0099741954380525976 -0.078947360020632976 0 0.014335882012712062 -0.07873197313097853 0 0.016255042384399343 -0.075377071644498209 0 0.01152310522202646 -0.075790784265273067 0 0.01236663076766481 -0.081232288702192054 0 0.008721726815847106 -0.081910859773519376 0 0.012146950880484128 -0.084947618567212807 0 0.023289745442232616 -0.063942047750279049 0 0.021553805709038941 -0.062785892713247748 0 0.016941588846490298 -0.081497727420149324 0 0.01236663076766481 -0.081232288702192054 0 0.012146950880484128 -0.084947618567212807 0 0.008721726815847106 -0.081910859773519376 0 0.012146950880484128 -0.084947618567212807 0 0.0086292914298374841 -0.084550564741885242 0 0.008721726815847106 -0.081910859773519376 0 0.0058045569944045047 -0.082712970927096258 0 0.0086292914298374841 -0.084550564741885242 0 0.01236663076766481 -0.081232288702192054 0 0.008721726815847106 -0.081910859773519376 0 0.0099741954380525976 -0.078947360020632976 0 0.0045962020577952189 -0.082749513014445719 0 0.0058045569944045047 -0.082712970927096258 0 0.0051539012364960326 -0.084787927652853493 0 0.0045962020577952189 -0.082749513014445719 0 0.0058045569944045047 -0.082712970927096258 0 0.0041911747109486365 -0.081385524404052403 0 0.0034029807917320132 -0.082680020153322931 0 0.0045962020577952189 -0.082749513014445719 0 0.0041911747109486365 -0.081385524404052403 0 0.008721726815847106 -0.081910859773519376 0 0.0058045569944045047 -0.082712970927096258 0 0.0058741997815412866 -0.080528426590144239 0 0.008721726815847106 -0.081910859773519376 0 0.0058741997815412866 -0.080528426590144239 0 0.0067287676901340177 -0.079001051389560234 0 0.0058045569944045047 -0.082712970927096258 0 0.0058741997815412866 -0.080528426590144239 0 0.0041911747109486365 -0.081385524404052403 0 0.0058741997815412866 -0.080528426590144239 0 0.0041911747109486365 -0.081385524404052403 0 0.0042646477482637521 -0.077802683036946971 0 0.0058741997815412866 -0.080528426590144239 0 0.0067287676901340177 -0.079001051389560234 0 0.0042646477482637521 -0.077802683036946971 0 0.0067287676901340177 -0.079001051389560234 0 0.0042646477482637521 -0.077802683036946971 0 0.0067560153851936693 -0.076047622763136327 0 0.0099741954380525976 -0.078947360020632976 0 0.0067560153851936693 -0.076047622763136327 0 0.01152310522202646 -0.075790784265273067 0 0.008721726815847106 -0.081910859773519376 0 0.0067287676901340177 -0.079001051389560234 0 0.0099741954380525976 -0.078947360020632976 0 0.0067287676901340177 -0.079001051389560234 0 0.0099741954380525976 -0.078947360020632976 0 0.0067560153851936693 -0.076047622763136327 0 0.0067560153851936693 -0.076047622763136327 0 0.0082502317535832325 -0.073129175918150754 0 0.01152310522202646 -0.075790784265273067 0 0.0030209737817128543 -0.072872664673581417 0 0.0067560153851936693 -0.076047622763136327 0 0.0082502317535832325 -0.073129175918150754 0 0.0030209737817128543 -0.072872664673581417 0 0.0042646477482637521 -0.077802683036946971 0 0.0067560153851936693 -0.076047622763136327 0 0.0030209737817128543 -0.072872664673581417 0 0.0071217692444641859 -0.069525369315325894 0 0.0082502317535832325 -0.073129175918150754 0 0.0071217692444641859 -0.069525369315325894 0 0.010839403392747284 -0.071196355744155143 0 0.0082502317535832325 -0.073129175918150754 0 0.014329244424621503 -0.066286768789413558 0 0.0082502317535832325 -0.073129175918150754 0 0.014987715072489256 -0.071957917607489555 0 0.013531772734065658 -0.068579070592035288 0 0.011369699778759316 -0.07032057283928829 0 0.014329244424621503 -0.066286768789413558 0 0.014987715072489256 -0.071957917607489555 0 0.020074468959992778 -0.067017318485807331 0 0.014987715072489256 -0.071957917607489555 0 0.020074468959992778 -0.067017318485807331 0 0.019800959747847423 -0.073070992533019477 0 0.014987715072489256 -0.071957917607489555 0 0.019800959747847423 -0.073070992533019477 0 0.016255042384399343 -0.075377071644498209 0 0.017974221885151104 -0.077248031619743501 0 0.019800959747847423 -0.073070992533019477 0 0.016255042384399343 -0.075377071644498209 0 0.014987715072489256 -0.071957917607489555 0 0.016255042384399343 -0.075377071644498209 0 0.01152310522202646 -0.075790784265273067 0 0.0082502317535832325 -0.073129175918150754 0 0.014987715072489256 -0.071957917607489555 0 0.01152310522202646 -0.075790784265273067 0 0.020036555697856812 -0.054391704612007451 0 0.016028880069109356 -0.055694818938550349 0 0.016674647390813469 -0.051727392343110003 0 0.020036555697856812 -0.054391704612007451 0 0.016674647390813469 -0.051727392343110003 0 0.019722424564288379 -0.051516521751636957 0 0.020036555697856812 -0.054391704612007451 0 0.019722424564288379 -0.051516521751636957 0 0.022141298316275461 -0.051895575818346126 0 0.02029280504338184 -0.055074283783272601 0 0.019920679991961052 -0.055824659929060931 0 0.021119872369042635 -0.055794788278692081 0 0.020223693729835193 -0.054229438083378212 0 0.018341026259401191 -0.054295479514458664 0 0.019920679991961052 -0.055824659929060931 0 0.019000140516833321 -0.05564997390318465 0 0.019418178405986929 -0.056320909029901584 0 0.02029280504338184 -0.055074283783272601 0 0.019920679991961052 -0.055824659929060931 0 0.019000140516833321 -0.05564997390318465 0 0.021999286832651423 -0.040776671381559673 0 0.022172208648538576 -0.040455166377790799 0 0.022210671155612254 -0.040674345633322589 0 0.016028880069109356 -0.055694818938550349 0 0.014464049453737781 -0.05444237102482067 0 0.012306921520801229 -0.056967499954119219 0 0.018341026259401191 -0.054295479514458664 0 0.022326901949216743 -0.051379233396898392 0 0.02053941548042916 -0.049094037746685693 0 0.022326901949216743 -0.051379233396898392 0 0.021999286832651423 -0.040776671381559673 0 0.022210671155612254 -0.040674345633322589 0 0.022170562678344705 -0.040850300923273263 0 0.021999286832651423 -0.040776671381559673 0 0.022037716703143442 -0.040913564450541222 0 0.022170562678344705 -0.040850300923273263 0 0.016028880069109356 -0.055694818938550349 0 0.014464049453737781 -0.05444237102482067 0 0.016674647390813469 -0.051727392343110003 0 0.021999286832651423 -0.040776671381559673 0 0.022037716703143442 -0.040913564450541222 0 0.02200527773817398 -0.041033535454753134 0 0.02053941548042916 -0.049094037746685693 0 0.020550033996338979 -0.047066867402073109 0 0.022006028221194018 -0.040942183776342615 0 0.022037716703143442 -0.040913564450541222 0 0.02200527773817398 -0.041033535454753134 0 0.022006028221194018 -0.040942183776342615 0 0.021998146855080489 -0.041022608355737893 0 0.02200527773817398 -0.041033535454753134 0 0.022037716703143442 -0.040913564450541222 0 0.022170562678344705 -0.040850300923273263 0 0.022061263813256272 -0.04083698455484408 0 0.022006028221194018 -0.040942183776342615 0 0.022037716703143442 -0.040913564450541222 0 0.022061263813256272 -0.04083698455484408 0 0.022006028221194018 -0.040942183776342615 0 0.021927032401911978 -0.040821080182247282 0 0.022061263813256272 -0.04083698455484408 0 0.021927032401911978 -0.040821080182247282 0 0.021998146855080489 -0.041022608355737893 0 0.021902558611637597 -0.040868845203506012 0 0.022006028221194018 -0.040942183776342615 0 0.021927032401911978 -0.040821080182247282 0 0.021998146855080489 -0.041022608355737893 0 0.021998146855080489 -0.041022608355737893 0 0.02200527773817398 -0.041033535454753134 0 0.022348442536524338 -0.041300053975284391 0 0.021998146855080489 -0.041022608355737893 0 0.022348442536524338 -0.041300053975284391 0 0.022029983381034967 -0.040934492648520358 0 0.020550033996338979 -0.047066867402073109 0 0.02140327896961754 -0.045227611410672532 0 0.016674647390813469 -0.051727392343110003 0 0.019722424564288379 -0.051516521751636957 0 0.018900602393625877 -0.048842199286322108 0 0.019722424564288379 -0.051516521751636957 0 0.018900602393625877 -0.048842199286322108 0 0.021957027949308306 -0.050004487326338824 0 0.018900602393625877 -0.048842199286322108 0 0.021957027949308306 -0.050004487326338824 0 0.021254296497972412 -0.045456539532828771 0 0.021957027949308306 -0.050004487326338824 0 0.024688673294463542 -0.048253653428146706 0 0.021254296497972412 -0.045456539532828771 0 0.021957027949308306 -0.050004487326338824 0 0.024688673294463542 -0.048253653428146706 0 0.024290232793979814 -0.051146928232394924 0 0.024688673294463542 -0.048253653428146706 0 0.024290232793979814 -0.051146928232394924 0 0.026107910437528005 -0.049952543141538033 0 0.024290232793979814 -0.051146928232394924 0 0.022141298316275461 -0.051895575818346126 0 0.024660105446872561 -0.052653568059281855 0 0.024290232793979814 -0.051146928232394924 0 0.024517698089740279 -0.053082547368801664 0 0.024660105446872561 -0.052653568059281855 0 0.021957027949308306 -0.050004487326338824 0 0.024290232793979814 -0.051146928232394924 0 0.022141298316275461 -0.051895575818346126 0 0.019722424564288379 -0.051516521751636957 0 0.021957027949308306 -0.050004487326338824 0 0.022141298316275461 -0.051895575818346126 0 0.030136761342231897 -0.04957515141566942 0 0.033677934849500386 -0.045943014466138951 0 0.028275358660471268 -0.047114329468501706 0 0.025823688025507434 -0.050256735199764584 0 0.026087068408252142 -0.048196303439572784 0 0.024688673294463542 -0.048253653428146706 0 0.026107910437528005 -0.049952543141538033 0 0.028275358660471268 -0.047114329468501706 0 0.030136761342231897 -0.04957515141566942 0 0.026107910437528005 -0.049952543141538033 0 0.028275358660471268 -0.047114329468501706 0 0.024290232793979814 -0.051146928232394924 0 0.026107910437528005 -0.049952543141538033 0 0.024517698089740279 -0.053082547368801664 0 0.02348336799870214 -0.053393488892581421 0 0.022580371414874296 -0.053622459784817313 0 0.023893859464051242 -0.054016666324984745 0 0.024517698089740279 -0.053082547368801664 0 0.024046596261080175 -0.053539006910635137 0 0.024517698089740279 -0.053082547368801664 0 0.024046596261080175 -0.053539006910635137 0 0.024660105446872561 -0.052653568059281855 0 0.030136761342231897 -0.04957515141566942 0 0.026107910437528005 -0.049952543141538033 0 0.024517698089740279 -0.053082547368801664 0 0.025823688025507434 -0.050256735199764584 0 0.025306343601767582 -0.051190793202998942 0 0.023348310610377856 -0.05367037604835407 0 0.024046596261080175 -0.053539006910635137 0 0.02380031776109149 -0.054476199401468466 0 0.023348310610377856 -0.05367037604835407 0 0.023893859464051242 -0.054016666324984745 0 0.024046596261080175 -0.053539006910635137 0 0.024046596261080175 -0.053539006910635137 0 0.02380031776109149 -0.054476199401468466 0 0.023139412452002198 -0.054524162283238857 0 0.02380031776109149 -0.054476199401468466 0 0.023139412452002198 -0.054524162283238857 0 0.023383367456135683 -0.055074224661442683 0 0.023139412452002198 -0.054524162283238857 0 0.023383367456135683 -0.055074224661442683 0 0.022188454206643938 -0.055094164251702035 0 0.024046596261080175 -0.053539006910635137 0 0.023139412452002198 -0.054524162283238857 0 0.021689300248504947 -0.054341387531320985 0 0.022707272974394874 -0.05574577373556288 0 0.023383367456135683 -0.055074224661442683 0 0.022188454206643938 -0.055094164251702035 0 0.022707272974394874 -0.05574577373556288 0 0.022188454206643938 -0.055094164251702035 0 0.021957906222443074 -0.056003902037478216 0 0.022707272974394874 -0.05574577373556288 0 0.023383367456135683 -0.055074224661442683 0 0.023447178403879367 -0.056251739780556274 0 0.024232191778333547 -0.055505959693816803 0 0.02380031776109149 -0.054476199401468466 0 0.023383367456135683 -0.055074224661442683 0 0.024232191778333547 -0.055505959693816803 0 0.023383367456135683 -0.055074224661442683 0 0.023447178403879367 -0.056251739780556274 0 0.020036555697856812 -0.054391704612007451 0 0.022141298316275461 -0.051895575818346126 0 0.024660105446872561 -0.052653568059281855 0 0.020223693729835193 -0.054229438083378212 0 0.022580371414874296 -0.053622459784817313 0 0.02029280504338184 -0.055074283783272601 0 0.021689300248504947 -0.054341387531320985 0 0.02138944225590237 -0.055085733227649973 0 0.023139412452002198 -0.054524162283238857 0 0.021689300248504947 -0.054341387531320985 0 0.022188454206643938 -0.055094164251702035 0 0.021689300248504947 -0.054341387531320985 0 0.022188454206643938 -0.055094164251702035 0 0.02138944225590237 -0.055085733227649973 0 0.022188454206643938 -0.055094164251702035 0 0.021026136886831515 -0.055888578520752207 0 0.021957906222443074 -0.056003902037478216 0 0.022188454206643938 -0.055094164251702035 0 0.021119872369042635 -0.055794788278692081 0 0.02138944225590237 -0.055085733227649973 0 0.021436320569678192 -0.055637627115047772 0 0.020980586614678942 -0.055952727721578048 0 0.02029280504338184 -0.055074283783272601 0 0.021119872369042635 -0.055794788278692081 0 0.02138944225590237 -0.055085733227649973 0 0.021026136886831515 -0.055888578520752207 0 0.021579053239486654 -0.05701890542729602 0 0.020440655505889239 -0.057451628600737908 0 0.020980586614678942 -0.055952727721578048 0 0.020191735375772082 -0.056508095872425487 0 0.021957906222443074 -0.056003902037478216 0 0.021579053239486654 -0.05701890542729602 0 0.022430177740840138 -0.056518058052003335 0 0.021026136886831515 -0.055888578520752207 0 0.021957906222443074 -0.056003902037478216 0 0.021579053239486654 -0.05701890542729602 0 0.021579053239486654 -0.05701890542729602 0 0.022459263040876712 -0.057743861969296935 0 0.021171305196823545 -0.058087896380233754 0 0.021579053239486654 -0.05701890542729602 0 0.021171305196823545 -0.058087896380233754 0 0.020440655505889239 -0.057451628600737908 0 0.024084658041689938 -0.057273771090425481 0 0.024232191778333547 -0.055505959693816803 0 0.023447178403879367 -0.056251739780556274 0 0.022707272974394874 -0.05574577373556288 0 0.023447178403879367 -0.056251739780556274 0 0.022430177740840138 -0.056518058052003335 0 0.022707272974394874 -0.05574577373556288 0 0.021957906222443074 -0.056003902037478216 0 0.022430177740840138 -0.056518058052003335 0 0.021579053239486654 -0.05701890542729602 0 0.022430177740840138 -0.056518058052003335 0 0.022459263040876712 -0.057743861969296935 0 0.023447178403879367 -0.056251739780556274 0 0.022430177740840138 -0.056518058052003335 0 0.022459263040876712 -0.057743861969296935 0 0.024084658041689938 -0.057273771090425481 0 0.023447178403879367 -0.056251739780556274 0 0.022459263040876712 -0.057743861969296935 0 0.023686008099922645 -0.05910556622598117 0 0.024084658041689938 -0.057273771090425481 0 0.023076351649658218 -0.05856974706954033 0 0.024084658041689938 -0.057273771090425481 0 0.022459263040876712 -0.057743861969296935 0 0.023076351649658218 -0.05856974706954033 0 0.022459263040876712 -0.057743861969296935 0 0.023076351649658218 -0.05856974706954033 0 0.022003648485809359 -0.05905835781329092 0 0.023076351649658218 -0.05856974706954033 0 0.023307929750290442 -0.059341522757706953 0 0.022003648485809359 -0.05905835781329092 0 0.022955694402399692 -0.059403371173308087 0 0.022471833749707529 -0.059433265132834465 0 0.023307929750290442 -0.059341522757706953 0 0.02242438404100644 -0.06010339894166384 0 0.022751368311145288 -0.060073064953859889 0 0.023307929750290442 -0.059341522757706953 0 0.023010559142974646 -0.059955925234683863 0 0.022751368311145288 -0.060073064953859889 0 0.023686008099922645 -0.05910556622598117 0 0.023307929750290442 -0.059341522757706953 0 0.023010559142974646 -0.059955925234683863 0 0.023686008099922645 -0.05910556622598117 0 0.023076351649658218 -0.05856974706954033 0 0.023307929750290442 -0.059341522757706953 0 0.021171305196823545 -0.058087896380233754 0 0.020640790367540272 -0.058961397623722961 0 0.02002974091349188 -0.05820622952749973 0 0.021171305196823545 -0.058087896380233754 0 0.02002974091349188 -0.05820622952749973 0 0.020440655505889239 -0.057451628600737908 0 0.022459263040876712 -0.057743861969296935 0 0.021171305196823545 -0.058087896380233754 0 0.022003648485809359 -0.05905835781329092 0 0.022471833749707529 -0.059433265132834465 0 0.021883376804748056 -0.05937146927611537 0 0.021171305196823545 -0.058087896380233754 0 0.022003648485809359 -0.05905835781329092 0 0.020640790367540272 -0.058961397623722961 0 0.02242438404100644 -0.06010339894166384 0 0.022479754638922881 -0.060782457811350957 0 0.022418298633110359 -0.060567169101931183 0 0.022479754638922881 -0.060782457811350957 0 0.023228386824137033 -0.061397419690510519 0 0.022982144086798897 -0.061011474519034298 0 0.021883376804748056 -0.05937146927611537 0 0.021712880181087128 -0.058944453303095459 0 0.020640790367540272 -0.058961397623722961 0 0.019372158750864857 -0.058903183365303056 0 0.02002974091349188 -0.05820622952749973 0 0.019372158750864857 -0.058903183365303056 0 0.019201468724371659 -0.058149146408908871 0 0.02002974091349188 -0.05820622952749973 0 0.019201468724371659 -0.058149146408908871 0 0.02002974091349188 -0.05820622952749973 0 0.019244798953238114 -0.057258977001156633 0 0.02002974091349188 -0.05820622952749973 0 0.020440655505889239 -0.057451628600737908 0 0.019244798953238114 -0.057258977001156633 0 0.020440655505889239 -0.057451628600737908 0 0.019244798953238114 -0.057258977001156633 0 0.020088314810556774 -0.05661336855745279 0 0.019444351975651229 -0.05703663220363301 0 0.020191735375772082 -0.056508095872425487 0 0.01935964320712431 -0.057089947104190117 0 0.019418178405986929 -0.056320909029901584 0 0.020224579534321635 -0.056445886302971475 0 0.019920679991961052 -0.055824659929060931 0 0.019418178405986929 -0.056320909029901584 0 0.020224579534321635 -0.056445886302971475 0 0.021026136886831515 -0.055888578520752207 0 0.020440655505889239 -0.057451628600737908 0 0.020088314810556774 -0.05661336855745279 0 0.019920679991961052 -0.055824659929060931 0 0.021119872369042635 -0.055794788278692081 0 0.020224579534321635 -0.056445886302971475 0 0.018596280290872319 -0.056602068403614765 0 0.017872355354266772 -0.057089112014960287 0 0.017714135014420974 -0.056173296231322278 0 0.019000140516833321 -0.05564997390318465 0 0.018596280290872319 -0.056602068403614765 0 0.017714135014420974 -0.056173296231322278 0 0.019000140516833321 -0.05564997390318465 0 0.019418178405986929 -0.056320909029901584 0 0.018596280290872319 -0.056602068403614765 0 0.01935964320712431 -0.057089947104190117 0 0.019418178405986929 -0.056320909029901584 0 0.018596280290872319 -0.056602068403614765 0 0.01935964320712431 -0.057089947104190117 0 0.018596280290872319 -0.056602068403614765 0 0.018474025289298441 -0.057755106431351379 0 0.019444351975651229 -0.05703663220363301 0 0.019056156755174754 -0.057308277737948207 0 0.018596280290872319 -0.056602068403614765 0 0.017872355354266772 -0.057089112014960287 0 0.018474025289298441 -0.057755106431351379 0 0.017872355354266772 -0.057089112014960287 0 0.018474025289298441 -0.057755106431351379 0 0.017581094095208118 -0.057869731386331009 0 0.018474025289298441 -0.057755106431351379 0 0.018101125365883212 -0.058294016827520494 0 0.017581094095208118 -0.057869731386331009 0 0.018474025289298441 -0.057755106431351379 0 0.018688004097540983 -0.058421046272006442 0 0.018101125365883212 -0.058294016827520494 0 0.019201468724371659 -0.058149146408908871 0 0.018474025289298441 -0.057755106431351379 0 0.018688004097540983 -0.058421046272006442 0 0.019201468724371659 -0.058149146408908871 0 0.019244798953238114 -0.057258977001156633 0 0.018474025289298441 -0.057755106431351379 0 0.019372158750864857 -0.058903183365303056 0 0.019201468724371659 -0.058149146408908871 0 0.018688004097540983 -0.058421046272006442 0 0.023228386824137033 -0.061397419690510519 0 0.024811187434878503 -0.061371243222808618 0 0.023765912680438546 -0.061295814871988784 0 0.021712880181087128 -0.058944453303095459 0 0.022809919467692532 -0.057633489488210177 0 0.019372158750864857 -0.058903183365303056 0 0.018688004097540983 -0.058421046272006442 0 0.018178844072663049 -0.058909244217888547 0 0.018101125365883212 -0.058294016827520494 0 0.018178844072663049 -0.058909244217888547 0 0.017579257682824471 -0.058491343276375007 0 0.018688004097540983 -0.058421046272006442 0 0.018101125365883212 -0.058294016827520494 0 0.018178844072663049 -0.058909244217888547 0 0.024811187434878503 -0.061371243222808618 0 0.024531251946990264 -0.060184983094762605 0 0.025560388339404681 -0.060551884061748495 0 0.024344231774693085 -0.060985965798275157 0 0.025277988968639049 -0.060496566822409108 0 0.024420488534167714 -0.060541059896898626 0 0.025503036909382874 -0.06080935106360448 0 0.026681472307962112 -0.060222852234331874 0 0.024531251946990264 -0.060184983094762605 0 0.025560388339404681 -0.060551884061748495 0 0.025549171745402756 -0.059953132477483184 0 0.024531251946990264 -0.060184983094762605 0 0.025420266342436215 -0.058992120361090875 0 0.025549171745402756 -0.059953132477483184 0 0.023898830507279881 -0.060547177554825721 0 0.023795364538754617 -0.060863742613599794 0 0.023446555929448921 -0.060553384325702612 0 0.023898830507279881 -0.060547177554825721 0 0.023795364538754617 -0.060863742613599794 0 0.024420488534167714 -0.060541059896898626 0 0.024344231774693085 -0.060985965798275157 0 0.023795364538754617 -0.060863742613599794 0 0.024420488534167714 -0.060541059896898626 0 0.024811187434878503 -0.061371243222808618 0 0.024531251946990264 -0.060184983094762605 0 0.023765912680438546 -0.061295814871988784 0 0.023795364538754617 -0.060863742613599794 0 0.023765912680438546 -0.061295814871988784 0 0.023414821925389479 -0.06106678099388916 0 0.025503036909382874 -0.06080935106360448 0 0.025042106750701877 -0.061116499061127774 0 0.024344231774693085 -0.060985965798275157 0 0.023795364538754617 -0.060863742613599794 0 0.023765912680438546 -0.061295814871988784 0 0.023228386824137033 -0.061397419690510519 0 0.023765912680438546 -0.061295814871988784 0 0.023414821925389479 -0.06106678099388916 0 0.023228386824137033 -0.061397419690510519 0 0.022982144086798897 -0.061011474519034298 0 0.023414821925389479 -0.06106678099388916 0 0.022982144086798897 -0.061011474519034298 0 0.022714723350257419 -0.060739153831654333 0 0.023319489767997272 -0.060863598917241531 0 0.022982144086798897 -0.061011474519034298 0 0.023414821925389479 -0.06106678099388916 0 0.023319489767997272 -0.060863598917241531 0 0.023795364538754617 -0.060863742613599794 0 0.023414821925389479 -0.06106678099388916 0 0.023319489767997272 -0.060863598917241531 0 0.022479754638922881 -0.060782457811350957 0 0.022982144086798897 -0.061011474519034298 0 0.022714723350257419 -0.060739153831654333 0 0.022714723350257419 -0.060739153831654333 0 0.022469314211749539 -0.060475897819322375 0 0.022383701634501575 -0.060550743174218137 0 0.022714723350257419 -0.060739153831654333 0 0.022836963417122977 -0.060515482657421175 0 0.023066890375110907 -0.060678316936815593 0 0.022714723350257419 -0.060739153831654333 0 0.022836963417122977 -0.060515482657421175 0 0.022469314211749539 -0.060475897819322375 0 0.022714723350257419 -0.060739153831654333 0 0.023319489767997272 -0.060863598917241531 0 0.023066890375110907 -0.060678316936815593 0 0.023319489767997272 -0.060863598917241531 0 0.023066890375110907 -0.060678316936815593 0 0.023446555929448921 -0.060553384325702612 0 0.023795364538754617 -0.060863742613599794 0 0.023319489767997272 -0.060863598917241531 0 0.023446555929448921 -0.060553384325702612 0 0.022836963417122977 -0.060515482657421175 0 0.023066890375110907 -0.060678316936815593 0 0.023446555929448921 -0.060553384325702612 0 0.023446555929448921 -0.060553384325702612 0 0.023179526924509447 -0.060172272456472928 0 0.023932587754913505 -0.060207760059135036 0 0.022836963417122977 -0.060515482657421175 0 0.023446555929448921 -0.060553384325702612 0 0.023179526924509447 -0.060172272456472928 0 0.023179526924509447 -0.060172272456472928 0 0.023625001442059559 -0.059939937199814629 0 0.023932587754913505 -0.060207760059135036 0 0.022469314211749539 -0.060475897819322375 0 0.022674508870179945 -0.060248459564143236 0 0.022217971244526975 -0.060274956206972603 0 0.022836963417122977 -0.060515482657421175 0 0.023179526924509447 -0.060172272456472928 0 0.022674508870179945 -0.060248459564143236 0 0.022836963417122977 -0.060515482657421175 0 0.022469314211749539 -0.060475897819322375 0 0.022674508870179945 -0.060248459564143236 0 0.023179526924509447 -0.060172272456472928 0 0.022674508870179945 -0.060248459564143236 0 0.022566450102522725 -0.059854239080625427 0 0.022674508870179945 -0.060248459564143236 0 0.02237300014256402 -0.060091622539616904 0 0.022566450102522725 -0.059854239080625427 0 0.02237300014256402 -0.060091622539616904 0 0.022217971244526975 -0.060274956206972603 0 0.022044524711400223 -0.059953742951602974 0 0.022674508870179945 -0.060248459564143236 0 0.02237300014256402 -0.060091622539616904 0 0.022217971244526975 -0.060274956206972603 0 0.022566450102522725 -0.059854239080625427 0 0.02184892663745848 -0.059383379514077801 0 0.022885038000004805 -0.059084794916007391 0 0.02237300014256402 -0.060091622539616904 0 0.022566450102522725 -0.059854239080625427 0 0.022044524711400223 -0.059953742951602974 0 0.022566450102522725 -0.059854239080625427 0 0.022044524711400223 -0.059953742951602974 0 0.02184892663745848 -0.059383379514077801 0 0.022566450102522725 -0.059854239080625427 0 0.023326510203198335 -0.059682921051556044 0 0.022885038000004805 -0.059084794916007391 0 0.023179526924509447 -0.060172272456472928 0 0.023625001442059559 -0.059939937199814629 0 0.023326510203198335 -0.059682921051556044 0 0.023625001442059559 -0.059939937199814629 0 0.023326510203198335 -0.059682921051556044 0 0.024083603552468691 -0.059665118095875373 0 0.023179526924509447 -0.060172272456472928 0 0.022566450102522725 -0.059854239080625427 0 0.023326510203198335 -0.059682921051556044 0 0.023326510203198335 -0.059682921051556044 0 0.024083603552468691 -0.059665118095875373 0 0.023692452368825737 -0.059208303888652385 0 0.023625001442059559 -0.059939937199814629 0 0.024083603552468691 -0.059665118095875373 0 0.023932587754913505 -0.060207760059135036 0 0.024083603552468691 -0.059665118095875373 0 0.02500430782363381 -0.059425561341225452 0 0.024663062557973563 -0.060005184257566589 0 0.024083603552468691 -0.059665118095875373 0 0.024663062557973563 -0.060005184257566589 0 0.023932587754913505 -0.060207760059135036 0 0.024083603552468691 -0.059665118095875373 0 0.02500430782363381 -0.059425561341225452 0 0.024500411394104041 -0.058978775790924851 0 0.02500430782363381 -0.059425561341225452 0 0.025404022124115046 -0.05978982519498547 0 0.025740899387075074 -0.059279185117795237 0 0.02500430782363381 -0.059425561341225452 0 0.025404022124115046 -0.05978982519498547 0 0.024663062557973563 -0.060005184257566589 0 0.025404022124115046 -0.05978982519498547 0 0.024663062557973563 -0.060005184257566589 0 0.025277988968639049 -0.060496566822409108 0 0.024663062557973563 -0.060005184257566589 0 0.025277988968639049 -0.060496566822409108 0 0.024420488534167714 -0.060541059896898626 0 0.023898830507279881 -0.060547177554825721 0 0.024420488534167714 -0.060541059896898626 0 0.023932587754913505 -0.060207760059135036 0 0.023898830507279881 -0.060547177554825721 0 0.023446555929448921 -0.060553384325702612 0 0.023932587754913505 -0.060207760059135036 0 0.024663062557973563 -0.060005184257566589 0 0.024420488534167714 -0.060541059896898626 0 0.023932587754913505 -0.060207760059135036 0 0.021877688847995309 -0.05971162126226285 0 0.022673301596632712 -0.05982682647746549 0 0.02282039912013234 -0.060479495532584332 0 0.022673301596632712 -0.05982682647746549 0 0.02282039912013234 -0.060479495532584332 0 0.022739185314501451 -0.060243994155137946 0 0.02282039912013234 -0.060479495532584332 0 0.023010559142974646 -0.059955925234683863 0 0.022739185314501451 -0.060243994155137946 0 0.022841185429747134 -0.061313096502514236 0 0.023233650446587584 -0.061865689921277167 0 0.02282039912013234 -0.060479495532584332 0 0.023686008099922645 -0.05910556622598117 0 0.02282039912013234 -0.060479495532584332 0 0.023010559142974646 -0.059955925234683863 0 0.023384310863283984 -0.059945069015464814 0 0.023280697661572144 -0.060276593429745687 0 0.023010559142974646 -0.059955925234683863 0 0.022739185314501451 -0.060243994155137946 0 0.022751368311145288 -0.060073064953859889 0 0.02242438404100644 -0.06010339894166384 0 0.022751368311145288 -0.060073064953859889 0 0.022593909425464822 -0.060221420218812438 0 0.022739185314501451 -0.060243994155137946 0 0.022751368311145288 -0.060073064953859889 0 0.022593909425464822 -0.060221420218812438 0 0.022673301596632712 -0.05982682647746549 0 0.022678256418117469 -0.060114997813210898 0 0.022734770943719368 -0.059743922000983739 0 0.022673301596632712 -0.05982682647746549 0 0.022739185314501451 -0.060243994155137946 0 0.022678256418117469 -0.060114997813210898 0 0.022739185314501451 -0.060243994155137946 0 0.022593909425464822 -0.060221420218812438 0 0.022678256418117469 -0.060114997813210898 0 0.022678256418117469 -0.060114997813210898 0 0.022442269943361921 -0.060394864713748594 0 0.022704735304023598 -0.060059859913122508 0 0.020748970438776698 -0.060295359503587227 0 0.020575874678112727 -0.060371374017567751 0 0.022593909425464822 -0.060221420218812438 0 0.022678256418117469 -0.060114997813210898 0 0.022442269943361921 -0.060394864713748594 0 0.022442269943361921 -0.060394864713748594 0 0.022171937136586609 -0.060448948717695572 0 0.021988832015395289 -0.060384951386278515 0 0.02242438404100644 -0.06010339894166384 0 0.022593909425464822 -0.060221420218812438 0 0.022442269943361921 -0.060394864713748594 0 0.02242438404100644 -0.06010339894166384 0 0.022442269943361921 -0.060394864713748594 0 0.022418298633110359 -0.060567169101931183 0 0.022442269943361921 -0.060394864713748594 0 0.022418298633110359 -0.060567169101931183 0 0.022383701634501575 -0.060550743174218137 0 0.022714723350257419 -0.060739153831654333 0 0.022418298633110359 -0.060567169101931183 0 0.022383701634501575 -0.060550743174218137 0 0.022479754638922881 -0.060782457811350957 0 0.022714723350257419 -0.060739153831654333 0 0.022418298633110359 -0.060567169101931183 0 0.022442269943361921 -0.060394864713748594 0 0.022383701634501575 -0.060550743174218137 0 0.022171937136586609 -0.060448948717695572 0 0.022469314211749539 -0.060475897819322375 0 0.022383701634501575 -0.060550743174218137 0 0.022171937136586609 -0.060448948717695572 0 0.022469314211749539 -0.060475897819322375 0 0.022171937136586609 -0.060448948717695572 0 0.022217971244526975 -0.060274956206972603 0 0.022171937136586609 -0.060448948717695572 0 0.021894580208241341 -0.060262876424188545 0 0.022217971244526975 -0.060274956206972603 0 0.022171937136586609 -0.060448948717695572 0 0.021894580208241341 -0.060262876424188545 0 0.021988832015395289 -0.060384951386278515 0 0.021894580208241341 -0.060262876424188545 0 0.021504576056306152 -0.060085118373637475 0 0.021617117121519373 -0.060131720440657309 0 0.021894580208241341 -0.060262876424188545 0 0.021875646315388585 -0.060145655517354478 0 0.021504576056306152 -0.060085118373637475 0 0.021894580208241341 -0.060262876424188545 0 0.021875646315388585 -0.060145655517354478 0 0.022217971244526975 -0.060274956206972603 0 0.021875646315388585 -0.060145655517354478 0 0.022217971244526975 -0.060274956206972603 0 0.022044524711400223 -0.059953742951602974 0 0.02161779318852013 -0.059735325163815321 0 0.021504576056306152 -0.060085118373637475 0 0.020149861477351799 -0.058831502250138001 0 0.021875646315388585 -0.060145655517354478 0 0.022044524711400223 -0.059953742951602974 0 0.02161779318852013 -0.059735325163815321 0 0.022044524711400223 -0.059953742951602974 0 0.02161779318852013 -0.059735325163815321 0 0.02184892663745848 -0.059383379514077801 0 0.021875646315388585 -0.060145655517354478 0 0.02161779318852013 -0.059735325163815321 0 0.021504576056306152 -0.060085118373637475 0 0.021504576056306152 -0.060085118373637475 0 0.020923575891839082 -0.06023693191205285 0 0.020149861477351799 -0.058831502250138001 0 0.018008722055729273 -0.062324324562688029 0 0.016597522385920202 -0.06137703901563743 0 0.017871479976062952 -0.05993393427980169 0 0.020040832900134517 -0.060715217890008409 0 0.019192951971647845 -0.059036877812139406 0 0.020200243669241825 -0.060668206621523744 0 0.020040832900134517 -0.060715217890008409 0 0.022727085487635811 -0.059933380915862873 0 0.022704735304023598 -0.060059859913122508 0 0.022734770943719368 -0.059743922000983739 0 0.021894580208241341 -0.060262876424188545 0 0.021617117121519373 -0.060131720440657309 0 0.021988832015395289 -0.060384951386278515 0 0.020040832900134517 -0.060715217890008409 0 0.020575874678112727 -0.060371374017567751 0 0.020040832900134517 -0.060715217890008409 0 0.01882741529318491 -0.060938219449246239 0 0.022678256418117469 -0.060114997813210898 0 0.022704735304023598 -0.060059859913122508 0 0.022734770943719368 -0.059743922000983739 0 0.01578596595828333 -0.062856882206130851 0 0.016597522385920202 -0.06137703901563743 0 0.015133909853747794 -0.060982350353564738 0 0.018008722055729273 -0.062324324562688029 0 0.01578596595828333 -0.062856882206130851 0 0.016597522385920202 -0.06137703901563743 0 0.013695137790023447 -0.061756324259308611 0 0.01578596595828333 -0.062856882206130851 0 0.015133909853747794 -0.060982350353564738 0 0.013695137790023447 -0.061756324259308611 0 0.014149757401598064 -0.060449396254454404 0 0.015133909853747794 -0.060982350353564738 0 0.013593920703223754 -0.063326350044821941 0 0.013695137790023447 -0.061756324259308611 0 0.01578596595828333 -0.062856882206130851 0 0.022008074023399157 -0.05893051533263275 0 0.022673301596632712 -0.05982682647746549 0 0.022734770943719368 -0.059743922000983739 0 0.017156841128107149 -0.061072218111785224 0 0.01882741529318491 -0.060938219449246239 0 0.014139880229031234 -0.058632956750721416 0 0.015198358487683548 -0.058516151866790531 0 0.014670174820765998 -0.059017599553687607 0 0.015198358487683548 -0.058516151866790531 0 0.014670174820765998 -0.059017599553687607 0 0.015027506488926614 -0.059570815054774989 0 0.015198358487683548 -0.058516151866790531 0 0.015027506488926614 -0.059570815054774989 0 0.016204119366809412 -0.058751922948790662 0 0.014139880229031234 -0.058632956750721416 0 0.014670174820765998 -0.059017599553687607 0 0.014154289736471872 -0.05961171308690881 0 0.014670174820765998 -0.059017599553687607 0 0.014154289736471872 -0.05961171308690881 0 0.015027506488926614 -0.059570815054774989 0 0.014154289736471872 -0.05961171308690881 0 0.014149757401598064 -0.060449396254454404 0 0.015027506488926614 -0.059570815054774989 0 0.014149757401598064 -0.060449396254454404 0 0.015133909853747794 -0.060982350353564738 0 0.015027506488926614 -0.059570815054774989 0 0.015133909853747794 -0.060982350353564738 0 0.015027506488926614 -0.059570815054774989 0 0.016168043640882812 -0.060124515857298305 0 0.016597522385920202 -0.06137703901563743 0 0.016168043640882812 -0.060124515857298305 0 0.017871479976062952 -0.05993393427980169 0 0.016168043640882812 -0.060124515857298305 0 0.016204119366809412 -0.058751922948790662 0 0.017871479976062952 -0.05993393427980169 0 0.016597522385920202 -0.06137703901563743 0 0.015133909853747794 -0.060982350353564738 0 0.016168043640882812 -0.060124515857298305 0 0.015027506488926614 -0.059570815054774989 0 0.016168043640882812 -0.060124515857298305 0 0.016204119366809412 -0.058751922948790662 0 0.016204119366809412 -0.058751922948790662 0 0.017871479976062952 -0.05993393427980169 0 0.017777754657092332 -0.057520076691438465 0 0.020149861477351799 -0.058831502250138001 0 0.020592727626467942 -0.057612607191491222 0 0.019090067214033314 -0.057206096543058464 0 0.019192951971647845 -0.059036877812139406 0 0.0184518670672143 -0.057018422696230552 0 0.02161779318852013 -0.059735325163815321 0 0.020149861477351799 -0.058831502250138001 0 0.02184892663745848 -0.059383379514077801 0 0.020149861477351799 -0.058831502250138001 0 0.02184892663745848 -0.059383379514077801 0 0.021817370780040347 -0.058461266197779645 0 0.020149861477351799 -0.058831502250138001 0 0.020592727626467942 -0.057612607191491222 0 0.021817370780040347 -0.058461266197779645 0 0.020592727626467942 -0.057612607191491222 0 0.020103850212879103 -0.056420222872482675 0 0.019090067214033314 -0.057206096543058464 0 0.020592727626467942 -0.057612607191491222 0 0.020103850212879103 -0.056420222872482675 0 0.022036198176462754 -0.056903950247122387 0 0.020103850212879103 -0.056420222872482675 0 0.017743786600210663 -0.054999884305303157 0 0.020965929023858302 -0.054999760649291768 0 0.01774153994759314 -0.054999885498911542 0 0.017777754657092332 -0.057520076691438465 0 0.017025833685721053 -0.055000090338684686 0 0.020103850212879103 -0.056420222872482675 0 0.017743786600210663 -0.054999884305303157 0 0.019090067214033314 -0.057206096543058464 0 0.017743276988643857 -0.055001711978130384 0 0.0184518670672143 -0.057018422696230552 0 0.016204119366809412 -0.058751922948790662 0 0.017777754657092332 -0.057520076691438465 0 0.015554580893503138 -0.056842037513701295 0 0.015198358487683548 -0.058516151866790531 0 0.016204119366809412 -0.058751922948790662 0 0.015554580893503138 -0.056842037513701295 0 0.017023830304727441 -0.055001962576401456 0 0.015556648124659634 -0.056850107313456764 0 0.017025380894549899 -0.0549999915296649 0 0.014684830443050551 -0.05500000464242074 0 0.015395403274026566 -0.057043928854601238 0 0.017777754657092332 -0.057520076691438465 0 0.017025833685721053 -0.055000090338684686 0 0.015554580893503138 -0.056842037513701295 0 0.013409768325784761 -0.057083171755717518 0 0.014684830443050551 -0.05500000464242074 0 0.015395403274026566 -0.057043928854601238 0 0.01426599746845115 -0.058480482947451666 0 0.015556648124659634 -0.056850107313456764 0 0.014139880229031234 -0.058632956750721416 0 0.015198358487683548 -0.058516151866790531 0 0.015554580893503138 -0.056842037513701295 0 0.0134916309736627 -0.05811679211143881 0 0.013409768325784761 -0.057083171755717518 0 0.015395403274026566 -0.057043928854601238 0 0.0134916309736627 -0.05811679211143881 0 0.0137753285921327 -0.059029818613235717 0 0.015395403274026566 -0.057043928854601238 0 0.024788994940553213 -0.0580553142551095 0 0.023846419346834125 -0.058646536375328281 0 0.023236869607601816 -0.058057789607457652 0 0.024788994940553213 -0.0580553142551095 0 0.023236869607601816 -0.058057789607457652 0 0.024622971498592747 -0.056785853162706235 0 0.024788994940553213 -0.0580553142551095 0 0.025465726282852739 -0.058721278757588424 0 0.026797058720084293 -0.057164003695547819 0 0.024788994940553213 -0.0580553142551095 0 0.025465726282852739 -0.058721278757588424 0 0.024500411394104041 -0.058978775790924851 0 0.02500430782363381 -0.059425561341225452 0 0.025465726282852739 -0.058721278757588424 0 0.025740899387075074 -0.059279185117795237 0 0.02500430782363381 -0.059425561341225452 0 0.025465726282852739 -0.058721278757588424 0 0.024500411394104041 -0.058978775790924851 0 0.024788994940553213 -0.0580553142551095 0 0.024500411394104041 -0.058978775790924851 0 0.023846419346834125 -0.058646536375328281 0 0.024500411394104041 -0.058978775790924851 0 0.023846419346834125 -0.058646536375328281 0 0.023692452368825737 -0.059208303888652385 0 0.024083603552468691 -0.059665118095875373 0 0.024500411394104041 -0.058978775790924851 0 0.023692452368825737 -0.059208303888652385 0 0.023846419346834125 -0.058646536375328281 0 0.022885038000004805 -0.059084794916007391 0 0.023236869607601816 -0.058057789607457652 0 0.023326510203198335 -0.059682921051556044 0 0.023692452368825737 -0.059208303888652385 0 0.022885038000004805 -0.059084794916007391 0 0.023846419346834125 -0.058646536375328281 0 0.023692452368825737 -0.059208303888652385 0 0.022885038000004805 -0.059084794916007391 0 0.02184892663745848 -0.059383379514077801 0 0.022885038000004805 -0.059084794916007391 0 0.021817370780040347 -0.058461266197779645 0 0.020592727626467942 -0.057612607191491222 0 0.021817370780040347 -0.058461266197779645 0 0.022036198176462754 -0.056903950247122387 0 0.022885038000004805 -0.059084794916007391 0 0.021817370780040347 -0.058461266197779645 0 0.023236869607601816 -0.058057789607457652 0 0.021817370780040347 -0.058461266197779645 0 0.023236869607601816 -0.058057789607457652 0 0.022036198176462754 -0.056903950247122387 0 0.023236869607601816 -0.058057789607457652 0 0.022036198176462754 -0.056903950247122387 0 0.024622971498592747 -0.056785853162706235 0 0.020103850212879103 -0.056420222872482675 0 0.022036198176462754 -0.056903950247122387 0 0.020965929023858302 -0.054999760649291768 0 0.022036198176462754 -0.056903950247122387 0 0.020965929023858302 -0.054999760649291768 0 0.024189259546826845 -0.054999721003714114 0 0.022036198176462754 -0.056903950247122387 0 0.024189259546826845 -0.054999721003714114 0 0.024622971498592747 -0.056785853162706235 0 0.024189259546826845 -0.054999721003714114 0 0.024622971498592747 -0.056785853162706235 0 0.027410133512225567 -0.055000060909137852 0 0.024788994940553213 -0.0580553142551095 0 0.024622971498592747 -0.056785853162706235 0 0.026797058720084293 -0.057164003695547819 0 0.024622971498592747 -0.056785853162706235 0 0.027410133512225567 -0.055000060909137852 0 0.026797058720084293 -0.057164003695547819 0 0.027412709400986925 -0.054999975720182552 0 0.028218231412798913 -0.055905300175111514 0 0.029887919699683234 -0.054999959329343283 0 0.027412709400986925 -0.054999975720182552 0 0.028218231412798913 -0.055905300175111514 0 0.028127051227221103 -0.057809147619624766 0 0.027412802345399563 -0.055001799457495872 0 0.027853876927594893 -0.057099051155531336 0 0.028218231412798913 -0.055905300175111514 0 0.029912747773721389 -0.056816345159794501 0 0.029042259713589414 -0.057142931772248974 0 0.028218231412798913 -0.055905300175111514 0 0.029887919699683234 -0.054999959329343283 0 0.029912747773721389 -0.056816345159794501 0 0.029887919699683234 -0.054999959329343283 0 0.029912747773721389 -0.056816345159794501 0 0.031318769756441225 -0.056114334282108463 0 0.029912747773721389 -0.056816345159794501 0 0.031501926578461029 -0.057670582207071573 0 0.031318769756441225 -0.056114334282108463 0 0.029912747773721389 -0.056816345159794501 0 0.029406019814328915 -0.057694494378428419 0 0.029042259713589414 -0.057142931772248974 0 0.029912747773721389 -0.056816345159794501 0 0.029406019814328915 -0.057694494378428419 0 0.030306457013997742 -0.058065762966345039 0 0.029406019814328915 -0.057694494378428419 0 0.030306457013997742 -0.058065762966345039 0 0.029690461875410089 -0.058792064012968881 0 0.029912747773721389 -0.056816345159794501 0 0.030306457013997742 -0.058065762966345039 0 0.031501926578461029 -0.057670582207071573 0 0.028405469996352892 -0.057398823253507571 0 0.028489053335508909 -0.058203476071040428 0 0.028218231412798913 -0.055905300175111514 0 0.028127051227221103 -0.057809147619624766 0 0.028502683974923084 -0.058258214886148851 0 0.028218231412798913 -0.055905300175111514 0 0.029042259713589414 -0.057142931772248974 0 0.028636579729744767 -0.058147647929293507 0 0.029406019814328915 -0.057694494378428419 0 0.029042259713589414 -0.057142931772248974 0 0.028636579729744767 -0.058147647929293507 0 0.029406019814328915 -0.057694494378428419 0 0.028636579729744767 -0.058147647929293507 0 0.029690461875410089 -0.058792064012968881 0 0.028636579729744767 -0.058147647929293507 0 0.029690461875410089 -0.058792064012968881 0 0.02890470549425608 -0.060386124276948318 0 0.025465726282852739 -0.058721278757588424 0 0.026797058720084293 -0.057164003695547819 0 0.026415133617768819 -0.058735367558510457 0 0.027853876927594893 -0.057099051155531336 0 0.028549261668949999 -0.059049606329585697 0 0.028489053335508909 -0.058203476071040428 0 0.028549261668949999 -0.059049606329585697 0 0.028127051227221103 -0.057809147619624766 0 0.028502683974923084 -0.058258214886148851 0 0.028768391828905136 -0.060580937863849237 0 0.030306457013997742 -0.058065762966345039 0 0.031193128971599052 -0.059698697117237236 0 0.031501926578461029 -0.057670582207071573 0 0.030306457013997742 -0.058065762966345039 0 0.029690461875410089 -0.058792064012968881 0 0.031193128971599052 -0.059698697117237236 0 0.029690461875410089 -0.058792064012968881 0 0.02890470549425608 -0.060386124276948318 0 0.031193128971599052 -0.059698697117237236 0 0.029562253431780768 -0.059667939800881267 0 0.029010545415189354 -0.059562385039289255 0 0.031193128971599052 -0.059698697117237236 0 0.030009600341052354 -0.061458290860593977 0 0.031312943627969575 -0.061088766987950453 0 0.02890470549425608 -0.060386124276948318 0 0.031193128971599052 -0.059698697117237236 0 0.029310351236798423 -0.062214250173214365 0 0.028549261668949999 -0.059049606329585697 0 0.028690467473825778 -0.059482067727436944 0 0.025465726282852739 -0.058721278757588424 0 0.026415133617768819 -0.058735367558510457 0 0.025740899387075074 -0.059279185117795237 0 0.026415133617768819 -0.058735367558510457 0 0.026250920868865015 -0.059718288753997144 0 0.025740899387075074 -0.059279185117795237 0 0.028549261668949999 -0.059049606329585697 0 0.029010545415189354 -0.059562385039289255 0 0.033031742456026907 -0.060084880101685438 0 0.034010681169486107 -0.060500430352659271 0 0.033244037504948837 -0.06144065458888253 0 0.033031742456026907 -0.060084880101685438 0 0.032205286870788344 -0.060851535799768042 0 0.033244037504948837 -0.06144065458888253 0 0.032205286870788344 -0.060851535799768042 0 0.031193128971599052 -0.059698697117237236 0 0.031312943627969575 -0.061088766987950453 0 0.033031742456026907 -0.060084880101685438 0 0.032205286870788344 -0.060851535799768042 0 0.031193128971599052 -0.059698697117237236 0 0.031193128971599052 -0.059698697117237236 0 0.032829485290434987 -0.058524847610672712 0 0.031501926578461029 -0.057670582207071573 0 0.033031742456026907 -0.060084880101685438 0 0.031193128971599052 -0.059698697117237236 0 0.032829485290434987 -0.058524847610672712 0 0.034499269996490813 -0.058596699254528317 0 0.035446297578698195 -0.058827763456033175 0 0.033031742456026907 -0.060084880101685438 0 0.032829485290434987 -0.058524847610672712 0 0.034429383114273064 -0.059193022599716906 0 0.032829485290434987 -0.058524847610672712 0 0.033752574665699961 -0.056705188327561142 0 0.035155933615994318 -0.059372121509482741 0 0.032829485290434987 -0.058524847610672712 0 0.033752574665699961 -0.056705188327561142 0 0.031501926578461029 -0.057670582207071573 0 0.033752574665699961 -0.056705188327561142 0 0.031501926578461029 -0.057670582207071573 0 0.031318769756441225 -0.056114334282108463 0 0.033752574665699961 -0.056705188327561142 0 0.03236319643602005 -0.055000007248307024 0 0.031318769756441225 -0.056114334282108463 0 0.029887919699683234 -0.054999959329343283 0 0.03236319643602005 -0.055000007248307024 0 0.031318769756441225 -0.056114334282108463 0 0.033752574665699961 -0.056705188327561142 0 0.03236319643602005 -0.055000007248307024 0 0.034838260396395523 -0.054999813960203134 0 0.033752574665699961 -0.056705188327561142 0 0.034838260396395523 -0.054999813960203134 0 0.035809798245368438 -0.056379761046668399 0 0.034840985825229355 -0.05500092754003881 0 0.037142975671174687 -0.05589914380072427 0 0.034838260396395523 -0.054999813960203134 0 0.035809798245368438 -0.056379761046668399 0 0.037169852602377026 -0.055863337937873771 0 0.034838490202074954 -0.054999994895454922 0 0.037790107360275181 -0.055000000644095208 0 0.037230819327850044 -0.055978336603508393 0 0.035809798245368438 -0.056379761046668399 0 0.037169852602377026 -0.055863337937873771 0 0.036899654418660721 -0.057057374286346829 0 0.035809798245368438 -0.056379761046668399 0 0.036899654418660721 -0.057057374286346829 0 0.035845517159305278 -0.057535628249371334 0 0.036899654418660721 -0.057057374286346829 0 0.03734391429391682 -0.058290498690086498 0 0.035845517159305278 -0.057535628249371334 0 0.033752574665699961 -0.056705188327561142 0 0.035809798245368438 -0.056379761046668399 0 0.035845517159305278 -0.057535628249371334 0 0.033752574665699961 -0.056705188327561142 0 0.035845517159305278 -0.057535628249371334 0 0.035155933615994318 -0.059372121509482741 0 0.040741884993928348 -0.054999925665977854 0 0.041172781078508421 -0.056626079192953677 0 0.039652571684606057 -0.056932314818984323 0 0.037790107360275181 -0.055000000644095208 0 0.037230819327850044 -0.055978336603508393 0 0.039652571684606057 -0.056932314818984323 0 0.037169852602377026 -0.055863337937873771 0 0.036899654418660721 -0.057057374286346829 0 0.039621545912873604 -0.05676931484844331 0 0.037790107360275181 -0.055000000644095208 0 0.040741884993928348 -0.054999925665977854 0 0.039652571684606057 -0.056932314818984323 0 0.037142975671174687 -0.05589914380072427 0 0.039231312018870555 -0.05671225613043044 0 0.036899654418660721 -0.057057374286346829 0 0.03734391429391682 -0.058290498690086498 0 0.039621545912873604 -0.05676931484844331 0 0.03734391429391682 -0.058290498690086498 0 0.039621545912873604 -0.05676931484844331 0 0.039393024673209515 -0.059065305032599935 0 0.039231312018870555 -0.05671225613043044 0 0.040340752210145693 -0.057143145015639586 0 0.039621545912873604 -0.05676931484844331 0 0.041130726510115387 -0.058406534791435309 0 0.042117652157804421 -0.057719799900697068 0 0.041172781078508421 -0.056626079192953677 0 0.039652571684606057 -0.056932314818984323 0 0.042117652157804421 -0.057719799900697068 0 0.039621545912873604 -0.05676931484844331 0 0.041130726510115387 -0.058406534791435309 0 0.039393024673209515 -0.059065305032599935 0 0.041061881077189527 -0.059646384610408915 0 0.039393024673209515 -0.059065305032599935 0 0.039804542823056253 -0.061079038375067243 0 0.041061881077189527 -0.059646384610408915 0 0.041130726510115387 -0.058406534791435309 0 0.039393024673209515 -0.059065305032599935 0 0.03734391429391682 -0.058290498690086498 0 0.039393024673209515 -0.059065305032599935 0 0.037459405454852296 -0.06021660492665256 0 0.036576148312465952 -0.060730373886411879 0 0.037700510902686619 -0.060395363757110986 0 0.03605446467621877 -0.059798396360303242 0 0.040204049539174599 -0.059299844058778965 0 0.037425306384847007 -0.059148310606942762 0 0.039393024673209515 -0.059065305032599935 0 0.039804542823056253 -0.061079038375067243 0 0.037459405454852296 -0.06021660492665256 0 0.042979873374289636 -0.059130627901945204 0 0.042798750634422615 -0.058803183618434458 0 0.042491802227206783 -0.058941041804543813 0 0.04224081865254125 -0.058604361738230623 0 0.042106769604377862 -0.058863408418360803 0 0.042446000621069825 -0.058810955341887045 0 0.040204049539174599 -0.059299844058778965 0 0.040906636521640651 -0.059432543669321478 0 0.042106769604377862 -0.058863408418360803 0 0.042491802227206783 -0.058941041804543813 0 0.042446000621069825 -0.058810955341887045 0 0.040902315587907898 -0.058853352935431265 0 0.040204049539174599 -0.059299844058778965 0 0.03734391429391682 -0.058290498690086498 0 0.035155933615994318 -0.059372121509482741 0 0.037459405454852296 -0.06021660492665256 0 0.035446297578698195 -0.058827763456033175 0 0.037425306384847007 -0.059148310606942762 0 0.03734391429391682 -0.058290498690086498 0 0.035845517159305278 -0.057535628249371334 0 0.035155933615994318 -0.059372121509482741 0 0.036576148312465952 -0.060730373886411879 0 0.03605446467621877 -0.059798396360303242 0 0.035601725250493765 -0.061045278906320832 0 0.03605446467621877 -0.059798396360303242 0 0.034879451708056751 -0.06031622442560064 0 0.035601725250493765 -0.061045278906320832 0 0.034429383114273064 -0.059193022599716906 0 0.03605446467621877 -0.059798396360303242 0 0.034879451708056751 -0.06031622442560064 0 0.034429383114273064 -0.059193022599716906 0 0.034879451708056751 -0.06031622442560064 0 0.034010681169486107 -0.060500430352659271 0 0.034879451708056751 -0.06031622442560064 0 0.034010681169486107 -0.060500430352659271 0 0.034469064588347774 -0.061459549691106112 0 0.033031742456026907 -0.060084880101685438 0 0.034429383114273064 -0.059193022599716906 0 0.034010681169486107 -0.060500430352659271 0 0.034010681169486107 -0.060500430352659271 0 0.034469064588347774 -0.061459549691106112 0 0.033244037504948837 -0.06144065458888253 0 0.034469064588347774 -0.061459549691106112 0 0.033889102921539307 -0.062344231098179853 0 0.034538487040899339 -0.062481063452344283 0 0.034469064588347774 -0.061459549691106112 0 0.033889102921539307 -0.062344231098179853 0 0.033244037504948837 -0.06144065458888253 0 0.034469064588347774 -0.061459549691106112 0 0.035144500285205264 -0.06223391519660635 0 0.034538487040899339 -0.062481063452344283 0 0.034879451708056751 -0.06031622442560064 0 0.034469064588347774 -0.061459549691106112 0 0.035601725250493765 -0.061045278906320832 0 0.035601725250493765 -0.061045278906320832 0 0.035144500285205264 -0.06223391519660635 0 0.036407254870712717 -0.061877085701996529 0 0.036576148312465952 -0.060730373886411879 0 0.035601725250493765 -0.061045278906320832 0 0.036407254870712717 -0.061877085701996529 0 0.034469064588347774 -0.061459549691106112 0 0.035601725250493765 -0.061045278906320832 0 0.035144500285205264 -0.06223391519660635 0 0.043795524969280984 -0.057964828196566537 0 0.043508559390118995 -0.05845007333602046 0 0.043494243330940971 -0.05806483462615817 0 0.035144500285205264 -0.06223391519660635 0 0.035104950130310876 -0.063348565468721377 0 0.036407254870712717 -0.061877085701996529 0 0.040633354826743642 -0.057107751950517961 0 0.039856041112011346 -0.059154043242158394 0 0.035144500285205264 -0.06223391519660635 0 0.035104950130310876 -0.063348565468721377 0 0.034739302840844206 -0.063210578710111556 0 0.040633354826743642 -0.057107751950517961 0 0.040496619132238225 -0.057134197163866959 0 0.03509608471057233 -0.063342147103227928 0 0.034739302840844206 -0.063210578710111556 0 0.034305005016261575 -0.06338615065793031 0 0.034739302840844206 -0.063210578710111556 0 0.034233138881401587 -0.062908857660173317 0 0.034538487040899339 -0.062481063452344283 0 0.034739302840844206 -0.063210578710111556 0 0.034233138881401587 -0.062908857660173317 0 0.034305005016261575 -0.06338615065793031 0 0.034233138881401587 -0.062908857660173317 0 0.033889102921539307 -0.062344231098179853 0 0.033694526748611814 -0.063120948749180783 0 0.034233138881401587 -0.062908857660173317 0 0.034305005016261575 -0.06338615065793031 0 0.033694526748611814 -0.063120948749180783 0 0.034233138881401587 -0.062908857660173317 0 0.033889102921539307 -0.062344231098179853 0 0.034538487040899339 -0.062481063452344283 0 0.035144500285205264 -0.06223391519660635 0 0.034739302840844206 -0.063210578710111556 0 0.034538487040899339 -0.062481063452344283 0 0.042979873374289636 -0.059130627901945204 0 0.042798750634422615 -0.058803183618434458 0 0.043066088040572138 -0.058570156403987286 0 0.042647974451271164 -0.058523265906450704 0 0.042798750634422615 -0.058803183618434458 0 0.042491802227206783 -0.058941041804543813 0 0.042647974451271164 -0.058523265906450704 0 0.042798750634422615 -0.058803183618434458 0 0.043066088040572138 -0.058570156403987286 0 0.040204049539174599 -0.059299844058778965 0 0.039856041112011346 -0.059154043242158394 0 0.036576148312465952 -0.060730373886411879 0 0.037700510902686619 -0.060395363757110986 0 0.036407254870712717 -0.061877085701996529 0 0.042979873374289636 -0.059130627901945204 0 0.043066088040572138 -0.058570156403987286 0 0.043508559390118995 -0.05845007333602046 0 0.043066088040572138 -0.058570156403987286 0 0.043508559390118995 -0.05845007333602046 0 0.043270237895488207 -0.057986622336684009 0 0.043508559390118995 -0.05845007333602046 0 0.043494243330940971 -0.05806483462615817 0 0.043270237895488207 -0.057986622336684009 0 0.043494243330940971 -0.05806483462615817 0 0.043270237895488207 -0.057986622336684009 0 0.043435616490366341 -0.057909909395064296 0 0.042647974451271164 -0.058523265906450704 0 0.043066088040572138 -0.058570156403987286 0 0.043270237895488207 -0.057986622336684009 0 0.043455706779578163 -0.057680896059782043 0 0.043270237895488207 -0.057986622336684009 0 0.043454908815460387 -0.057945394461884694 0 0.043525926669011394 -0.058243192778036149 0 0.043462752115413526 -0.058225014882790804 0 0.043479028367337538 -0.058045730341826481 0 0.043331085975836812 -0.058063623429564747 0 0.043632934261263148 -0.058189685750713815 0 0.043270237895488207 -0.057986622336684009 0 0.043454908815460387 -0.057945394461884694 0 0.04334456404696406 -0.058010437906258414 0 0.043454908815460387 -0.057945394461884694 0 0.043479028367337538 -0.058045730341826481 0 0.04334456404696406 -0.058010437906258414 0 0.045847469091541117 -0.054054894386111108 0 0.046413105381848917 -0.053788722670791329 0 0.045223401803389927 -0.053636992128360664 0 0.043957555829546892 -0.053152145307480851 0 0.043250874849901429 -0.053960762117799412 0 0.046413105381848917 -0.053788722670791329 0 0.046599813428799666 -0.051773532641687159 0 0.046413105381848917 -0.053788722670791329 0 0.043608287589359404 -0.055482992700777535 0 0.043270237895488207 -0.057986622336684009 0 0.04334456404696406 -0.058010437906258414 0 0.043435616490366341 -0.057909909395064296 0 0.054571395385777301 -0.040804032028368936 0 0.052743095827715955 -0.041027028376692122 0 0.053688657074657531 -0.042176393233965069 0 0.046413105381848917 -0.053788722670791329 0 0.048039941870592087 -0.052489722978213735 0 0.054571395385777301 -0.040804032028368936 0 0.056061569216428825 -0.041478424294697107 0 0.055415627368144552 -0.042570670126802337 0 0.054571395385777301 -0.040804032028368936 0 0.055415627368144552 -0.042570670126802337 0 0.053688657074657531 -0.042176393233965069 0 0.03509608471057233 -0.063342147103227928 0 0.034305005016261575 -0.06338615065793031 0 0.033734631369130637 -0.063965744779653416 0 0.0426956360824527 -0.052675285312594529 0 0.043250874849901429 -0.053960762117799412 0 0.041287079800411783 -0.054284457076666473 0 0.040633354826743642 -0.057107751950517961 0 0.040614242433639383 -0.053113816665303203 0 0.03509608471057233 -0.063342147103227928 0 0.033666458393138969 -0.064942447749219201 0 0.033734631369130637 -0.063965744779653416 0 0.034305005016261575 -0.06338615065793031 0 0.033734631369130637 -0.063965744779653416 0 0.033694526748611814 -0.063120948749180783 0 0.0426956360824527 -0.052675285312594529 0 0.043957555829546892 -0.053152145307480851 0 0.043250874849901429 -0.053960762117799412 0 0.040633354826743642 -0.057107751950517961 0 0.043608287589359404 -0.055482992700777535 0 0.043795524969280984 -0.057964828196566537 0 0.043494243330940971 -0.05806483462615817 0 0.043435616490366341 -0.057909909395064296 0 0.052743095827715955 -0.041027028376692122 0 0.052093080186396613 -0.042451141230745719 0 0.053688657074657531 -0.042176393233965069 0 0.052743095827715955 -0.041027028376692122 0 0.050884123077441265 -0.041312490460225199 0 0.052093080186396613 -0.042451141230745719 0 0.046599813428799666 -0.051773532641687159 0 0.040614242433639383 -0.053113816665303203 0 0.037930498466614691 -0.052434274309381371 0 0.036290657806305811 -0.052706486280032952 0 0.036757184637961349 -0.053762253189863066 0 0.040614242433639383 -0.053113816665303203 0 0.035474541956686 -0.055023481532578092 0 0.040614242433639383 -0.053113816665303203 0 0.040311552994657947 -0.049674476031045946 0 0.033666458393138969 -0.064942447749219201 0 0.032247367562021782 -0.064152450759358867 0 0.032284410568307581 -0.065165410385027808 0 0.033734631369130637 -0.063965744779653416 0 0.032912969696107047 -0.063391308691179649 0 0.032247367562021782 -0.064152450759358867 0 0.033666458393138969 -0.064942447749219201 0 0.033734631369130637 -0.063965744779653416 0 0.032247367562021782 -0.064152450759358867 0 0.033734631369130637 -0.063965744779653416 0 0.032912969696107047 -0.063391308691179649 0 0.033694526748611814 -0.063120948749180783 0 0.032247367562021782 -0.064152450759358867 0 0.030462891387652753 -0.063417070874128151 0 0.031942051744214842 -0.062931862098189739 0 0.032912969696107047 -0.063391308691179649 0 0.032247367562021782 -0.064152450759358867 0 0.031942051744214842 -0.062931862098189739 0 0.035474541956686 -0.055023481532578092 0 0.032371148541608739 -0.055601252177440039 0 0.032247367562021782 -0.064152450759358867 0 0.032284410568307581 -0.065165410385027808 0 0.030920319574113043 -0.065386533695804605 0 0.036290657806305811 -0.052706486280032952 0 0.035402083048357555 -0.053124506758340982 0 0.034650391264019677 -0.052987455230357063 0 0.036017469226198202 -0.053376722727961567 0 0.036290657806305811 -0.052706486280032952 0 0.036757184637961349 -0.053762253189863066 0 0.036017469226198202 -0.053376722727961567 0 0.036290657806305811 -0.052706486280032952 0 0.035402083048357555 -0.053124506758340982 0 0.035402083048357555 -0.053124506758340982 0 0.034650391264019677 -0.052987455230357063 0 0.03469248810818016 -0.053180288905942022 0 0.033204793746838789 -0.054168634995595967 0 0.034009136498484784 -0.054109935357739454 0 0.033095355321421577 -0.053668736178997589 0 0.035402083048357555 -0.053124506758340982 0 0.034704183729979854 -0.05317562703867515 0 0.034800757954740892 -0.053602587313233703 0 0.027178613303750002 -0.061054290396645165 0 0.026556951421026365 -0.060512019873626921 0 0.026771166758738179 -0.059940658389388814 0 0.032371148541608739 -0.055601252177440039 0 0.030520551136505904 -0.057547744483596237 0 0.032581321475735864 -0.054706743799054991 0 0.032327511101801897 -0.05475753083996307 0 0.032327511101801897 -0.05475753083996307 0 0.033154032485221828 -0.053112682577672175 0 0.027178613303750002 -0.061054290396645165 0 0.027209865008628768 -0.061189610163736773 0 0.026705503846861163 -0.061231145912042789 0 0.032371148541608739 -0.055601252177440039 0 0.032327511101801897 -0.05475753083996307 0 0.027178613303750002 -0.061054290396645165 0 0.026614515347694698 -0.061127552981152043 0 0.026445077928157978 -0.060836059046646726 0 0.027178613303750002 -0.061054290396645165 0 0.026705503846861163 -0.061231145912042789 0 0.026614515347694698 -0.061127552981152043 0 0.032327511101801897 -0.05475753083996307 0 0.029970001842420779 -0.054195156312720753 0 0.029970001842420779 -0.054195156312720753 0 0.029974856483044127 -0.054219938085326602 0 0.027178613303750002 -0.061054290396645165 0 0.026556951421026365 -0.060512019873626921 0 0.026445077928157978 -0.060836059046646726 0 0.024811187434878503 -0.061371243222808618 0 0.026706708124760916 -0.061234728383739501 0 0.026063360872746025 -0.060954178845423271 0 0.022809919467692532 -0.057633489488210177 0 0.029970001842420779 -0.054195156312720753 0 0.024811187434878503 -0.061371243222808618 0 0.026063360872746025 -0.060954178845423271 0 0.025560388339404681 -0.060551884061748495 0 0.026614515347694698 -0.061127552981152043 0 0.026063360872746025 -0.060954178845423271 0 0.026445077928157978 -0.060836059046646726 0 0.026706708124760916 -0.061234728383739501 0 0.026614515347694698 -0.061127552981152043 0 0.026063360872746025 -0.060954178845423271 0 0.026063360872746025 -0.060954178845423271 0 0.026244193556136795 -0.06060766933172481 0 0.026445077928157978 -0.060836059046646726 0 0.026556951421026365 -0.060512019873626921 0 0.026244193556136795 -0.06060766933172481 0 0.026445077928157978 -0.060836059046646726 0 0.026556951421026365 -0.060512019873626921 0 0.026312941644741336 -0.060394293697507068 0 0.026409803881087116 -0.060169349093080381 0 0.026556951421026365 -0.060512019873626921 0 0.026244193556136795 -0.06060766933172481 0 0.026312941644741336 -0.060394293697507068 0 0.026244193556136795 -0.06060766933172481 0 0.026312941644741336 -0.060394293697507068 0 0.026041430232187246 -0.060288311848055422 0 0.026244193556136795 -0.06060766933172481 0 0.025560388339404681 -0.060551884061748495 0 0.026041430232187246 -0.060288311848055422 0 0.026063360872746025 -0.060954178845423271 0 0.026244193556136795 -0.06060766933172481 0 0.025560388339404681 -0.060551884061748495 0 0.026248326843310944 -0.059499826299563449 0 0.026522016483589872 -0.059896187888476102 0 0.026408565482357739 -0.058823514366522958 0 0.028784754617143957 -0.058866529101269542 0 0.029025467598466852 -0.058622241274545579 0 0.025560388339404681 -0.060551884061748495 0 0.025549171745402756 -0.059953132477483184 0 0.026041430232187246 -0.060288311848055422 0 0.025549171745402756 -0.059953132477483184 0 0.026123106549578078 -0.059904356134507605 0 0.026041430232187246 -0.060288311848055422 0 0.026123106549578078 -0.059904356134507605 0 0.026041430232187246 -0.060288311848055422 0 0.026409803881087116 -0.060169349093080381 0 0.026312941644741336 -0.060394293697507068 0 0.026041430232187246 -0.060288311848055422 0 0.026409803881087116 -0.060169349093080381 0 0.026123106549578078 -0.059904356134507605 0 0.026409803881087116 -0.060169349093080381 0 0.026522016483589872 -0.059896187888476102 0 0.026123106549578078 -0.059904356134507605 0 0.026248326843310944 -0.059499826299563449 0 0.026522016483589872 -0.059896187888476102 0 0.026248326843310944 -0.059499826299563449 0 0.025918888873298671 -0.05953985591976689 0 0.026055238143194291 -0.059051498496629197 0 0.026123106549578078 -0.059904356134507605 0 0.026248326843310944 -0.059499826299563449 0 0.025918888873298671 -0.05953985591976689 0 0.025549171745402756 -0.059953132477483184 0 0.026123106549578078 -0.059904356134507605 0 0.025918888873298671 -0.05953985591976689 0 0.025420266342436215 -0.058992120361090875 0 0.025549171745402756 -0.059953132477483184 0 0.025918888873298671 -0.05953985591976689 0 0.03047293941390319 -0.058293306665362712 0 0.030502256488794635 -0.057834469941970196 0 0.030766716949932882 -0.058728176523005486 0 0.030209631558155901 -0.056944036795586114 0 0.03047293941390319 -0.058293306665362712 0 0.030502256488794635 -0.057834469941970196 0 0.026522016483589872 -0.059896187888476102 0 0.026771166758738179 -0.059940658389388814 0 0.026426361156602858 -0.058785833244713204 0 0.032371148541608739 -0.055601252177440039 0 0.03091401664468222 -0.059587755939821095 0 0.030520551136505904 -0.057547744483596237 0 0.029025467598466852 -0.058622241274545579 0 0.032247367562021782 -0.064152450759358867 0 0.030920319574113043 -0.065386533695804605 0 0.030462891387652753 -0.063417070874128151 0 0.026556951421026365 -0.060512019873626921 0 0.026409803881087116 -0.060169349093080381 0 0.026771166758738179 -0.059940658389388814 0 0.026409803881087116 -0.060169349093080381 0 0.026522016483589872 -0.059896187888476102 0 0.026771166758738179 -0.059940658389388814 0 0.03047293941390319 -0.058293306665362712 0 0.030766716949932882 -0.058728176523005486 0 0.030746070878766817 -0.059635585067281921 0 0.03091401664468222 -0.059587755939821095 0 0.029010545415189354 -0.059562385039289255 0 0.030462891387652753 -0.063417070874128151 0 0.031183608935691658 -0.062157238082135545 0 0.031942051744214842 -0.062931862098189739 0 0.030462891387652753 -0.063417070874128151 0 0.031183608935691658 -0.062157238082135545 0 0.030009600341052354 -0.061458290860593977 0 0.025420266342436215 -0.058992120361090875 0 0.026278806061232094 -0.058403554899308617 0 0.02631195261000115 -0.057831132766440217 0 0.026681472307962112 -0.060222852234331874 0 0.028690467473825778 -0.059482067727436944 0 0.025420266342436215 -0.058992120361090875 0 0.025918888873298671 -0.05953985591976689 0 0.026055238143194291 -0.059051498496629197 0 0.025420266342436215 -0.058992120361090875 0 0.026055238143194291 -0.059051498496629197 0 0.026278806061232094 -0.058403554899308617 0 0.026248326843310944 -0.059499826299563449 0 0.026055238143194291 -0.059051498496629197 0 0.026408565482357739 -0.058823514366522958 0 0.026412433543999723 -0.058824900874848832 0 0.026278806061232094 -0.058403554899308617 0 0.02631195261000115 -0.057831132766440217 0 0.026055238143194291 -0.059051498496629197 0 0.026408565482357739 -0.058823514366522958 0 0.026278806061232094 -0.058403554899308617 0 0.029025467598466852 -0.058622241274545579 0 0.028690467473825778 -0.059482067727436944 0 0.029025467598466852 -0.058622241274545579 0 0.028963363482006583 -0.058577093646950761 0 0.025404022124115046 -0.05978982519498547 0 0.025277988968639049 -0.060496566822409108 0 0.026250920868865015 -0.059718288753997144 0 0.028539088211039523 -0.059190510363233161 0 0.028564426881791258 -0.059425574799474114 0 0.028585356051248491 -0.059397653215388042 0 0.030766716949932882 -0.058728176523005486 0 0.030837408867020681 -0.059516306718023153 0 0.030746070878766817 -0.059635585067281921 0 0.028690467473825778 -0.059482067727436944 0 0.029010545415189354 -0.059562385039289255 0 0.025404022124115046 -0.05978982519498547 0 0.026250920868865015 -0.059718288753997144 0 0.025740899387075074 -0.059279185117795237 0 0.031183608935691658 -0.062157238082135545 0 0.030009600341052354 -0.061458290860593977 0 0.031312943627969575 -0.061088766987950453 0 0.031183608935691658 -0.062157238082135545 0 0.031312943627969575 -0.061088766987950453 0 0.032221680425905695 -0.061902801518207477 0 0.032205286870788344 -0.060851535799768042 0 0.031312943627969575 -0.061088766987950453 0 0.032221680425905695 -0.061902801518207477 0 0.032205286870788344 -0.060851535799768042 0 0.032221680425905695 -0.061902801518207477 0 0.033244037504948837 -0.06144065458888253 0 0.033889102921539307 -0.062344231098179853 0 0.033244037504948837 -0.06144065458888253 0 0.032982472718670608 -0.062524585330296562 0 0.032221680425905695 -0.061902801518207477 0 0.033244037504948837 -0.06144065458888253 0 0.032982472718670608 -0.062524585330296562 0 0.033889102921539307 -0.062344231098179853 0 0.032982472718670608 -0.062524585330296562 0 0.033694526748611814 -0.063120948749180783 0 0.032912969696107047 -0.063391308691179649 0 0.032982472718670608 -0.062524585330296562 0 0.033694526748611814 -0.063120948749180783 0 0.032912969696107047 -0.063391308691179649 0 0.032982472718670608 -0.062524585330296562 0 0.031942051744214842 -0.062931862098189739 0 0.031183608935691658 -0.062157238082135545 0 0.032221680425905695 -0.061902801518207477 0 0.031942051744214842 -0.062931862098189739 0 0.032221680425905695 -0.061902801518207477 0 0.032982472718670608 -0.062524585330296562 0 0.031942051744214842 -0.062931862098189739 0 0.054991541128945144 -0.054997072203197057 0 0.053673659688327303 -0.052971337994860181 0 0.055159211850583159 -0.04840595901972649 0 0.054991541128945144 -0.054997072203197057 0 0.054999148163473184 -0.045931690727026915 0 0.055159211850583159 -0.04840595901972649 0 0.053673659688327303 -0.052971337994860181 0 0.054721270307720171 -0.050416304288228825 0 0.055159211850583159 -0.04840595901972649 0 0.055031650244371115 -0.048453179028175294 0 0.05493035835654695 -0.047209023378619909 0 0.054991541128945144 -0.054997072203197057 0 0.053673659688327303 -0.052971337994860181 0 0.049126782015071431 -0.054996015034460215 0 0.053673659688327303 -0.052971337994860181 0 0.052425060135994066 -0.053021968739527581 0 0.053833261427958579 -0.051059350416697062 0 0.053673659688327303 -0.052971337994860181 0 0.049126782015071431 -0.054996015034460215 0 0.052425060135994066 -0.053021968739527581 0 0.049108226347112323 -0.05499871912015241 0 0.050106977782650761 -0.054116327813777926 0 0.049126782015071431 -0.054996015034460215 0 0.052425060135994066 -0.053021968739527581 0 0.055288727400999126 -0.052871404043057839 0 0.052425060135994066 -0.053021968739527581 0 0.053833261427958579 -0.051059350416697062 0 0.055288727400999126 -0.052871404043057839 0 0.053833261427958579 -0.051059350416697062 0 0.054931392438137411 -0.048185897113532529 0 0.055887621585340247 -0.049935519153535286 0 0.055139921824618937 -0.049082090158997296 0 0.055031650244371115 -0.048453179028175294 0 0.053673659688327303 -0.052971337994860181 0 0.053833261427958579 -0.051059350416697062 0 0.054721270307720171 -0.050416304288228825 0 0.054049435550691735 -0.048047854700109471 0 0.054931392438137411 -0.048185897113532529 0 0.05479203709224318 -0.046828675321168918 0 0.053833261427958579 -0.051059350416697062 0 0.054049435550691735 -0.048047854700109471 0 0.054931392438137411 -0.048185897113532529 0 0.054931392438137411 -0.048185897113532529 0 0.057431634638757161 -0.047912359196249352 0 0.055887621585340247 -0.049935519153535286 0 0.054931392438137411 -0.048185897113532529 0 0.057431634638757161 -0.047912359196249352 0 0.055433576243345439 -0.046691706785528378 0 0.057431634638757161 -0.047912359196249352 0 0.058137391440098968 -0.049746633431085478 0 0.055887621585340247 -0.049935519153535286 0 0.049697676382173671 -0.053847030227363236 0 0.046866271018638481 -0.054667439588980911 0 0.057431634638757161 -0.047912359196249352 0 0.058137391440098968 -0.049746633431085478 0 0.059578308970175492 -0.046948107333462087 0 0.045728539756213021 -0.059459589169625918 0 0.045273230710041877 -0.058718840839546746 0 0.047383816489543679 -0.057308328945556604 0 0.045728539756213021 -0.059459589169625918 0 0.045273230710041877 -0.058718840839546746 0 0.044254985725387545 -0.059765077064553709 0 0.053833261427958579 -0.051059350416697062 0 0.055887621585340247 -0.049935519153535286 0 0.055288727400999126 -0.052871404043057839 0 0.058137391440098968 -0.049746633431085478 0 0.055887621585340247 -0.049935519153535286 0 0.055288727400999126 -0.052871404043057839 0 0.049697676382173671 -0.053847030227363236 0 0.050106977782650761 -0.054116327813777926 0 0.049106224083767809 -0.054999992328704672 0 0.047383816489543679 -0.057308328945556604 0 0.046399778964791243 -0.054999971432721069 0 0.046399778964791243 -0.054999971432721069 0 0.045336238102633014 -0.056715760698608626 0 0.043693533619270121 -0.054999988271732241 0 0.047383816489543679 -0.057308328945556604 0 0.046399778964791243 -0.054999971432721069 0 0.045336238102633014 -0.056715760698608626 0 0.045273230710041877 -0.058718840839546746 0 0.047383816489543679 -0.057308328945556604 0 0.045336238102633014 -0.056715760698608626 0 0.045273230710041877 -0.058718840839546746 0 0.045336238102633014 -0.056715760698608626 0 0.043913503872224612 -0.057475280323827607 0 0.043490893688776448 -0.05747540599308907 0 0.042397350260575124 -0.057126838048692348 0 0.042736675998954782 -0.058081517744873475 0 0.043490893688776448 -0.05747540599308907 0 0.043693067980748367 -0.055000137213971796 0 0.042593807495760902 -0.056320554559620317 0 0.045336238102633014 -0.056715760698608626 0 0.043913503872224612 -0.057475280323827607 0 0.043693533619270121 -0.054999988271732241 0 0.044209969463945176 -0.056833018458558482 0 0.043694287617205223 -0.055002023576828325 0 0.040741884993928348 -0.054999925665977854 0 0.043693067980748367 -0.055000137213971796 0 0.042593807495760902 -0.056320554559620317 0 0.040741884993928348 -0.054999925665977854 0 0.041172781078508421 -0.056626079192953677 0 0.042593807495760902 -0.056320554559620317 0 0.041172781078508421 -0.056626079192953677 0 0.042397350260575124 -0.057126838048692348 0 0.042117652157804421 -0.057719799900697068 0 0.041172781078508421 -0.056626079192953677 0 0.042593807495760902 -0.056320554559620317 0 0.042397350260575124 -0.057126838048692348 0 0.043490893688776448 -0.05747540599308907 0 0.042593807495760902 -0.056320554559620317 0 0.042397350260575124 -0.057126838048692348 0 0.042397350260575124 -0.057126838048692348 0 0.042117652157804421 -0.057719799900697068 0 0.042736675998954782 -0.058081517744873475 0 0.042341467440958187 -0.058083449644601118 0 0.042117652157804421 -0.057719799900697068 0 0.042736675998954782 -0.058081517744873475 0 0.041130726510115387 -0.058406534791435309 0 0.042341467440958187 -0.058083449644601118 0 0.042117652157804421 -0.057719799900697068 0 0.041061881077189527 -0.059646384610408915 0 0.041130726510115387 -0.058406534791435309 0 0.042341467440958187 -0.058083449644601118 0 0.040902315587907898 -0.058853352935431265 0 0.041221916398695255 -0.05858632387602665 0 0.04224081865254125 -0.058604361738230623 0 0.042583803406164016 -0.058615616943646282 0 0.042446000621069825 -0.058810955341887045 0 0.04224081865254125 -0.058604361738230623 0 0.042341467440958187 -0.058083449644601118 0 0.042583803406164016 -0.058615616943646282 0 0.042341467440958187 -0.058083449644601118 0 0.042583803406164016 -0.058615616943646282 0 0.042736675998954782 -0.058081517744873475 0 0.045273230710041877 -0.058718840839546746 0 0.043913503872224612 -0.057475280323827607 0 0.044065681205047141 -0.059900363312923609 0 0.044209969463945176 -0.056833018458558482 0 0.044934865346855091 -0.057667884542716361 0 0.043490893688776448 -0.05747540599308907 0 0.042736675998954782 -0.058081517744873475 0 0.043152141024738189 -0.058777474431464145 0 0.044768182745580989 -0.057967069153961756 0 0.044934865346855091 -0.057667884542716361 0 0.042583803406164016 -0.058615616943646282 0 0.042736675998954782 -0.058081517744873475 0 0.043152141024738189 -0.058777474431464145 0 0.045728539756213021 -0.059459589169625918 0 0.044254985725387545 -0.059765077064553709 0 0.044337390416995977 -0.061338413333346067 0 0.044934865346855091 -0.057667884542716361 0 0.046866271018638481 -0.054667439588980911 0 0.043916370205698482 -0.05721564788041282 0 0.043679093355248659 -0.057443175138138902 0 0.043924859391712881 -0.0575021647751182 0 0.044934865346855091 -0.057667884542716361 0 0.043893021627228954 -0.058160221428294218 0 0.042583803406164016 -0.058615616943646282 0 0.04246606595645909 -0.059013576368230861 0 0.042446000621069825 -0.058810955341887045 0 0.042583803406164016 -0.058615616943646282 0 0.043152141024738189 -0.058777474431464145 0 0.04246606595645909 -0.059013576368230861 0 0.04246606595645909 -0.059013576368230861 0 0.042491802227206783 -0.058941041804543813 0 0.042446000621069825 -0.058810955341887045 0 0.043676849429418234 -0.05762020310356572 0 0.043924859391712881 -0.0575021647751182 0 0.043650123333611235 -0.05784997043550133 0 0.043455706779578163 -0.057680896059782043 0 0.043679093355248659 -0.057443175138138902 0 0.043676849429418234 -0.05762020310356572 0 0.042647974451271164 -0.058523265906450704 0 0.04246606595645909 -0.059013576368230861 0 0.042491802227206783 -0.058941041804543813 0 0.043525926669011394 -0.058243192778036149 0 0.043893021627228954 -0.058160221428294218 0 0.043679093355248659 -0.057443175138138902 0 0.043676849429418234 -0.05762020310356572 0 0.043924859391712881 -0.0575021647751182 0 0.046866271018638481 -0.054667439588980911 0 0.044939615580254555 -0.057015726918570764 0 0.046866271018638481 -0.054667439588980911 0 0.048382561820575452 -0.052052607452627637 0 0.043922711631402565 -0.057457591956445141 0 0.043921223505818827 -0.057908317548195892 0 0.043650123333611235 -0.05784997043550133 0 0.043455706779578163 -0.057680896059782043 0 0.043676849429418234 -0.05762020310356572 0 0.043650123333611235 -0.05784997043550133 0 0.043455706779578163 -0.057680896059782043 0 0.043454908815460387 -0.057945394461884694 0 0.043650123333611235 -0.05784997043550133 0 0.043454908815460387 -0.057945394461884694 0 0.043479028367337538 -0.058045730341826481 0 0.04366049552729822 -0.058019760433525608 0 0.043921223505818827 -0.057908317548195892 0 0.043650123333611235 -0.05784997043550133 0 0.04366049552729822 -0.058019760433525608 0 0.043454908815460387 -0.057945394461884694 0 0.043650123333611235 -0.05784997043550133 0 0.04366049552729822 -0.058019760433525608 0 0.043479028367337538 -0.058045730341826481 0 0.04366049552729822 -0.058019760433525608 0 0.043632934261263148 -0.058189685750713815 0 0.04366049552729822 -0.058019760433525608 0 0.043632934261263148 -0.058189685750713815 0 0.043936378594250231 -0.058293044113156847 0 0.048039941870592087 -0.052489722978213735 0 0.047752502471174164 -0.051915512179696324 0 0.056061569216428825 -0.041478424294697107 0 0.057447906766575102 -0.04233567098908194 0 0.056939071126237292 -0.042789620103637439 0 0.047752502471174164 -0.051915512179696324 0 0.047973093326005481 -0.051889042845930551 0 0.057484092714674445 -0.042454517867868351 0 0.057481235479824283 -0.042582149167730135 0 0.057816493024765277 -0.042775021488926659 0 0.047752502471174164 -0.051915512179696324 0 0.047781561382538938 -0.051792272587400108 0 0.043921223505818827 -0.057908317548195892 0 0.04366049552729822 -0.058019760433525608 0 0.043936378594250231 -0.058293044113156847 0 0.048382561820575452 -0.052052607452627637 0 0.047752502471174164 -0.051915512179696324 0 0.058897803338662638 -0.044486630419766644 0 0.057650397544688883 -0.043315550367470937 0 0.057342515043017989 -0.044425922690004352 0 0.058897803338662638 -0.044486630419766644 0 0.058145987625515441 -0.042906400778801645 0 0.057650397544688883 -0.043315550367470937 0 0.057650397544688883 -0.043315550367470937 0 0.057421179795561481 -0.042934121482873011 0 0.057600723785436299 -0.042928637333596108 0 0.057650397544688883 -0.043315550367470937 0 0.057816493024765277 -0.042775021488926659 0 0.057600723785436299 -0.042928637333596108 0 0.058145987625515441 -0.042906400778801645 0 0.057650397544688883 -0.043315550367470937 0 0.057816493024765277 -0.042775021488926659 0 0.057650397544688883 -0.043315550367470937 0 0.057014415060737907 -0.043519347777228025 0 0.057421179795561481 -0.042934121482873011 0 0.057650397544688883 -0.043315550367470937 0 0.057342515043017989 -0.044425922690004352 0 0.057014415060737907 -0.043519347777228025 0 0.057342515043017989 -0.044425922690004352 0 0.057850945819589807 -0.045783352217620518 0 0.056394635068833326 -0.04571120289566756 0 0.059578308970175492 -0.046948107333462087 0 0.058897803338662638 -0.044486630419766644 0 0.057850945819589807 -0.045783352217620518 0 0.058897803338662638 -0.044486630419766644 0 0.057342515043017989 -0.044425922690004352 0 0.057850945819589807 -0.045783352217620518 0 0.057431634638757161 -0.047912359196249352 0 0.059578308970175492 -0.046948107333462087 0 0.057850945819589807 -0.045783352217620518 0 0.057054554676825978 -0.046863414065525487 0 0.056377036893549094 -0.046142986026542314 0 0.057431634638757161 -0.047912359196249352 0 0.057850945819589807 -0.045783352217620518 0 0.056394635068833326 -0.04571120289566756 0 0.054931392438137411 -0.048185897113532529 0 0.055433576243345439 -0.046691706785528378 0 0.05479203709224318 -0.046828675321168918 0 0.055433576243345439 -0.046691706785528378 0 0.05479203709224318 -0.046828675321168918 0 0.055389391498103492 -0.045686181815389276 0 0.056377036893549094 -0.046142986026542314 0 0.05561853242116508 -0.045135958006701594 0 0.056394635068833326 -0.04571120289566756 0 0.056027986803896764 -0.044417868388490517 0 0.056588433733668002 -0.044260429260741599 0 0.057342515043017989 -0.044425922690004352 0 0.056394635068833326 -0.04571120289566756 0 0.056588433733668002 -0.044260429260741599 0 0.057342515043017989 -0.044425922690004352 0 0.056588433733668002 -0.044260429260741599 0 0.057014415060737907 -0.043519347777228025 0 0.056588433733668002 -0.044260429260741599 0 0.057014415060737907 -0.043519347777228025 0 0.056367598241610868 -0.043495578658537815 0 0.057014415060737907 -0.043519347777228025 0 0.05680566771292829 -0.042974073570463123 0 0.057421179795561481 -0.042934121482873011 0 0.057014415060737907 -0.043519347777228025 0 0.056367598241610868 -0.043495578658537815 0 0.05680566771292829 -0.042974073570463123 0 0.056367598241610868 -0.043495578658537815 0 0.056081307757158291 -0.042320039753255601 0 0.05680566771292829 -0.042974073570463123 0 0.056027986803896764 -0.044417868388490517 0 0.056588433733668002 -0.044260429260741599 0 0.056367598241610868 -0.043495578658537815 0 0.05561853242116508 -0.045135958006701594 0 0.055257280324946631 -0.044585884364290902 0 0.056027986803896764 -0.044417868388490517 0 0.056367598241610868 -0.043495578658537815 0 0.05562574937826488 -0.043587867414979109 0 0.056367598241610868 -0.043495578658537815 0 0.05562574937826488 -0.043587867414979109 0 0.056081307757158291 -0.042320039753255601 0 0.054999447807498249 -0.041368094708874939 0 0.05562574937826488 -0.043587867414979109 0 0.056081307757158291 -0.042320039753255601 0 0.054999447807498249 -0.041368094708874939 0 0.054999485365103219 -0.043644456268481811 0 0.05562574937826488 -0.043587867414979109 0 0.054999485365103219 -0.043644456268481811 0 0.05562574937826488 -0.043587867414979109 0 0.054998425806412399 -0.045922663803610764 0 0.055389391498103492 -0.045686181815389276 0 0.054998425806412399 -0.045922663803610764 0 0.054633347689736371 -0.046615072881035474 0 0.055389391498103492 -0.045686181815389276 0 0.05562574937826488 -0.043587867414979109 0 0.054998425806412399 -0.045922663803610764 0 0.05479203709224318 -0.046828675321168918 0 0.055389391498103492 -0.045686181815389276 0 0.054633347689736371 -0.046615072881035474 0 0.054049435550691735 -0.048047854700109471 0 0.05479203709224318 -0.046828675321168918 0 0.054633347689736371 -0.046615072881035474 0 0.054999026051730064 -0.045926304379440605 0 0.05493035835654695 -0.047209023378619909 0 0.054999959324938223 -0.03543690732426967 0 0.057734518162978192 -0.036989084551262028 0 0.057002572905640085 -0.034054601704411873 0 0.057734518162978192 -0.036989084551262028 0 0.059078124687647823 -0.034941263268912857 0 0.057002572905640085 -0.034054601704411873 0 0.054999959324938223 -0.03543690732426967 0 0.057734518162978192 -0.036989084551262028 0 0.054999947163694482 -0.038400506749473755 0 0.054999975872789535 -0.041364215768141761 0 0.054999947163694482 -0.038400506749473755 0 0.057726406692056226 -0.040076076973525422 0 0.055001309617041874 -0.041364529891017306 0 0.056608528228983761 -0.041079935238437469 0 0.057734518162978192 -0.036989084551262028 0 0.054999947163694482 -0.038400506749473755 0 0.057726406692056226 -0.040076076973525422 0 0.057734518162978192 -0.036989084551262028 0 0.057726406692056226 -0.040076076973525422 0 0.060382202638627938 -0.038763730700462323 0 0.056608528228983761 -0.041079935238437469 0 0.058302105008780407 -0.040646530016483905 0 0.056081307757158291 -0.042320039753255601 0 0.05680566771292829 -0.042974073570463123 0 0.0569713677082943 -0.04262075230164715 0 0.05680566771292829 -0.042974073570463123 0 0.0569713677082943 -0.04262075230164715 0 0.057421179795561481 -0.042934121482873011 0 0.060382202638627938 -0.038763730700462323 0 0.06032808948608314 -0.036592075757967017 0 0.062928829824211302 -0.037389648134994756 0 0.057734518162978192 -0.036989084551262028 0 0.060382202638627938 -0.038763730700462323 0 0.06032808948608314 -0.036592075757967017 0 0.057734518162978192 -0.036989084551262028 0 0.06032808948608314 -0.036592075757967017 0 0.059078124687647823 -0.034941263268912857 0 0.06032808948608314 -0.036592075757967017 0 0.059078124687647823 -0.034941263268912857 0 0.061789255906638876 -0.035075554556062281 0 0.059078124687647823 -0.034941263268912857 0 0.061789255906638876 -0.035075554556062281 0 0.060561183957553742 -0.033439809494008592 0 0.061789255906638876 -0.035075554556062281 0 0.064158759493214312 -0.034789137577213081 0 0.063312119356876972 -0.032928044661015878 0 0.064158759493214312 -0.034789137577213081 0 0.062928829824211302 -0.037389648134994756 0 0.065141777275178836 -0.035948808398210519 0 0.059632660087254728 -0.040223771853035238 0 0.060262812695233939 -0.039879452657324607 0 0.06032808948608314 -0.036592075757967017 0 0.061789255906638876 -0.035075554556062281 0 0.062928829824211302 -0.037389648134994756 0 0.061789255906638876 -0.035075554556062281 0 0.064158759493214312 -0.034789137577213081 0 0.062928829824211302 -0.037389648134994756 0 0.0569713677082943 -0.04262075230164715 0 0.057635925861498148 -0.043136906979866815 0 0.057421179795561481 -0.042934121482873011 0 0.058302105008780407 -0.040646530016483905 0 0.059632660087254728 -0.040223771853035238 0 0.057421179795561481 -0.042934121482873011 0 0.057600723785436299 -0.042928637333596108 0 0.057543682997145303 -0.043019705862473778 0 0.057594473895582872 -0.04283880472911205 0 0.057600723785436299 -0.042928637333596108 0 0.057543682997145303 -0.043019705862473778 0 0.057816493024765277 -0.042775021488926659 0 0.057594473895582872 -0.04283880472911205 0 0.057600723785436299 -0.042928637333596108 0 0.057481235479824283 -0.042582149167730135 0 0.057816493024765277 -0.042775021488926659 0 0.057594473895582872 -0.04283880472911205 0 0.057594473895582872 -0.04283880472911205 0 0.057543682997145303 -0.043019705862473778 0 0.057393630524073931 -0.042822881376093441 0 0.057635925861498148 -0.043136906979866815 0 0.057543682997145303 -0.043019705862473778 0 0.057104402675948039 -0.043443684412902445 0 0.057635925861498148 -0.043136906979866815 0 0.057421179795561481 -0.042934121482873011 0 0.057543682997145303 -0.043019705862473778 0 0.057635925861498148 -0.043136906979866815 0 0.057104402675948039 -0.043443684412902445 0 0.056989283761755827 -0.044314240567734621 0 0.057104402675948039 -0.043443684412902445 0 0.056427497399845344 -0.043463129454910453 0 0.056989283761755827 -0.044314240567734621 0 0.057104402675948039 -0.043443684412902445 0 0.056939071126237292 -0.042789620103637439 0 0.056427497399845344 -0.043463129454910453 0 0.057543682997145303 -0.043019705862473778 0 0.056939071126237292 -0.042789620103637439 0 0.057393630524073931 -0.042822881376093441 0 0.057543682997145303 -0.043019705862473778 0 0.057104402675948039 -0.043443684412902445 0 0.056939071126237292 -0.042789620103637439 0 0.057481235479824283 -0.042582149167730135 0 0.056939071126237292 -0.042789620103637439 0 0.057393630524073931 -0.042822881376093441 0 0.057447906766575102 -0.04233567098908194 0 0.057481235479824283 -0.042582149167730135 0 0.056939071126237292 -0.042789620103637439 0 0.057481235479824283 -0.042582149167730135 0 0.057594473895582872 -0.04283880472911205 0 0.057393630524073931 -0.042822881376093441 0 0.056061569216428825 -0.041478424294697107 0 0.056939071126237292 -0.042789620103637439 0 0.055415627368144552 -0.042570670126802337 0 0.056939071126237292 -0.042789620103637439 0 0.056427497399845344 -0.043463129454910453 0 0.055415627368144552 -0.042570670126802337 0 0.056427497399845344 -0.043463129454910453 0 0.056989283761755827 -0.044314240567734621 0 0.055409452488890933 -0.044055887173265952 0 0.056427497399845344 -0.043463129454910453 0 0.055415627368144552 -0.042570670126802337 0 0.055409452488890933 -0.044055887173265952 0 0.060262812695233939 -0.039879452657324607 0 0.059967627105450755 -0.039556839028833446 0 0.056989283761755827 -0.044314240567734621 0 0.055409452488890933 -0.044055887173265952 0 0.055347030333993227 -0.045376058031657056 0 0.064158759493214312 -0.034789137577213081 0 0.065141777275178836 -0.035948808398210519 0 0.065870835679415235 -0.033783958169757183 0 0.065141777275178836 -0.035948808398210519 0 0.065870835679415235 -0.033783958169757183 0 0.066357576003741509 -0.034652181248760426 0 0.065870835679415235 -0.033783958169757183 0 0.066357576003741509 -0.034652181248760426 0 0.066157339969613427 -0.034034199468595316 0 0.065870835679415235 -0.033783958169757183 0 0.066103748858767908 -0.034020775051486415 0 0.066157339969613427 -0.034034199468595316 0 0.064158759493214312 -0.034789137577213081 0 0.065870835679415235 -0.033783958169757183 0 0.063312119356876972 -0.032928044661015878 0 0.065870835679415235 -0.033783958169757183 0 0.065329769411045249 -0.031976268260741271 0 0.063312119356876972 -0.032928044661015878 0 0.065329769411045249 -0.031976268260741271 0 0.065260634160105385 -0.030440395464634985 0 0.064058169257591849 -0.031289722673891331 0 0.065329769411045249 -0.031976268260741271 0 0.067504799543799524 -0.031811447816381878 0 0.066354285771888788 -0.03088197465045181 0 0.065870835679415235 -0.033783958169757183 0 0.065329769411045249 -0.031976268260741271 0 0.067504799543799524 -0.031811447816381878 0 0.064697244871801271 -0.030958411623764604 0 0.064986129462006825 -0.029647029558770129 0 0.067504799543799524 -0.031811447816381878 0 0.067333232268261864 -0.030369584247754235 0 0.066354285771888788 -0.03088197465045181 0 0.067333232268261864 -0.030369584247754235 0 0.066354285771888788 -0.03088197465045181 0 0.066357923436744085 -0.029852825794183347 0 0.067333232268261864 -0.030369584247754235 0 0.066357923436744085 -0.029852825794183347 0 0.067275988675039256 -0.029280555176270016 0 0.066357923436744085 -0.029852825794183347 0 0.067275988675039256 -0.029280555176270016 0 0.066231505352771808 -0.02850623678844506 0 0.067275988675039256 -0.029280555176270016 0 0.066231505352771808 -0.02850623678844506 0 0.067579526162589429 -0.027766869539600239 0 0.06510314098987989 -0.027895917508820017 0 0.065162038378437634 -0.029247711298919121 0 0.063654146381232055 -0.02841320434724625 0 0.066231505352771808 -0.02850623678844506 0 0.06510314098987989 -0.027895917508820017 0 0.065872564148201307 -0.027055923463715537 0 0.066231505352771808 -0.02850623678844506 0 0.06510314098987989 -0.027895917508820017 0 0.065162038378437634 -0.029247711298919121 0 0.066357923436744085 -0.029852825794183347 0 0.066231505352771808 -0.02850623678844506 0 0.065162038378437634 -0.029247711298919121 0 0.065162038378437634 -0.029247711298919121 0 0.065260634160105385 -0.030440395464634985 0 0.064077278420335657 -0.029977929211683234 0 0.066357923436744085 -0.029852825794183347 0 0.065162038378437634 -0.029247711298919121 0 0.065260634160105385 -0.030440395464634985 0 0.065329769411045249 -0.031976268260741271 0 0.066354285771888788 -0.03088197465045181 0 0.065260634160105385 -0.030440395464634985 0 0.066354285771888788 -0.03088197465045181 0 0.066357923436744085 -0.029852825794183347 0 0.065260634160105385 -0.030440395464634985 0 0.065260634160105385 -0.030440395464634985 0 0.064077278420335657 -0.029977929211683234 0 0.064058169257591849 -0.031289722673891331 0 0.064077278420335657 -0.029977929211683234 0 0.063654146381232055 -0.02841320434724625 0 0.062575900729063855 -0.030313447545127773 0 0.064077278420335657 -0.029977929211683234 0 0.062575900729063855 -0.030313447545127773 0 0.064058169257591849 -0.031289722673891331 0 0.065162038378437634 -0.029247711298919121 0 0.064077278420335657 -0.029977929211683234 0 0.063654146381232055 -0.02841320434724625 0 0.06510314098987989 -0.027895917508820017 0 0.063654146381232055 -0.02841320434724625 0 0.064074237358251851 -0.027383933304152921 0 0.063654146381232055 -0.02841320434724625 0 0.061848060197478419 -0.028271634298551406 0 0.06292288021640613 -0.027276564980130966 0 0.063654146381232055 -0.02841320434724625 0 0.061848060197478419 -0.028271634298551406 0 0.062575900729063855 -0.030313447545127773 0 0.061848060197478419 -0.028271634298551406 0 0.062575900729063855 -0.030313447545127773 0 0.060374972110054395 -0.029538822771347388 0 0.062575900729063855 -0.030313447545127773 0 0.063312119356876972 -0.032928044661015878 0 0.060923701536902242 -0.031440678005645317 0 0.063312119356876972 -0.032928044661015878 0 0.060561183957553742 -0.033439809494008592 0 0.060923701536902242 -0.031440678005645317 0 0.065329769411045249 -0.031976268260741271 0 0.064058169257591849 -0.031289722673891331 0 0.063312119356876972 -0.032928044661015878 0 0.062575900729063855 -0.030313447545127773 0 0.064058169257591849 -0.031289722673891331 0 0.063312119356876972 -0.032928044661015878 0 0.061789255906638876 -0.035075554556062281 0 0.063312119356876972 -0.032928044661015878 0 0.060561183957553742 -0.033439809494008592 0 0.059078124687647823 -0.034941263268912857 0 0.060561183957553742 -0.033439809494008592 0 0.058577896852945524 -0.031768583047579339 0 0.060561183957553742 -0.033439809494008592 0 0.058577896852945524 -0.031768583047579339 0 0.060923701536902242 -0.031440678005645317 0 0.062575900729063855 -0.030313447545127773 0 0.060923701536902242 -0.031440678005645317 0 0.060374972110054395 -0.029538822771347388 0 0.058577896852945524 -0.031768583047579339 0 0.060923701536902242 -0.031440678005645317 0 0.060374972110054395 -0.029538822771347388 0 0.061848060197478419 -0.028271634298551406 0 0.060374972110054395 -0.029538822771347388 0 0.060088051142993648 -0.027135673026903361 0 0.060374972110054395 -0.029538822771347388 0 0.058449695740785561 -0.028568434777078718 0 0.060088051142993648 -0.027135673026903361 0 0.058577896852945524 -0.031768583047579339 0 0.060374972110054395 -0.029538822771347388 0 0.058449695740785561 -0.028568434777078718 0 0.058577896852945524 -0.031768583047579339 0 0.058449695740785561 -0.028568434777078718 0 0.05702692150226496 -0.029978949153531467 0 0.058449695740785561 -0.028568434777078718 0 0.05702692150226496 -0.029978949153531467 0 0.056632444100267416 -0.027852481193871528 0 0.058449695740785561 -0.028568434777078718 0 0.056632444100267416 -0.027852481193871528 0 0.05771996350404586 -0.026466885180537567 0 0.056632444100267416 -0.027852481193871528 0 0.054999940146541186 -0.029509719183242723 0 0.0549999610155672 -0.026546123649916691 0 0.05702692150226496 -0.029978949153531467 0 0.056632444100267416 -0.027852481193871528 0 0.054999940146541186 -0.029509719183242723 0 0.05702692150226496 -0.029978949153531467 0 0.054999940146541186 -0.029509719183242723 0 0.054999975047056004 -0.032473304741487186 0 0.058577896852945524 -0.031768583047579339 0 0.05702692150226496 -0.029978949153531467 0 0.054999975047056004 -0.032473304741487186 0 0.058577896852945524 -0.031768583047579339 0 0.054999975047056004 -0.032473304741487186 0 0.057002572905640085 -0.034054601704411873 0 0.059078124687647823 -0.034941263268912857 0 0.058577896852945524 -0.031768583047579339 0 0.057002572905640085 -0.034054601704411873 0 0.054999959324938223 -0.03543690732426967 0 0.054999975047056004 -0.032473304741487186 0 0.057002572905640085 -0.034054601704411873 0 0.047225693576341425 -0.043809844220925487 0 0.049204135570466767 -0.043756285465602611 0 0.046723019262592647 -0.040959497759803516 0 0.047225693576341425 -0.043809844220925487 0 0.046906221174302716 -0.044543049933409462 0 0.046197467393262526 -0.041614523085214634 0 0.035119401924062786 -0.045056588307720018 0 0.034093478353930805 -0.050065692042072681 0 0.035119401924062786 -0.045056588307720018 0 0.037068426215124857 -0.044526003622020721 0 0.047225693576341425 -0.043809844220925487 0 0.046906221174302716 -0.044543049933409462 0 0.048256264120595908 -0.044065206539454033 0 0.047032209242072735 -0.044504393719231684 0 0.048256264120595908 -0.044065206539454033 0 0.048300416932240312 -0.045234195896559533 0 0.050380059886540596 -0.044893900911411461 0 0.050253609399811154 -0.043952473977488658 0 0.051222902207100435 -0.044149778537031947 0 0.049204135570466767 -0.043756285465602611 0 0.048256264120595908 -0.044065206539454033 0 0.049292119533373167 -0.045078742741056894 0 0.047225693576341425 -0.043809844220925487 0 0.049204135570466767 -0.043756285465602611 0 0.048256264120595908 -0.044065206539454033 0 0.048300416932240312 -0.045234195896559533 0 0.049292119533373167 -0.045078742741056894 0 0.049430713610497265 -0.045962978226480204 0 0.049292119533373167 -0.045078742741056894 0 0.049430713610497265 -0.045962978226480204 0 0.051568409347320127 -0.046525288528989517 0 0.049204135570466767 -0.043756285465602611 0 0.049292119533373167 -0.045078742741056894 0 0.051568409347320127 -0.046525288528989517 0 0.048256264120595908 -0.044065206539454033 0 0.048300416932240312 -0.045234195896559533 0 0.049292119533373167 -0.045078742741056894 0 0.049430713610497265 -0.045962978226480204 0 0.047517310319364521 -0.046576259866665567 0 0.049339335527566773 -0.047037173459522422 0 0.048300416932240312 -0.045234195896559533 0 0.049430713610497265 -0.045962978226480204 0 0.047517310319364521 -0.046576259866665567 0 0.022870016767662513 -0.040172969478214068 0 0.022721266679408238 -0.040403257141919557 0 0.022930332145392165 -0.040471592874077277 0 0.047032209242072735 -0.044504393719231684 0 0.048300416932240312 -0.045234195896559533 0 0.047517310319364521 -0.046576259866665567 0 0.035119401924062786 -0.045056588307720018 0 0.039029377479720309 -0.042291744046283754 0 0.035119401924062786 -0.045056588307720018 0 0.027873392146244805 -0.047984777051327671 0 0.022870016767662513 -0.040172969478214068 0 0.022721266679408238 -0.040403257141919557 0 0.022507418292380527 -0.040298793344845617 0 0.022721266679408238 -0.040403257141919557 0 0.022507418292380527 -0.040298793344845617 0 0.022580643986316498 -0.040562479406318422 0 0.022507418292380527 -0.040298793344845617 0 0.022373770697104067 -0.040529130119624182 0 0.022580643986316498 -0.040562479406318422 0 0.027873392146244805 -0.047984777051327671 0 0.022326901949216743 -0.051379233396898392 0 0.022507418292380527 -0.040298793344845617 0 0.022172208648538576 -0.040455166377790799 0 0.022373770697104067 -0.040529130119624182 0 0.029217272977364723 -0.050236518598617552 0 0.026367525750180122 -0.051244352116165605 0 0.028825747879134032 -0.048451264478354343 0 0.022326901949216743 -0.051379233396898392 0 0.025969517653195627 -0.052504718111910924 0 0.017872355354266772 -0.057089112014960287 0 0.017034623333706343 -0.057036688530546803 0 0.017581094095208118 -0.057869731386331009 0 0.017872355354266772 -0.057089112014960287 0 0.017714135014420974 -0.056173296231322278 0 0.017034623333706343 -0.057036688530546803 0 0.032043373258694628 -0.049225230624237774 0 0.029217272977364723 -0.050236518598617552 0 0.028825747879134032 -0.048451264478354343 0 0.025969517653195627 -0.052504718111910924 0 0.034093478353930805 -0.050065692042072681 0 0.032043373258694628 -0.049225230624237774 0 0.028825747879134032 -0.048451264478354343 0 0.031260310865964598 -0.045674971359416262 0 0.017034623333706343 -0.057036688530546803 0 0.016940617280205773 -0.057843498805898431 0 0.016381952435449411 -0.057853734104166776 0 0.016940617280205773 -0.057843498805898431 0 0.01650958080448988 -0.058420772617161568 0 0.016381952435449411 -0.057853734104166776 0 0.033623827718279549 -0.051668054457651075 0 0.034093478353930805 -0.050065692042072681 0 0.017034623333706343 -0.057036688530546803 0 0.016940617280205773 -0.057843498805898431 0 0.017581094095208118 -0.057869731386331009 0 0.016940617280205773 -0.057843498805898431 0 0.017581094095208118 -0.057869731386331009 0 0.01706048650393643 -0.058419822519129708 0 0.018178844072663049 -0.058909244217888547 0 0.016971157344720881 -0.058969166415405665 0 0.017579257682824471 -0.058491343276375007 0 0.018101125365883212 -0.058294016827520494 0 0.017581094095208118 -0.057869731386331009 0 0.017579257682824471 -0.058491343276375007 0 0.017581094095208118 -0.057869731386331009 0 0.017579257682824471 -0.058491343276375007 0 0.01706048650393643 -0.058419822519129708 0 0.016971157344720881 -0.058969166415405665 0 0.017579257682824471 -0.058491343276375007 0 0.01706048650393643 -0.058419822519129708 0 0.033839547377156026 -0.051921894039280762 0 0.033546832970566244 -0.051576513035145689 0 0.033196231829634423 -0.049020738651806901 0 0.033723977476915155 -0.051713055804869491 0 0.033584256418359507 -0.051546224511383174 0 0.033918221592883505 -0.052615787595343702 0 0.033623827718279549 -0.051668054457651075 0 0.034216267918790053 -0.051349176094098885 0 0.016940617280205773 -0.057843498805898431 0 0.01650958080448988 -0.058420772617161568 0 0.01706048650393643 -0.058419822519129708 0 0.016971157344720881 -0.058969166415405665 0 0.01650958080448988 -0.058420772617161568 0 0.01706048650393643 -0.058419822519129708 0 0.033623827718279549 -0.051668054457651075 0 0.033154032485221828 -0.053112682577672175 0 0.034009136498484784 -0.054109935357739454 0 0.032904946251603055 -0.052795207842488895 0 0.033095355321421577 -0.053668736178997589 0 0.029970001842420779 -0.054195156312720753 0 0.033623827718279549 -0.051668054457651075 0 0.034216267918790053 -0.051349176094098885 0 0.033154032485221828 -0.053112682577672175 0 0.035402083048357555 -0.053124506758340982 0 0.034800757954740892 -0.053602587313233703 0 0.035620429896510562 -0.053911228383319743 0 0.049070394988344111 -0.043374365227846205 0 0.050343658098977569 -0.043391886260609525 0 0.049969389723607614 -0.042343315321895766 0 0.035088043301113321 -0.054484347975345793 0 0.034800757954740892 -0.053602587313233703 0 0.035620429896510562 -0.053911228383319743 0 0.036017469226198202 -0.053376722727961567 0 0.035402083048357555 -0.053124506758340982 0 0.035620429896510562 -0.053911228383319743 0 0.036017469226198202 -0.053376722727961567 0 0.035620429896510562 -0.053911228383319743 0 0.036757184637961349 -0.053762253189863066 0 0.035620429896510562 -0.053911228383319743 0 0.035595156786198116 -0.055078671501400694 0 0.036757184637961349 -0.053762253189863066 0 0.036649821003151978 -0.049525734783634638 0 0.040311552994657947 -0.049674476031045946 0 0.035088043301113321 -0.054484347975345793 0 0.035620429896510562 -0.053911228383319743 0 0.035595156786198116 -0.055078671501400694 0 0.034216267918790053 -0.051349176094098885 0 0.036649821003151978 -0.049525734783634638 0 0.034216267918790053 -0.051349176094098885 0 0.03519636439954818 -0.049701184195790567 0 0.03663419298147181 -0.047923180941792223 0 0.03519636439954818 -0.049701184195790567 0 0.047225693576341425 -0.043809844220925487 0 0.046382614198112786 -0.041398100673245397 0 0.046197467393262526 -0.041614523085214634 0 0.033546832970566244 -0.051576513035145689 0 0.032856158389394971 -0.049413420652752095 0 0.033196231829634423 -0.049020738651806901 0 0.044340262680567719 -0.048296691641768308 0 0.036649821003151978 -0.049525734783634638 0 0.034055429614942984 -0.051796777851386325 0 0.033155536988784692 -0.048975551674257843 0 0.032401921574726308 -0.049845183608220857 0 0.047225693576341425 -0.043809844220925487 0 0.046396223944479412 -0.041338856841359892 0 0.046723019262592647 -0.040959497759803516 0 0.03519636439954818 -0.049701184195790567 0 0.036649821003151978 -0.049525734783634638 0 0.03519636439954818 -0.049701184195790567 0 0.034093478353930805 -0.050065692042072681 0 0.050343658098977569 -0.043391886260609525 0 0.051074594456103413 -0.042850903830942449 0 0.051222902207100435 -0.044149778537031947 0 0.049070394988344111 -0.043374365227846205 0 0.050253609399811154 -0.043952473977488658 0 0.050343658098977569 -0.043391886260609525 0 0.050380059886540596 -0.044893900911411461 0 0.049070394988344111 -0.043374365227846205 0 0.050253609399811154 -0.043952473977488658 0 0.050253609399811154 -0.043952473977488658 0 0.050343658098977569 -0.043391886260609525 0 0.051222902207100435 -0.044149778537031947 0 0.050884123077441265 -0.041312490460225199 0 0.049969389723607614 -0.042343315321895766 0 0.051074594456103413 -0.042850903830942449 0 0.050343658098977569 -0.043391886260609525 0 0.049969389723607614 -0.042343315321895766 0 0.051074594456103413 -0.042850903830942449 0 0.050884123077441265 -0.041312490460225199 0 0.051074594456103413 -0.042850903830942449 0 0.052093080186396613 -0.042451141230745719 0 0.051074594456103413 -0.042850903830942449 0 0.052093080186396613 -0.042451141230745719 0 0.051924739592956237 -0.04343757070433172 0 0.052093080186396613 -0.042451141230745719 0 0.053094151112143953 -0.043366221171539071 0 0.051924739592956237 -0.04343757070433172 0 0.052093080186396613 -0.042451141230745719 0 0.053094151112143953 -0.043366221171539071 0 0.053688657074657531 -0.042176393233965069 0 0.053094151112143953 -0.043366221171539071 0 0.053833576198057106 -0.044590653825256059 0 0.052396486300760069 -0.044456450375278594 0 0.053094151112143953 -0.043366221171539071 0 0.051924739592956237 -0.04343757070433172 0 0.052396486300760069 -0.044456450375278594 0 0.051222902207100435 -0.044149778537031947 0 0.051924739592956237 -0.04343757070433172 0 0.052396486300760069 -0.044456450375278594 0 0.051074594456103413 -0.042850903830942449 0 0.051222902207100435 -0.044149778537031947 0 0.051924739592956237 -0.04343757070433172 0 0.055415627368144552 -0.042570670126802337 0 0.053688657074657531 -0.042176393233965069 0 0.054344799879904399 -0.043278832367351291 0 0.053094151112143953 -0.043366221171539071 0 0.053688657074657531 -0.042176393233965069 0 0.054344799879904399 -0.043278832367351291 0 0.053094151112143953 -0.043366221171539071 0 0.054344799879904399 -0.043278832367351291 0 0.053833576198057106 -0.044590653825256059 0 0.054344799879904399 -0.043278832367351291 0 0.055409452488890933 -0.044055887173265952 0 0.053833576198057106 -0.044590653825256059 0 0.055415627368144552 -0.042570670126802337 0 0.054344799879904399 -0.043278832367351291 0 0.055409452488890933 -0.044055887173265952 0 0.055409452488890933 -0.044055887173265952 0 0.053833576198057106 -0.044590653825256059 0 0.055347030333993227 -0.045376058031657056 0 0.065984941434297256 -0.03383365166836582 0 0.066357576003741509 -0.034652181248760426 0 0.066195346585383258 -0.034105593848187718 0 0.058511502291471638 -0.039166647207372826 0 0.059967627105450755 -0.039556839028833446 0 0.053833576198057106 -0.044590653825256059 0 0.053510833293164313 -0.046277215168304409 0 0.055347030333993227 -0.045376058031657056 0 0.066357576003741509 -0.034652181248760426 0 0.066157339969613427 -0.034034199468595316 0 0.066195346585383258 -0.034105593848187718 0 0.051222902207100435 -0.044149778537031947 0 0.051612349469749956 -0.045145968052897854 0 0.052396486300760069 -0.044456450375278594 0 0.050380059886540596 -0.044893900911411461 0 0.051222902207100435 -0.044149778537031947 0 0.051612349469749956 -0.045145968052897854 0 0.053833576198057106 -0.044590653825256059 0 0.052396486300760069 -0.044456450375278594 0 0.052587745935617027 -0.045444131028841817 0 0.051612349469749956 -0.045145968052897854 0 0.052396486300760069 -0.044456450375278594 0 0.052587745935617027 -0.045444131028841817 0 0.053510833293164313 -0.046277215168304409 0 0.052587745935617027 -0.045444131028841817 0 0.051568409347320127 -0.046525288528989517 0 0.053833576198057106 -0.044590653825256059 0 0.053510833293164313 -0.046277215168304409 0 0.052587745935617027 -0.045444131028841817 0 0.051612349469749956 -0.045145968052897854 0 0.052587745935617027 -0.045444131028841817 0 0.051568409347320127 -0.046525288528989517 0 0.044340262680567719 -0.048296691641768308 0 0.046786920879320786 -0.048426828002099569 0 0.049430713610497265 -0.045962978226480204 0 0.051568409347320127 -0.046525288528989517 0 0.050419528019913874 -0.046714563555055065 0 0.050380059886540596 -0.044893900911411461 0 0.051612349469749956 -0.045145968052897854 0 0.051568409347320127 -0.046525288528989517 0 0.051568409347320127 -0.046525288528989517 0 0.051303377964702919 -0.047330022289944644 0 0.050419528019913874 -0.046714563555055065 0 0.051303377964702919 -0.047330022289944644 0 0.050419528019913874 -0.046714563555055065 0 0.049339335527566773 -0.047037173459522422 0 0.065984941434297256 -0.03383365166836582 0 0.064363866976400799 -0.034138740270293837 0 0.06595984091142261 -0.034204499668445631 0 0.064363866976400799 -0.034138740270293837 0 0.064385338880057555 -0.034708025086574688 0 0.06595984091142261 -0.034204499668445631 0 0.053510833293164313 -0.046277215168304409 0 0.051568409347320127 -0.046525288528989517 0 0.051303377964702919 -0.047330022289944644 0 0.060594754781608855 -0.034854269156386723 0 0.063624032184888754 -0.034338883720669823 0 0.058511502291471638 -0.039166647207372826 0 0.054871551279675759 -0.038667190545409867 0 0.064922476243449809 -0.034205074746400561 0 0.065440163688491745 -0.034390253809179663 0 0.06595984091142261 -0.034204499668445631 0 0.065440163688491745 -0.034390253809179663 0 0.065758425542441573 -0.034358297709388863 0 0.06595984091142261 -0.034204499668445631 0 0.065440163688491745 -0.034390253809179663 0 0.065758425542441573 -0.034358297709388863 0 0.065769183705475256 -0.034602447280943749 0 0.065758425542441573 -0.034358297709388863 0 0.065769183705475256 -0.034602447280943749 0 0.065949535956505809 -0.034259313758660453 0 0.065440163688491745 -0.034390253809179663 0 0.065769183705475256 -0.034602447280943749 0 0.065518528435156084 -0.034901955337891387 0 0.065440163688491745 -0.034390253809179663 0 0.065073486116784929 -0.034617927122027513 0 0.065518528435156084 -0.034901955337891387 0 0.065073486116784929 -0.034617927122027513 0 0.064736489772893688 -0.034507487468562852 0 0.064543483608147698 -0.034850398673717128 0 0.064922476243449809 -0.034205074746400561 0 0.064736489772893688 -0.034507487468562852 0 0.065043092679625408 -0.034429283245061879 0 0.065440163688491745 -0.034390253809179663 0 0.065073486116784929 -0.034617927122027513 0 0.065043092679625408 -0.034429283245061879 0 0.064922476243449809 -0.034205074746400561 0 0.065440163688491745 -0.034390253809179663 0 0.065043092679625408 -0.034429283245061879 0 0.065073486116784929 -0.034617927122027513 0 0.064736489772893688 -0.034507487468562852 0 0.065043092679625408 -0.034429283245061879 0 0.066157339969613427 -0.034034199468595316 0 0.066139579785286132 -0.034111490921645095 0 0.066195346585383258 -0.034105593848187718 0 0.066157339969613427 -0.034034199468595316 0 0.066139579785286132 -0.034111490921645095 0 0.066124148518609649 -0.034071469299825276 0 0.066075968481433989 -0.034169308787372246 0 0.066195346585383258 -0.034105593848187718 0 0.06595984091142261 -0.034204499668445631 0 0.066075968481433989 -0.034169308787372246 0 0.065949535956505809 -0.034259313758660453 0 0.066090196109603136 -0.034151512379438885 0 0.066139579785286132 -0.034111490921645095 0 0.066075968481433989 -0.034169308787372246 0 0.066195346585383258 -0.034105593848187718 0 0.066139579785286132 -0.034111490921645095 0 0.066075968481433989 -0.034169308787372246 0 0.066090196109603136 -0.034151512379438885 0 0.065984941434297256 -0.03383365166836582 0 0.066195346585383258 -0.034105593848187718 0 0.06595984091142261 -0.034204499668445631 0 0.066075968481433989 -0.034169308787372246 0 0.06595984091142261 -0.034204499668445631 0 0.065949535956505809 -0.034259313758660453 0 0.065758425542441573 -0.034358297709388863 0 0.06595984091142261 -0.034204499668445631 0 0.065949535956505809 -0.034259313758660453 0 0.065949535956505809 -0.034259313758660453 0 0.066090196109603136 -0.034151512379438885 0 0.066136016966137107 -0.034094963710237049 0 0.065769183705475256 -0.034602447280943749 0 0.065949535956505809 -0.034259313758660453 0 0.06625727094972482 -0.034838740096031877 0 0.065769183705475256 -0.034602447280943749 0 0.06625727094972482 -0.034838740096031877 0 0.065518528435156084 -0.034901955337891387 0 0.066918962922568048 -0.030637511779005731 0 0.066220866788986449 -0.028649848236940154 0 0.066090196109603136 -0.034151512379438885 0 0.066115416724754753 -0.034090768974914518 0 0.066136016966137107 -0.034094963710237049 0 0.066075747434113416 -0.028944461835611147 0 0.066220866788986449 -0.028649848236940154 0 0.066103748858767908 -0.034020775051486415 0 0.066157339969613427 -0.034034199468595316 0 0.066124148518609649 -0.034071469299825276 0 0.066103748858767908 -0.034020775051486415 0 0.066115416724754753 -0.034090768974914518 0 0.06611239852323135 -0.034046579678836328 0 0.066118671007860313 -0.034110415996038097 0 0.066115416724754753 -0.034090768974914518 0 0.066124148518609649 -0.034071469299825276 0 0.066139579785286132 -0.034111490921645095 0 0.066118671007860313 -0.034110415996038097 0 0.066124148518609649 -0.034071469299825276 0 0.066139579785286132 -0.034111490921645095 0 0.066090196109603136 -0.034151512379438885 0 0.066118671007860313 -0.034110415996038097 0 0.066090196109603136 -0.034151512379438885 0 0.066118671007860313 -0.034110415996038097 0 0.066115416724754753 -0.034090768974914518 0 0.066103748858767908 -0.034020775051486415 0 0.066115416724754753 -0.034090768974914518 0 0.066124148518609649 -0.034071469299825276 0 0.064986129462006825 -0.029647029558770129 0 0.066098359195476672 -0.024926553983107773 0 0.067504799543799524 -0.031811447816381878 0 0.067333232268261864 -0.030369584247754235 0 0.068889063786977525 -0.029919249972618873 0 0.066115416724754753 -0.034090768974914518 0 0.06611239852323135 -0.034046579678836328 0 0.066125576082536566 -0.034074004738860984 0 0.067333232268261864 -0.030369584247754235 0 0.067275988675039256 -0.029280555176270016 0 0.068889063786977525 -0.029919249972618873 0 0.066098359195476672 -0.024926553983107773 0 0.066220866788986449 -0.028649848236940154 0 0.066220866788986449 -0.028649848236940154 0 0.065137692356468851 -0.025053480634872154 0 0.064973293596826673 -0.018830782420307078 0 0.066528167005548297 -0.021375324519339441 0 0.070052549776460901 -0.016590503216557362 0 0.06625727094972482 -0.034838740096031877 0 0.065518528435156084 -0.034901955337891387 0 0.065663857562200639 -0.035555531454356602 0 0.066098359195476672 -0.024926553983107773 0 0.069549513188969347 -0.017119324646626997 0 0.064973293596826673 -0.018830782420307078 0 0.068288796261050236 -0.014318864875985618 0 0.070052549776460901 -0.016590503216557362 0 0.06622287904903075 -0.017219588243038868 0 0.068935570034417054 -0.013524589065236398 0 0.066425170088075261 -0.012452478682653098 0 0.067275988675039256 -0.029280555176270016 0 0.068889063786977525 -0.029919249972618873 0 0.067579526162589429 -0.027766869539600239 0 0.06622287904903075 -0.017219588243038868 0 0.066425170088075261 -0.012452478682653098 0 0.063816761941967753 -0.01326413861964352 0 0.066098359195476672 -0.024926553983107773 0 0.065060127339580456 -0.021170991736716216 0 0.065073486116784929 -0.034617927122027513 0 0.064895711498056299 -0.035382111262173839 0 0.065518528435156084 -0.034901955337891387 0 0.065073486116784929 -0.034617927122027513 0 0.064895711498056299 -0.035382111262173839 0 0.064543483608147698 -0.034850398673717128 0 0.064895711498056299 -0.035382111262173839 0 0.065518528435156084 -0.034901955337891387 0 0.065663857562200639 -0.035555531454356602 0 0.065137692356468851 -0.025053480634872154 0 0.061280390548121788 -0.022537137188951561 0 0.064895711498056299 -0.035382111262173839 0 0.065663857562200639 -0.035555531454356602 0 0.065042812534733707 -0.036244942895282108 0 0.068288796261050236 -0.014318864875985618 0 0.070052549776460901 -0.016590503216557362 0 0.073433426472566135 -0.011849525841922434 0 0.064895711498056299 -0.035382111262173839 0 0.064321272830370632 -0.036118974328107324 0 0.065042812534733707 -0.036244942895282108 0 0.04478786018669785 -0.037261574369773696 0 0.046047229751264664 -0.035400098074583108 0 0.022206391367559943 -0.040717664272492488 0 0.022230503114824031 -0.040729391324572373 0 0.022282456007610186 -0.040699154976516945 0 0.064895711498056299 -0.035382111262173839 0 0.064133310246309097 -0.035300783380431029 0 0.064321272830370632 -0.036118974328107324 0 0.022206391367559943 -0.040717664272492488 0 0.0221854533107303 -0.040741242378366432 0 0.022230503114824031 -0.040729391324572373 0 0.022206391367559943 -0.040717664272492488 0 0.0221854533107303 -0.040741242378366432 0 0.022151088524587456 -0.040723854758118287 0 0.0221854533107303 -0.040741242378366432 0 0.022202851281149898 -0.040745348356633501 0 0.022230503114824031 -0.040729391324572373 0 0.022202851281149898 -0.040745348356633501 0 0.022230503114824031 -0.040729391324572373 0 0.022243962127742017 -0.040731110567559202 0 0.0221854533107303 -0.040741242378366432 0 0.022202851281149898 -0.040745348356633501 0 0.022160566067502399 -0.040763955527192489 0 0.064895711498056299 -0.035382111262173839 0 0.064133310246309097 -0.035300783380431029 0 0.064543483608147698 -0.034850398673717128 0 0.064133310246309097 -0.035300783380431029 0 0.064543483608147698 -0.034850398673717128 0 0.063892856607322246 -0.034417438066104214 0 0.04478786018669785 -0.037261574369773696 0 0.044193020205791654 -0.037832583970090865 0 0.060594754781608855 -0.034854269156386723 0 0.044193020205791654 -0.037832583970090865 0 0.064736489772893688 -0.034507487468562852 0 0.064543483608147698 -0.034850398673717128 0 0.063892856607322246 -0.034417438066104214 0 0.064922476243449809 -0.034205074746400561 0 0.064736489772893688 -0.034507487468562852 0 0.063892856607322246 -0.034417438066104214 0 0.064385338880057555 -0.034708025086574688 0 0.061974084701014065 -0.035198980436261101 0 0.06192474618130632 -0.034963432783028776 0 0.022202851281149898 -0.040745348356633501 0 0.022210237510708046 -0.040738602149024937 0 0.022243962127742017 -0.040731110567559202 0 0.022202851281149898 -0.040745348356633501 0 0.022210237510708046 -0.040738602149024937 0 0.022176135813994038 -0.040757848269323348 0 0.037208679186021422 -0.039866151366919247 0 0.04381082189088821 -0.038890232999644489 0 0.022781993987566907 -0.040859244653836897 0 0.023013109052433704 -0.040769421647230512 0 0.022777229766933815 -0.040626322082797726 0 0.039199469956027085 -0.039010481971968596 0 0.04405368851237685 -0.038022919128887007 0 0.043826206023673049 -0.036995349086399835 0 0.037208679186021422 -0.039866151366919247 0 0.044193020205791654 -0.037832583970090865 0 0.044193020205791654 -0.037832583970090865 0 0.04381082189088821 -0.038890232999644489 0 0.04381082189088821 -0.038890232999644489 0 0.039029377479720309 -0.042291744046283754 0 0.023013109052433704 -0.040769421647230512 0 0.022777229766933815 -0.040626322082797726 0 0.022930332145392165 -0.040471592874077277 0 0.047992580388952384 -0.048711227127637209 0 0.047517310319364521 -0.046576259866665567 0 0.049339335527566773 -0.047037173459522422 0 0.022721266679408238 -0.040403257141919557 0 0.022777229766933815 -0.040626322082797726 0 0.022930332145392165 -0.040471592874077277 0 0.051303377964702919 -0.047330022289944644 0 0.047992580388952384 -0.048711227127637209 0 0.049339335527566773 -0.047037173459522422 0 0.064363866976400799 -0.034138740270293837 0 0.064385338880057555 -0.034708025086574688 0 0.06192474618130632 -0.034963432783028776 0 0.054871551279675759 -0.038667190545409867 0 0.04381082189088821 -0.038890232999644489 0 0.049430713610497265 -0.045962978226480204 0 0.050419528019913874 -0.046714563555055065 0 0.049339335527566773 -0.047037173459522422 0 0.022404709462917258 -0.040704550024810611 0 0.022210671155612254 -0.040674345633322589 0 0.022373770697104067 -0.040529130119624182 0 0.022172208648538576 -0.040455166377790799 0 0.022210671155612254 -0.040674345633322589 0 0.022373770697104067 -0.040529130119624182 0 0.022404709462917258 -0.040704550024810611 0 0.022373770697104067 -0.040529130119624182 0 0.022580643986316498 -0.040562479406318422 0 0.022721266679408238 -0.040403257141919557 0 0.022777229766933815 -0.040626322082797726 0 0.022580643986316498 -0.040562479406318422 0 0.022781993987566907 -0.040859244653836897 0 0.022777229766933815 -0.040626322082797726 0 0.022628996145865329 -0.040723120542323521 0 0.022777229766933815 -0.040626322082797726 0 0.022580643986316498 -0.040562479406318422 0 0.022628996145865329 -0.040723120542323521 0 0.022404709462917258 -0.040704550024810611 0 0.022580643986316498 -0.040562479406318422 0 0.022628996145865329 -0.040723120542323521 0 0.022404709462917258 -0.040704550024810611 0 0.022628996145865329 -0.040723120542323521 0 0.022606976146305132 -0.040883044452276834 0 0.037208679186021422 -0.039866151366919247 0 0.032101582232085243 -0.040632967672444502 0 0.022781993987566907 -0.040859244653836897 0 0.022628996145865329 -0.040723120542323521 0 0.022606976146305132 -0.040883044452276834 0 0.032101582232085243 -0.040632967672444502 0 0.027697820406857535 -0.041260265002555918 0 0.022404709462917258 -0.040704550024810611 0 0.022606976146305132 -0.040883044452276834 0 0.022170562678344705 -0.040850300923273263 0 0.022404709462917258 -0.040704550024810611 0 0.022210671155612254 -0.040674345633322589 0 0.022170562678344705 -0.040850300923273263 0 0.022176135813994038 -0.040757848269323348 0 0.022170562678344705 -0.040850300923273263 0 0.0221264454022417 -0.040798382648959131 0 0.022170562678344705 -0.040850300923273263 0 0.0221264454022417 -0.040798382648959131 0 0.022061263813256272 -0.04083698455484408 0 0.0221264454022417 -0.040798382648959131 0 0.022061263813256272 -0.04083698455484408 0 0.022114722552423492 -0.040767382223111222 0 0.0221854533107303 -0.040741242378366432 0 0.022160566067502399 -0.040763955527192489 0 0.022114722552423492 -0.040767382223111222 0 0.022176135813994038 -0.040757848269323348 0 0.0221264454022417 -0.040798382648959131 0 0.022160566067502399 -0.040763955527192489 0 0.022202851281149898 -0.040745348356633501 0 0.022176135813994038 -0.040757848269323348 0 0.022160566067502399 -0.040763955527192489 0 0.0221264454022417 -0.040798382648959131 0 0.022160566067502399 -0.040763955527192489 0 0.022114722552423492 -0.040767382223111222 0 0.0221854533107303 -0.040741242378366432 0 0.022114722552423492 -0.040767382223111222 0 0.022151088524587456 -0.040723854758118287 0 0.022114722552423492 -0.040767382223111222 0 0.022151088524587456 -0.040723854758118287 0 0.022029893908134861 -0.040732443168009232 0 0.021927032401911978 -0.040821080182247282 0 0.022061263813256272 -0.04083698455484408 0 0.022029893908134861 -0.040732443168009232 0 0.022061263813256272 -0.04083698455484408 0 0.022114722552423492 -0.040767382223111222 0 0.022029893908134861 -0.040732443168009232 0 0.021927032401911978 -0.040821080182247282 0 0.022029893908134861 -0.040732443168009232 0 0.021904367541113169 -0.040684265010560043 0 0.022029893908134861 -0.040732443168009232 0 0.022024649133077452 -0.04071688491280568 0 0.021904367541113169 -0.040684265010560043 0 0.022029893908134861 -0.040732443168009232 0 0.022148869793837456 -0.040689801740698667 0 0.022024649133077452 -0.04071688491280568 0 0.022151088524587456 -0.040723854758118287 0 0.022029893908134861 -0.040732443168009232 0 0.022148869793837456 -0.040689801740698667 0 0.022151088524587456 -0.040723854758118287 0 0.022148869793837456 -0.040689801740698667 0 0.022205875702544856 -0.040708826615438877 0 0.022198201364975186 -0.040760810020501116 0 0.022025684446653714 -0.040819433794245165 0 0.022400484165962901 -0.040910963664363094 0 0.022148869793837456 -0.040689801740698667 0 0.022198201364975186 -0.040760810020501116 0 0.022024649133077452 -0.04071688491280568 0 0.022198201364975186 -0.040760810020501116 0 0.022024649133077452 -0.04071688491280568 0 0.022025684446653714 -0.040819433794245165 0 0.022024649133077452 -0.04071688491280568 0 0.021933528627557257 -0.040691360822699016 0 0.021904367541113169 -0.040684265010560043 0 0.022024649133077452 -0.04071688491280568 0 0.021933528627557257 -0.040691360822699016 0 0.022025684446653714 -0.040819433794245165 0 0.024351084792048314 -0.041570645191464473 0 0.026319748528278872 -0.040001996005772457 0 0.026058866611028492 -0.043563262022717146 0 0.025825405750396865 -0.035973598006564494 0 0.024209112774958345 -0.036820370329477645 0 0.021933528627557257 -0.040691360822699016 0 0.022025684446653714 -0.040819433794245165 0 0.021901156811281831 -0.040621054231026479 0 0.024351084792048314 -0.041570645191464473 0 0.026319748528278872 -0.040001996005772457 0 0.022718902617879514 -0.040739299270545704 0 0.026319748528278872 -0.040001996005772457 0 0.022718902617879514 -0.040739299270545704 0 0.021901156811281831 -0.040621054231026479 0 0.024351084792048314 -0.041570645191464473 0 0.026058866611028492 -0.043563262022717146 0 0.021836352234178059 -0.041696494829783083 0 0.030357660560563368 -0.027576843867531859 0 0.026826855250435898 -0.032249967164405986 0 0.025825405750396865 -0.035973598006564494 0 0.030957385267640379 -0.033116714884460011 0 0.026319748528278872 -0.040001996005772457 0 0.029758373573621516 -0.041367712897222637 0 0.031081641865173319 -0.039655893506508992 0 0.026319748528278872 -0.040001996005772457 0 0.029758373573621516 -0.041367712897222637 0 0.029068251199804645 -0.042935637789143041 0 0.026319748528278872 -0.040001996005772457 0 0.029068251199804645 -0.042935637789143041 0 0.026058866611028492 -0.043563262022717146 0 0.030357660560563368 -0.027576843867531859 0 0.037736884673215225 -0.02261402467776813 0 0.028745189458471095 -0.017715280255998576 0 0.029332973369312381 -0.017977870224057686 0 0.028827049253746306 -0.018073308453105792 0 0.029068251199804645 -0.042935637789143041 0 0.026058866611028492 -0.043563262022717146 0 0.03057341343011382 -0.045576408827583584 0 0.028745189458471095 -0.017715280255998576 0 0.028171861843798222 -0.017476016466772441 0 0.028366078312792534 -0.017865678299381283 0 0.028745189458471095 -0.017715280255998576 0 0.028583201751775332 -0.018006059080966301 0 0.028827049253746306 -0.018073308453105792 0 0.028745189458471095 -0.017715280255998576 0 0.028583201751775332 -0.018006059080966301 0 0.028366078312792534 -0.017865678299381283 0 0.028583201751775332 -0.018006059080966301 0 0.028366078312792534 -0.017865678299381283 0 0.028371745249801437 -0.018083271475788792 0 0.045323540112008086 -0.015908813070356659 0 0.042812853991151943 -0.014659693911441563 0 0.044421175963010005 -0.01388425456567843 0 0.045323540112008086 -0.015908813070356659 0 0.044421175963010005 -0.01388425456567843 0 0.045927995127834173 -0.013705241447731768 0 0.045323540112008086 -0.015908813070356659 0 0.042812853991151943 -0.014659693911441563 0 0.04276524072085746 -0.017277854332467309 0 0.042812853991151943 -0.014659693911441563 0 0.04276524072085746 -0.017277854332467309 0 0.041007287480543858 -0.015988458956426675 0 0.042812853991151943 -0.014659693911441563 0 0.043199589662585906 -0.012719712573797386 0 0.040176272211756708 -0.012193163115567104 0 0.042812853991151943 -0.014659693911441563 0 0.043199589662585906 -0.012719712573797386 0 0.044421175963010005 -0.01388425456567843 0 0.043199589662585906 -0.012719712573797386 0 0.044421175963010005 -0.01388425456567843 0 0.044778077103371026 -0.012192877345930215 0 0.044421175963010005 -0.01388425456567843 0 0.045782557643114584 -0.012977357612488225 0 0.045927995127834173 -0.013705241447731768 0 0.044778077103371026 -0.012192877345930215 0 0.045782557643114584 -0.012977357612488225 0 0.046078623366630135 -0.012007647839570441 0 0.044421175963010005 -0.01388425456567843 0 0.044778077103371026 -0.012192877345930215 0 0.045782557643114584 -0.012977357612488225 0 0.040721646205802937 -0.026207539113384835 0 0.038395619377701112 -0.021816856074727303 0 0.045323540112008086 -0.015908813070356659 0 0.045927995127834173 -0.013705241447731768 0 0.048187152739419169 -0.012051423451408015 0 0.045782557643114584 -0.012977357612488225 0 0.045927995127834173 -0.013705241447731768 0 0.048187152739419169 -0.012051423451408015 0 0.045782557643114584 -0.012977357612488225 0 0.048187152739419169 -0.012051423451408015 0 0.046078623366630135 -0.012007647839570441 0 0.037736884673215225 -0.02261402467776813 0 0.035662748884279262 -0.026073899764050161 0 0.03057341343011382 -0.045576408827583584 0 0.030606709832567032 -0.043714177216133861 0 0.032100350798175609 -0.043557632316696224 0 0.0306714611254492 -0.045391429122246786 0 0.032100350798175609 -0.043557632316696224 0 0.031119291469733277 -0.045604156224655801 0 0.037736884673215225 -0.02261402467776813 0 0.038395619377701112 -0.021816856074727303 0 0.029068251199804645 -0.042935637789143041 0 0.03057341343011382 -0.045576408827583584 0 0.030606709832567032 -0.043714177216133861 0 0.030687579746062881 -0.042790567688243658 0 0.032100350798175609 -0.043557632316696224 0 0.031669923474938307 -0.041882438235935543 0 0.030606709832567032 -0.043714177216133861 0 0.030687579746062881 -0.042790567688243658 0 0.032100350798175609 -0.043557632316696224 0 0.029068251199804645 -0.042935637789143041 0 0.030606709832567032 -0.043714177216133861 0 0.030687579746062881 -0.042790567688243658 0 0.033417194631410976 -0.042633737305769748 0 0.032100350798175609 -0.043557632316696224 0 0.031119291469733277 -0.045604156224655801 0 0.033417194631410976 -0.042633737305769748 0 0.032100350798175609 -0.043557632316696224 0 0.031669923474938307 -0.041882438235935543 0 0.033417194631410976 -0.042633737305769748 0 0.031669923474938307 -0.041882438235935543 0 0.032567867948508779 -0.041245370613752996 0 0.031669923474938307 -0.041882438235935543 0 0.032567867948508779 -0.041245370613752996 0 0.031081641865173319 -0.039655893506508992 0 0.033417194631410976 -0.042633737305769748 0 0.032567867948508779 -0.041245370613752996 0 0.033471499987786632 -0.04053104244124197 0 0.029758373573621516 -0.041367712897222637 0 0.031669923474938307 -0.041882438235935543 0 0.031081641865173319 -0.039655893506508992 0 0.029758373573621516 -0.041367712897222637 0 0.030687579746062881 -0.042790567688243658 0 0.031669923474938307 -0.041882438235935543 0 0.029758373573621516 -0.041367712897222637 0 0.029068251199804645 -0.042935637789143041 0 0.030687579746062881 -0.042790567688243658 0 0.032567867948508779 -0.041245370613752996 0 0.031081641865173319 -0.039655893506508992 0 0.033471499987786632 -0.04053104244124197 0 0.030957385267640379 -0.033116714884460011 0 0.04554260317699365 -0.026886190153933481 0 0.031081641865173319 -0.039655893506508992 0 0.033471499987786632 -0.04053104244124197 0 0.035856056512341999 -0.039412402158141228 0 0.033417194631410976 -0.042633737305769748 0 0.033471499987786632 -0.04053104244124197 0 0.035856056512341999 -0.039412402158141228 0 0.040721646205802937 -0.026207539113384835 0 0.04554260317699365 -0.026886190153933481 0 0.04276524072085746 -0.017277854332467309 0 0.04185315355839505 -0.019800248402536059 0 0.041007287480543858 -0.015988458956426675 0 0.045323540112008086 -0.015908813070356659 0 0.04276524072085746 -0.017277854332467309 0 0.042476799548298708 -0.019772263953359546 0 0.04276524072085746 -0.017277854332467309 0 0.042476799548298708 -0.019772263953359546 0 0.04185315355839505 -0.019800248402536059 0 0.04554260317699365 -0.026886190153933481 0 0.047871627976746156 -0.025513090214411904 0 0.055214524204645649 -0.020289728465147649 0 0.046953318953722921 -0.020654661983465394 0 0.048814944008463368 -0.028725481178777174 0 0.047545330676607676 -0.02636515453956851 0 0.046047229751264664 -0.035400098074583108 0 0.023061255256112904 -0.04088417398881438 0 0.023121812256842525 -0.040808860905931804 0 0.022546100126832336 -0.040639028749769004 0 0.047545330676607676 -0.02636515453956851 0 0.034013631071528182 -0.028560886806189529 0 0.022373797087533977 -0.040736267579885299 0 0.022256005019363732 -0.040736404398149691 0 0.022282456007610186 -0.040699154976516945 0 0.047871627976746156 -0.025513090214411904 0 0.047545330676607676 -0.02636515453956851 0 0.04554260317699365 -0.026886190153933481 0 0.047545330676607676 -0.02636515453956851 0 0.030772621159296527 -0.02959175084099645 0 0.034013631071528182 -0.028560886806189529 0 0.022198201364975186 -0.040760810020501116 0 0.022400484165962901 -0.040910963664363094 0 0.022546100126832336 -0.040639028749769004 0 0.022148869793837456 -0.040689801740698667 0 0.022198201364975186 -0.040760810020501116 0 0.022546100126832336 -0.040639028749769004 0 0.022400484165962901 -0.040910963664363094 0 0.023061255256112904 -0.04088417398881438 0 0.022546100126832336 -0.040639028749769004 0 0.022148869793837456 -0.040689801740698667 0 0.022256005019363732 -0.040736404398149691 0 0.022205875702544856 -0.040708826615438877 0 0.022206391367559943 -0.040717664272492488 0 0.022205875702544856 -0.040708826615438877 0 0.022282456007610186 -0.040699154976516945 0 0.022256005019363732 -0.040736404398149691 0 0.022205875702544856 -0.040708826615438877 0 0.022282456007610186 -0.040699154976516945 0 0.022206391367559943 -0.040717664272492488 0 0.022151088524587456 -0.040723854758118287 0 0.022205875702544856 -0.040708826615438877 0 0.06446153709138773 -0.036896866354004056 0 0.064321272830370632 -0.036118974328107324 0 0.065042812534733707 -0.036244942895282108 0 0.069549513188969347 -0.017119324646626997 0 0.070924526744340702 -0.01436313548397752 0 0.068288796261050236 -0.014318864875985618 0 0.073433426472566135 -0.011849525841922434 0 0.071580143165671323 -0.0099402243908080744 0 0.073433426472566135 -0.011849525841922434 0 0.071580143165671323 -0.0099402243908080744 0 0.073618056260656983 -0.0086199156880146146 0 0.071580143165671323 -0.0099402243908080744 0 0.070158242311443839 -0.0080468491356989278 0 0.069250953815669272 -0.0093165166802667149 0 0.071580143165671323 -0.0099402243908080744 0 0.070158242311443839 -0.0080468491356989278 0 0.071521685380144473 -0.0077665300647896552 0 0.070158242311443839 -0.0080468491356989278 0 0.071521685380144473 -0.0077665300647896552 0 0.06982116161563702 -0.0065677972110464939 0 0.071521685380144473 -0.0077665300647896552 0 0.073618056260656983 -0.0086199156880146146 0 0.073589492257496281 -0.0073358580462595368 0 0.071580143165671323 -0.0099402243908080744 0 0.071521685380144473 -0.0077665300647896552 0 0.073618056260656983 -0.0086199156880146146 0 0.076288303947099831 -0.0076749904697666843 0 0.073433426472566135 -0.011849525841922434 0 0.073618056260656983 -0.0086199156880146146 0 0.047545330676607676 -0.02636515453956851 0 0.061280390548121788 -0.022537137188951561 0 0.073618056260656983 -0.0086199156880146146 0 0.075344563214879826 -0.0072524392759038912 0 0.073589492257496281 -0.0073358580462595368 0 0.076288303947099831 -0.0076749904697666843 0 0.073618056260656983 -0.0086199156880146146 0 0.075344563214879826 -0.0072524392759038912 0 0.047545330676607676 -0.02636515453956851 0 0.05102335671775432 -0.024448271582000171 0 0.064760271351627166 -0.01089818607907901 0 0.066425170088075261 -0.012452478682653098 0 0.063816761941967753 -0.01326413861964352 0 0.064760271351627166 -0.01089818607907901 0 0.066425170088075261 -0.012452478682653098 0 0.067038777866965896 -0.0098190503709163421 0 0.068935570034417054 -0.013524589065236398 0 0.071580143165671323 -0.0099402243908080744 0 0.068659711564941009 -0.011008298030919236 0 0.066425170088075261 -0.012452478682653098 0 0.068659711564941009 -0.011008298030919236 0 0.067038777866965896 -0.0098190503709163421 0 0.068935570034417054 -0.013524589065236398 0 0.066425170088075261 -0.012452478682653098 0 0.068659711564941009 -0.011008298030919236 0 0.071580143165671323 -0.0099402243908080744 0 0.068659711564941009 -0.011008298030919236 0 0.069250953815669272 -0.0093165166802667149 0 0.070158242311443839 -0.0080468491356989278 0 0.068367410445016416 -0.0077662039840647049 0 0.06982116161563702 -0.0065677972110464939 0 0.070158242311443839 -0.0080468491356989278 0 0.069250953815669272 -0.0093165166802667149 0 0.068367410445016416 -0.0077662039840647049 0 0.068367410445016416 -0.0077662039840647049 0 0.066324305657683297 -0.0082735469600353252 0 0.066820847369538958 -0.0068086666658276644 0 0.068367410445016416 -0.0077662039840647049 0 0.067038777866965896 -0.0098190503709163421 0 0.066324305657683297 -0.0082735469600353252 0 0.069250953815669272 -0.0093165166802667149 0 0.068367410445016416 -0.0077662039840647049 0 0.067038777866965896 -0.0098190503709163421 0 0.068659711564941009 -0.011008298030919236 0 0.069250953815669272 -0.0093165166802667149 0 0.067038777866965896 -0.0098190503709163421 0 0.067038777866965896 -0.0098190503709163421 0 0.066324305657683297 -0.0082735469600353252 0 0.064846287241466322 -0.0090022047244991393 0 0.066324305657683297 -0.0082735469600353252 0 0.064846287241466322 -0.0090022047244991393 0 0.06475399758573433 -0.0068976169012657665 0 0.064846287241466322 -0.0090022047244991393 0 0.06475399758573433 -0.0068976169012657665 0 0.062959721957481479 -0.0079707422248148536 0 0.064760271351627166 -0.01089818607907901 0 0.064846287241466322 -0.0090022047244991393 0 0.063880995758061943 -0.0096446039475600112 0 0.064760271351627166 -0.01089818607907901 0 0.067038777866965896 -0.0098190503709163421 0 0.064846287241466322 -0.0090022047244991393 0 0.06475399758573433 -0.0068976169012657665 0 0.065938400395416374 -0.0049024429366402904 0 0.063878504343109113 -0.0046089374573649259 0 0.066324305657683297 -0.0082735469600353252 0 0.06475399758573433 -0.0068976169012657665 0 0.066820847369538958 -0.0068086666658276644 0 0.066820847369538958 -0.0068086666658276644 0 0.065938400395416374 -0.0049024429366402904 0 0.068291063426367135 -0.0057974299867089097 0 0.06475399758573433 -0.0068976169012657665 0 0.066820847369538958 -0.0068086666658276644 0 0.065938400395416374 -0.0049024429366402904 0 0.061472454198832308 -0.0075754983183215783 0 0.060446830915057502 -0.012502613324086084 0 0.068291063426367135 -0.0057974299867089097 0 0.067633365969482467 -0.0034613553801249998 0 0.071162860952538348 -0.0052401660200835426 0 0.065938400395416374 -0.0049024429366402904 0 0.068291063426367135 -0.0057974299867089097 0 0.067633365969482467 -0.0034613553801249998 0 0.068367410445016416 -0.0077662039840647049 0 0.066820847369538958 -0.0068086666658276644 0 0.068291063426367135 -0.0057974299867089097 0 0.068291063426367135 -0.0057974299867089097 0 0.06982116161563702 -0.0065677972110464939 0 0.071162860952538348 -0.0052401660200835426 0 0.068367410445016416 -0.0077662039840647049 0 0.068291063426367135 -0.0057974299867089097 0 0.06982116161563702 -0.0065677972110464939 0 0.062716747675967105 0.0010145222832678208 0 0.062148467359371476 0.00087301559803862924 0 0.063041314653141611 0.00045314859807098256 0 0.062716747675967105 0.0010145222832678208 0 0.06240344145297845 0.0014461422865045938 0 0.063089656978408487 0.0015098319760028917 0 0.062716747675967105 0.0010145222832678208 0 0.06240344145297845 0.0014461422865045938 0 0.062148467359371476 0.00087301559803862924 0 0.065938400395416374 -0.0049024429366402904 0 0.063878504343109113 -0.0046089374573649259 0 0.064058633334705795 -0.0014530123488948582 0 0.06240344145297845 0.0014461422865045938 0 0.062148467359371476 0.00087301559803862924 0 0.061289772461415558 0.0010556532065792283 0 0.061472454198832308 -0.0075754983183215783 0 0.060800247784390998 -0.0046338843357114209 0 0.065938400395416374 -0.0049024429366402904 0 0.067633365969482467 -0.0034613553801249998 0 0.064058633334705795 -0.0014530123488948582 0 0.05102335671775432 -0.024448271582000171 0 0.060446830915057502 -0.012502613324086084 0 0.052864187686301883 -0.017871297412236288 0 0.051231471495309468 -0.017111040920746931 0 0.052938006521720503 -0.016749126003904932 0 0.075245324293834751 -0.0072817905740330362 0 0.073589492257496281 -0.0073358580462595368 0 0.071060262324594906 -0.0053477567913202571 0 0.047871627976746156 -0.025513090214411904 0 0.050992797843057713 -0.016812647730544746 0 0.053176393271203576 -0.017860332295623827 0 0.052864187686301883 -0.017871297412236288 0 0.052938006521720503 -0.016749126003904932 0 0.047871627976746156 -0.025513090214411904 0 0.05102335671775432 -0.024448271582000171 0 0.048021008951392323 -0.023742614946878605 0 0.048342569277639247 -0.025143153575104597 0 0.04552381818132354 -0.023851913822989523 0 0.05102335671775432 -0.024448271582000171 0 0.053786540306303775 -0.023826772246803091 0 0.071521685380144473 -0.0077665300647896552 0 0.073589492257496281 -0.0073358580462595368 0 0.071060262324594906 -0.0053477567913202571 0 0.071521685380144473 -0.0077665300647896552 0 0.06982116161563702 -0.0065677972110464939 0 0.071060262324594906 -0.0053477567913202571 0 0.061595618315360728 -0.011486572476301107 0 0.060446830915057502 -0.012502613324086084 0 0.062716747675967105 0.0010145222832678208 0 0.063041314653141611 0.00045314859807098256 0 0.063089656978408487 0.0015098319760028917 0 0.060446830915057502 -0.012502613324086084 0 0.055058499297656133 -0.0090200222176540935 0 0.063041314653141611 0.00045314859807098256 0 0.063089656978408487 0.0015098319760028917 0 0.064123908134443533 0.0015499843868122824 0 0.051231471495309468 -0.017111040920746931 0 0.052938006521720503 -0.016749126003904932 0 0.052697673912356371 -0.015642520375842642 0 0.050992797843057713 -0.016812647730544746 0 0.055058499297656133 -0.0090200222176540935 0 0.042812853991151943 -0.014659693911441563 0 0.041007287480543858 -0.015988458956426675 0 0.040176272211756708 -0.012193163115567104 0 0.064123908134443533 0.0015499843868122824 0 0.063425085728465724 0.002125509597144172 0 0.063678181850666024 0.0029656600414026536 0 0.063632558637819608 0.003099226145963798 0 0.063643895083276947 0.0031361463726252022 0 0.063678181850666024 0.0029656600414026536 0 0.055058499297656133 -0.0090200222176540935 0 0.055732641887258967 -0.0042885193757188017 0 0.063089656978408487 0.0015098319760028917 0 0.064123908134443533 0.0015499843868122824 0 0.063425085728465724 0.002125509597144172 0 0.062953176333464311 0.0024045986277755993 0 0.063425085728465724 0.002125509597144172 0 0.063678181850666024 0.0029656600414026536 0 0.06240344145297845 0.0014461422865045938 0 0.063089656978408487 0.0015098319760028917 0 0.062953176333464311 0.0024045986277755993 0 0.063089656978408487 0.0015098319760028917 0 0.062953176333464311 0.0024045986277755993 0 0.063425085728465724 0.002125509597144172 0 0.062953176333464311 0.0024045986277755993 0 0.062943784391137375 0.0031352083166485941 0 0.063529856428250098 0.0032953510355006417 0 0.062953176333464311 0.0024045986277755993 0 0.063678181850666024 0.0029656600414026536 0 0.063529856428250098 0.0032953510355006417 0 0.063678181850666024 0.0029656600414026536 0 0.063529856428250098 0.0032953510355006417 0 0.063649554041419629 0.0033502805793416391 0 0.063643895083276947 0.0031361463726252022 0 0.063678181850666024 0.0029656600414026536 0 0.063649554041419629 0.0033502805793416391 0 0.06240344145297845 0.0014461422865045938 0 0.062144652577254884 0.0019625749643149455 0 0.061289772461415558 0.0010556532065792283 0 0.062144652577254884 0.0019625749643149455 0 0.061622823906357767 0.0021747773228427345 0 0.061289772461415558 0.0010556532065792283 0 0.061622823906357767 0.0021747773228427345 0 0.061289772461415558 0.0010556532065792283 0 0.061013849919060649 0.001887607932933038 0 0.06240344145297845 0.0014461422865045938 0 0.062953176333464311 0.0024045986277755993 0 0.062144652577254884 0.0019625749643149455 0 0.062953176333464311 0.0024045986277755993 0 0.062144652577254884 0.0019625749643149455 0 0.062339984254013485 0.002679654538254553 0 0.062953176333464311 0.0024045986277755993 0 0.062339984254013485 0.002679654538254553 0 0.062943784391137375 0.0031352083166485941 0 0.062144652577254884 0.0019625749643149455 0 0.062339984254013485 0.002679654538254553 0 0.061622823906357767 0.0021747773228427345 0 0.062339984254013485 0.002679654538254553 0 0.061674370131506263 0.0028798949100223795 0 0.061622823906357767 0.0021747773228427345 0 0.061674370131506263 0.0028798949100223795 0 0.061622823906357767 0.0021747773228427345 0 0.061156748081681318 0.0025191228779159552 0 0.06169725971437684 0.0034609607481568315 0 0.062362451091970854 0.0035930211647472862 0 0.06141720662111419 0.003987902479658763 0 0.062339984254013485 0.002679654538254553 0 0.061674370131506263 0.0028798949100223795 0 0.062362451091970854 0.0035930211647472862 0 0.06169725971437684 0.0034609607481568315 0 0.06141720662111419 0.003987902479658763 0 0.060964378853012535 0.0032294620523237302 0 0.061674370131506263 0.0028798949100223795 0 0.06169725971437684 0.0034609607481568315 0 0.060964378853012535 0.0032294620523237302 0 0.061674370131506263 0.0028798949100223795 0 0.06169725971437684 0.0034609607481568315 0 0.062362451091970854 0.0035930211647472862 0 0.062943784391137375 0.0031352083166485941 0 0.062362451091970854 0.0035930211647472862 0 0.063347042934274719 0.0036366717021594046 0 0.062339984254013485 0.002679654538254553 0 0.062943784391137375 0.0031352083166485941 0 0.062362451091970854 0.0035930211647472862 0 0.062907051446409137 0.0039404824674888813 0 0.06198457600748588 0.0043639100012846229 0 0.062680089183171028 0.0045457844081325995 0 0.062362451091970854 0.0035930211647472862 0 0.062907051446409137 0.0039404824674888813 0 0.063347042934274719 0.0036366717021594046 0 0.062362451091970854 0.0035930211647472862 0 0.062907051446409137 0.0039404824674888813 0 0.06198457600748588 0.0043639100012846229 0 0.062907051446409137 0.0039404824674888813 0 0.063614660624525587 0.0040153992415754127 0 0.062680089183171028 0.0045457844081325995 0 0.062362451091970854 0.0035930211647472862 0 0.06198457600748588 0.0043639100012846229 0 0.06141720662111419 0.003987902479658763 0 0.06198457600748588 0.0043639100012846229 0 0.06141720662111419 0.003987902479658763 0 0.060801226743416779 0.0044786551274774052 0 0.063643790107398707 0.0036078174918788724 0 0.063529856428250098 0.0032953510355006417 0 0.063649554041419629 0.0033502805793416391 0 0.063639227818278882 0.0036314299898264294 0 0.063643790107398707 0.0036078174918788724 0 0.063672598502103259 0.0037894776164304508 0 0.063639227818278882 0.0036314299898264294 0 0.063643790107398707 0.0036078174918788724 0 0.063529856428250098 0.0032953510355006417 0 0.062943784391137375 0.0031352083166485941 0 0.063529856428250098 0.0032953510355006417 0 0.063347042934274719 0.0036366717021594046 0 0.063639227818278882 0.0036314299898264294 0 0.063529856428250098 0.0032953510355006417 0 0.063347042934274719 0.0036366717021594046 0 0.063639227818278882 0.0036314299898264294 0 0.063347042934274719 0.0036366717021594046 0 0.063784421264750035 0.0038795009172825712 0 0.063347042934274719 0.0036366717021594046 0 0.063614660624525587 0.0040153992415754127 0 0.063784421264750035 0.0038795009172825712 0 0.062907051446409137 0.0039404824674888813 0 0.063347042934274719 0.0036366717021594046 0 0.063614660624525587 0.0040153992415754127 0 0.063614660624525587 0.0040153992415754127 0 0.063784421264750035 0.0038795009172825712 0 0.063981656544581308 0.0038612221660848027 0 0.063639227818278882 0.0036314299898264294 0 0.063784421264750035 0.0038795009172825712 0 0.063672598502103259 0.0037894776164304508 0 0.063784421264750035 0.0038795009172825712 0 0.063717499374212935 0.0038379933680714779 0 0.063961727634405843 0.0037589283114579921 0 0.063784421264750035 0.0038795009172825712 0 0.063672598502103259 0.0037894776164304508 0 0.063717499374212935 0.0038379933680714779 0 0.063717499374212935 0.0038379933680714779 0 0.06348692941158178 0.0039007769307253838 0 0.063484963979876921 0.0038029775370785955 0 0.06348692941158178 0.0039007769307253838 0 0.063216357153322619 0.0039461249974140971 0 0.063484963979876921 0.0038029775370785955 0 0.063672598502103259 0.0037894776164304508 0 0.063717499374212935 0.0038379933680714779 0 0.06348692941158178 0.0039007769307253838 0 0.063672598502103259 0.0037894776164304508 0 0.06348692941158178 0.0039007769307253838 0 0.06357973380121125 0.0037216452336841033 0 0.063643790107398707 0.0036078174918788724 0 0.063672598502103259 0.0037894776164304508 0 0.06357973380121125 0.0037216452336841033 0 0.06357973380121125 0.0037216452336841033 0 0.06355342588349272 0.0036333619524763446 0 0.063433552736529508 0.0038688268711020769 0 0.06348692941158178 0.0039007769307253838 0 0.06357973380121125 0.0037216452336841033 0 0.063433552736529508 0.0038688268711020769 0 0.06357973380121125 0.0037216452336841033 0 0.06355342588349272 0.0036333619524763446 0 0.063649554041419629 0.0033502805793416391 0 0.063643790107398707 0.0036078174918788724 0 0.06357973380121125 0.0037216452336841033 0 0.063649554041419629 0.0033502805793416391 0 0.06355342588349272 0.0036333619524763446 0 0.063426142689295167 0.0038694109169348958 0 0.063433552736529508 0.0038688268711020769 0 0.063426142689295167 0.0038694109169348958 0 0.063433552736529508 0.0038688268711020769 0 0.063199374518018381 0.0040098956487144262 0 0.06348692941158178 0.0039007769307253838 0 0.063433552736529508 0.0038688268711020769 0 0.063199374518018381 0.0040098956487144262 0 0.06348692941158178 0.0039007769307253838 0 0.063199374518018381 0.0040098956487144262 0 0.063216357153322619 0.0039461249974140971 0 0.063199374518018381 0.0040098956487144262 0 0.062859985748001293 0.0040804139690405646 0 0.063216357153322619 0.0039461249974140971 0 0.063426142689295167 0.0038694109169348958 0 0.063199374518018381 0.0040098956487144262 0 0.062791985700467887 0.0041845793694864465 0 0.06341845242766421 0.0088295159932994544 0 0.062476104169636344 0.0068242306904721722 0 0.061918951249685245 0.0073757928695187486 0 0.063199374518018381 0.0040098956487144262 0 0.062791985700467887 0.0041845793694864465 0 0.062859985748001293 0.0040804139690405646 0 0.062476104169636344 0.0068242306904721722 0 0.061918951249685245 0.0073757928695187486 0 0.060142106054834478 0.0057744763016929802 0 0.052434482677404748 -0.00047632504574859197 0 0.054814047319516591 0.00032438644193879726 0 0.055593475267149396 0.0023925057150621866 0 0.057375312727699093 0.0020806271525636764 0 0.057902735927487708 0.0031410526010206821 0 0.052434482677404748 -0.00047632504574859197 0 0.054814047319516591 0.00032438644193879726 0 0.053818328495244649 -0.0018094585094313941 0 0.054814047319516591 0.00032438644193879726 0 0.05568259603836178 -0.0017809054660284098 0 0.053818328495244649 -0.0018094585094313941 0 0.042075125620127087 -0.011046878633028872 0 0.04096464032448021 -0.014540259588753299 0 0.05568259603836178 -0.0017809054660284098 0 0.053085934667401469 -0.0036746109371921065 0 0.052187960829237733 -0.0068954256454004841 0 0.028384524271503116 -0.019125236995163629 0 0.028857560128449759 -0.018555339977378762 0 0.028414935599359044 -0.018694458837454016 0 0.05568259603836178 -0.0017809054660284098 0 0.053818328495244649 -0.0018094585094313941 0 0.053085934667401469 -0.0036746109371921065 0 0.052434482677404748 -0.00047632504574859197 0 0.053818328495244649 -0.0018094585094313941 0 0.053085934667401469 -0.0036746109371921065 0 0.048984344517876685 -0.0038226995198359375 0 0.052434482677404748 -0.00047632504574859197 0 0.053085934667401469 -0.0036746109371921065 0 0.048984344517876685 -0.0038226995198359375 0 0.053085934667401469 -0.0036746109371921065 0 0.051653105146972911 -0.0051239825307695377 0 0.056157193498285927 -0.00029158696095687704 0 0.059713355798339668 0.004176439599118998 0 0.056157193498285927 -0.00029158696095687704 0 0.057375312727699093 0.0020806271525636764 0 0.048984344517876685 -0.0038226995198359375 0 0.050538252265621239 -0.0061110345692654486 0 0.048717302994930267 -0.0069926661050965224 0 0.048984344517876685 -0.0038226995198359375 0 0.050538252265621239 -0.0061110345692654486 0 0.051653105146972911 -0.0051239825307695377 0 0.050538252265621239 -0.0061110345692654486 0 0.051653105146972911 -0.0051239825307695377 0 0.052187960829237733 -0.0068954256454004841 0 0.053085934667401469 -0.0036746109371921065 0 0.051653105146972911 -0.0051239825307695377 0 0.052187960829237733 -0.0068954256454004841 0 0.050538252265621239 -0.0061110345692654486 0 0.052187960829237733 -0.0068954256454004841 0 0.050767761423209101 -0.0077641954407062855 0 0.050538252265621239 -0.0061110345692654486 0 0.050767761423209101 -0.0077641954407062855 0 0.048717302994930267 -0.0069926661050965224 0 0.050767761423209101 -0.0077641954407062855 0 0.049060716265344667 -0.0081396336864048985 0 0.048717302994930267 -0.0069926661050965224 0 0.028857560128449759 -0.018555339977378762 0 0.028414935599359044 -0.018694458837454016 0 0.028622927651807736 -0.018445973417902644 0 0.028857560128449759 -0.018555339977378762 0 0.028622927651807736 -0.018445973417902644 0 0.028839752413612401 -0.018285060024193639 0 0.028414935599359044 -0.018694458837454016 0 0.028622927651807736 -0.018445973417902644 0 0.028404302533475777 -0.018445582064424173 0 0.028577066252248144 -0.018270136657496112 0 0.028264266140209646 -0.018280805208115352 0 0.028371745249801437 -0.018083271475788792 0 0.028404302533475777 -0.018445582064424173 0 0.028577066252248144 -0.018270136657496112 0 0.028264266140209646 -0.018280805208115352 0 0.028622927651807736 -0.018445973417902644 0 0.028404302533475777 -0.018445582064424173 0 0.028577066252248144 -0.018270136657496112 0 0.028622927651807736 -0.018445973417902644 0 0.028577066252248144 -0.018270136657496112 0 0.028839752413612401 -0.018285060024193639 0 0.028577066252248144 -0.018270136657496112 0 0.028839752413612401 -0.018285060024193639 0 0.028827049253746306 -0.018073308453105792 0 0.028577066252248144 -0.018270136657496112 0 0.028583201751775332 -0.018006059080966301 0 0.028827049253746306 -0.018073308453105792 0 0.028577066252248144 -0.018270136657496112 0 0.028583201751775332 -0.018006059080966301 0 0.028371745249801437 -0.018083271475788792 0 0.029332973369312381 -0.017977870224057686 0 0.028839752413612401 -0.018285060024193639 0 0.028827049253746306 -0.018073308453105792 0 0.037736884673215225 -0.02261402467776813 0 0.04096464032448021 -0.014540259588753299 0 0.029332973369312381 -0.017977870224057686 0 0.028857560128449759 -0.018555339977378762 0 0.028839752413612401 -0.018285060024193639 0 0.050767761423209101 -0.0077641954407062855 0 0.047848869065019749 -0.0117622467607102 0 0.048641745801486197 -0.0092499038432495573 0 0.047950779183150147 -0.012642420871814426 0 0.052187960829237733 -0.0068954256454004841 0 0.050767761423209101 -0.0077641954407062855 0 0.044020999055932652 -0.014744709602794268 0 0.038395619377701112 -0.021816856074727303 0 0.050767761423209101 -0.0077641954407062855 0 0.049060716265344667 -0.0081396336864048985 0 0.048641745801486197 -0.0092499038432495573 0 0.047848869065019749 -0.0117622467607102 0 0.047535071025889261 -0.010278724120452432 0 0.048641745801486197 -0.0092499038432495573 0 0.047950779183150147 -0.012642420871814426 0 0.050767761423209101 -0.0077641954407062855 0 0.047382414349144156 -0.012382475375574202 0 0.047848869065019749 -0.0117622467607102 0 0.047535071025889261 -0.010278724120452432 0 0.046912747891068862 -0.010807383911278634 0 0.048110903004497912 -0.008550042668961793 0 0.046089517225698241 -0.0098203600051781793 0 0.048717302994930267 -0.0069926661050965224 0 0.047535071025889261 -0.010278724120452432 0 0.048641745801486197 -0.0092499038432495573 0 0.047512786508970131 -0.0093995193866168499 0 0.048641745801486197 -0.0092499038432495573 0 0.047512786508970131 -0.0093995193866168499 0 0.048110903004497912 -0.008550042668961793 0 0.049060716265344667 -0.0081396336864048985 0 0.048641745801486197 -0.0092499038432495573 0 0.048110903004497912 -0.008550042668961793 0 0.047512786508970131 -0.0093995193866168499 0 0.048110903004497912 -0.008550042668961793 0 0.046089517225698241 -0.0098203600051781793 0 0.047512786508970131 -0.0093995193866168499 0 0.046976064227110863 -0.0099239799064432949 0 0.046089517225698241 -0.0098203600051781793 0 0.047535071025889261 -0.010278724120452432 0 0.047512786508970131 -0.0093995193866168499 0 0.046976064227110863 -0.0099239799064432949 0 0.046976064227110863 -0.0099239799064432949 0 0.046089517225698241 -0.0098203600051781793 0 0.046681652123076969 -0.010390394480071221 0 0.048187152739419169 -0.012051423451408015 0 0.046078623366630135 -0.012007647839570441 0 0.045566909904984902 -0.010810033408019452 0 0.047848869065019749 -0.0117622467607102 0 0.046912747891068862 -0.010807383911278634 0 0.045566909904984902 -0.010810033408019452 0 0.046681652123076969 -0.010390394480071221 0 0.046912747891068862 -0.010807383911278634 0 0.045566909904984902 -0.010810033408019452 0 0.046089517225698241 -0.0098203600051781793 0 0.046681652123076969 -0.010390394480071221 0 0.045566909904984902 -0.010810033408019452 0 0.038395619377701112 -0.021816856074727303 0 0.039101045170144164 -0.021442828515124322 0 0.047535071025889261 -0.010278724120452432 0 0.046681652123076969 -0.010390394480071221 0 0.046912747891068862 -0.010807383911278634 0 0.047535071025889261 -0.010278724120452432 0 0.046976064227110863 -0.0099239799064432949 0 0.046681652123076969 -0.010390394480071221 0 0.040176272211756708 -0.012193163115567104 0 0.043658498233310555 -0.010695246597579073 0 0.044806883001055897 -0.0075227742593253879 0 0.044778077103371026 -0.012192877345930215 0 0.046078623366630135 -0.012007647839570441 0 0.045566909904984902 -0.010810033408019452 0 0.043199589662585906 -0.012719712573797386 0 0.044778077103371026 -0.012192877345930215 0 0.043658498233310555 -0.010695246597579073 0 0.063632558637819608 0.003099226145963798 0 0.063643895083276947 0.0031361463726252022 0 0.063647526626304837 0.003286644064199411 0 0.044778077103371026 -0.012192877345930215 0 0.043658498233310555 -0.010695246597579073 0 0.045566909904984902 -0.010810033408019452 0 0.055058499297656133 -0.0090200222176540935 0 0.055497200048159542 -0.0038735872145441957 0 0.046089517225698241 -0.0098203600051781793 0 0.045566909904984902 -0.010810033408019452 0 0.045035338970432902 -0.0097208192427862047 0 0.043658498233310555 -0.010695246597579073 0 0.045566909904984902 -0.010810033408019452 0 0.045035338970432902 -0.0097208192427862047 0 0.043199589662585906 -0.012719712573797386 0 0.040176272211756708 -0.012193163115567104 0 0.043658498233310555 -0.010695246597579073 0 0.043658498233310555 -0.010695246597579073 0 0.045035338970432902 -0.0097208192427862047 0 0.044806883001055897 -0.0075227742593253879 0 0.046089517225698241 -0.0098203600051781793 0 0.045035338970432902 -0.0097208192427862047 0 0.044806883001055897 -0.0075227742593253879 0 0.063643895083276947 0.0031361463726252022 0 0.063647526626304837 0.003286644064199411 0 0.063649554041419629 0.0033502805793416391 0 0.06355342588349272 0.0036333619524763446 0 0.063647526626304837 0.003286644064199411 0 0.063649554041419629 0.0033502805793416391 0 0.049705261745479873 -0.0027119512630145864 0 0.046089517225698241 -0.0098203600051781793 0 0.044806883001055897 -0.0075227742593253879 0 0.056157193498285927 -0.00029158696095687704 0 0.055497200048159542 -0.0038735872145441957 0 0.06355342588349272 0.0036333619524763446 0 0.063426142689295167 0.0038694109169348958 0 0.063647526626304837 0.003286644064199411 0 0.056157193498285927 -0.00029158696095687704 0 0.051476515304540581 -0.0066117089503978863 0 0.048984344517876685 -0.0038226995198359375 0 0.046089517225698241 -0.0098203600051781793 0 0.048717302994930267 -0.0069926661050965224 0 0.049060716265344667 -0.0081396336864048985 0 0.048110903004497912 -0.008550042668961793 0 0.048717302994930267 -0.0069926661050965224 0 0.054999944476990775 -0.023582340226844176 0 0.056652350449870256 -0.022531039339542411 0 0.054999990810469516 -0.020618601572138389 0 0.056663576875061648 -0.021027116325177148 0 0.056652350449870256 -0.022531039339542411 0 0.054999990810469516 -0.020618601572138389 0 0.056663576875061648 -0.021027116325177148 0 0.05815407905537489 -0.022380160248665293 0 0.058977223959784969 -0.021283103470704497 0 0.056663576875061648 -0.021027116325177148 0 0.05815407905537489 -0.022380160248665293 0 0.056652350449870256 -0.022531039339542411 0 0.05807262137664157 -0.023948656353377534 0 0.056652350449870256 -0.022531039339542411 0 0.056727232713384632 -0.024569059326622816 0 0.05815407905537489 -0.022380160248665293 0 0.05807262137664157 -0.023948656353377534 0 0.056652350449870256 -0.022531039339542411 0 0.054999944476990775 -0.023582340226844176 0 0.056652350449870256 -0.022531039339542411 0 0.056727232713384632 -0.024569059326622816 0 0.054999944476990775 -0.023582340226844176 0 0.05637235780814185 -0.026053706635284619 0 0.0549999610155672 -0.026546123649916691 0 0.054999944476990775 -0.023582340226844176 0 0.05637235780814185 -0.026053706635284619 0 0.056727232713384632 -0.024569059326622816 0 0.056632444100267416 -0.027852481193871528 0 0.05637235780814185 -0.026053706635284619 0 0.0549999610155672 -0.026546123649916691 0 0.056632444100267416 -0.027852481193871528 0 0.05637235780814185 -0.026053706635284619 0 0.05771996350404586 -0.026466885180537567 0 0.05771996350404586 -0.026466885180537567 0 0.056727232713384632 -0.024569059326622816 0 0.059151822468907281 -0.025083743587282509 0 0.05807262137664157 -0.023948656353377534 0 0.056727232713384632 -0.024569059326622816 0 0.059235680537641652 -0.024731635819907758 0 0.05637235780814185 -0.026053706635284619 0 0.05771996350404586 -0.026466885180537567 0 0.056727232713384632 -0.024569059326622816 0 0.058333150676479255 -0.024578599858598494 0 0.059458090028949501 -0.024654260936678017 0 0.05807262137664157 -0.023948656353377534 0 0.059235680537641652 -0.024731635819907758 0 0.060501989550717915 -0.024041713861204 0 0.058449695740785561 -0.028568434777078718 0 0.05771996350404586 -0.026466885180537567 0 0.058901981695627784 -0.026683890702574566 0 0.059151822468907281 -0.025083743587282509 0 0.058901981695627784 -0.026683890702574566 0 0.060088051142993648 -0.027135673026903361 0 0.058449695740785561 -0.028568434777078718 0 0.058901981695627784 -0.026683890702574566 0 0.060088051142993648 -0.027135673026903361 0 0.05771996350404586 -0.026466885180537567 0 0.059151822468907281 -0.025083743587282509 0 0.058901981695627784 -0.026683890702574566 0 0.060088051142993648 -0.027135673026903361 0 0.061497628668531215 -0.02548480890811218 0 0.061807778044364201 -0.026895514366072945 0 0.061848060197478419 -0.028271634298551406 0 0.060088051142993648 -0.027135673026903361 0 0.061807778044364201 -0.026895514366072945 0 0.059458090028949501 -0.024654260936678017 0 0.061445570570732841 -0.024685802684526643 0 0.060501989550717915 -0.024041713861204 0 0.062064243562550456 -0.023416916955857525 0 0.061585217574650707 -0.024951968636482472 0 0.059235680537641652 -0.024731635819907758 0 0.060501989550717915 -0.024041713861204 0 0.061585217574650707 -0.024951968636482472 0 0.059151822468907281 -0.025083743587282509 0 0.060088051142993648 -0.027135673026903361 0 0.061497628668531215 -0.02548480890811218 0 0.060721913458846623 -0.022618256966620329 0 0.060501989550717915 -0.024041713861204 0 0.062064243562550456 -0.023416916955857525 0 0.058849812573085067 -0.021732536598467023 0 0.060107116528149422 -0.020390319960455081 0 0.05807262137664157 -0.023948656353377534 0 0.060721913458846623 -0.022618256966620329 0 0.060501989550717915 -0.024041713861204 0 0.05815407905537489 -0.022380160248665293 0 0.05807262137664157 -0.023948656353377534 0 0.06094033660985302 -0.022418528928577687 0 0.05815407905537489 -0.022380160248665293 0 0.06094033660985302 -0.022418528928577687 0 0.058977223959784969 -0.021283103470704497 0 0.06094033660985302 -0.022418528928577687 0 0.062555022285550849 -0.020251675658014511 0 0.061382720591035424 -0.020377237855336426 0 0.06094033660985302 -0.022418528928577687 0 0.060353086378663073 -0.020754440689471319 0 0.061382720591035424 -0.020377237855336426 0 0.06094033660985302 -0.022418528928577687 0 0.058977223959784969 -0.021283103470704497 0 0.060353086378663073 -0.020754440689471319 0 0.060721913458846623 -0.022618256966620329 0 0.063295165281123542 -0.021318086744602175 0 0.062421461005300813 -0.022653471745651448 0 0.060107116528149422 -0.020390319960455081 0 0.062121727222298515 -0.016716482066194922 0 0.06094033660985302 -0.022418528928577687 0 0.063777884682038766 -0.020936068786019394 0 0.062555022285550849 -0.020251675658014511 0 0.063295165281123542 -0.021318086744602175 0 0.063601222471464561 -0.02325928949141369 0 0.062421461005300813 -0.022653471745651448 0 0.062692131962485131 -0.014195339880312921 0 0.062868225324058863 -0.015481111976419814 0 0.062121727222298515 -0.016716482066194922 0 0.062888938866904387 -0.021821516291936797 0 0.062850122183595467 -0.021042110858786229 0 0.06347999793020434 -0.020723787794408092 0 0.063227252535225417 -0.023411271288629788 0 0.06347999793020434 -0.020723787794408092 0 0.063227252535225417 -0.023411271288629788 0 0.064967045274676186 -0.023191332812524688 0 0.062121727222298515 -0.016716482066194922 0 0.062692131962485131 -0.014195339880312921 0 0.063227252535225417 -0.023411271288629788 0 0.064495143337673158 -0.024669849442030323 0 0.064967045274676186 -0.023191332812524688 0 0.063601222471464561 -0.02325928949141369 0 0.062421461005300813 -0.022653471745651448 0 0.062064243562550456 -0.023416916955857525 0 0.063601222471464561 -0.02325928949141369 0 0.062064243562550456 -0.023416916955857525 0 0.062808177192677714 -0.024116989764706297 0 0.060721913458846623 -0.022618256966620329 0 0.062421461005300813 -0.022653471745651448 0 0.062064243562550456 -0.023416916955857525 0 0.062064243562550456 -0.023416916955857525 0 0.062808177192677714 -0.024116989764706297 0 0.061585217574650707 -0.024951968636482472 0 0.061497628668531215 -0.02548480890811218 0 0.062678687884075213 -0.026328466629174534 0 0.063807140639908014 -0.025796836488785915 0 0.061445570570732841 -0.024685802684526643 0 0.063164997939930578 -0.024433632584892992 0 0.062808177192677714 -0.024116989764706297 0 0.061585217574650707 -0.024951968636482472 0 0.063906028197410231 -0.025192611009586991 0 0.061497628668531215 -0.02548480890811218 0 0.061807778044364201 -0.026895514366072945 0 0.062678687884075213 -0.026328466629174534 0 0.061807778044364201 -0.026895514366072945 0 0.062678687884075213 -0.026328466629174534 0 0.06292288021640613 -0.027276564980130966 0 0.061848060197478419 -0.028271634298551406 0 0.061807778044364201 -0.026895514366072945 0 0.06292288021640613 -0.027276564980130966 0 0.063654146381232055 -0.02841320434724625 0 0.06292288021640613 -0.027276564980130966 0 0.064074237358251851 -0.027383933304152921 0 0.06292288021640613 -0.027276564980130966 0 0.064074237358251851 -0.027383933304152921 0 0.063894266969827321 -0.026380303273499831 0 0.062678687884075213 -0.026328466629174534 0 0.063894266969827321 -0.026380303273499831 0 0.063807140639908014 -0.025796836488785915 0 0.062678687884075213 -0.026328466629174534 0 0.06292288021640613 -0.027276564980130966 0 0.063894266969827321 -0.026380303273499831 0 0.064074237358251851 -0.027383933304152921 0 0.063894266969827321 -0.026380303273499831 0 0.064817747319868696 -0.026965359450161701 0 0.062888938866904387 -0.021821516291936797 0 0.063164997939930578 -0.024433632584892992 0 0.063894266969827321 -0.026380303273499831 0 0.063791679094939019 -0.025765911382657238 0 0.064670873984998184 -0.025835746840179294 0 0.063612828758372 -0.02572738626029283 0 0.064495143337673158 -0.024669849442030323 0 0.064670873984998184 -0.025835746840179294 0 0.063164997939930578 -0.024433632584892992 0 0.063318961971708332 -0.024489679828695859 0 0.063227252535225417 -0.023411271288629788 0 0.063612828758372 -0.02572738626029283 0 0.064495143337673158 -0.024669849442030323 0 0.063601222471464561 -0.02325928949141369 0 0.062808177192677714 -0.024116989764706297 0 0.063906028197410231 -0.025192611009586991 0 0.063187282928336433 -0.024535398578347311 0 0.063164997939930578 -0.024433632584892992 0 0.064495143337673158 -0.024669849442030323 0 0.066329793348110566 -0.025589801464246473 0 0.064967045274676186 -0.023191332812524688 0 0.064495143337673158 -0.024669849442030323 0 0.064670873984998184 -0.025835746840179294 0 0.066329793348110566 -0.025589801464246473 0 0.063888368809597362 -0.018051427879231644 0 0.062868225324058863 -0.015481111976419814 0 0.064670873984998184 -0.025835746840179294 0 0.065872564148201307 -0.027055923463715537 0 0.064817747319868696 -0.026965359450161701 0 0.063894266969827321 -0.026380303273499831 0 0.064670873984998184 -0.025835746840179294 0 0.064817747319868696 -0.026965359450161701 0 0.064670873984998184 -0.025835746840179294 0 0.065872564148201307 -0.027055923463715537 0 0.066329793348110566 -0.025589801464246473 0 0.06510314098987989 -0.027895917508820017 0 0.064074237358251851 -0.027383933304152921 0 0.064817747319868696 -0.026965359450161701 0 0.06510314098987989 -0.027895917508820017 0 0.065872564148201307 -0.027055923463715537 0 0.064817747319868696 -0.026965359450161701 0 0.065060127339580456 -0.021170991736716216 0 0.063888368809597362 -0.018051427879231644 0 0.065872564148201307 -0.027055923463715537 0 0.067579526162589429 -0.027766869539600239 0 0.066329793348110566 -0.025589801464246473 0 0.063816761941967753 -0.01326413861964352 0 0.062898461803225045 -0.010622926984916292 0 0.061740099644079574 -0.0097914656432927898 0 0.066231505352771808 -0.02850623678844506 0 0.065872564148201307 -0.027055923463715537 0 0.067579526162589429 -0.027766869539600239 0 0.064760271351627166 -0.01089818607907901 0 0.063816761941967753 -0.01326413861964352 0 0.062898461803225045 -0.010622926984916292 0 0.062898461803225045 -0.010622926984916292 0 0.063880995758061943 -0.0096446039475600112 0 0.062959721957481479 -0.0079707422248148536 0 0.062898461803225045 -0.010622926984916292 0 0.062959721957481479 -0.0079707422248148536 0 0.060120499056917041 -0.0054206427608444038 0 0.062898461803225045 -0.010622926984916292 0 0.061740099644079574 -0.0097914656432927898 0 0.06101768306677495 -0.0069249095711128436 0 0.064760271351627166 -0.01089818607907901 0 0.062898461803225045 -0.010622926984916292 0 0.063880995758061943 -0.0096446039475600112 0 0.061399448319148821 -0.0087120433198153713 0 0.060626814152430625 -0.0074957231649261449 0 0.064846287241466322 -0.0090022047244991393 0 0.063880995758061943 -0.0096446039475600112 0 0.062959721957481479 -0.0079707422248148536 0 0.06475399758573433 -0.0068976169012657665 0 0.062959721957481479 -0.0079707422248148536 0 0.062715429139904022 -0.0057415553052689548 0 0.06475399758573433 -0.0068976169012657665 0 0.062715429139904022 -0.0057415553052689548 0 0.063878504343109113 -0.0046089374573649259 0 0.062715429139904022 -0.0057415553052689548 0 0.063878504343109113 -0.0046089374573649259 0 0.061756459439942783 -0.0038031222209084794 0 0.062715429139904022 -0.0057415553052689548 0 0.060120499056917041 -0.0054206427608444038 0 0.061756459439942783 -0.0038031222209084794 0 0.062959721957481479 -0.0079707422248148536 0 0.062715429139904022 -0.0057415553052689548 0 0.060120499056917041 -0.0054206427608444038 0 0.061740099644079574 -0.0097914656432927898 0 0.060010866083607277 -0.0068477035596969911 0 0.06101768306677495 -0.0069249095711128436 0 0.060626814152430625 -0.0074957231649261449 0 0.06179215561913156 -0.011124090663315175 0 0.060120499056917041 -0.0054206427608444038 0 0.058684530590969321 -0.0015542946303955748 0 0.061756459439942783 -0.0038031222209084794 0 0.058423706210761379 -0.0042822618940845519 0 0.06101768306677495 -0.0069249095711128436 0 0.059436174590279889 -0.003774911517443658 0 0.058684530590969321 -0.0015542946303955748 0 0.061453435409553211 -0.0017307188334086513 0 0.061756459439942783 -0.0038031222209084794 0 0.060120499056917041 -0.0054206427608444038 0 0.058684530590969321 -0.0015542946303955748 0 0.057324140319839012 0.00029121991007285188 0 0.058423706210761379 -0.0042822618940845519 0 0.060010866083607277 -0.0068477035596969911 0 0.06101768306677495 -0.0069249095711128436 0 0.058684530590969321 -0.0015542946303955748 0 0.060122686104609344 -0.00081942060662067086 0 0.061453435409553211 -0.0017307188334086513 0 0.058684530590969321 -0.0015542946303955748 0 0.060122686104609344 -0.00081942060662067086 0 0.058440482404637596 0.00098229075688678028 0 0.060122686104609344 -0.00081942060662067086 0 0.061453435409553211 -0.0017307188334086513 0 0.060091944122724769 0.00095609009025400538 0 0.061453435409553211 -0.0017307188334086513 0 0.064058633334705795 -0.0014530123488948582 0 0.060091944122724769 0.00095609009025400538 0 0.063878504343109113 -0.0046089374573649259 0 0.064058633334705795 -0.0014530123488948582 0 0.061756459439942783 -0.0038031222209084794 0 0.061453435409553211 -0.0017307188334086513 0 0.064058633334705795 -0.0014530123488948582 0 0.061756459439942783 -0.0038031222209084794 0 0.061289772461415558 0.0010556532065792283 0 0.060605731672187177 0.0015353293965946016 0 0.061013849919060649 0.001887607932933038 0 0.060800247784390998 -0.0046338843357114209 0 0.06010844787580176 -0.003533765986552142 0 0.061289772461415558 0.0010556532065792283 0 0.060605731672187177 0.0015353293965946016 0 0.060091944122724769 0.00095609009025400538 0 0.060605731672187177 0.0015353293965946016 0 0.059948496161619957 0.0014851844642939488 0 0.060458236994788882 0.0024039997935488906 0 0.060605731672187177 0.0015353293965946016 0 0.061013849919060649 0.001887607932933038 0 0.060458236994788882 0.0024039997935488906 0 0.060605731672187177 0.0015353293965946016 0 0.060091944122724769 0.00095609009025400538 0 0.059948496161619957 0.0014851844642939488 0 0.059597284064392395 0.0013000422513623107 0 0.059948496161619957 0.0014851844642939488 0 0.059568198051052706 0.0027478528518558266 0 0.060122686104609344 -0.00081942060662067086 0 0.060091944122724769 0.00095609009025400538 0 0.058440482404637596 0.00098229075688678028 0 0.060091944122724769 0.00095609009025400538 0 0.058440482404637596 0.00098229075688678028 0 0.059948496161619957 0.0014851844642939488 0 0.060876019861271231 -0.0099864966102873251 0 0.061031632620045073 -0.0096819891772963029 0 0.060628099077965722 -0.0085185412549831727 0 0.060876019861271231 -0.0099864966102873251 0 0.058684530590969321 -0.0015542946303955748 0 0.057324140319839012 0.00029121991007285188 0 0.058350660075903886 0.00080362158449769755 0 0.06179215561913156 -0.011124090663315175 0 0.060876019861271231 -0.0099864966102873251 0 0.059948496161619957 0.0014851844642939488 0 0.059568198051052706 0.0027478528518558266 0 0.060458236994788882 0.0024039997935488906 0 0.060876019861271231 -0.0099864966102873251 0 0.061427209822253429 -0.00764224630350511 0 0.059568198051052706 0.0027478528518558266 0 0.060458236994788882 0.0024039997935488906 0 0.060179843135985733 0.0033578357167100923 0 0.061013849919060649 0.001887607932933038 0 0.060458236994788882 0.0024039997935488906 0 0.061156748081681318 0.0025191228779159552 0 0.061622823906357767 0.0021747773228427345 0 0.061013849919060649 0.001887607932933038 0 0.061156748081681318 0.0025191228779159552 0 0.061674370131506263 0.0028798949100223795 0 0.061156748081681318 0.0025191228779159552 0 0.060964378853012535 0.0032294620523237302 0 0.060458236994788882 0.0024039997935488906 0 0.061156748081681318 0.0025191228779159552 0 0.060964378853012535 0.0032294620523237302 0 0.060458236994788882 0.0024039997935488906 0 0.060964378853012535 0.0032294620523237302 0 0.060179843135985733 0.0033578357167100923 0 0.060964378853012535 0.0032294620523237302 0 0.06074618870124094 0.0038676368233868975 0 0.060179843135985733 0.0033578357167100923 0 0.06141720662111419 0.003987902479658763 0 0.060964378853012535 0.0032294620523237302 0 0.06074618870124094 0.0038676368233868975 0 0.06141720662111419 0.003987902479658763 0 0.06074618870124094 0.0038676368233868975 0 0.060801226743416779 0.0044786551274774052 0 0.06074618870124094 0.0038676368233868975 0 0.060801226743416779 0.0044786551274774052 0 0.060134566101592117 0.003963452073004671 0 0.060074662055945964 0.0044510549414577393 0 0.060134566101592117 0.003963452073004671 0 0.059491329183939547 0.0040401264762204214 0 0.060074662055945964 0.0044510549414577393 0 0.059491329183939547 0.0040401264762204214 0 0.059420972678096776 0.0045158424472586511 0 0.060801226743416779 0.0044786551274774052 0 0.060074662055945964 0.0044510549414577393 0 0.060134566101592117 0.003963452073004671 0 0.06074618870124094 0.0038676368233868975 0 0.060134566101592117 0.003963452073004671 0 0.060179843135985733 0.0033578357167100923 0 0.060134566101592117 0.003963452073004671 0 0.060179843135985733 0.0033578357167100923 0 0.059460712261365456 0.0040564050185369176 0 0.061372742746704033 -0.0066852553383390072 0 0.062067439137058318 -0.0074390976372615937 0 0.059568198051052706 0.0027478528518558266 0 0.060179843135985733 0.0033578357167100923 0 0.059460712261365456 0.0040564050185369176 0 0.061427209822253429 -0.00764224630350511 0 0.062067439137058318 -0.0074390976372615937 0 0.063875524813047618 -0.016419143444091715 0 0.063427922028820097 -0.016223521492957367 0 0.06348174574524923 -0.015765449752850005 0 0.063875524813047618 -0.016419143444091715 0 0.06348174574524923 -0.015765449752850005 0 0.063834227654646442 -0.015144054217401438 0 0.063427922028820097 -0.016223521492957367 0 0.063129534652982586 -0.016098180307990369 0 0.06348174574524923 -0.015765449752850005 0 0.063129534652982586 -0.016098180307990369 0 0.063031583745882053 -0.016444016684899525 0 0.063170484132838808 -0.016330734348416396 0 0.063427922028820097 -0.016223521492957367 0 0.063129534652982586 -0.016098180307990369 0 0.063170484132838808 -0.016330734348416396 0 0.063129534652982586 -0.016098180307990369 0 0.06348174574524923 -0.015765449752850005 0 0.062733539362472057 -0.015806459550479938 0 0.06348174574524923 -0.015765449752850005 0 0.063834227654646442 -0.015144054217401438 0 0.063215525104278719 -0.014957906558367937 0 0.06348174574524923 -0.015765449752850005 0 0.063215525104278719 -0.014957906558367937 0 0.062733539362472057 -0.015806459550479938 0 0.062067439137058318 -0.0074390976372615937 0 0.061461664465671924 -0.0092509660531901374 0 0.060161305932012042 -0.012254300197974494 0 0.061100041880361139 -0.0116755999145559 0 0.060544562049042815 -0.01106249125186059 0 0.061461664465671924 -0.0092509660531901374 0 0.062515161515613607 -0.0073237995367229167 0 0.06218979317874615 -0.0085178580446209021 0 0.06272551116337749 -0.0085984657506558565 0 0.062245267223347091 -0.0089107320566017521 0 0.062067439137058318 -0.0074390976372615937 0 0.062515161515613607 -0.0073237995367229167 0 0.063215525104278719 -0.014957906558367937 0 0.062733539362472057 -0.015806459550479938 0 0.061375137270273342 -0.016025781006526428 0 0.061461664465671924 -0.0092509660531901374 0 0.059510882260227216 -0.011423084403024865 0 0.060161305932012042 -0.012254300197974494 0 0.058088613575506348 -0.012007941487095336 0 0.058996797804642592 -0.010985174309378324 0 0.061461664465671924 -0.0092509660531901374 0 0.060606888235117992 -0.011301974263063881 0 0.063686900554833725 -0.014495442809890206 0 0.061375137270273342 -0.016025781006526428 0 0.060797704581210504 -0.014085190705335315 0 0.063129534652982586 -0.016098180307990369 0 0.062733539362472057 -0.015806459550479938 0 0.063031583745882053 -0.016444016684899525 0 0.062912455563557415 -0.016429835899980368 0 0.06293416142696974 -0.016554467152623147 0 0.062733539362472057 -0.015806459550479938 0 0.06213158950638771 -0.016890358967175629 0 0.061375137270273342 -0.016025781006526428 0 0.062733539362472057 -0.015806459550479938 0 0.06213158950638771 -0.016890358967175629 0 0.063177562445879853 -0.017484613220454609 0 0.06213158950638771 -0.016890358967175629 0 0.062344207263648289 -0.017615213050429835 0 0.061311488606076596 -0.018139089488571798 0 0.063188939880050296 -0.018765605221131573 0 0.063177562445879853 -0.017484613220454609 0 0.063519115145448057 -0.019276249133512106 0 0.06213158950638771 -0.016890358967175629 0 0.062344207263648289 -0.017615213050429835 0 0.063177562445879853 -0.017484613220454609 0 0.06293416142696974 -0.016554467152623147 0 0.062872701552671814 -0.016268975866202757 0 0.062481196780240417 -0.01820299925554221 0 0.06221584763991541 -0.019179652696465422 0 0.061311488606076596 -0.018139089488571798 0 0.062344207263648289 -0.017615213050429835 0 0.062481196780240417 -0.01820299925554221 0 0.061311488606076596 -0.018139089488571798 0 0.062481196780240417 -0.01820299925554221 0 0.063188939880050296 -0.018765605221131573 0 0.06221584763991541 -0.019179652696465422 0 0.062481196780240417 -0.01820299925554221 0 0.063188939880050296 -0.018765605221131573 0 0.063177562445879853 -0.017484613220454609 0 0.062344207263648289 -0.017615213050429835 0 0.062481196780240417 -0.01820299925554221 0 0.063177562445879853 -0.017484613220454609 0 0.063170484132838808 -0.016330734348416396 0 0.063505069541518369 -0.016563520369770757 0 0.063521384325299579 -0.016926204032226666 0 0.063961833912244706 -0.017381311973095195 0 0.063875524813047618 -0.016419143444091715 0 0.063521384325299579 -0.016926204032226666 0 0.063031583745882053 -0.016444016684899525 0 0.063170484132838808 -0.016330734348416396 0 0.063288457115931313 -0.01666439024742555 0 0.063191924090633095 -0.01470205075416656 0 0.062944213656848033 -0.014025364362927301 0 0.063031583745882053 -0.016444016684899525 0 0.063288457115931313 -0.01666439024742555 0 0.063110891891694346 -0.01677248654319248 0 0.063427922028820097 -0.016223521492957367 0 0.063170484132838808 -0.016330734348416396 0 0.063505069541518369 -0.016563520369770757 0 0.063875524813047618 -0.016419143444091715 0 0.063427922028820097 -0.016223521492957367 0 0.063505069541518369 -0.016563520369770757 0 0.063875524813047618 -0.016419143444091715 0 0.063505069541518369 -0.016563520369770757 0 0.063521384325299579 -0.016926204032226666 0 0.063288457115931313 -0.01666439024742555 0 0.063110891891694346 -0.01677248654319248 0 0.063266419185076792 -0.016836853031818491 0 0.06179215561913156 -0.011124090663315175 0 0.062944213656848033 -0.014025364362927301 0 0.063785715607256946 -0.017467653404619522 0 0.063961833912244706 -0.017381311973095195 0 0.063521384325299579 -0.016926204032226666 0 0.063402124262783952 -0.016916263000460053 0 0.063288457115931313 -0.01666439024742555 0 0.063266419185076792 -0.016836853031818491 0 0.062692131962485131 -0.014195339880312921 0 0.06179215561913156 -0.011124090663315175 0 0.063260281851257594 -0.016990603440487358 0 0.063402124262783952 -0.016916263000460053 0 0.063266419185076792 -0.016836853031818491 0 0.062692131962485131 -0.014195339880312921 0 0.062872701552671814 -0.016268975866202757 0 0.062121727222298515 -0.016716482066194922 0 0.062872701552671814 -0.016268975866202757 0 0.063260281851257594 -0.016990603440487358 0 0.063110891891694346 -0.01677248654319248 0 0.063266419185076792 -0.016836853031818491 0 0.063396288072814763 -0.01363457885773238 0 0.06255854048503634 -0.014057198784197483 0 0.063780314709240366 -0.016043274815901832 0 0.063777884682038766 -0.020936068786019394 0 0.063512076918157412 -0.019280771601613265 0 0.062555022285550849 -0.020251675658014511 0 0.062555022285550849 -0.020251675658014511 0 0.06221584763991541 -0.019179652696465422 0 0.061382720591035424 -0.020377237855336426 0 0.062555022285550849 -0.020251675658014511 0 0.06221584763991541 -0.019179652696465422 0 0.062853767744568939 -0.019335448036908322 0 0.063188939880050296 -0.018765605221131573 0 0.06221584763991541 -0.019179652696465422 0 0.062853767744568939 -0.019335448036908322 0 0.063512076918157412 -0.019280771601613265 0 0.062555022285550849 -0.020251675658014511 0 0.062853767744568939 -0.019335448036908322 0 0.063188939880050296 -0.018765605221131573 0 0.063512076918157412 -0.019280771601613265 0 0.062853767744568939 -0.019335448036908322 0 0.062922102347482106 -0.016372609087666388 0 0.062872701552671814 -0.016268975866202757 0 0.060905048916375215 -0.019501044545880114 0 0.059259983274377856 -0.019057750487855515 0 0.061311488606076596 -0.018139089488571798 0 0.06221584763991541 -0.019179652696465422 0 0.060905048916375215 -0.019501044545880114 0 0.061382720591035424 -0.020377237855336426 0 0.06221584763991541 -0.019179652696465422 0 0.060905048916375215 -0.019501044545880114 0 0.061311488606076596 -0.018139089488571798 0 0.060353086378663073 -0.020754440689471319 0 0.060905048916375215 -0.019501044545880114 0 0.061382720591035424 -0.020377237855336426 0 0.060353086378663073 -0.020754440689471319 0 0.060905048916375215 -0.019501044545880114 0 0.059259983274377856 -0.019057750487855515 0 0.058977223959784969 -0.021283103470704497 0 0.060353086378663073 -0.020754440689471319 0 0.059259983274377856 -0.019057750487855515 0 0.058977223959784969 -0.021283103470704497 0 0.059259983274377856 -0.019057750487855515 0 0.05698488846787874 -0.019439086074097691 0 0.059259983274377856 -0.019057750487855515 0 0.060271459175226069 -0.017060762444991356 0 0.058470063218339037 -0.016900028277595049 0 0.059259983274377856 -0.019057750487855515 0 0.061311488606076596 -0.018139089488571798 0 0.060271459175226069 -0.017060762444991356 0 0.06213158950638771 -0.016890358967175629 0 0.061311488606076596 -0.018139089488571798 0 0.060271459175226069 -0.017060762444991356 0 0.06213158950638771 -0.016890358967175629 0 0.060271459175226069 -0.017060762444991356 0 0.061375137270273342 -0.016025781006526428 0 0.060271459175226069 -0.017060762444991356 0 0.061375137270273342 -0.016025781006526428 0 0.059735176251762973 -0.015541642524352098 0 0.061375137270273342 -0.016025781006526428 0 0.060797704581210504 -0.014085190705335315 0 0.059735176251762973 -0.015541642524352098 0 0.059510882260227216 -0.011423084403024865 0 0.057114545137307883 -0.012470970629704668 0 0.060797704581210504 -0.014085190705335315 0 0.059735176251762973 -0.015541642524352098 0 0.057897592338174229 -0.013674830284940025 0 0.058470063218339037 -0.016900028277595049 0 0.059735176251762973 -0.015541642524352098 0 0.057897592338174229 -0.013674830284940025 0 0.060271459175226069 -0.017060762444991356 0 0.058470063218339037 -0.016900028277595049 0 0.059735176251762973 -0.015541642524352098 0 0.058470063218339037 -0.016900028277595049 0 0.056649952831961572 -0.016540697592437655 0 0.057897592338174229 -0.013674830284940025 0 0.054999992426201155 -0.015450885015800941 0 0.056649952831961572 -0.016540697592437655 0 0.057897592338174229 -0.013674830284940025 0 0.054999992426201155 -0.015450885015800941 0 0.05499999027038658 -0.013246839005620233 0 0.057897592338174229 -0.013674830284940025 0 0.054999992426201155 -0.015450885015800941 0 0.056649952831961572 -0.016540697592437655 0 0.05499999650063625 -0.017654850656470544 0 0.055001816552758556 -0.01765660210365105 0 0.056725727905678501 -0.01922663530716931 0 0.056649952831961572 -0.016540697592437655 0 0.05499999650063625 -0.017654850656470544 0 0.05698488846787874 -0.019439086074097691 0 0.059259983274377856 -0.019057750487855515 0 0.058470063218339037 -0.016900028277595049 0 0.05698488846787874 -0.019439086074097691 0 0.058470063218339037 -0.016900028277595049 0 0.056649952831961572 -0.016540697592437655 0 0.05698488846787874 -0.019439086074097691 0 0.057675019413349848 -0.020091252773905204 0 0.056725727905678501 -0.01922663530716931 0 0.056663576875061648 -0.021027116325177148 0 0.058977223959784969 -0.021283103470704497 0 0.05699526716799496 -0.019497184637156162 0 0.054999992495542341 -0.017654981584692808 0 0.05699526716799496 -0.019497184637156162 0 0.054999990810469516 -0.020618601572138389 0 0.056663576875061648 -0.021027116325177148 0 0.05699526716799496 -0.019497184637156162 0 0.054999990810469516 -0.020618601572138389 0 0.056466646630667673 -0.0079033951158337615 0 0.054999964464535221 -0.0076056331282841737 0 0.05615810356280914 -0.0090887282559571191 0 0.056466646630667673 -0.0079033951158337615 0 0.057289223623169891 -0.0087347427674602292 0 0.05615810356280914 -0.0090887282559571191 0 0.056466646630667673 -0.0079033951158337615 0 0.056132617827609831 -0.0068824116532336674 0 0.056973411618969891 -0.0071094323666487848 0 0.056466646630667673 -0.0079033951158337615 0 0.054999964464535221 -0.0076056331282841737 0 0.056132617827609831 -0.0068824116532336674 0 0.058244151153939848 -0.0079972276200594335 0 0.057289223623169891 -0.0087347427674602292 0 0.059123967873654433 -0.0089736256471992289 0 0.059673795281786318 -0.007200770392498358 0 0.057509349300328118 -0.0064158251843765739 0 0.057581576850319567 -0.0067583703020355837 0 0.056466646630667673 -0.0079033951158337615 0 0.056973411618969891 -0.0071094323666487848 0 0.057329059709495908 -0.0077369958880615861 0 0.056973411618969891 -0.0071094323666487848 0 0.057480581540222071 -0.0072467776044844818 0 0.057581576850319567 -0.0067583703020355837 0 0.056973411618969891 -0.0071094323666487848 0 0.057480581540222071 -0.0072467776044844818 0 0.057329059709495908 -0.0077369958880615861 0 0.057480581540222071 -0.0072467776044844818 0 0.058040387589701911 -0.0073888500698113743 0 0.057581576850319567 -0.0067583703020355837 0 0.057480581540222071 -0.0072467776044844818 0 0.058040387589701911 -0.0073888500698113743 0 0.057329059709495908 -0.0077369958880615861 0 0.058040387589701911 -0.0073888500698113743 0 0.058244151153939848 -0.0079972276200594335 0 0.057329059709495908 -0.0077369958880615861 0 0.058244151153939848 -0.0079972276200594335 0 0.057329059709495908 -0.0077369958880615861 0 0.057289223623169891 -0.0087347427674602292 0 0.056466646630667673 -0.0079033951158337615 0 0.057329059709495908 -0.0077369958880615861 0 0.057289223623169891 -0.0087347427674602292 0 0.056634514640992388 -0.010363272182916492 0 0.058170575010573246 -0.0084691289454361836 0 0.055826682500948799 -0.01022311955808858 0 0.056881869580109809 -0.0097211585442105661 0 0.056935520932361809 -0.0083645823113224736 0 0.057289223623169891 -0.0087347427674602292 0 0.05615810356280914 -0.0090887282559571191 0 0.0570685333059439 -0.010630298035946629 0 0.057289223623169891 -0.0087347427674602292 0 0.0570685333059439 -0.010630298035946629 0 0.059123967873654433 -0.0089736256471992289 0 0.054999966730541305 -0.0099825131148449184 0 0.05615810356280914 -0.0090887282559571191 0 0.0570685333059439 -0.010630298035946629 0 0.054999964464535221 -0.0076056331282841737 0 0.054999966730541305 -0.0099825131148449184 0 0.05615810356280914 -0.0090887282559571191 0 0.054999187388341989 -0.012359872433726177 0 0.055817579367712374 -0.011751035955329059 0 0.055826682500948799 -0.01022311955808858 0 0.054999966730541305 -0.0099825131148449184 0 0.055000003544782343 -0.012359350810944972 0 0.0570685333059439 -0.010630298035946629 0 0.055001477601816673 -0.012356810866514656 0 0.056634514640992388 -0.010363272182916492 0 0.054999187388341989 -0.012359872433726177 0 0.055000139003281177 -0.013244690339559438 0 0.055817579367712374 -0.011751035955329059 0 0.055000139003281177 -0.013244690339559438 0 0.055817579367712374 -0.011751035955329059 0 0.056394680870931677 -0.012096995524648992 0 0.055001798496284462 -0.01324513936830575 0 0.057114545137307883 -0.012470970629704668 0 0.055817579367712374 -0.011751035955329059 0 0.056394680870931677 -0.012096995524648992 0 0.057001208428917427 -0.010815236802569919 0 0.055826682500948799 -0.01022311955808858 0 0.056881869580109809 -0.0097211585442105661 0 0.057001208428917427 -0.010815236802569919 0 0.055817579367712374 -0.011751035955329059 0 0.055826682500948799 -0.01022311955808858 0 0.057001208428917427 -0.010815236802569919 0 0.056881869580109809 -0.0097211585442105661 0 0.057001208428917427 -0.010815236802569919 0 0.057822574087909077 -0.0094461303593960794 0 0.058088613575506348 -0.012007941487095336 0 0.056394680870931677 -0.012096995524648992 0 0.057001208428917427 -0.010815236802569919 0 0.058088613575506348 -0.012007941487095336 0 0.058379079313864608 -0.01035919743534471 0 0.058996797804642592 -0.010985174309378324 0 0.058088613575506348 -0.012007941487095336 0 0.057001208428917427 -0.010815236802569919 0 0.058379079313864608 -0.01035919743534471 0 0.057001208428917427 -0.010815236802569919 0 0.058379079313864608 -0.01035919743534471 0 0.057822574087909077 -0.0094461303593960794 0 0.058379079313864608 -0.01035919743534471 0 0.058697240966088748 -0.0089598628448838182 0 0.059175067154524301 -0.0094418276365453423 0 0.058379079313864608 -0.01035919743534471 0 0.057822574087909077 -0.0094461303593960794 0 0.058697240966088748 -0.0089598628448838182 0 0.057822574087909077 -0.0094461303593960794 0 0.058697240966088748 -0.0089598628448838182 0 0.05817234772832966 -0.0082149678464284309 0 0.057822574087909077 -0.0094461303593960794 0 0.05817234772832966 -0.0082149678464284309 0 0.056935520932361809 -0.0083645823113224736 0 0.058697240966088748 -0.0089598628448838182 0 0.05817234772832966 -0.0082149678464284309 0 0.059063067843338139 -0.0076482298633170969 0 0.056881869580109809 -0.0097211585442105661 0 0.057822574087909077 -0.0094461303593960794 0 0.056935520932361809 -0.0083645823113224736 0 0.059673795281786318 -0.007200770392498358 0 0.061802026361385036 -0.0069756469264362136 0 0.059148934410553855 -0.0055815309063175916 0 0.057913986492572879 -0.0059737252365993148 0 0.056911975549874358 -0.0054210440542993782 0 0.058040387589701911 -0.0073888500698113743 0 0.059673795281786318 -0.007200770392498358 0 0.057581576850319567 -0.0067583703020355837 0 0.059123967873654433 -0.0089736256471992289 0 0.059673795281786318 -0.007200770392498358 0 0.061802026361385036 -0.0069756469264362136 0 0.058244151153939848 -0.0079972276200594335 0 0.059123967873654433 -0.0089736256471992289 0 0.059673795281786318 -0.007200770392498358 0 0.058040387589701911 -0.0073888500698113743 0 0.058244151153939848 -0.0079972276200594335 0 0.059673795281786318 -0.007200770392498358 0 0.058170575010573246 -0.0084691289454361836 0 0.059657169132920879 -0.0065463926291836755 0 0.05817234772832966 -0.0082149678464284309 0 0.056935520932361809 -0.0083645823113224736 0 0.058335976833634055 -0.0066247768464152614 0 0.05817234772832966 -0.0082149678464284309 0 0.058335976833634055 -0.0066247768464152614 0 0.059063067843338139 -0.0076482298633170969 0 0.059504955407629283 -0.0064907409674229049 0 0.060059992947260339 -0.0070856638776859767 0 0.059063067843338139 -0.0076482298633170969 0 0.058335976833634055 -0.0066247768464152614 0 0.059504955407629283 -0.0064907409674229049 0 0.059063067843338139 -0.0076482298633170969 0 0.060059992947260339 -0.0070856638776859767 0 0.061154075376216956 -0.0064770903398461855 0 0.060270129043916494 -0.0059440100596071105 0 0.059504955407629283 -0.0064907409674229049 0 0.060059992947260339 -0.0070856638776859767 0 0.060270129043916494 -0.0059440100596071105 0 0.060059992947260339 -0.0070856638776859767 0 0.060738288831611364 -0.0080499063586332662 0 0.061154075376216956 -0.0064770903398461855 0 0.060059992947260339 -0.0070856638776859767 0 0.060738288831611364 -0.0080499063586332662 0 0.059701675541085519 -0.0084570340648417609 0 0.060738288831611364 -0.0080499063586332662 0 0.060293098439642666 -0.0087765872717934495 0 0.060701512500981249 -0.0091981215935270626 0 0.060738288831611364 -0.0080499063586332662 0 0.059701675541085519 -0.0084570340648417609 0 0.060293098439642666 -0.0087765872717934495 0 0.059701675541085519 -0.0084570340648417609 0 0.059785625308907402 -0.0092423842687494387 0 0.060293098439642666 -0.0087765872717934495 0 0.060059992947260339 -0.0070856638776859767 0 0.059701675541085519 -0.0084570340648417609 0 0.059063067843338139 -0.0076482298633170969 0 0.058697240966088748 -0.0089598628448838182 0 0.059701675541085519 -0.0084570340648417609 0 0.059063067843338139 -0.0076482298633170969 0 0.058697240966088748 -0.0089598628448838182 0 0.059701675541085519 -0.0084570340648417609 0 0.059175067154524301 -0.0094418276365453423 0 0.059175067154524301 -0.0094418276365453423 0 0.059785625308907402 -0.0092423842687494387 0 0.059351016412163705 -0.010104555174320747 0 0.059701675541085519 -0.0084570340648417609 0 0.059175067154524301 -0.0094418276365453423 0 0.059785625308907402 -0.0092423842687494387 0 0.059351016412163705 -0.010104555174320747 0 0.059726502608665841 -0.010532932745009526 0 0.060100667991504708 -0.0098295693844769553 0 0.059785625308907402 -0.0092423842687494387 0 0.059351016412163705 -0.010104555174320747 0 0.060100667991504708 -0.0098295693844769553 0 0.058379079313864608 -0.01035919743534471 0 0.059175067154524301 -0.0094418276365453423 0 0.059351016412163705 -0.010104555174320747 0 0.059351016412163705 -0.010104555174320747 0 0.058996797804642592 -0.010985174309378324 0 0.059726502608665841 -0.010532932745009526 0 0.060161305932012042 -0.012254300197974494 0 0.058996797804642592 -0.010985174309378324 0 0.059956161827824726 -0.011135466584057256 0 0.058379079313864608 -0.01035919743534471 0 0.059351016412163705 -0.010104555174320747 0 0.058996797804642592 -0.010985174309378324 0 0.058996797804642592 -0.010985174309378324 0 0.059726502608665841 -0.010532932745009526 0 0.059956161827824726 -0.011135466584057256 0 0.059726502608665841 -0.010532932745009526 0 0.059956161827824726 -0.011135466584057256 0 0.060266390636453684 -0.0105734285672921 0 0.061100041880361139 -0.0116755999145559 0 0.060544562049042815 -0.01106249125186059 0 0.060949062506841539 -0.010314893284343842 0 0.062515161515613607 -0.0073237995367229167 0 0.062587899779041598 -0.0073844636859854533 0 0.060161305932012042 -0.012254300197974494 0 0.059956161827824726 -0.011135466584057256 0 0.060544562049042815 -0.01106249125186059 0 0.060544562049042815 -0.01106249125186059 0 0.060266390636453684 -0.0105734285672921 0 0.060949062506841539 -0.010314893284343842 0 0.059956161827824726 -0.011135466584057256 0 0.060544562049042815 -0.01106249125186059 0 0.060266390636453684 -0.0105734285672921 0 0.059726502608665841 -0.010532932745009526 0 0.060266390636453684 -0.0105734285672921 0 0.060100667991504708 -0.0098295693844769553 0 0.060266390636453684 -0.0105734285672921 0 0.060949062506841539 -0.010314893284343842 0 0.060481433297637027 -0.0099891691864538064 0 0.060949062506841539 -0.010314893284343842 0 0.060481433297637027 -0.0099891691864538064 0 0.060701512500981249 -0.0091981215935270626 0 0.062587899779041598 -0.0073844636859854533 0 0.062544140751986402 -0.0076655632101256428 0 0.060763843102352784 -0.0097354604719312003 0 0.060701512500981249 -0.0091981215935270626 0 0.061338791214402923 -0.0093458800794238746 0 0.060266390636453684 -0.0105734285672921 0 0.060481433297637027 -0.0099891691864538064 0 0.060100667991504708 -0.0098295693844769553 0 0.060481433297637027 -0.0099891691864538064 0 0.060100667991504708 -0.0098295693844769553 0 0.060701512500981249 -0.0091981215935270626 0 0.060100667991504708 -0.0098295693844769553 0 0.060293098439642666 -0.0087765872717934495 0 0.060701512500981249 -0.0091981215935270626 0 0.059785625308907402 -0.0092423842687494387 0 0.060100667991504708 -0.0098295693844769553 0 0.060293098439642666 -0.0087765872717934495 0 0.060738288831611364 -0.0080499063586332662 0 0.060701512500981249 -0.0091981215935270626 0 0.061611866363670512 -0.0086625358156656555 0 0.061611866363670512 -0.0086625358156656555 0 0.061338791214402923 -0.0093458800794238746 0 0.062377971150426717 -0.0098582929207419057 0 0.060701512500981249 -0.0091981215935270626 0 0.061611866363670512 -0.0086625358156656555 0 0.061338791214402923 -0.0093458800794238746 0 0.060763843102352784 -0.0097354604719312003 0 0.061338791214402923 -0.0093458800794238746 0 0.062377971150426717 -0.0098582929207419057 0 0.062515161515613607 -0.0073237995367229167 0 0.062788647065576589 -0.006462231241326782 0 0.062587899779041598 -0.0073844636859854533 0 0.062788647065576589 -0.006462231241326782 0 0.062507388262938196 -0.0069812647463035086 0 0.062494931016326243 -0.0068908572290498739 0 0.062629055184325141 -0.0069010329818061213 0 0.060074662055945964 0.0044510549414577393 0 0.059420972678096776 0.0045158424472586511 0 0.060543085646082101 0.0052642569010123074 0 0.060801226743416779 0.0044786551274774052 0 0.060543085646082101 0.0052642569010123074 0 0.061963822773058001 0.0051589147610882052 0 0.062788647065576589 -0.006462231241326782 0 0.062985512480809566 -0.0035661498635558703 0 0.060801226743416779 0.0044786551274774052 0 0.060074662055945964 0.0044510549414577393 0 0.060543085646082101 0.0052642569010123074 0 0.062788647065576589 -0.006462231241326782 0 0.062767429388393789 -0.0072531518526959193 0 0.062377971150426717 -0.0098582929207419057 0 0.062749315397569616 -0.0080333991911097323 0 0.064287112991315953 -0.0084959201241295648 0 0.061611866363670512 -0.0086625358156656555 0 0.062377971150426717 -0.0098582929207419057 0 0.062749315397569616 -0.0080333991911097323 0 0.062749315397569616 -0.0080333991911097323 0 0.061723666465706914 -0.007553627392126323 0 0.062432315646007021 -0.0065242256141816246 0 0.062749315397569616 -0.0080333991911097323 0 0.062432315646007021 -0.0065242256141816246 0 0.063649951151091622 -0.0066610372733078979 0 0.061611866363670512 -0.0086625358156656555 0 0.062749315397569616 -0.0080333991911097323 0 0.061723666465706914 -0.007553627392126323 0 0.060738288831611364 -0.0080499063586332662 0 0.061723666465706914 -0.007553627392126323 0 0.061154075376216956 -0.0064770903398461855 0 0.060738288831611364 -0.0080499063586332662 0 0.061611866363670512 -0.0086625358156656555 0 0.061723666465706914 -0.007553627392126323 0 0.061154075376216956 -0.0064770903398461855 0 0.062432315646007021 -0.0065242256141816246 0 0.062117405046561117 -0.0050661904217112258 0 0.061723666465706914 -0.007553627392126323 0 0.061154075376216956 -0.0064770903398461855 0 0.062432315646007021 -0.0065242256141816246 0 0.062432315646007021 -0.0065242256141816246 0 0.063254725933317935 -0.0050424741943075188 0 0.062117405046561117 -0.0050661904217112258 0 0.062432315646007021 -0.0065242256141816246 0 0.063254725933317935 -0.0050424741943075188 0 0.063649951151091622 -0.0066610372733078979 0 0.063254725933317935 -0.0050424741943075188 0 0.062431738389597202 -0.0033156832162912239 0 0.063635224871863183 -0.0028623838897132896 0 0.063254725933317935 -0.0050424741943075188 0 0.062117405046561117 -0.0050661904217112258 0 0.062431738389597202 -0.0033156832162912239 0 0.062117405046561117 -0.0050661904217112258 0 0.061447665822334685 -0.0036084505422075996 0 0.060618867496193322 -0.0042071107566956957 0 0.061154075376216956 -0.0064770903398461855 0 0.062117405046561117 -0.0050661904217112258 0 0.060998440312115917 -0.0053156278831705062 0 0.061280254502037348 -0.0050756825837685073 0 0.060886138330729658 -0.0050068210931284605 0 0.061447665822334685 -0.0036084505422075996 0 0.060637086591068291 -0.0030906180390557541 0 0.060618867496193322 -0.0042071107566956957 0 0.062117405046561117 -0.0050661904217112258 0 0.061447665822334685 -0.0036084505422075996 0 0.062431738389597202 -0.0033156832162912239 0 0.061447665822334685 -0.0036084505422075996 0 0.061471532569033503 -0.0022780424670233324 0 0.062431738389597202 -0.0033156832162912239 0 0.061447665822334685 -0.0036084505422075996 0 0.061471532569033503 -0.0022780424670233324 0 0.060637086591068291 -0.0030906180390557541 0 0.061471532569033503 -0.0022780424670233324 0 0.062431738389597202 -0.0033156832162912239 0 0.062576585409303109 -0.0016273000761811221 0 0.062431738389597202 -0.0033156832162912239 0 0.062576585409303109 -0.0016273000761811221 0 0.063635224871863183 -0.0028623838897132896 0 0.062576585409303109 -0.0016273000761811221 0 0.061928457952112381 -0.00021524050377573714 0 0.063791869552461147 -0.00086178352337459624 0 0.062796538370037583 0.00088226866600634086 0 0.061928457952112381 -0.00021524050377573714 0 0.063791869552461147 -0.00086178352337459624 0 0.061471532569033503 -0.0022780424670233324 0 0.061928457952112381 -0.00021524050377573714 0 0.059997301757085904 -0.0020658921016263004 0 0.061471532569033503 -0.0022780424670233324 0 0.062576585409303109 -0.0016273000761811221 0 0.061928457952112381 -0.00021524050377573714 0 0.061928457952112381 -0.00021524050377573714 0 0.059997301757085904 -0.0020658921016263004 0 0.059571844584936841 -0.00072072575979700349 0 0.061224328823381843 0.0012466143476773806 0 0.061928457952112381 -0.00021524050377573714 0 0.060344540686784638 3.3369853179587321e-05 0 0.060990517211770387 -0.00028900456449013621 0 0.059945711020318877 -0.00038384642654740381 0 0.059945711020318877 -0.00038384642654740381 0 0.058235559466854651 -0.00055082987094204024 0 0.059997301757085904 -0.0020658921016263004 0 0.059571844584936841 -0.00072072575979700349 0 0.058627827195042968 -0.0018820987236588503 0 0.059571844584936841 -0.00072072575979700349 0 0.058627827195042968 -0.0018820987236588503 0 0.057887542638024293 -0.00099505974434148229 0 0.059997301757085904 -0.0020658921016263004 0 0.058627827195042968 -0.0018820987236588503 0 0.0591295331742741 -0.0027191418956695225 0 0.0591295331742741 -0.0027191418956695225 0 0.059468576667342135 -0.003462442671448547 0 0.057902886447685563 -0.0027916261273361236 0 0.0591295331742741 -0.0027191418956695225 0 0.059756130809000663 -0.0033190509990684625 0 0.059468576667342135 -0.003462442671448547 0 0.061471532569033503 -0.0022780424670233324 0 0.059997301757085904 -0.0020658921016263004 0 0.060637086591068291 -0.0030906180390557541 0 0.059997301757085904 -0.0020658921016263004 0 0.0591295331742741 -0.0027191418956695225 0 0.059756130809000663 -0.0033190509990684625 0 0.059997301757085904 -0.0020658921016263004 0 0.060637086591068291 -0.0030906180390557541 0 0.059756130809000663 -0.0033190509990684625 0 0.060886138330729658 -0.0050068210931284605 0 0.06033458017981283 -0.0049582795948119153 0 0.059756130809000663 -0.0033190509990684625 0 0.060618867496193322 -0.0042071107566956957 0 0.059357391662337881 -0.0036286408372403142 0 0.060998440312115917 -0.0053156278831705062 0 0.060270129043916494 -0.0059440100596071105 0 0.059801436550846326 -0.0051722733273044316 0 0.060341979643049201 -0.0049194984503454445 0 0.06033458017981283 -0.0049582795948119153 0 0.060637086591068291 -0.0030906180390557541 0 0.059756130809000663 -0.0033190509990684625 0 0.060618867496193322 -0.0042071107566956957 0 0.061154075376216956 -0.0064770903398461855 0 0.060998440312115917 -0.0053156278831705062 0 0.060270129043916494 -0.0059440100596071105 0 0.06033458017981283 -0.0049582795948119153 0 0.059119952308612306 -0.0039333459310404838 0 0.059657169132920879 -0.0065463926291836755 0 0.06033458017981283 -0.0049582795948119153 0 0.058335976833634055 -0.0066247768464152614 0 0.059504955407629283 -0.0064907409674229049 0 0.059801436550846326 -0.0051722733273044316 0 0.059504955407629283 -0.0064907409674229049 0 0.060270129043916494 -0.0059440100596071105 0 0.059801436550846326 -0.0051722733273044316 0 0.061802026361385036 -0.0069756469264362136 0 0.064761006538977775 -0.0045826190933624849 0 0.06065167108245087 -0.0035697323034659949 0 0.061802026361385036 -0.0069756469264362136 0 0.059148934410553855 -0.0055815309063175916 0 0.06065167108245087 -0.0035697323034659949 0 0.059148934410553855 -0.0055815309063175916 0 0.058061689757866242 -0.004145582008259722 0 0.06065167108245087 -0.0035697323034659949 0 0.059673795281786318 -0.007200770392498358 0 0.059148934410553855 -0.0055815309063175916 0 0.056515395230849662 -0.0057730548132688686 0 0.059148934410553855 -0.0055815309063175916 0 0.058061689757866242 -0.004145582008259722 0 0.057434986571879509 -0.0048602862703424447 0 0.059119952308612306 -0.0039333459310404838 0 0.057826937610941563 -0.0034177723670310179 0 0.058061689757866242 -0.004145582008259722 0 0.06065167108245087 -0.0035697323034659949 0 0.056386578085170204 -0.0024587713630552588 0 0.057902886447685563 -0.0027916261273361236 0 0.057499101794063805 -0.0019168349175319301 0 0.056386578085170204 -0.0024587713630552588 0 0.058627827195042968 -0.0018820987236588503 0 0.0591295331742741 -0.0027191418956695225 0 0.057902886447685563 -0.0027916261273361236 0 0.058627827195042968 -0.0018820987236588503 0 0.057902886447685563 -0.0027916261273361236 0 0.057499101794063805 -0.0019168349175319301 0 0.058627827195042968 -0.0018820987236588503 0 0.057887542638024293 -0.00099505974434148229 0 0.057499101794063805 -0.0019168349175319301 0 0.058837168149887487 0.0015358884214875684 0 0.060344540686784638 3.3369853179587321e-05 0 0.058573336141557422 -0.0001658566820191759 0 0.058573336141557422 -0.0001658566820191759 0 0.056203481978483266 -0.00074690774647428505 0 0.056896055042424912 0.00015276721548837272 0 0.057456897730105712 0.0010847176382046545 0 0.058573336141557422 -0.0001658566820191759 0 0.056896055042424912 0.00015276721548837272 0 0.058837168149887487 0.0015358884214875684 0 0.057456897730105712 0.0010847176382046545 0 0.058573336141557422 -0.0001658566820191759 0 0.058235559466854651 -0.00055082987094204024 0 0.057156145795781439 -0.00065206342375908927 0 0.057887542638024293 -0.00099505974434148229 0 0.057499101794063805 -0.0019168349175319301 0 0.056570412337863127 -0.0015504122104752693 0 0.057887542638024293 -0.00099505974434148229 0 0.056570412337863127 -0.0015504122104752693 0 0.056203481978483266 -0.00074690774647428505 0 0.056203481978483266 -0.00074690774647428505 0 0.05577324326724039 -0.00032783576298335077 0 0.055941658743877992 -0.0022062141569421036 0 0.056212363540793078 -0.0010061427379490903 0 0.056564363894645871 -0.0032267363092527823 0 0.056570412337863127 -0.0015504122104752693 0 0.056203481978483266 -0.00074690774647428505 0 0.055941658743877992 -0.0022062141569421036 0 0.056203481978483266 -0.00074690774647428505 0 0.056896055042424912 0.00015276721548837272 0 0.05577324326724039 -0.00032783576298335077 0 0.056405424915956126 0.00092931744278883384 0 0.056896055042424912 0.00015276721548837272 0 0.05577324326724039 -0.00032783576298335077 0 0.057456897730105712 0.0010847176382046545 0 0.056405424915956126 0.00092931744278883384 0 0.056896055042424912 0.00015276721548837272 0 0.055585111415779813 0.0017866735127063998 0 0.056405424915956126 0.00092931744278883384 0 0.05577324326724039 -0.00032783576298335077 0 0.055900192031742714 0.00095282651209794178 0 0.056212363540793078 -0.0010061427379490903 0 0.054999985471921434 0.0012639684095748849 0 0.05663589254290971 -0.0014013084139714986 0 0.054999996145435388 -0.0019825026927127168 0 0.054999996145435388 -0.0019825026927127168 0 0.056203787357363449 -0.0027863599555631273 0 0.054999997291502241 -0.0052287885751188075 0 0.05663589254290971 -0.0014013084139714986 0 0.056203787357363449 -0.0027863599555631273 0 0.057107639092655961 -0.0039172843378458078 0 0.05663589254290971 -0.0014013084139714986 0 0.054999996145435388 -0.0019825026927127168 0 0.056203787357363449 -0.0027863599555631273 0 0.056203787357363449 -0.0027863599555631273 0 0.057107639092655961 -0.0039172843378458078 0 0.054999997291502241 -0.0052287885751188075 0 0.057499101794063805 -0.0019168349175319301 0 0.056570412337863127 -0.0015504122104752693 0 0.056386578085170204 -0.0024587713630552588 0 0.056570412337863127 -0.0015504122104752693 0 0.056386578085170204 -0.0024587713630552588 0 0.055941658743877992 -0.0022062141569421036 0 0.058061689757866242 -0.004145582008259722 0 0.056386578085170204 -0.0024587713630552588 0 0.056807718754288881 -0.0038544133153885717 0 0.055941658743877992 -0.0022062141569421036 0 0.056807718754288881 -0.0038544133153885717 0 0.056658645392990807 -0.0043927464316036429 0 0.056386578085170204 -0.0024587713630552588 0 0.055941658743877992 -0.0022062141569421036 0 0.056807718754288881 -0.0038544133153885717 0 0.059148934410553855 -0.0055815309063175916 0 0.057434986571879509 -0.0048602862703424447 0 0.056515395230849662 -0.0057730548132688686 0 0.055941658743877992 -0.0022062141569421036 0 0.056658645392990807 -0.0043927464316036429 0 0.056515395230849662 -0.0057730548132688686 0 0.056564363894645871 -0.0032267363092527823 0 0.056911975549874358 -0.0054210440542993782 0 0.058061689757866242 -0.004145582008259722 0 0.056807718754288881 -0.0038544133153885717 0 0.057434986571879509 -0.0048602862703424447 0 0.056658645392990807 -0.0043927464316036429 0 0.057434986571879509 -0.0048602862703424447 0 0.056515395230849662 -0.0057730548132688686 0 0.056807718754288881 -0.0038544133153885717 0 0.056658645392990807 -0.0043927464316036429 0 0.057434986571879509 -0.0048602862703424447 0 0.056911975549874358 -0.0054210440542993782 0 0.056917947230574729 -0.0054429104358974297 0 0.056132617827609831 -0.0068824116532336674 0 0.056973411618969891 -0.0071094323666487848 0 0.057526045385223455 -0.0064233943060278981 0 0.056973411618969891 -0.0071094323666487848 0 0.057526045385223455 -0.0064233943060278981 0 0.057581576850319567 -0.0067583703020355837 0 0.054999964464535221 -0.0076056331282841737 0 0.056132617827609831 -0.0068824116532336674 0 0.054999998572217067 -0.005228884827108404 0 0.056911975549874358 -0.0054210440542993782 0 0.055002353027961005 -0.0052287058544425204 0 0.057107639092655961 -0.0039172843378458078 0 0.057577872589622894 -0.0064198340303357289 0 0.054999997291502241 -0.0052287885751188075 0 0.056132617827609831 -0.0068824116532336674 0 0.057526045385223455 -0.0064233943060278981 0 0.054999998572217067 -0.005228884827108404 0 0.063461913965710701 0.0026285464781168129 0 0.064055900536510516 0.0013386168862126453 0 0.063162822060175206 0.0017902045210855129 0 0.063461913965710701 0.0026285464781168129 0 0.062424164901339244 0.0027332253989454688 0 0.062848724681508442 0.0033967886450668996 0 0.063461913965710701 0.0026285464781168129 0 0.063162822060175206 0.0017902045210855129 0 0.062424164901339244 0.0027332253989454688 0 0.063461913965710701 0.0026285464781168129 0 0.064144983528665614 0.0023207113274997509 0 0.064055900536510516 0.0013386168862126453 0 0.063461913965710701 0.0026285464781168129 0 0.064144983528665614 0.0023207113274997509 0 0.063923215726717469 0.0030911805905733491 0 0.064055900536510516 0.0013386168862126453 0 0.063162822060175206 0.0017902045210855129 0 0.063478143674529003 0.00067421595664165839 0 0.063162822060175206 0.0017902045210855129 0 0.062226419714152229 0.0011132130905332099 0 0.063478143674529003 0.00067421595664165839 0 0.062226419714152229 0.0011132130905332099 0 0.062334101007809839 0.0019975516217581998 0 0.061425265897014997 0.0023552916888105353 0 0.063162822060175206 0.0017902045210855129 0 0.062226419714152229 0.0011132130905332099 0 0.062334101007809839 0.0019975516217581998 0 0.062226419714152229 0.0011132130905332099 0 0.060972355521380583 0.0015936512427106161 0 0.061425265897014997 0.0023552916888105353 0 0.060972355521380583 0.0015936512427106161 0 0.060497867859351982 0.00090987925537296642 0 0.05985870203542467 0.0016773784259353805 0 0.062226419714152229 0.0011132130905332099 0 0.060972355521380583 0.0015936512427106161 0 0.061387106847145358 0.00082603125328294049 0 0.060972355521380583 0.0015936512427106161 0 0.060497867859351982 0.00090987925537296642 0 0.061387106847145358 0.00082603125328294049 0 0.060972355521380583 0.0015936512427106161 0 0.060183601987708758 0.0024769288737459794 0 0.061425265897014997 0.0023552916888105353 0 0.060972355521380583 0.0015936512427106161 0 0.060183601987708758 0.0024769288737459794 0 0.05985870203542467 0.0016773784259353805 0 0.060183601987708758 0.0024769288737459794 0 0.061425265897014997 0.0023552916888105353 0 0.060270542113606482 0.0032287008526614169 0 0.061425265897014997 0.0023552916888105353 0 0.060270542113606482 0.0032287008526614169 0 0.06126930491264021 0.0033419977920479973 0 0.063162822060175206 0.0017902045210855129 0 0.062334101007809839 0.0019975516217581998 0 0.062424164901339244 0.0027332253989454688 0 0.062334101007809839 0.0019975516217581998 0 0.061425265897014997 0.0023552916888105353 0 0.062424164901339244 0.0027332253989454688 0 0.061425265897014997 0.0023552916888105353 0 0.062424164901339244 0.0027332253989454688 0 0.06126930491264021 0.0033419977920479973 0 0.062424164901339244 0.0027332253989454688 0 0.062135198245943837 0.0035874803864030984 0 0.062848724681508442 0.0033967886450668996 0 0.062424164901339244 0.0027332253989454688 0 0.062135198245943837 0.0035874803864030984 0 0.06126930491264021 0.0033419977920479973 0 0.062135198245943837 0.0035874803864030984 0 0.061397485480358859 0.0043977055714478092 0 0.062508138727424806 0.0039660615775812163 0 0.062135198245943837 0.0035874803864030984 0 0.062508138727424806 0.0039660615775812163 0 0.062848724681508442 0.0033967886450668996 0 0.060270542113606482 0.0032287008526614169 0 0.060288765238830422 0.0037901587876178621 0 0.06126930491264021 0.0033419977920479973 0 0.062135198245943837 0.0035874803864030984 0 0.06126930491264021 0.0033419977920479973 0 0.061397485480358859 0.0043977055714478092 0 0.060288765238830422 0.0037901587876178621 0 0.06126930491264021 0.0033419977920479973 0 0.061397485480358859 0.0043977055714478092 0 0.060288765238830422 0.0037901587876178621 0 0.061397485480358859 0.0043977055714478092 0 0.059813782182766291 0.0044470104350385255 0 0.062476104169636344 0.0068242306904721722 0 0.061397485480358859 0.0043977055714478092 0 0.060142106054834478 0.0057744763016929802 0 0.061397485480358859 0.0043977055714478092 0 0.060142106054834478 0.0057744763016929802 0 0.059813782182766291 0.0044470104350385255 0 0.059713355798339668 0.004176439599118998 0 0.060238666822825977 0.0045601379680322556 0 0.062791985700467887 0.0041845793694864465 0 0.061397485480358859 0.0043977055714478092 0 0.062411455199320717 0.0041794645795684383 0 0.061397485480358859 0.0043977055714478092 0 0.062508138727424806 0.0039660615775812163 0 0.062411455199320717 0.0041794645795684383 0 0.062508138727424806 0.0039660615775812163 0 0.062411455199320717 0.0041794645795684383 0 0.062859985748001293 0.0040804139690405646 0 0.062791985700467887 0.0041845793694864465 0 0.062411455199320717 0.0041794645795684383 0 0.062859985748001293 0.0040804139690405646 0 0.062859985748001293 0.0040804139690405646 0 0.063216357153322619 0.0039461249974140971 0 0.063074507324257498 0.0037941360755581019 0 0.063216357153322619 0.0039461249974140971 0 0.063074507324257498 0.0037941360755581019 0 0.063484963979876921 0.0038029775370785955 0 0.063074507324257498 0.0037941360755581019 0 0.063460137976490152 0.0034223482310869794 0 0.063484963979876921 0.0038029775370785955 0 0.062508138727424806 0.0039660615775812163 0 0.062859985748001293 0.0040804139690405646 0 0.063074507324257498 0.0037941360755581019 0 0.062508138727424806 0.0039660615775812163 0 0.063074507324257498 0.0037941360755581019 0 0.062848724681508442 0.0033967886450668996 0 0.063461913965710701 0.0026285464781168129 0 0.062848724681508442 0.0033967886450668996 0 0.063460137976490152 0.0034223482310869794 0 0.063074507324257498 0.0037941360755581019 0 0.062848724681508442 0.0033967886450668996 0 0.063460137976490152 0.0034223482310869794 0 0.063461913965710701 0.0026285464781168129 0 0.063923215726717469 0.0030911805905733491 0 0.063460137976490152 0.0034223482310869794 0 0.063923215726717469 0.0030911805905733491 0 0.063460137976490152 0.0034223482310869794 0 0.063785624692676929 0.0035977477835380215 0 0.063460137976490152 0.0034223482310869794 0 0.063785624692676929 0.0035977477835380215 0 0.063484963979876921 0.0038029775370785955 0 0.063717499374212935 0.0038379933680714779 0 0.063785624692676929 0.0035977477835380215 0 0.063484963979876921 0.0038029775370785955 0 0.063717499374212935 0.0038379933680714779 0 0.063785624692676929 0.0035977477835380215 0 0.063961727634405843 0.0037589283114579921 0 0.063785624692676929 0.0035977477835380215 0 0.063961727634405843 0.0037589283114579921 0 0.064085726184204259 0.0033896979403933961 0 0.063961727634405843 0.0037589283114579921 0 0.064368568293379891 0.0034283916888440008 0 0.064085726184204259 0.0033896979403933961 0 0.063961727634405843 0.0037589283114579921 0 0.064159347305555114 0.0037014624702495936 0 0.064368568293379891 0.0034283916888440008 0 0.063961727634405843 0.0037589283114579921 0 0.063981656544581308 0.0038612221660848027 0 0.064159347305555114 0.0037014624702495936 0 0.063784421264750035 0.0038795009172825712 0 0.063961727634405843 0.0037589283114579921 0 0.063981656544581308 0.0038612221660848027 0 0.063614660624525587 0.0040153992415754127 0 0.063981656544581308 0.0038612221660848027 0 0.06438758737933474 0.0037182703563977001 0 0.063981656544581308 0.0038612221660848027 0 0.06438758737933474 0.0037182703563977001 0 0.064354857727517464 0.003719331810431051 0 0.063981656544581308 0.0038612221660848027 0 0.064159347305555114 0.0037014624702495936 0 0.064354857727517464 0.003719331810431051 0 0.062657055765188277 0.00010761398823841966 0 0.062619945390369885 -0.0012974161743211842 0 0.063614660624525587 0.0040153992415754127 0 0.063539073685168743 0.0050301705397523423 0 0.062680089183171028 0.0045457844081325995 0 0.062619945390369885 -0.0012974161743211842 0 0.062632692954685043 -0.0012869574768172754 0 0.064159347305555114 0.0037014624702495936 0 0.064354857727517464 0.003719331810431051 0 0.064368568293379891 0.0034283916888440008 0 0.064499884094195215 0.0037069825669837899 0 0.064354857727517464 0.003719331810431051 0 0.064368568293379891 0.0034283916888440008 0 0.062619945390369885 -0.0012974161743211842 0 0.064263671239817438 -0.0024519924282882574 0 0.064499884094195215 0.0037069825669837899 0 0.064368568293379891 0.0034283916888440008 0 0.0652617984074189 0.0026086823054954655 0 0.064368568293379891 0.0034283916888440008 0 0.064475649520397471 0.0028410715656934644 0 0.0652617984074189 0.0026086823054954655 0 0.066702391963614382 -0.010167074148922031 0 0.065547510934231917 -0.0089725846677219112 0 0.066624133256535309 -0.0080983285143544793 0 0.064144983528665614 0.0023207113274997509 0 0.063923215726717469 0.0030911805905733491 0 0.064475649520397471 0.0028410715656934644 0 0.063923215726717469 0.0030911805905733491 0 0.063785624692676929 0.0035977477835380215 0 0.064085726184204259 0.0033896979403933961 0 0.063923215726717469 0.0030911805905733491 0 0.064475649520397471 0.0028410715656934644 0 0.064085726184204259 0.0033896979403933961 0 0.064368568293379891 0.0034283916888440008 0 0.064475649520397471 0.0028410715656934644 0 0.064085726184204259 0.0033896979403933961 0 0.06198457600748588 0.0043639100012846229 0 0.060801226743416779 0.0044786551274774052 0 0.061963822773058001 0.0051589147610882052 0 0.063539073685168743 0.0050301705397523423 0 0.061963822773058001 0.0051589147610882052 0 0.062680089183171028 0.0045457844081325995 0 0.062619945390369885 -0.0012974161743211842 0 0.062985512480809566 -0.0035661498635558703 0 0.066702391963614382 -0.010167074148922031 0 0.064478001086571562 -0.0099750879339800345 0 0.065547510934231917 -0.0089725846677219112 0 0.06198457600748588 0.0043639100012846229 0 0.061963822773058001 0.0051589147610882052 0 0.062680089183171028 0.0045457844081325995 0 0.062307489250375707 -0.0097773489527274177 0 0.064478001086571562 -0.0099750879339800345 0 0.064287112991315953 -0.0084959201241295648 0 0.064478001086571562 -0.0099750879339800345 0 0.065547510934231917 -0.0089725846677219112 0 0.064287112991315953 -0.0084959201241295648 0 0.062749315397569616 -0.0080333991911097323 0 0.064287112991315953 -0.0084959201241295648 0 0.063649951151091622 -0.0066610372733078979 0 0.064287112991315953 -0.0084959201241295648 0 0.065211464401898026 -0.0071791945365174666 0 0.063649951151091622 -0.0066610372733078979 0 0.065547510934231917 -0.0089725846677219112 0 0.064287112991315953 -0.0084959201241295648 0 0.065211464401898026 -0.0071791945365174666 0 0.065211464401898026 -0.0071791945365174666 0 0.066624133256535309 -0.0080983285143544793 0 0.066519648139768239 -0.0058602366109426745 0 0.065547510934231917 -0.0089725846677219112 0 0.065211464401898026 -0.0071791945365174666 0 0.066624133256535309 -0.0080983285143544793 0 0.065211464401898026 -0.0071791945365174666 0 0.066519648139768239 -0.0058602366109426745 0 0.064666633140744917 -0.0047340849827491559 0 0.065211464401898026 -0.0071791945365174666 0 0.063649951151091622 -0.0066610372733078979 0 0.064666633140744917 -0.0047340849827491559 0 0.063254725933317935 -0.0050424741943075188 0 0.063649951151091622 -0.0066610372733078979 0 0.064666633140744917 -0.0047340849827491559 0 0.064144983528665614 0.0023207113274997509 0 0.064475649520397471 0.0028410715656934644 0 0.064768686308457918 0.0017902919434056145 0 0.0652617984074189 0.0026086823054954655 0 0.06569213960742798 0.0011880661362718317 0 0.064768686308457918 0.0017902919434056145 0 0.064263671239817438 -0.0024519924282882574 0 0.065049093081085266 -0.0023104134941782889 0 0.064475649520397471 0.0028410715656934644 0 0.0652617984074189 0.0026086823054954655 0 0.064768686308457918 0.0017902919434056145 0 0.06569213960742798 0.0011880661362718317 0 0.064768686308457918 0.0017902919434056145 0 0.064960657004962424 0.00030186310230565503 0 0.064055900536510516 0.0013386168862126453 0 0.064768686308457918 0.0017902919434056145 0 0.064960657004962424 0.00030186310230565503 0 0.064144983528665614 0.0023207113274997509 0 0.064055900536510516 0.0013386168862126453 0 0.064768686308457918 0.0017902919434056145 0 0.065049093081085266 -0.0023104134941782889 0 0.065334630723151182 -0.00189178278175355 0 0.06569213960742798 0.0011880661362718317 0 0.064960657004962424 0.00030186310230565503 0 0.065710697346374095 -0.00015513156237726149 0 0.064960657004962424 0.00030186310230565503 0 0.065213431504645925 -0.00059943989459011586 0 0.065710697346374095 -0.00015513156237726149 0 0.065213431504645925 -0.00059943989459011586 0 0.065710697346374095 -0.00015513156237726149 0 0.065310828087094291 -0.0010246657882526772 0 0.065334630723151182 -0.00189178278175355 0 0.065362674800275467 -0.0016021253086815929 0 0.064960657004962424 0.00030186310230565503 0 0.065213431504645925 -0.00059943989459011586 0 0.064872475120742401 -0.00059953609988448232 0 0.064960657004962424 0.00030186310230565503 0 0.064872475120742401 -0.00059953609988448232 0 0.064333533353778644 -1.5905287141297184e-05 0 0.063254725933317935 -0.0050424741943075188 0 0.064666633140744917 -0.0047340849827491559 0 0.063635224871863183 -0.0028623838897132896 0 0.066519648139768239 -0.0058602366109426745 0 0.066208325114202979 -0.0034399027751663264 0 0.064666633140744917 -0.0047340849827491559 0 0.066208325114202979 -0.0034399027751663264 0 0.064810555372643741 -0.002336560221919002 0 0.065310828087094291 -0.0010246657882526772 0 0.066208325114202979 -0.0034399027751663264 0 0.064666633140744917 -0.0047340849827491559 0 0.064810555372643741 -0.002336560221919002 0 0.064666633140744917 -0.0047340849827491559 0 0.064810555372643741 -0.002336560221919002 0 0.063635224871863183 -0.0028623838897132896 0 0.062576585409303109 -0.0016273000761811221 0 0.063635224871863183 -0.0028623838897132896 0 0.063791869552461147 -0.00086178352337459624 0 0.064810555372643741 -0.002336560221919002 0 0.063635224871863183 -0.0028623838897132896 0 0.063791869552461147 -0.00086178352337459624 0 0.064810555372643741 -0.002336560221919002 0 0.063791869552461147 -0.00086178352337459624 0 0.065310828087094291 -0.0010246657882526772 0 0.064266125586580458 0.00042968858905690775 0 0.063791869552461147 -0.00086178352337459624 0 0.065310828087094291 -0.0010246657882526772 0 0.064981736181475486 -1.5995521859061376e-06 0 0.064266125586580458 0.00042968858905690775 0 0.065310828087094291 -0.0010246657882526772 0 0.064266125586580458 0.00042968858905690775 0 0.062796538370037583 0.00088226866600634086 0 0.063791869552461147 -0.00086178352337459624 0 0.064872475120742401 -0.00059953609988448232 0 0.065080414619288124 -0.0009080407695235248 0 0.064637219565220436 -0.0010360457610637309 0 0.065213431504645925 -0.00059943989459011586 0 0.064872475120742401 -0.00059953609988448232 0 0.065080414619288124 -0.0009080407695235248 0 0.065080414619288124 -0.0009080407695235248 0 0.064908759675519359 -0.00099959416663927283 0 0.064637219565220436 -0.0010360457610637309 0 0.065213431504645925 -0.00059943989459011586 0 0.065080414619288124 -0.0009080407695235248 0 0.065310828087094291 -0.0010246657882526772 0 0.064981736181475486 -1.5995521859061376e-06 0 0.065080414619288124 -0.0009080407695235248 0 0.065310828087094291 -0.0010246657882526772 0 0.064981736181475486 -1.5995521859061376e-06 0 0.065080414619288124 -0.0009080407695235248 0 0.064908759675519359 -0.00099959416663927283 0 0.064865392144550296 -0.00021300823885103242 0 0.064908759675519359 -0.00099959416663927283 0 0.064905328657971037 -0.0011183730772138434 0 0.064908759675519359 -0.00099959416663927283 0 0.064905328657971037 -0.0011183730772138434 0 0.064633196529306269 -0.0016025726449838396 0 0.064905328657971037 -0.0011183730772138434 0 0.064850753012665727 -0.0019466063194505414 0 0.064633196529306269 -0.0016025726449838396 0 0.065180416543204014 -0.0007743137080163027 0 0.064905328657971037 -0.0011183730772138434 0 0.064850753012665727 -0.0019466063194505414 0 0.064850753012665727 -0.0019466063194505414 0 0.064633196529306269 -0.0016025726449838396 0 0.064314862416853164 -0.002145728360164014 0 0.064633196529306269 -0.0016025726449838396 0 0.064123848997167512 -0.0013287795737744843 0 0.064637219565220436 -0.0010360457610637309 0 0.064633196529306269 -0.0016025726449838396 0 0.064123848997167512 -0.0013287795737744843 0 0.064314862416853164 -0.002145728360164014 0 0.064908759675519359 -0.00099959416663927283 0 0.064633196529306269 -0.0016025726449838396 0 0.064637219565220436 -0.0010360457610637309 0 0.064872475120742401 -0.00059953609988448232 0 0.064637219565220436 -0.0010360457610637309 0 0.064333533353778644 -1.5905287141297184e-05 0 0.064637219565220436 -0.0010360457610637309 0 0.063846922757624769 -0.0004494403586435921 0 0.064333533353778644 -1.5905287141297184e-05 0 0.064123848997167512 -0.0013287795737744843 0 0.064637219565220436 -0.0010360457610637309 0 0.063846922757624769 -0.0004494403586435921 0 0.064123848997167512 -0.0013287795737744843 0 0.063846922757624769 -0.0004494403586435921 0 0.063381621941926147 -0.00083464688318640083 0 0.063846922757624769 -0.0004494403586435921 0 0.062913203915974311 0.00013478285929308318 0 0.063381621941926147 -0.00083464688318640083 0 0.063846922757624769 -0.0004494403586435921 0 0.063478143674529003 0.00067421595664165839 0 0.062913203915974311 0.00013478285929308318 0 0.063846922757624769 -0.0004494403586435921 0 0.063478143674529003 0.00067421595664165839 0 0.064333533353778644 -1.5905287141297184e-05 0 0.064055900536510516 0.0013386168862126453 0 0.063478143674529003 0.00067421595664165839 0 0.064333533353778644 -1.5905287141297184e-05 0 0.064055900536510516 0.0013386168862126453 0 0.064960657004962424 0.00030186310230565503 0 0.064333533353778644 -1.5905287141297184e-05 0 0.061089663769304352 0.0002159395772831419 0 0.061661897470863487 -0.00053689261813323825 0 0.060658143677848449 -0.00052275072264019182 0 0.061089663769304352 0.0002159395772831419 0 0.062008962769725805 0.00022678482350009212 0 0.061661897470863487 -0.00053689261813323825 0 0.061089663769304352 0.0002159395772831419 0 0.060658143677848449 -0.00052275072264019182 0 0.059997498757032704 0.00010666214856665006 0 0.061089663769304352 0.0002159395772831419 0 0.060497867859351982 0.00090987925537296642 0 0.059997498757032704 0.00010666214856665006 0 0.061089663769304352 0.0002159395772831419 0 0.061387106847145358 0.00082603125328294049 0 0.062008962769725805 0.00022678482350009212 0 0.061089663769304352 0.0002159395772831419 0 0.060497867859351982 0.00090987925537296642 0 0.061387106847145358 0.00082603125328294049 0 0.062226419714152229 0.0011132130905332099 0 0.061387106847145358 0.00082603125328294049 0 0.062008962769725805 0.00022678482350009212 0 0.062226419714152229 0.0011132130905332099 0 0.063478143674529003 0.00067421595664165839 0 0.062913203915974311 0.00013478285929308318 0 0.062226419714152229 0.0011132130905332099 0 0.062913203915974311 0.00013478285929308318 0 0.062008962769725805 0.00022678482350009212 0 0.062008962769725805 0.00022678482350009212 0 0.062599667975445639 -0.0004539678561213529 0 0.061661897470863487 -0.00053689261813323825 0 0.062913203915974311 0.00013478285929308318 0 0.062008962769725805 0.00022678482350009212 0 0.062599667975445639 -0.0004539678561213529 0 0.062599667975445639 -0.0004539678561213529 0 0.06218854094503156 -0.0015516232865448148 0 0.061661897470863487 -0.00053689261813323825 0 0.062913203915974311 0.00013478285929308318 0 0.062599667975445639 -0.0004539678561213529 0 0.063381621941926147 -0.00083464688318640083 0 0.062599667975445639 -0.0004539678561213529 0 0.063381621941926147 -0.00083464688318640083 0 0.063339594056887716 -0.0015407994401431765 0 0.064123848997167512 -0.0013287795737744843 0 0.063381621941926147 -0.00083464688318640083 0 0.063339594056887716 -0.0015407994401431765 0 0.062599667975445639 -0.0004539678561213529 0 0.06218854094503156 -0.0015516232865448148 0 0.063339594056887716 -0.0015407994401431765 0 0.061296566394095711 -0.0012043029921578641 0 0.06218854094503156 -0.0015516232865448148 0 0.061661897470863487 -0.00053689261813323825 0 0.061296566394095711 -0.0012043029921578641 0 0.06218854094503156 -0.0015516232865448148 0 0.06048994077258546 -0.0020034370849117268 0 0.061296566394095711 -0.0012043029921578641 0 0.061661897470863487 -0.00053689261813323825 0 0.060658143677848449 -0.00052275072264019182 0 0.060658143677848449 -0.00052275072264019182 0 0.06048994077258546 -0.0020034370849117268 0 0.05950632866193252 -0.0009295493088736376 0 0.061296566394095711 -0.0012043029921578641 0 0.060658143677848449 -0.00052275072264019182 0 0.06048994077258546 -0.0020034370849117268 0 0.06218854094503156 -0.0015516232865448148 0 0.061926756672043073 -0.0027087137595980973 0 0.063412414010848073 -0.0023880758887394331 0 0.06218854094503156 -0.0015516232865448148 0 0.06048994077258546 -0.0020034370849117268 0 0.061926756672043073 -0.0027087137595980973 0 0.06048994077258546 -0.0020034370849117268 0 0.061926756672043073 -0.0027087137595980973 0 0.060596552099301565 -0.0037318002743141495 0 0.064123848997167512 -0.0013287795737744843 0 0.063339594056887716 -0.0015407994401431765 0 0.064314862416853164 -0.002145728360164014 0 0.06218854094503156 -0.0015516232865448148 0 0.063339594056887716 -0.0015407994401431765 0 0.063412414010848073 -0.0023880758887394331 0 0.063412414010848073 -0.0023880758887394331 0 0.064314862416853164 -0.002145728360164014 0 0.064585535327891713 -0.0030504318869047004 0 0.063339594056887716 -0.0015407994401431765 0 0.063412414010848073 -0.0023880758887394331 0 0.064314862416853164 -0.002145728360164014 0 0.062943123395760317 -0.0078524099671288504 0 0.064585535327891713 -0.0030504318869047004 0 0.062486929271071225 -0.00470296512123786 0 0.064850753012665727 -0.0019466063194505414 0 0.064314862416853164 -0.002145728360164014 0 0.064585535327891713 -0.0030504318869047004 0 0.063412414010848073 -0.0023880758887394331 0 0.064585535327891713 -0.0030504318869047004 0 0.062486929271071225 -0.00470296512123786 0 0.065681635280885206 -0.0015275756892327338 0 0.064850753012665727 -0.0019466063194505414 0 0.064585535327891713 -0.0030504318869047004 0 0.060596552099301565 -0.0037318002743141495 0 0.062486929271071225 -0.00470296512123786 0 0.060367455415111883 -0.005381839043051651 0 0.061926756672043073 -0.0027087137595980973 0 0.063412414010848073 -0.0023880758887394331 0 0.062486929271071225 -0.00470296512123786 0 0.061926756672043073 -0.0027087137595980973 0 0.060596552099301565 -0.0037318002743141495 0 0.062486929271071225 -0.00470296512123786 0 0.061078554415801296 -0.0063659347232786802 0 0.062486929271071225 -0.00470296512123786 0 0.060367455415111883 -0.005381839043051651 0 0.061078554415801296 -0.0063659347232786802 0 0.060020632403181479 -0.0069031356231447636 0 0.060367455415111883 -0.005381839043051651 0 0.060367455415111883 -0.005381839043051651 0 0.059154811406751745 -0.0061003650283068984 0 0.058921965774591405 -0.004778391103490179 0 0.060020632403181479 -0.0069031356231447636 0 0.060367455415111883 -0.005381839043051651 0 0.059154811406751745 -0.0061003650283068984 0 0.060596552099301565 -0.0037318002743141495 0 0.060367455415111883 -0.005381839043051651 0 0.058921965774591405 -0.004778391103490179 0 0.058921965774591405 -0.004778391103490179 0 0.056783518393912949 -0.0053028681098277975 0 0.058054084244700106 -0.003722728544547067 0 0.059154811406751745 -0.0061003650283068984 0 0.058921965774591405 -0.004778391103490179 0 0.057705050639154938 -0.0064710038499320877 0 0.055569822928265615 -0.0071288497569456767 0 0.056783518393912949 -0.0053028681098277975 0 0.054020595308636239 -0.005755221588183734 0 0.055569822928265615 -0.0071288497569456767 0 0.057705050639154938 -0.0064710038499320877 0 0.056783518393912949 -0.0053028681098277975 0 0.056783518393912949 -0.0053028681098277975 0 0.056007294103487357 -0.0039178678456302102 0 0.054020595308636239 -0.005755221588183734 0 0.058921965774591405 -0.004778391103490179 0 0.057705050639154938 -0.0064710038499320877 0 0.056783518393912949 -0.0053028681098277975 0 0.056783518393912949 -0.0053028681098277975 0 0.056007294103487357 -0.0039178678456302102 0 0.058054084244700106 -0.003722728544547067 0 0.056007294103487357 -0.0039178678456302102 0 0.05729561318724645 -0.0028306006564831785 0 0.056428024627459286 -0.002003138196559989 0 0.056007294103487357 -0.0039178678456302102 0 0.05729561318724645 -0.0028306006564831785 0 0.058054084244700106 -0.003722728544547067 0 0.05729561318724645 -0.0028306006564831785 0 0.058054084244700106 -0.003722728544547067 0 0.058907921427031128 -0.0021517845763783868 0 0.059447554879601697 -0.0032375181169276139 0 0.058054084244700106 -0.003722728544547067 0 0.058907921427031128 -0.0021517845763783868 0 0.06048994077258546 -0.0020034370849117268 0 0.059447554879601697 -0.0032375181169276139 0 0.058907921427031128 -0.0021517845763783868 0 0.06048994077258546 -0.0020034370849117268 0 0.060596552099301565 -0.0037318002743141495 0 0.059447554879601697 -0.0032375181169276139 0 0.060596552099301565 -0.0037318002743141495 0 0.058921965774591405 -0.004778391103490179 0 0.059447554879601697 -0.0032375181169276139 0 0.058921965774591405 -0.004778391103490179 0 0.059447554879601697 -0.0032375181169276139 0 0.058054084244700106 -0.003722728544547067 0 0.051282008215928918 -0.007886759037136308 0 0.051442138487163086 -0.0059628464700232147 0 0.054020595308636239 -0.005755221588183734 0 0.051442138487163086 -0.0059628464700232147 0 0.054020595308636239 -0.005755221588183734 0 0.052726846482682742 -0.0047872393279355194 0 0.056007294103487357 -0.0039178678456302102 0 0.054020595308636239 -0.005755221588183734 0 0.054021841650876867 -0.0033233111893931819 0 0.054020595308636239 -0.005755221588183734 0 0.054021841650876867 -0.0033233111893931819 0 0.052726846482682742 -0.0047872393279355194 0 0.056007294103487357 -0.0039178678456302102 0 0.054021841650876867 -0.0033233111893931819 0 0.056428024627459286 -0.002003138196559989 0 0.054021841650876867 -0.0033233111893931819 0 0.052726846482682742 -0.0047872393279355194 0 0.051459087507345909 -0.0040559037598984138 0 0.051442138487163086 -0.0059628464700232147 0 0.052726846482682742 -0.0047872393279355194 0 0.051459087507345909 -0.0040559037598984138 0 0.051442138487163086 -0.0059628464700232147 0 0.051459087507345909 -0.0040559037598984138 0 0.049638447574219521 -0.0054241455430955581 0 0.051459087507345909 -0.0040559037598984138 0 0.052372227349717103 -0.0016984119673375867 0 0.048849931365350756 -0.0037174132611155321 0 0.054021841650876867 -0.0033233111893931819 0 0.051459087507345909 -0.0040559037598984138 0 0.052372227349717103 -0.0016984119673375867 0 0.052372227349717103 -0.0016984119673375867 0 0.0551309343817094 -0.0014093821614221225 0 0.054459118007788396 0.00015953727009479767 0 0.054021841650876867 -0.0033233111893931819 0 0.052372227349717103 -0.0016984119673375867 0 0.0551309343817094 -0.0014093821614221225 0 0.054021841650876867 -0.0033233111893931819 0 0.0551309343817094 -0.0014093821614221225 0 0.056428024627459286 -0.002003138196559989 0 0.0551309343817094 -0.0014093821614221225 0 0.054459118007788396 0.00015953727009479767 0 0.056089238874430604 -8.516596711038303e-05 0 0.055905236915198747 0.00096397701447601151 0 0.054459118007788396 0.00015953727009479767 0 0.056089238874430604 -8.516596711038303e-05 0 0.055905236915198747 0.00096397701447601151 0 0.054459118007788396 0.00015953727009479767 0 0.054044303120093708 0.0016205465548966599 0 0.054459118007788396 0.00015953727009479767 0 0.052522487823032399 0.00022207564448838217 0 0.054044303120093708 0.0016205465548966599 0 0.052372227349717103 -0.0016984119673375867 0 0.052522487823032399 0.00022207564448838217 0 0.049497830582819091 -0.00038790644463788595 0 0.052372227349717103 -0.0016984119673375867 0 0.054459118007788396 0.00015953727009479767 0 0.052522487823032399 0.00022207564448838217 0 0.058239344371077285 -0.00130175995122636 0 0.05950632866193252 -0.0009295493088736376 0 0.058720031783219953 -8.1238736882732008e-06 0 0.058239344371077285 -0.00130175995122636 0 0.057356545506413531 -0.00079986436510830021 0 0.058720031783219953 -8.1238736882732008e-06 0 0.06048994077258546 -0.0020034370849117268 0 0.05950632866193252 -0.0009295493088736376 0 0.058907921427031128 -0.0021517845763783868 0 0.058239344371077285 -0.00130175995122636 0 0.05950632866193252 -0.0009295493088736376 0 0.058907921427031128 -0.0021517845763783868 0 0.05729561318724645 -0.0028306006564831785 0 0.058239344371077285 -0.00130175995122636 0 0.058907921427031128 -0.0021517845763783868 0 0.05729561318724645 -0.0028306006564831785 0 0.058239344371077285 -0.00130175995122636 0 0.056428024627459286 -0.002003138196559989 0 0.0551309343817094 -0.0014093821614221225 0 0.056428024627459286 -0.002003138196559989 0 0.057356545506413531 -0.00079986436510830021 0 0.058239344371077285 -0.00130175995122636 0 0.056428024627459286 -0.002003138196559989 0 0.057356545506413531 -0.00079986436510830021 0 0.057356545506413531 -0.00079986436510830021 0 0.057501174567090883 0.00060529662274328669 0 0.058720031783219953 -8.1238736882732008e-06 0 0.057356545506413531 -0.00079986436510830021 0 0.056089238874430604 -8.516596711038303e-05 0 0.057501174567090883 0.00060529662274328669 0 0.0551309343817094 -0.0014093821614221225 0 0.057356545506413531 -0.00079986436510830021 0 0.056089238874430604 -8.516596711038303e-05 0 0.055905236915198747 0.00096397701447601151 0 0.057501174567090883 0.00060529662274328669 0 0.056927774259678342 0.0013340648303006226 0 0.055905236915198747 0.00096397701447601151 0 0.056089238874430604 -8.516596711038303e-05 0 0.057501174567090883 0.00060529662274328669 0 0.057501174567090883 0.00060529662274328669 0 0.058493546191132867 0.00097062366278698111 0 0.058720031783219953 -8.1238736882732008e-06 0 0.058493546191132867 0.00097062366278698111 0 0.058720031783219953 -8.1238736882732008e-06 0 0.059440088278240627 0.00088885734638289009 0 0.060658143677848449 -0.00052275072264019182 0 0.05950632866193252 -0.0009295493088736376 0 0.059997498757032704 0.00010666214856665006 0 0.05950632866193252 -0.0009295493088736376 0 0.058720031783219953 -8.1238736882732008e-06 0 0.059997498757032704 0.00010666214856665006 0 0.060497867859351982 0.00090987925537296642 0 0.059997498757032704 0.00010666214856665006 0 0.059440088278240627 0.00088885734638289009 0 0.058720031783219953 -8.1238736882732008e-06 0 0.059997498757032704 0.00010666214856665006 0 0.059440088278240627 0.00088885734638289009 0 0.060497867859351982 0.00090987925537296642 0 0.059440088278240627 0.00088885734638289009 0 0.05985870203542467 0.0016773784259353805 0 0.059440088278240627 0.00088885734638289009 0 0.05985870203542467 0.0016773784259353805 0 0.058807829860849731 0.0017129674612899528 0 0.058493546191132867 0.00097062366278698111 0 0.059440088278240627 0.00088885734638289009 0 0.058807829860849731 0.0017129674612899528 0 0.058493546191132867 0.00097062366278698111 0 0.058807829860849731 0.0017129674612899528 0 0.057818476833964495 0.0014758321597568051 0 0.058807829860849731 0.0017129674612899528 0 0.059167361916343114 0.0024216705071432526 0 0.057971883558898346 0.0024450708169610276 0 0.060183601987708758 0.0024769288737459794 0 0.05985870203542467 0.0016773784259353805 0 0.059167361916343114 0.0024216705071432526 0 0.05985870203542467 0.0016773784259353805 0 0.058807829860849731 0.0017129674612899528 0 0.059167361916343114 0.0024216705071432526 0 0.060183601987708758 0.0024769288737459794 0 0.060270542113606482 0.0032287008526614169 0 0.05937516829975413 0.0030725109785165934 0 0.060183601987708758 0.0024769288737459794 0 0.059167361916343114 0.0024216705071432526 0 0.05937516829975413 0.0030725109785165934 0 0.059167361916343114 0.0024216705071432526 0 0.05937516829975413 0.0030725109785165934 0 0.058546495347203853 0.0030136856893507149 0 0.059167361916343114 0.0024216705071432526 0 0.058546495347203853 0.0030136856893507149 0 0.057971883558898346 0.0024450708169610276 0 0.05937516829975413 0.0030725109785165934 0 0.058695938294526996 0.0035504469592656444 0 0.059367536227220449 0.0036599071091490483 0 0.05937516829975413 0.0030725109785165934 0 0.058546495347203853 0.0030136856893507149 0 0.058695938294526996 0.0035504469592656444 0 0.058546495347203853 0.0030136856893507149 0 0.058695938294526996 0.0035504469592656444 0 0.058049155268367569 0.0037655227162648325 0 0.058695938294526996 0.0035504469592656444 0 0.058049155268367569 0.0037655227162648325 0 0.058662225798070039 0.0040787147693003732 0 0.058695938294526996 0.0035504469592656444 0 0.059367536227220449 0.0036599071091490483 0 0.058662225798070039 0.0040787147693003732 0 0.060270542113606482 0.0032287008526614169 0 0.05937516829975413 0.0030725109785165934 0 0.059367536227220449 0.0036599071091490483 0 0.05710087488230061 0.0035594480100300434 0 0.057079170291756937 0.0041137669074274063 0 0.058049155268367569 0.0037655227162648325 0 0.05710087488230061 0.0035594480100300434 0 0.057079170291756937 0.0041137669074274063 0 0.056260079738194788 0.0037189416235893658 0 0.057079170291756937 0.0041137669074274063 0 0.056260079738194788 0.0037189416235893658 0 0.056298350018307061 0.0042029130401932922 0 0.057079170291756937 0.0041137669074274063 0 0.056298350018307061 0.0042029130401932922 0 0.056711562182481794 0.004597690935900082 0 0.057079170291756937 0.0041137669074274063 0 0.058049155268367569 0.0037655227162648325 0 0.058308140110485081 0.0046403266412893092 0 0.05710087488230061 0.0035594480100300434 0 0.058049155268367569 0.0037655227162648325 0 0.057558243274700813 0.0031276351701192955 0 0.058546495347203853 0.0030136856893507149 0 0.057558243274700813 0.0031276351701192955 0 0.057971883558898346 0.0024450708169610276 0 0.058546495347203853 0.0030136856893507149 0 0.058049155268367569 0.0037655227162648325 0 0.057558243274700813 0.0031276351701192955 0 0.057558243274700813 0.0031276351701192955 0 0.057108857548669338 0.0026290604565689397 0 0.057971883558898346 0.0024450708169610276 0 0.057558243274700813 0.0031276351701192955 0 0.056479077773518037 0.0030516416990491323 0 0.057108857548669338 0.0026290604565689397 0 0.05710087488230061 0.0035594480100300434 0 0.057558243274700813 0.0031276351701192955 0 0.056479077773518037 0.0030516416990491323 0 0.05710087488230061 0.0035594480100300434 0 0.056479077773518037 0.0030516416990491323 0 0.056260079738194788 0.0037189416235893658 0 0.056479077773518037 0.0030516416990491323 0 0.057108857548669338 0.0026290604565689397 0 0.056028099425803536 0.0022298916132856262 0 0.057113750717274384 0.0020257535588378141 0 0.056927774259678342 0.0013340648303006226 0 0.056028099425803536 0.0022298916132856262 0 0.057108857548669338 0.0026290604565689397 0 0.057113750717274384 0.0020257535588378141 0 0.056028099425803536 0.0022298916132856262 0 0.058807829860849731 0.0017129674612899528 0 0.057971883558898346 0.0024450708169610276 0 0.057818476833964495 0.0014758321597568051 0 0.057113750717274384 0.0020257535588378141 0 0.057971883558898346 0.0024450708169610276 0 0.057818476833964495 0.0014758321597568051 0 0.057108857548669338 0.0026290604565689397 0 0.057113750717274384 0.0020257535588378141 0 0.057971883558898346 0.0024450708169610276 0 0.057501174567090883 0.00060529662274328669 0 0.058493546191132867 0.00097062366278698111 0 0.057818476833964495 0.0014758321597568051 0 0.057501174567090883 0.00060529662274328669 0 0.057818476833964495 0.0014758321597568051 0 0.056927774259678342 0.0013340648303006226 0 0.057113750717274384 0.0020257535588378141 0 0.057818476833964495 0.0014758321597568051 0 0.056927774259678342 0.0013340648303006226 0 0.055905236915198747 0.00096397701447601151 0 0.056927774259678342 0.0013340648303006226 0 0.056028099425803536 0.0022298916132856262 0 0.055905236915198747 0.00096397701447601151 0 0.054044303120093708 0.0016205465548966599 0 0.056028099425803536 0.0022298916132856262 0 0.054044303120093708 0.0016205465548966599 0 0.056028099425803536 0.0022298916132856262 0 0.054744327494471244 0.002931974050098411 0 0.054044303120093708 0.0016205465548966599 0 0.052661350790807172 0.00335528087527965 0 0.054744327494471244 0.002931974050098411 0 0.052522487823032399 0.00022207564448838217 0 0.054044303120093708 0.0016205465548966599 0 0.051720337692781386 0.0014513163984549156 0 0.054044303120093708 0.0016205465548966599 0 0.051720337692781386 0.0014513163984549156 0 0.052661350790807172 0.00335528087527965 0 0.052661350790807172 0.00335528087527965 0 0.052561469049750724 0.0052661582221673114 0 0.049547429008390757 0.0050422742238436027 0 0.052661350790807172 0.00335528087527965 0 0.054978784091881006 0.0040674982621148152 0 0.052561469049750724 0.0052661582221673114 0 0.054978784091881006 0.0040674982621148152 0 0.055841570433721274 0.0052614220129009528 0 0.052561469049750724 0.0052661582221673114 0 0.056479077773518037 0.0030516416990491323 0 0.056028099425803536 0.0022298916132856262 0 0.055660981317355238 0.003318054147199483 0 0.055660981317355238 0.003318054147199483 0 0.054744327494471244 0.002931974050098411 0 0.054978784091881006 0.0040674982621148152 0 0.056028099425803536 0.0022298916132856262 0 0.055660981317355238 0.003318054147199483 0 0.054744327494471244 0.002931974050098411 0 0.056479077773518037 0.0030516416990491323 0 0.055660981317355238 0.003318054147199483 0 0.056260079738194788 0.0037189416235893658 0 0.052661350790807172 0.00335528087527965 0 0.054744327494471244 0.002931974050098411 0 0.054978784091881006 0.0040674982621148152 0 0.055660981317355238 0.003318054147199483 0 0.054978784091881006 0.0040674982621148152 0 0.056260079738194788 0.0037189416235893658 0 0.054978784091881006 0.0040674982621148152 0 0.056260079738194788 0.0037189416235893658 0 0.056298350018307061 0.0042029130401932922 0 0.054978784091881006 0.0040674982621148152 0 0.056298350018307061 0.0042029130401932922 0 0.055771809212911624 0.0044955662849418951 0 0.054978784091881006 0.0040674982621148152 0 0.055771809212911624 0.0044955662849418951 0 0.055841570433721274 0.0052614220129009528 0 0.056298350018307061 0.0042029130401932922 0 0.056015725137549113 0.0047766180381783483 0 0.056711562182481794 0.004597690935900082 0 0.056298350018307061 0.0042029130401932922 0 0.055771809212911624 0.0044955662849418951 0 0.056015725137549113 0.0047766180381783483 0 0.056015725137549113 0.0047766180381783483 0 0.055841570433721274 0.0052614220129009528 0 0.056711562182481794 0.004597690935900082 0 0.055771809212911624 0.0044955662849418951 0 0.056015725137549113 0.0047766180381783483 0 0.055841570433721274 0.0052614220129009528 0 0.042320174861151909 -0.0073486472410155953 0 0.040621239618173328 -0.0074706835696590817 0 0.027420655941062237 -0.020237594106533606 0 0.027115917237939772 -0.02002403650739357 0 0.026884362124588095 -0.020261933530145701 0 0.027420655941062237 -0.020237594106533606 0 0.027340447726341012 -0.019964360424957733 0 0.02752766173384219 -0.019832297986870667 0 0.027420655941062237 -0.020237594106533606 0 0.027115917237939772 -0.02002403650739357 0 0.027340447726341012 -0.019964360424957733 0 0.026884362124588095 -0.020261933530145701 0 0.026763259579647401 -0.0198313289043642 0 0.026477181191328903 -0.019878430996144482 0 0.027115917237939772 -0.02002403650739357 0 0.026884362124588095 -0.020261933530145701 0 0.026763259579647401 -0.0198313289043642 0 0.026763259579647401 -0.0198313289043642 0 0.026850962678653834 -0.019649201286154477 0 0.027206798247346748 -0.019760689363226492 0 0.027115917237939772 -0.02002403650739357 0 0.026763259579647401 -0.0198313289043642 0 0.027206798247346748 -0.019760689363226492 0 0.026763259579647401 -0.0198313289043642 0 0.026850962678653834 -0.019649201286154477 0 0.026421898829209818 -0.01970637106537966 0 0.027340447726341012 -0.019964360424957733 0 0.027206798247346748 -0.019760689363226492 0 0.02752766173384219 -0.019832297986870667 0 0.027115917237939772 -0.02002403650739357 0 0.027340447726341012 -0.019964360424957733 0 0.027206798247346748 -0.019760689363226492 0 0.027206798247346748 -0.019760689363226492 0 0.02752766173384219 -0.019832297986870667 0 0.027580031137862906 -0.019487130213820539 0 0.02752766173384219 -0.019832297986870667 0 0.027891785937026799 -0.019700804927984903 0 0.027580031137862906 -0.019487130213820539 0 0.027420655941062237 -0.020237594106533606 0 0.02752766173384219 -0.019832297986870667 0 0.027891785937026799 -0.019700804927984903 0 0.055593475267149396 0.0023925057150621866 0 0.058480527148021794 0.0026860707784609151 0 0.058201095848827523 0.0042896822270645099 0 0.054814047319516591 0.00032438644193879726 0 0.055593475267149396 0.0023925057150621866 0 0.058480527148021794 0.0026860707784609151 0 0.060142106054834478 0.0057744763016929802 0 0.058201095848827523 0.0042896822270645099 0 0.059813782182766291 0.0044470104350385255 0 0.057902735927487708 0.0031410526010206821 0 0.058065136325297174 0.0034517082485254714 0 0.060288765238830422 0.0037901587876178621 0 0.059813782182766291 0.0044470104350385255 0 0.059169585834603487 0.0040516039176042538 0 0.058201095848827523 0.0042896822270645099 0 0.059813782182766291 0.0044470104350385255 0 0.059169585834603487 0.0040516039176042538 0 0.060288765238830422 0.0037901587876178621 0 0.059169585834603487 0.0040516039176042538 0 0.059367536227220449 0.0036599071091490483 0 0.060270542113606482 0.0032287008526614169 0 0.060288765238830422 0.0037901587876178621 0 0.059367536227220449 0.0036599071091490483 0 0.058201095848827523 0.0042896822270645099 0 0.059169585834603487 0.0040516039176042538 0 0.058662225798070039 0.0040787147693003732 0 0.059169585834603487 0.0040516039176042538 0 0.059367536227220449 0.0036599071091490483 0 0.058662225798070039 0.0040787147693003732 0 0.058201095848827523 0.0042896822270645099 0 0.058662225798070039 0.0040787147693003732 0 0.058308140110485081 0.0046403266412893092 0 0.058049155268367569 0.0037655227162648325 0 0.058662225798070039 0.0040787147693003732 0 0.058308140110485081 0.0046403266412893092 0 0.042320174861151909 -0.0073486472410155953 0 0.042600467482538484 -0.0088208317563715395 0 0.059242583195677545 0.0048577945400640199 0 0.058480527148021794 0.0026860707784609151 0 0.058201095848827523 0.0042896822270645099 0 0.059242583195677545 0.0048577945400640199 0 0.058201095848827523 0.0042896822270645099 0 0.058308140110485081 0.0046403266412893092 0 0.057079170291756937 0.0041137669074274063 0 0.058308140110485081 0.0046403266412893092 0 0.056711562182481794 0.004597690935900082 0 0.055841570433721274 0.0052614220129009528 0 0.058308140110485081 0.0046403266412893092 0 0.056711562182481794 0.004597690935900082 0 0.042320174861151909 -0.0073486472410155953 0 0.046454024070190662 -0.0061838663614318607 0 0.036212826570455638 -0.015867162425363561 0 0.032000507216594316 -0.01403435112012532 0 0.038637265320908089 -0.011698370056773847 0 0.036212826570455638 -0.015867162425363561 0 0.032000507216594316 -0.01403435112012532 0 0.033394784521729733 -0.018459391958688356 0 0.032000507216594316 -0.01403435112012532 0 0.038637265320908089 -0.011698370056773847 0 0.03267245109434061 -0.0086183527834576574 0 0.038637265320908089 -0.011698370056773847 0 0.042686815345095219 -0.011774003174563036 0 0.044516597973072281 -0.00664105807327919 0 0.042686815345095219 -0.011774003174563036 0 0.046073266985664087 -0.011633334748557744 0 0.044516597973072281 -0.00664105807327919 0 0.046073266985664087 -0.011633334748557744 0 0.041537255741791797 -0.016981263480231525 0 0.04782078881496974 -0.018021471884209311 0 0.042686815345095219 -0.011774003174563036 0 0.046073266985664087 -0.011633334748557744 0 0.041537255741791797 -0.016981263480231525 0 0.038637265320908089 -0.011698370056773847 0 0.042686815345095219 -0.011774003174563036 0 0.041537255741791797 -0.016981263480231525 0 0.036212826570455638 -0.015867162425363561 0 0.038637265320908089 -0.011698370056773847 0 0.041537255741791797 -0.016981263480231525 0 0.041537255741791797 -0.016981263480231525 0 0.035904524313208085 -0.020052274051837078 0 0.039715565039066737 -0.024928007853406445 0 0.041537255741791797 -0.016981263480231525 0 0.044604463030077188 -0.022125168933119738 0 0.039715565039066737 -0.024928007853406445 0 0.041537255741791797 -0.016981263480231525 0 0.044604463030077188 -0.022125168933119738 0 0.04782078881496974 -0.018021471884209311 0 0.033900149369251745 -0.023148525703012655 0 0.035904524313208085 -0.020052274051837078 0 0.039715565039066737 -0.024928007853406445 0 0.033900149369251745 -0.023148525703012655 0 0.035904524313208085 -0.020052274051837078 0 0.032769175394896245 -0.021335737495188814 0 0.036212826570455638 -0.015867162425363561 0 0.035904524313208085 -0.020052274051837078 0 0.033394784521729733 -0.018459391958688356 0 0.036212826570455638 -0.015867162425363561 0 0.041537255741791797 -0.016981263480231525 0 0.035904524313208085 -0.020052274051837078 0 0.032000507216594316 -0.01403435112012532 0 0.033394784521729733 -0.018459391958688356 0 0.030877169106408163 -0.020900001471947989 0 0.035904524313208085 -0.020052274051837078 0 0.033394784521729733 -0.018459391958688356 0 0.032769175394896245 -0.021335737495188814 0 0.033394784521729733 -0.018459391958688356 0 0.030877169106408163 -0.020900001471947989 0 0.032769175394896245 -0.021335737495188814 0 0.030877169106408163 -0.020900001471947989 0 0.032769175394896245 -0.021335737495188814 0 0.031185316941305077 -0.023981125953660833 0 0.033900149369251745 -0.023148525703012655 0 0.032769175394896245 -0.021335737495188814 0 0.031185316941305077 -0.023981125953660833 0 0.033900149369251745 -0.023148525703012655 0 0.031185316941305077 -0.023981125953660833 0 0.032838473206434377 -0.026420609867579874 0 0.029699608593174883 -0.018435556613029747 0 0.027453425807749329 -0.02150352076833369 0 0.029722517273307582 -0.023739836274450237 0 0.028597048356104868 -0.023022115147274466 0 0.028806670002105107 -0.026299416893121947 0 0.032000507216594316 -0.01403435112012532 0 0.026267948475785799 -0.020116274218909193 0 0.026284860180815203 -0.019315255679011413 0 0.032000507216594316 -0.01403435112012532 0 0.028597048356104868 -0.023022115147274466 0 0.025233247851394497 -0.02501047156231273 0 0.032000507216594316 -0.01403435112012532 0 0.030877169106408163 -0.020900001471947989 0 0.028597048356104868 -0.023022115147274466 0 0.030877169106408163 -0.020900001471947989 0 0.029722517273307582 -0.023739836274450237 0 0.028597048356104868 -0.023022115147274466 0 0.030877169106408163 -0.020900001471947989 0 0.031185316941305077 -0.023981125953660833 0 0.029722517273307582 -0.023739836274450237 0 0.028597048356104868 -0.023022115147274466 0 0.025233247851394497 -0.02501047156231273 0 0.027111689512508197 -0.025689288987010936 0 0.026763259579647401 -0.0198313289043642 0 0.026421898829209818 -0.01970637106537966 0 0.02646913296247726 -0.019674678721193752 0 0.026284860180815203 -0.019315255679011413 0 0.026421898829209818 -0.01970637106537966 0 0.02646913296247726 -0.019674678721193752 0 0.026267948475785799 -0.020116274218909193 0 0.026284860180815203 -0.019315255679011413 0 0.026421898829209818 -0.01970637106537966 0 0.026284860180815203 -0.019315255679011413 0 0.02646913296247726 -0.019674678721193752 0 0.026477181191328903 -0.019878430996144482 0 0.026763259579647401 -0.0198313289043642 0 0.02646913296247726 -0.019674678721193752 0 0.026477181191328903 -0.019878430996144482 0 0.026884362124588095 -0.020261933530145701 0 0.026477181191328903 -0.019878430996144482 0 0.026259318790457856 -0.020349621730995707 0 0.037347119068189924 -0.013905398883704206 0 0.040738583281435231 -0.0074381803048405633 0 0.040621239618173328 -0.0074706835696590817 0 0.040738583281435231 -0.0074381803048405633 0 0.026284860180815203 -0.019315255679011413 0 0.026477181191328903 -0.019878430996144482 0 0.026259318790457856 -0.020349621730995707 0 0.032000507216594316 -0.01403435112012532 0 0.024943602465361956 -0.010209630992768911 0 0.03267245109434061 -0.0086183527834576574 0 0.032000507216594316 -0.01403435112012532 0 0.026284860180815203 -0.019315255679011413 0 0.024943602465361956 -0.010209630992768911 0 0.045785577017339443 -0.0043843059953774556 0 0.045972171035633828 -0.0041621411452438936 0 0.045536414106044608 -0.0042926374784874148 0 0.045785577017339443 -0.0043843059953774556 0 0.045972171035633828 -0.0041621411452438936 0 0.046081574539607054 -0.0042338343761811822 0 0.040738583281435231 -0.0074381803048405633 0 0.040763919059514264 -0.0071258478720145901 0 0.052661350790807172 0.00335528087527965 0 0.049547429008390757 0.0050422742238436027 0 0.049720347468706252 0.0022459457778346804 0 0.040738583281435231 -0.0074381803048405633 0 0.043731475739303791 -0.0034422461090494651 0 0.051720337692781386 0.0014513163984549156 0 0.049720347468706252 0.0022459457778346804 0 0.049497830582819091 -0.00038790644463788595 0 0.051720337692781386 0.0014513163984549156 0 0.052661350790807172 0.00335528087527965 0 0.049720347468706252 0.0022459457778346804 0 0.045785577017339443 -0.0043843059953774556 0 0.046081574539607054 -0.0042338343761811822 0 0.04620624155489543 -0.0040892444625916409 0 0.046081574539607054 -0.0042338343761811822 0 0.04620624155489543 -0.0040892444625916409 0 0.046796470064779765 -0.0037883334776749001 0 0.045785577017339443 -0.0043843059953774556 0 0.04620624155489543 -0.0040892444625916409 0 0.045932240525822204 -0.0041735102147665319 0 0.045932240525822204 -0.0041735102147665319 0 0.045591118073151506 -0.0042644892074299202 0 0.045502761554098381 -0.0044539523531048975 0 0.045932240525822204 -0.0041735102147665319 0 0.045591118073151506 -0.0042644892074299202 0 0.045998900838933203 -0.0040675695185559508 0 0.045591118073151506 -0.0042644892074299202 0 0.045502761554098381 -0.0044539523531048975 0 0.04523965296606023 -0.0046844487824034683 0 0.045785577017339443 -0.0043843059953774556 0 0.045932240525822204 -0.0041735102147665319 0 0.045502761554098381 -0.0044539523531048975 0 0.038637265320908089 -0.011698370056773847 0 0.03267245109434061 -0.0086183527834576574 0 0.044516597973072281 -0.00664105807327919 0 0.045785577017339443 -0.0043843059953774556 0 0.045220755982206873 -0.0048049529248690706 0 0.045536414106044608 -0.0042926374784874148 0 0.040763919059514264 -0.0071258478720145901 0 0.042181432087031741 -0.0069362910759380005 0 0.045785577017339443 -0.0043843059953774556 0 0.045502761554098381 -0.0044539523531048975 0 0.045220755982206873 -0.0048049529248690706 0 0.045220755982206873 -0.0048049529248690706 0 0.045536414106044608 -0.0042926374784874148 0 0.044516597973072281 -0.00664105807327919 0 0.045502761554098381 -0.0044539523531048975 0 0.045220755982206873 -0.0048049529248690706 0 0.04523965296606023 -0.0046844487824034683 0 0.046073266985664087 -0.011633334748557744 0 0.044516597973072281 -0.00664105807327919 0 0.045971752200578413 -0.0042630792853744501 0 0.045220755982206873 -0.0048049529248690706 0 0.044516597973072281 -0.00664105807327919 0 0.04523965296606023 -0.0046844487824034683 0 0.044516597973072281 -0.00664105807327919 0 0.04523965296606023 -0.0046844487824034683 0 0.045971752200578413 -0.0042630792853744501 0 0.0040737235188531709 -0.016364841043288194 0 0.0042188593501270811 -0.018122886823873939 0 0.0048035533552596536 -0.018994405075667371 0 0.024475713002857658 -0.012513625856597299 0 0.023786208651050588 -0.012326250980676988 0 0.045591118073151506 -0.0042644892074299202 0 0.045971752200578413 -0.0042630792853744501 0 0.045787348348243648 -0.0040880362485752842 0 0.0040737235188531709 -0.016364841043288194 0 0.0038185600517368105 -0.017820218092269406 0 0.0042188593501270811 -0.018122886823873939 0 0.045591118073151506 -0.0042644892074299202 0 0.04523965296606023 -0.0046844487824034683 0 0.045971752200578413 -0.0042630792853744501 0 0.0038185600517368105 -0.017820218092269406 0 0.0042188593501270811 -0.018122886823873939 0 0.0042485881778387734 -0.019235441491717107 0 0.0042485881778387734 -0.019235441491717107 0 0.0048035533552596536 -0.018994405075667371 0 0.0045895173725415059 -0.021169374542972609 0 0.0046427185270683227 -0.019998740661198139 0 0.0042162480365303383 -0.020607407435457956 0 0.0032951636478357766 -0.019905320681987738 0 0.0042188593501270811 -0.018122886823873939 0 0.0042485881778387734 -0.019235441491717107 0 0.0048035533552596536 -0.018994405075667371 0 0.045591118073151506 -0.0042644892074299202 0 0.045787348348243648 -0.0040880362485752842 0 0.045998900838933203 -0.0040675695185559508 0 0.045932240525822204 -0.0041735102147665319 0 0.045998900838933203 -0.0040675695185559508 0 0.046420801711327557 -0.0039362925903596753 0 0.046227228793512369 -0.0040106534530931015 0 0.046420801711327557 -0.0039362925903596753 0 0.046553329209801958 -0.0039260154323238891 0 0.045998900838933203 -0.0040675695185559508 0 0.046227228793512369 -0.0040106534530931015 0 0.046420801711327557 -0.0039362925903596753 0 0.045787348348243648 -0.0040880362485752842 0 0.045998900838933203 -0.0040675695185559508 0 0.046227228793512369 -0.0040106534530931015 0 0.045787348348243648 -0.0040880362485752842 0 0.046227228793512369 -0.0040106534530931015 0 0.046450379736206568 -0.0040242799588949048 0 0.0048035533552596536 -0.018994405075667371 0 0.0045895173725415059 -0.021169374542972609 0 0.0046448712050772573 -0.021278709807778417 0 0.0046427185270683227 -0.019998740661198139 0 0.0045895173725415059 -0.021169374542972609 0 0.0045071705111585716 -0.020969265195564864 0 0.004052929370079502 -0.019207045191698767 0 0.0045905441330807992 -0.019995319569228478 0 0.023786208651050588 -0.012326250980676988 0 0.022564716599225525 -0.013544912582939255 0 0.046227228793512369 -0.0040106534530931015 0 0.046476375586794995 -0.0039771548951222924 0 0.046450379736206568 -0.0040242799588949048 0 0.046227228793512369 -0.0040106534530931015 0 0.046476375586794995 -0.0039771548951222924 0 0.046553329209801958 -0.0039260154323238891 0 0.046476375586794995 -0.0039771548951222924 0 0.046450379736206568 -0.0040242799588949048 0 0.046719255120393932 -0.0039762186566491813 0 0.0045895173725415059 -0.021169374542972609 0 0.0044770855654254239 -0.021227887714160575 0 0.0045036581355644943 -0.021261311063392678 0 0.0045895173725415059 -0.021169374542972609 0 0.0046448712050772573 -0.021278709807778417 0 0.0045036581355644943 -0.021261311063392678 0 0.0045895173725415059 -0.021169374542972609 0 0.0044770855654254239 -0.021227887714160575 0 0.0045071705111585716 -0.020969265195564864 0 0.0044770855654254239 -0.021227887714160575 0 0.0045071705111585716 -0.020969265195564864 0 0.0043831840668647603 -0.021289177512244059 0 0.0046427185270683227 -0.019998740661198139 0 0.0045071705111585716 -0.020969265195564864 0 0.0044442106221215692 -0.020917471068986716 0 0.0045071705111585716 -0.020969265195564864 0 0.0044442106221215692 -0.020917471068986716 0 0.0043831840668647603 -0.021289177512244059 0 0.004262855467240723 -0.021511343841279579 0 0.0044442106221215692 -0.020917471068986716 0 0.0043831840668647603 -0.021289177512244059 0 0.004262855467240723 -0.021511343841279579 0 0.0042162480365303383 -0.020607407435457956 0 0.0044442106221215692 -0.020917471068986716 0 0.0046427185270683227 -0.019998740661198139 0 0.0042162480365303383 -0.020607407435457956 0 0.0044442106221215692 -0.020917471068986716 0 0.043731475739303791 -0.0034422461090494651 0 0.045354737933461862 -0.0032820017061719648 0 0.052522487823032399 0.00022207564448838217 0 0.051720337692781386 0.0014513163984549156 0 0.049497830582819091 -0.00038790644463788595 0 0.04620624155489543 -0.0040892444625916409 0 0.046796470064779765 -0.0037883334776749001 0 0.046420801711327557 -0.0039362925903596753 0 0.046796470064779765 -0.0037883334776749001 0 0.046420801711327557 -0.0039362925903596753 0 0.047100490745989529 -0.0037834801269188913 0 0.04620624155489543 -0.0040892444625916409 0 0.045932240525822204 -0.0041735102147665319 0 0.046420801711327557 -0.0039362925903596753 0 0.046553329209801958 -0.0039260154323238891 0 0.046719255120393932 -0.0039762186566491813 0 0.047100490745989529 -0.0037834801269188913 0 0.046420801711327557 -0.0039362925903596753 0 0.046553329209801958 -0.0039260154323238891 0 0.047100490745989529 -0.0037834801269188913 0 0.046476375586794995 -0.0039771548951222924 0 0.046553329209801958 -0.0039260154323238891 0 0.046719255120393932 -0.0039762186566491813 0 0.046450379736206568 -0.0040242799588949048 0 0.04682351505732267 -0.0040871378002909475 0 0.047238156737139145 -0.0044854779749839572 0 0.046719255120393932 -0.0039762186566491813 0 0.047063647542881629 -0.0040283576331197361 0 0.047100490745989529 -0.0037834801269188913 0 0.046450379736206568 -0.0040242799588949048 0 0.046719255120393932 -0.0039762186566491813 0 0.04682351505732267 -0.0040871378002909475 0 0.046719255120393932 -0.0039762186566491813 0 0.04682351505732267 -0.0040871378002909475 0 0.047063647542881629 -0.0040283576331197361 0 0.04682351505732267 -0.0040871378002909475 0 0.047063647542881629 -0.0040283576331197361 0 0.047238156737139145 -0.0044854779749839572 0 0.047730976626347538 -0.0040172615958966752 0 0.047100490745989529 -0.0037834801269188913 0 0.048849931365350756 -0.0037174132611155321 0 0.047063647542881629 -0.0040283576331197361 0 0.047730976626347538 -0.0040172615958966752 0 0.047100490745989529 -0.0037834801269188913 0 0.046796470064779765 -0.0037883334776749001 0 0.047100490745989529 -0.0037834801269188913 0 0.048849931365350756 -0.0037174132611155321 0 0.052372227349717103 -0.0016984119673375867 0 0.049497830582819091 -0.00038790644463788595 0 0.048849931365350756 -0.0037174132611155321 0 0.045354737933461862 -0.0032820017061719648 0 0.045907377296442314 -0.0037277496025135519 0 0.051459087507345909 -0.0040559037598984138 0 0.049638447574219521 -0.0054241455430955581 0 0.048849931365350756 -0.0037174132611155321 0 0.047730976626347538 -0.0040172615958966752 0 0.048849931365350756 -0.0037174132611155321 0 0.048414420705774057 -0.004824139739871329 0 0.049638447574219521 -0.0054241455430955581 0 0.048414420705774057 -0.004824139739871329 0 0.047927992609439869 -0.0057841177515338101 0 0.049638447574219521 -0.0054241455430955581 0 0.048849931365350756 -0.0037174132611155321 0 0.048414420705774057 -0.004824139739871329 0 0.0046448712050772573 -0.021278709807778417 0 0.0038524383224165007 -0.021144900339467941 0 0.0043127077723902627 -0.021235838512218334 0 0.046450379736206568 -0.0040242799588949048 0 0.047238156737139145 -0.0044854779749839572 0 0.047654354280264676 -0.0059778852004649776 0 0.047706704620816186 -0.0051215229976311867 0 0.047238156737139145 -0.0044854779749839572 0 0.047654354280264676 -0.0059778852004649776 0 0.022564716599225525 -0.013544912582939255 0 0.018783691305950201 -0.014444375157764495 0 0.048414420705774057 -0.004824139739871329 0 0.047706704620816186 -0.0051215229976311867 0 0.047927992609439869 -0.0057841177515338101 0 0.048414420705774057 -0.004824139739871329 0 0.047706704620816186 -0.0051215229976311867 0 0.047705928299718592 -0.0045673246291043123 0 0.047730976626347538 -0.0040172615958966752 0 0.048414420705774057 -0.004824139739871329 0 0.047705928299718592 -0.0045673246291043123 0 0.047706704620816186 -0.0051215229976311867 0 0.047705928299718592 -0.0045673246291043123 0 0.047238156737139145 -0.0044854779749839572 0 0.047063647542881629 -0.0040283576331197361 0 0.047730976626347538 -0.0040172615958966752 0 0.047238156737139145 -0.0044854779749839572 0 0.047730976626347538 -0.0040172615958966752 0 0.047705928299718592 -0.0045673246291043123 0 0.047238156737139145 -0.0044854779749839572 0 0.0038524383224165007 -0.021144900339467941 0 0.0041444815868248398 -0.021197930255082102 0 0.0043127077723902627 -0.021235838512218334 0 0.0038524383224165007 -0.021144900339467941 0 0.0041444815868248398 -0.021197930255082102 0 0.003925101763262496 -0.021049766188997336 0 0.047706704620816186 -0.0051215229976311867 0 0.047654354280264676 -0.0059778852004649776 0 0.047927992609439869 -0.0057841177515338101 0 0.047611476226529399 -0.0061511575058684148 0 0.047927992609439869 -0.0057841177515338101 0 0.049095682098800206 -0.0069973349433653078 0 0.018783691305950201 -0.014444375157764495 0 0.019202962719354125 -0.014095387686710311 0 0.022098950845019488 -0.013948431597857013 0 0.018783691305950201 -0.014444375157764495 0 0.049195392598685175 -0.0086128617078031627 0 0.047611476226529399 -0.0061511575058684148 0 0.049095682098800206 -0.0069973349433653078 0 0.049638447574219521 -0.0054241455430955581 0 0.047927992609439869 -0.0057841177515338101 0 0.049095682098800206 -0.0069973349433653078 0 0.051282008215928918 -0.007886759037136308 0 0.051442138487163086 -0.0059628464700232147 0 0.049095682098800206 -0.0069973349433653078 0 0.051442138487163086 -0.0059628464700232147 0 0.049638447574219521 -0.0054241455430955581 0 0.049095682098800206 -0.0069973349433653078 0 0.0042833952635556944 -0.021314236420006669 0 0.004287529008217137 -0.021407562437903756 0 0.0041116822275150877 -0.021199450144565236 0 0.004262855467240723 -0.021511343841279579 0 0.004287529008217137 -0.021407562437903756 0 0.0043831840668647603 -0.021289177512244059 0 0.0042833952635556944 -0.021314236420006669 0 0.004287529008217137 -0.021407562437903756 0 0.0043831840668647603 -0.021289177512244059 0 0.0044770855654254239 -0.021227887714160575 0 0.0043831840668647603 -0.021289177512244059 0 0.004349385431259979 -0.021283038059303219 0 0.0042833952635556944 -0.021314236420006669 0 0.0043831840668647603 -0.021289177512244059 0 0.004349385431259979 -0.021283038059303219 0 0.0044770855654254239 -0.021227887714160575 0 0.004349385431259979 -0.021283038059303219 0 0.0045036581355644943 -0.021261311063392678 0 0.0046448712050772573 -0.021278709807778417 0 0.0045036581355644943 -0.021261311063392678 0 0.0043127077723902627 -0.021235838512218334 0 0.004349385431259979 -0.021283038059303219 0 0.0045036581355644943 -0.021261311063392678 0 0.0043127077723902627 -0.021235838512218334 0 0.004349385431259979 -0.021283038059303219 0 0.0041444815868248398 -0.021197930255082102 0 0.0041116822275150877 -0.021199450144565236 0 0.004349385431259979 -0.021283038059303219 0 0.0041444815868248398 -0.021197930255082102 0 0.0043127077723902627 -0.021235838512218334 0 0.0042833952635556944 -0.021314236420006669 0 0.004349385431259979 -0.021283038059303219 0 0.0041116822275150877 -0.021199450144565236 0 0.0035935730684382048 -0.020584810274855442 0 0.0041116822275150877 -0.021199450144565236 0 0.003925101763262496 -0.021049766188997336 0 0.0035935730684382048 -0.020584810274855442 0 0.0038524383224165007 -0.021144900339467941 0 0.003925101763262496 -0.021049766188997336 0 0.0035935730684382048 -0.020584810274855442 0 0.0041116822275150877 -0.021199450144565236 0 0.0041115388643592175 -0.021032745425722012 0 0.0041444815868248398 -0.021197930255082102 0 0.0041116822275150877 -0.021199450144565236 0 0.003925101763262496 -0.021049766188997336 0 0.004287529008217137 -0.021407562437903756 0 0.0041116822275150877 -0.021199450144565236 0 0.0041115388643592175 -0.021032745425722012 0 0.004287529008217137 -0.021407562437903756 0 0.0041115388643592175 -0.021032745425722012 0 0.0046294230991930536 -0.021329407422000395 0 0.004287529008217137 -0.021407562437903756 0 0.0046294230991930536 -0.021329407422000395 0 0.0048241952439934876 -0.02171494062342625 0 0.004262855467240723 -0.021511343841279579 0 0.004287529008217137 -0.021407562437903756 0 0.0048241952439934876 -0.02171494062342625 0 0.0048241952439934876 -0.02171494062342625 0 0.0050175068647253926 -0.022043024792538755 0 0.0048735787365417607 -0.022237828945502754 0 0.0051028120091000575 -0.021295620800744239 0 0.0046294230991930536 -0.021329407422000395 0 0.0050175068647253926 -0.022043024792538755 0 0.0046294230991930536 -0.021329407422000395 0 0.0048241952439934876 -0.02171494062342625 0 0.0050175068647253926 -0.022043024792538755 0 0.0050175068647253926 -0.022043024792538755 0 0.0053078877128618033 -0.021901168058425874 0 0.004357568672249356 -0.023583816208641084 0 0.0051028120091000575 -0.021295620800744239 0 0.0050175068647253926 -0.022043024792538755 0 0.0053078877128618033 -0.021901168058425874 0 0.0053078877128618033 -0.021901168058425874 0 0.0063600766283035456 -0.021994817481701821 0 0.004357568672249356 -0.023583816208641084 0 0.0061325946370932582 -0.021277499994330224 0 0.0053078877128618033 -0.021901168058425874 0 0.0063600766283035456 -0.021994817481701821 0 0.0032078151896056894 -0.02433412551560242 0 0.0034463600453726526 -0.024081744690298904 0 0.0024845393318014982 -0.028225476425619924 0 0.004357568672249356 -0.023583816208641084 0 0.0010683501726525815 -0.025113792800599215 0 0.004357568672249356 -0.023583816208641084 0 0.0010683501726525815 -0.025113792800599215 0 0.001495701153552183 -0.022189314606519024 0 0.004357568672249356 -0.023583816208641084 0 0.0048735787365417607 -0.022237828945502754 0 0.001495701153552183 -0.022189314606519024 0 0.0050175068647253926 -0.022043024792538755 0 0.004357568672249356 -0.023583816208641084 0 0.0048735787365417607 -0.022237828945502754 0 0.0048735787365417607 -0.022237828945502754 0 0.003637610604795683 -0.020075747320874745 0 0.0052017972106591336 -0.021723790110651529 0 0.00049678597355257343 -0.019979086540959125 0 0.0026435337477977933 -0.020804911401720735 0 0.0048735787365417607 -0.022237828945502754 0 0.003637610604795683 -0.020075747320874745 0 0.001495701153552183 -0.022189314606519024 0 -0.0014202249069022342 -0.019892347281686564 0 -0.0043260628765819792 -0.018813692054598426 0 -0.0023749506153426057 -0.017318896452016536 0 -0.0014202249069022342 -0.019892347281686564 0 0.0015147580417161374 -0.020888016406805446 0 0.00026851804743763735 -0.017739990352645688 0 0.002018316200568819 -0.018999820928614818 0 0.0032951636478357766 -0.019905320681987738 0 0.0015147580417161374 -0.020888016406805446 0 0.002018316200568819 -0.018999820928614818 0 0.0015147580417161374 -0.020888016406805446 0 0.00026851804743763735 -0.017739990352645688 0 0.0046427185270683227 -0.019998740661198139 0 0.0032951636478357766 -0.019905320681987738 0 0.0029848238658216051 -0.017413094531511918 0 0.002018316200568819 -0.018999820928614818 0 0.0032951636478357766 -0.019905320681987738 0 0.0029848238658216051 -0.017413094531511918 0 0.004262855467240723 -0.021511343841279579 0 0.0042162480365303383 -0.020607407435457956 0 0.0032951636478357766 -0.019905320681987738 0 0.004262855467240723 -0.021511343841279579 0 0.0032951636478357766 -0.019905320681987738 0 0.0015147580417161374 -0.020888016406805446 0 0.004262855467240723 -0.021511343841279579 0 0.0048241952439934876 -0.02171494062342625 0 0.0052017972106591336 -0.021723790110651529 0 0.0034650009905529871 -0.021115638202347728 0 0.0026435337477977933 -0.020804911401720735 0 0.0048241952439934876 -0.02171494062342625 0 0.0048735787365417607 -0.022237828945502754 0 0.0052017972106591336 -0.021723790110651529 0 -0.012105945937560255 -0.023451274336211241 0 -0.0092184458054930807 -0.027132966070200475 0 -0.0088935685901995777 -0.021886935010912139 0 -0.0088314831388337737 -0.029268227641771474 0 -0.010835880229866184 -0.02893923952552498 0 -0.0092184458054930807 -0.027132966070200475 0 -0.0092184458054930807 -0.027132966070200475 0 -0.0058198060189589285 -0.024863319851946401 0 -0.0044765498859030833 -0.02919290762309484 0 -0.0053074118380596284 -0.025430602842246772 0 -0.0028214295763458589 -0.025575465956603847 0 -0.0088314831388337737 -0.029268227641771474 0 -0.0092184458054930807 -0.027132966070200475 0 -0.0059129407982938436 -0.028892052687904114 0 -0.0092184458054930807 -0.027132966070200475 0 -0.0058198060189589285 -0.024863319851946401 0 -0.0088935685901995777 -0.021886935010912139 0 -0.0058198060189589285 -0.024863319851946401 0 -0.0020937153977639562 -0.024947769021517196 0 -0.0042113083623542581 -0.021611051497226936 0 -0.0058198060189589285 -0.024863319851946401 0 -0.0020937153977639562 -0.024947769021517196 0 -0.0044765498859030833 -0.02919290762309484 0 -0.0020937153977639562 -0.024947769021517196 0 -0.0044765498859030833 -0.02919290762309484 0 -0.0005512673289008159 -0.027814328360050603 0 0.00064941826039915549 -0.031604974390893562 0 0.0024845393318014982 -0.028225476425619924 0 -0.0005512673289008159 -0.027814328360050603 0 0.0024845393318014982 -0.028225476425619924 0 -0.0005512673289008159 -0.027814328360050603 0 0.0010683501726525815 -0.025113792800599215 0 -0.0020937153977639562 -0.024947769021517196 0 0.0010683501726525815 -0.025113792800599215 0 0.001495701153552183 -0.022189314606519024 0 -0.0020937153977639562 -0.024947769021517196 0 -0.0005512673289008159 -0.027814328360050603 0 0.0010683501726525815 -0.025113792800599215 0 0.001495701153552183 -0.022189314606519024 0 -0.0010976845915201441 -0.018399606015882749 0 -0.0042113083623542581 -0.021611051497226936 0 0.00049678597355257343 -0.019979086540959125 0 -0.0023666322892454388 -0.018997710228117904 0 0.003637610604795683 -0.020075747320874745 0 0.001495701153552183 -0.022189314606519024 0 -0.0010976845915201441 -0.018399606015882749 0 -0.0023666322892454388 -0.018997710228117904 0 -0.004177005158705378 -0.018446948168715588 0 -0.0010976845915201441 -0.018399606015882749 0 -0.0042113083623542581 -0.021611051497226936 0 -0.0069376782533498733 -0.017821459680879812 0 -0.0020937153977639562 -0.024947769021517196 0 0.001495701153552183 -0.022189314606519024 0 -0.0042113083623542581 -0.021611051497226936 0 -0.0058198060189589285 -0.024863319851946401 0 -0.0042113083623542581 -0.021611051497226936 0 -0.0088935685901995777 -0.021886935010912139 0 -0.0042113083623542581 -0.021611051497226936 0 -0.0088935685901995777 -0.021886935010912139 0 -0.0069376782533498733 -0.017821459680879812 0 -0.012595375211939944 -0.0206173007283782 0 -0.0088935685901995777 -0.021886935010912139 0 -0.010665775177615518 -0.018171627316989895 0 -0.0088935685901995777 -0.021886935010912139 0 -0.010665775177615518 -0.018171627316989895 0 -0.0069376782533498733 -0.017821459680879812 0 -0.0094404024167127933 -0.015341981131693249 0 -0.0069376782533498733 -0.017821459680879812 0 -0.0069897916396292848 -0.014009686805074863 0 -0.011976341697285658 -0.015933153813902617 0 -0.0094404024167127933 -0.015341981131693249 0 -0.010665775177615518 -0.018171627316989895 0 -0.011976341697285658 -0.015933153813902617 0 -0.011344236736690425 -0.013752538794571178 0 -0.0094404024167127933 -0.015341981131693249 0 -0.0094404024167127933 -0.015341981131693249 0 -0.010665775177615518 -0.018171627316989895 0 -0.0069376782533498733 -0.017821459680879812 0 -0.0069376782533498733 -0.017821459680879812 0 -0.0051264928427177609 -0.016231038222241038 0 -0.0069897916396292848 -0.014009686805074863 0 -0.0051264928427177609 -0.016231038222241038 0 -0.0049562490843540344 -0.013994999817393093 0 -0.0069897916396292848 -0.014009686805074863 0 -0.0043260628765819792 -0.018813692054598426 0 -0.0069376782533498733 -0.017821459680879812 0 -0.0051264928427177609 -0.016231038222241038 0 -0.0043260628765819792 -0.018813692054598426 0 -0.0051264928427177609 -0.016231038222241038 0 -0.0023749506153426057 -0.017318896452016536 0 -0.0051264928427177609 -0.016231038222241038 0 -0.0032175395425619868 -0.014949598243707434 0 -0.0023749506153426057 -0.017318896452016536 0 -0.0051264928427177609 -0.016231038222241038 0 -0.0032175395425619868 -0.014949598243707434 0 -0.0049562490843540344 -0.013994999817393093 0 -0.0032175395425619868 -0.014949598243707434 0 -0.0035745610202164249 -0.012825126869328275 0 -0.0049562490843540344 -0.013994999817393093 0 -0.0035745610202164249 -0.012825126869328275 0 -0.0021247186654095107 -0.011928702516199284 0 -0.0037934647329818279 -0.01071387331229344 0 -0.0035745610202164249 -0.012825126869328275 0 -0.0059063549398602018 -0.011921035557053492 0 -0.0037934647329818279 -0.01071387331229344 0 -0.0059063549398602018 -0.011921035557053492 0 -0.0055503130663490802 -0.010281481262885755 0 -0.0037934647329818279 -0.01071387331229344 0 -0.0059063549398602018 -0.011921035557053492 0 -0.0078415224362200376 -0.010141822632002974 0 -0.0055503130663490802 -0.010281481262885755 0 -0.0035745610202164249 -0.012825126869328275 0 -0.0059063549398602018 -0.011921035557053492 0 -0.0049562490843540344 -0.013994999817393093 0 -0.0059063549398602018 -0.011921035557053492 0 -0.0049562490843540344 -0.013994999817393093 0 -0.0069897916396292848 -0.014009686805074863 0 -0.0059063549398602018 -0.011921035557053492 0 -0.0069897916396292848 -0.014009686805074863 0 -0.0091470436998640735 -0.012076661401763555 0 -0.0094404024167127933 -0.015341981131693249 0 -0.0069897916396292848 -0.014009686805074863 0 -0.0091470436998640735 -0.012076661401763555 0 -0.0059063549398602018 -0.011921035557053492 0 -0.0091470436998640735 -0.012076661401763555 0 -0.0078415224362200376 -0.010141822632002974 0 -0.011598770161455853 -0.011116669046573911 0 -0.010625677205258722 -0.0093554251563801229 0 -0.0091470436998640735 -0.012076661401763555 0 -0.011344236736690425 -0.013752538794571178 0 -0.0094404024167127933 -0.015341981131693249 0 -0.0091470436998640735 -0.012076661401763555 0 -0.011598770161455853 -0.011116669046573911 0 -0.011344236736690425 -0.013752538794571178 0 -0.0091470436998640735 -0.012076661401763555 0 0.00086054722200164908 -0.014955928598663763 0 0.0025949471182303719 -0.01548715921693123 0 0.0027264320263305107 -0.01719709937662629 0 0.00086054722200164908 -0.014955928598663763 0 0.0029848238658216051 -0.017413094531511918 0 0.00026851804743763735 -0.017739990352645688 0 0.0018464791708751587 -0.0164701182207471 0 0.0027548725737437042 -0.017545075514658347 0 0.0040737235188531709 -0.016364841043288194 0 0.0025949471182303719 -0.01548715921693123 0 0.0028048816203508136 -0.014908737483854276 0 0.0040737235188531709 -0.016364841043288194 0 0.0032224653112088914 -0.016539592068936973 0 0.0035004431771176246 -0.017074152708879166 0 0.0040737235188531709 -0.016364841043288194 0 0.0025949471182303719 -0.01548715921693123 0 0.0032224653112088914 -0.016539592068936973 0 0.0025949471182303719 -0.01548715921693123 0 0.0032224653112088914 -0.016539592068936973 0 0.0027264320263305107 -0.01719709937662629 0 0.0038185600517368105 -0.017820218092269406 0 0.0042485881778387734 -0.019235441491717107 0 0.0027264320263305107 -0.01719709937662629 0 0.004052929370079502 -0.019207045191698767 0 0.0027548725737437042 -0.017545075514658347 0 0.0038185600517368105 -0.017820218092269406 0 0.0027264320263305107 -0.01719709937662629 0 0.0035004431771176246 -0.017074152708879166 0 0.0032224653112088914 -0.016539592068936973 0 0.0027264320263305107 -0.01719709937662629 0 0.0035004431771176246 -0.017074152708879166 0 0.0040737235188531709 -0.016364841043288194 0 0.0038185600517368105 -0.017820218092269406 0 0.0035004431771176246 -0.017074152708879166 0 0.002018316200568819 -0.018999820928614818 0 0.0029848238658216051 -0.017413094531511918 0 0.00026851804743763735 -0.017739990352645688 0 -0.0014202249069022342 -0.019892347281686564 0 0.00026851804743763735 -0.017739990352645688 0 -0.0023749506153426057 -0.017318896452016536 0 0.00026851804743763735 -0.017739990352645688 0 -0.0023749506153426057 -0.017318896452016536 0 -0.0010206659086150363 -0.015306544384827205 0 -0.0032175395425619868 -0.014949598243707434 0 -0.0023749506153426057 -0.017318896452016536 0 -0.0010206659086150363 -0.015306544384827205 0 0.00086054722200164908 -0.014955928598663763 0 0.00026851804743763735 -0.017739990352645688 0 -0.0010206659086150363 -0.015306544384827205 0 0.00086054722200164908 -0.014955928598663763 0 -0.0010206659086150363 -0.015306544384827205 0 0.0003365943638329359 -0.013593276589382051 0 -0.0010206659086150363 -0.015306544384827205 0 0.0003365943638329359 -0.013593276589382051 0 -0.0016762826016420017 -0.013376966201284193 0 0.0003365943638329359 -0.013593276589382051 0 -0.0016762826016420017 -0.013376966201284193 0 -0.00071490351460594609 -0.012216248823386254 0 -0.0032175395425619868 -0.014949598243707434 0 -0.0010206659086150363 -0.015306544384827205 0 -0.0016762826016420017 -0.013376966201284193 0 -0.0032175395425619868 -0.014949598243707434 0 -0.0035745610202164249 -0.012825126869328275 0 -0.0016762826016420017 -0.013376966201284193 0 -0.0021247186654095107 -0.011928702516199284 0 -0.00090346280919664161 -0.01063361548193442 0 -0.0037934647329818279 -0.01071387331229344 0 -0.0035745610202164249 -0.012825126869328275 0 -0.0016762826016420017 -0.013376966201284193 0 -0.0021247186654095107 -0.011928702516199284 0 -0.0016762826016420017 -0.013376966201284193 0 -0.0021247186654095107 -0.011928702516199284 0 -0.00071490351460594609 -0.012216248823386254 0 -0.0021247186654095107 -0.011928702516199284 0 -0.00071490351460594609 -0.012216248823386254 0 -0.00090346280919664161 -0.01063361548193442 0 0.0003365943638329359 -0.013593276589382051 0 -0.00071490351460594609 -0.012216248823386254 0 0.00070052426050344651 -0.011857190994247547 0 0.0063524317415770502 -0.014392750266404908 0 0.01241334373574542 -0.018069966079125564 0 -0.00071490351460594609 -0.012216248823386254 0 0.00070052426050344651 -0.011857190994247547 0 -0.00090346280919664161 -0.01063361548193442 0 0.052487991266561021 -0.014675125249877007 0 0.053166740346108653 -0.022188654764476564 0 0.059695436786945916 -0.027228715841294736 0 0.025701158290742071 -0.015787390313927077 0 0.025867155827803891 -0.020542260245095097 0 0.0003365943638329359 -0.013593276589382051 0 0.00070052426050344651 -0.011857190994247547 0 0.0022917815366771447 -0.013221181844939485 0 0.0022917815366771447 -0.013221181844939485 0 0.0027298262194386104 -0.013510881065827473 0 0.0018884330913867991 -0.012058795716121359 0 0.0015685761038909331 -0.012664178470123385 0 0.0022917815366771447 -0.013221181844939485 0 0.0018884330913867991 -0.012058795716121359 0 0.0063524317415770502 -0.014392750266404908 0 0.0050210103396704205 -0.013635105382313268 0 0.00086054722200164908 -0.014955928598663763 0 0.0025949471182303719 -0.01548715921693123 0 0.0018720379699480104 -0.01429322491933956 0 0.0003365943638329359 -0.013593276589382051 0 0.0022917815366771447 -0.013221181844939485 0 0.0018720379699480104 -0.01429322491933956 0 0.0022917815366771447 -0.013221181844939485 0 0.0018720379699480104 -0.01429322491933956 0 0.0027298262194386104 -0.013510881065827473 0 0.0025949471182303719 -0.01548715921693123 0 0.0018720379699480104 -0.01429322491933956 0 0.0028048816203508136 -0.014908737483854276 0 0.00086054722200164908 -0.014955928598663763 0 0.0003365943638329359 -0.013593276589382051 0 0.0018720379699480104 -0.01429322491933956 0 0.024475713002857658 -0.012513625856597299 0 0.025701158290742071 -0.015787390313927077 0 0.046073266985664087 -0.011633334748557744 0 0.045971752200578413 -0.0042630792853744501 0 0.052487991266561021 -0.014675125249877007 0 0.0040737235188531709 -0.016364841043288194 0 0.0028048816203508136 -0.014908737483854276 0 0.0027298262194386104 -0.013510881065827473 0 0.0018720379699480104 -0.01429322491933956 0 0.0028048816203508136 -0.014908737483854276 0 0.0027298262194386104 -0.013510881065827473 0 0.046073266985664087 -0.011633334748557744 0 0.052487991266561021 -0.014675125249877007 0 0.04782078881496974 -0.018021471884209311 0 0.052487991266561021 -0.014675125249877007 0 0.04782078881496974 -0.018021471884209311 0 0.053166740346108653 -0.022188654764476564 0 0.044604463030077188 -0.022125168933119738 0 0.04780115117634353 -0.022682011259046678 0 0.045603050691550899 -0.028416337342467578 0 0.053166740346108653 -0.022188654764476564 0 0.04780115117634353 -0.022682011259046678 0 0.045603050691550899 -0.028416337342467578 0 0.044604463030077188 -0.022125168933119738 0 0.04782078881496974 -0.018021471884209311 0 0.04780115117634353 -0.022682011259046678 0 0.04782078881496974 -0.018021471884209311 0 0.053166740346108653 -0.022188654764476564 0 0.04780115117634353 -0.022682011259046678 0 0.053166740346108653 -0.022188654764476564 0 0.059695436786945916 -0.027228715841294736 0 0.045603050691550899 -0.028416337342467578 0 0.025867155827803891 -0.020542260245095097 0 0.035735437963898206 -0.024218781451676167 0 0.033939633366929865 -0.032051338127675313 0 0.034227981785323026 -0.031552515466552751 0 0.0327757035482628 -0.03035778211164606 0 0.032827547707977862 -0.031546028561184714 0 0.033939633366929865 -0.032051338127675313 0 0.0327757035482628 -0.03035778211164606 0 0.033939633366929865 -0.032051338127675313 0 0.033212711969485081 -0.032403410573833474 0 0.034007074833414717 -0.032967371091763203 0 0.032827547707977862 -0.031546028561184714 0 0.033212711969485081 -0.032403410573833474 0 0.032273729846318815 -0.032362241694806032 0 0.032827547707977862 -0.031546028561184714 0 0.033939633366929865 -0.032051338127675313 0 0.033212711969485081 -0.032403410573833474 0 0.033939633366929865 -0.032051338127675313 0 0.034542019205529427 -0.032052292495142111 0 0.034935717467861553 -0.033106067171088736 0 0.033531026432695073 -0.033503252027427453 0 0.033252274337613158 -0.03419438743601156 0 0.033939633366929865 -0.032051338127675313 0 0.034227981785323026 -0.031552515466552751 0 0.034542019205529427 -0.032052292495142111 0 0.034227981785323026 -0.031552515466552751 0 0.034617990090150388 -0.0308624524161129 0 0.0327757035482628 -0.03035778211164606 0 0.034227981785323026 -0.031552515466552751 0 0.034617990090150388 -0.0308624524161129 0 0.034542019205529427 -0.032052292495142111 0 0.034655831569331559 -0.033694406322514595 0 0.03424753981399406 -0.033692020130223189 0 0.034223420097069066 -0.033496594658835248 0 0.0015685761038909331 -0.012664178470123385 0 0.0018884330913867991 -0.012058795716121359 0 0.0009101331247720534 -0.012216694379513251 0 0.025867155827803891 -0.020542260245095097 0 0.01241334373574542 -0.018069966079125564 0 0.01241334373574542 -0.018069966079125564 0 0.0042096316747782534 -0.017051122115101264 0 -0.00072224176133150097 -0.010514958503223829 0 -0.0037934647329818279 -0.01071387331229344 0 -0.003890495645213805 -0.0084546336507860982 0 0.03424753981399406 -0.033692020130223189 0 0.034223420097069066 -0.033496594658835248 0 0.033996937088773736 -0.033524829343553816 0 0.01241334373574542 -0.018069966079125564 0 0.014260517565615236 -0.020768014820661866 0 0.034223420097069066 -0.033496594658835248 0 0.033966896340523495 -0.033576572252399586 0 0.033996937088773736 -0.033524829343553816 0 0.034223420097069066 -0.033496594658835248 0 0.034525754447759231 -0.03311957966103643 0 0.033966896340523495 -0.033576572252399586 0 0.025867155827803891 -0.020542260245095097 0 0.031243305702661997 -0.029192011979872021 0 0.034617990090150388 -0.0308624524161129 0 0.034542019205529427 -0.032052292495142111 0 0.034525754447759231 -0.03311957966103643 0 0.034542019205529427 -0.032052292495142111 0 0.034525754447759231 -0.03311957966103643 0 0.034116714719088219 -0.033293652722449385 0 0.034655831569331559 -0.033694406322514595 0 0.034223420097069066 -0.033496594658835248 0 0.034525754447759231 -0.03311957966103643 0 0.034525754447759231 -0.03311957966103643 0 0.034283306317153386 -0.033345210516480123 0 0.034116714719088219 -0.033293652722449385 0 0.034525754447759231 -0.03311957966103643 0 0.034283306317153386 -0.033345210516480123 0 0.034265697827390126 -0.033339434594002258 0 0.034283306317153386 -0.033345210516480123 0 0.034265697827390126 -0.033339434594002258 0 0.034292707056027244 -0.033355319166532942 0 0.034525754447759231 -0.03311957966103643 0 0.033966896340523495 -0.033576572252399586 0 0.034265697827390126 -0.033339434594002258 0 0.034265697827390126 -0.033339434594002258 0 0.034042720176852205 -0.033350669134139789 0 0.034292707056027244 -0.033355319166532942 0 0.033966896340523495 -0.033576572252399586 0 0.034265697827390126 -0.033339434594002258 0 0.034042720176852205 -0.033350669134139789 0 0.033966896340523495 -0.033576572252399586 0 0.034042720176852205 -0.033350669134139789 0 0.033453719776676147 -0.034049745775729764 0 0.032430930005596492 -0.036239367772033397 0 0.032730055293565576 -0.036074778791326499 0 0.030812502666567224 -0.035277969677792884 0 0.031179306983368162 -0.037682519152263921 0 0.027134136257944377 -0.037350423409611248 0 0.031179306983368162 -0.037682519152263921 0 0.027134136257944377 -0.037350423409611248 0 0.030426949687240155 -0.040104553926614384 0 0.032430930005596492 -0.036239367772033397 0 0.030980137447707185 -0.037548175315294738 0 0.030812502666567224 -0.035277969677792884 0 0.031179306983368162 -0.037682519152263921 0 0.032768081926209683 -0.035818219470296037 0 0.032104337138605256 -0.036804402507180728 0 0.032108926729082901 -0.036783203228675246 0 0.032047721125172887 -0.036805368705644215 0 0.032730055293565576 -0.036074778791326499 0 0.03231358761000417 -0.036328011062328448 0 0.034283306317153386 -0.033345210516480123 0 0.034292707056027244 -0.033355319166532942 0 0.034147612599957605 -0.03346292320510743 0 0.032172775582045419 -0.036757102572041477 0 0.032104337138605256 -0.036804402507180728 0 0.032108926729082901 -0.036783203228675246 0 0.030980137447707185 -0.037548175315294738 0 0.031205264797212858 -0.038422317903287297 0 0.032104337138605256 -0.036804402507180728 0 0.032047721125172887 -0.036805368705644215 0 0.03203886244663165 -0.036846302865323657 0 0.034937186817392926 -0.035133336276668585 0 0.033408361903912984 -0.034685197997466957 0 0.034195309658311759 -0.033891830198057804 0 0.03231358761000417 -0.036328011062328448 0 0.031205264797212858 -0.038422317903287297 0 0.034937186817392926 -0.035133336276668585 0 0.03264867995030496 -0.036257584594813 0 0.033408361903912984 -0.034685197997466957 0 0.034387741394067403 -0.036202746395522428 0 0.031733602132720987 -0.036875148955010852 0 0.034094815289718215 -0.037448026900356354 0 0.03231358761000417 -0.036328011062328448 0 0.031774976375277632 -0.036548522854358466 0 0.03264867995030496 -0.036257584594813 0 0.033408361903912984 -0.034685197997466957 0 0.031711045130105565 -0.034604423369703097 0 0.033408361903912984 -0.034685197997466957 0 0.033049653050181947 -0.033471605897541133 0 0.034195309658311759 -0.033891830198057804 0 0.033049653050181947 -0.033471605897541133 0 0.034007074833414717 -0.032967371091763203 0 0.034195309658311759 -0.033891830198057804 0 0.033408361903912984 -0.034685197997466957 0 0.033049653050181947 -0.033471605897541133 0 0.031711045130105565 -0.034604423369703097 0 0.033212711969485081 -0.032403410573833474 0 0.033049653050181947 -0.033471605897541133 0 0.032273729846318815 -0.032362241694806032 0 0.033212711969485081 -0.032403410573833474 0 0.033049653050181947 -0.033471605897541133 0 0.034007074833414717 -0.032967371091763203 0 0.03231358761000417 -0.036328011062328448 0 0.033252274337613158 -0.03419438743601156 0 0.034283306317153386 -0.033345210516480123 0 0.034147612599957605 -0.03346292320510743 0 0.034116714719088219 -0.033293652722449385 0 0.033939633366929865 -0.032051338127675313 0 0.034007074833414717 -0.032967371091763203 0 0.034935717467861553 -0.033106067171088736 0 0.034007074833414717 -0.032967371091763203 0 0.034935717467861553 -0.033106067171088736 0 0.034195309658311759 -0.033891830198057804 0 0.034937186817392926 -0.035133336276668585 0 0.034935717467861553 -0.033106067171088736 0 0.034195309658311759 -0.033891830198057804 0 -0.010625677205258722 -0.0093554251563801229 0 -0.010223052077831788 -0.0075810556610704117 0 -0.0084803279985771959 -0.0080562838084256502 0 -0.010625677205258722 -0.0093554251563801229 0 -0.0078415224362200376 -0.010141822632002974 0 -0.0084803279985771959 -0.0080562838084256502 0 -0.010625677205258722 -0.0093554251563801229 0 -0.0091470436998640735 -0.012076661401763555 0 -0.0078415224362200376 -0.010141822632002974 0 -0.0078415224362200376 -0.010141822632002974 0 -0.0084803279985771959 -0.0080562838084256502 0 -0.0062678304862465537 -0.0087383792058095995 0 -0.0084803279985771959 -0.0080562838084256502 0 -0.0062678304862465537 -0.0087383792058095995 0 -0.0069796515609672066 -0.0068119252142680347 0 -0.0062678304862465537 -0.0087383792058095995 0 -0.003890495645213805 -0.0084546336507860982 0 -0.0069796515609672066 -0.0068119252142680347 0 0.033996937088773736 -0.033524829343553816 0 0.034046914839376191 -0.033612385522477653 0 0.034089417325300089 -0.033744626610854603 0 0.014260517565615236 -0.020768014820661866 0 0.012577251083907278 -0.021250197995953412 0 -0.0062678304862465537 -0.0087383792058095995 0 -0.0055503130663490802 -0.010281481262885755 0 -0.003890495645213805 -0.0084546336507860982 0 -0.0078415224362200376 -0.010141822632002974 0 -0.0062678304862465537 -0.0087383792058095995 0 -0.0055503130663490802 -0.010281481262885755 0 -0.0055503130663490802 -0.010281481262885755 0 -0.0037934647329818279 -0.01071387331229344 0 -0.003890495645213805 -0.0084546336507860982 0 0.033966896340523495 -0.033576572252399586 0 0.033996937088773736 -0.033524829343553816 0 0.034046914839376191 -0.033612385522477653 0 0.033966896340523495 -0.033576572252399586 0 0.034046914839376191 -0.033612385522477653 0 0.033453719776676147 -0.034049745775729764 0 0.034046914839376191 -0.033612385522477653 0 0.033453719776676147 -0.034049745775729764 0 0.034423184004634177 -0.033638145974915004 0 0.033453719776676147 -0.034049745775729764 0 0.032768081926209683 -0.035818219470296037 0 0.034423184004634177 -0.033638145974915004 0 0.032430930005596492 -0.036239367772033397 0 0.032765979332752292 -0.035934005489714899 0 0.030812502666567224 -0.035277969677792884 0 0.033453719776676147 -0.034049745775729764 0 0.032768081926209683 -0.035818219470296037 0 0.032768081926209683 -0.035818219470296037 0 0.03389956049779496 -0.037424581135171719 0 0.034423184004634177 -0.033638145974915004 0 0.031179306983368162 -0.037682519152263921 0 0.032768081926209683 -0.035818219470296037 0 0.03389956049779496 -0.037424581135171719 0 0.031179306983368162 -0.037682519152263921 0 0.03389956049779496 -0.037424581135171719 0 0.03270029468957307 -0.039358726923639571 0 0.029530942106101972 -0.037255424958020429 0 0.028114765451703879 -0.039676050072921784 0 0.03389956049779496 -0.037424581135171719 0 0.034423184004634177 -0.033638145974915004 0 0.037142260684326071 -0.038583648162163205 0 0.034046914839376191 -0.033612385522477653 0 0.034089417325300089 -0.033744626610854603 0 0.034423184004634177 -0.033638145974915004 0 0.034089417325300089 -0.033744626610854603 0 0.034423184004634177 -0.033638145974915004 0 0.033862284497740092 -0.032591651876731201 0 0.012577251083907278 -0.021250197995953412 0 0.0096222902043213137 -0.022039904347853759 0 -0.0084803279985771959 -0.0080562838084256502 0 -0.0069796515609672066 -0.0068119252142680347 0 -0.0096107941041230979 -0.0056513548167181496 0 0.034089417325300089 -0.033744626610854603 0 0.032412292985028346 -0.033181550461398659 0 0.033862284497740092 -0.032591651876731201 0 -0.010998482409223418 -0.0067216173666464988 0 -0.010223052077831788 -0.0075810556610704117 0 -0.0096107941041230979 -0.0056513548167181496 0 -0.010223052077831788 -0.0075810556610704117 0 -0.0084803279985771959 -0.0080562838084256502 0 -0.0096107941041230979 -0.0056513548167181496 0 0.031904842016451822 -0.031349283978667396 0 0.032509723409645135 -0.031471422635381288 0 0.032237571447511285 -0.030893178507253195 0 0.032509723409645135 -0.031471422635381288 0 0.032639764011002 -0.031067704955578566 0 0.032237571447511285 -0.030893178507253195 0 0.031904842016451822 -0.031349283978667396 0 0.032509723409645135 -0.031471422635381288 0 0.032435852673461787 -0.032108677249541126 0 0.031650265239276242 -0.032046757749687758 0 0.031904842016451822 -0.031349283978667396 0 0.032435852673461787 -0.032108677249541126 0 0.031650265239276242 -0.032046757749687758 0 0.032412292985028346 -0.033181550461398659 0 0.032435852673461787 -0.032108677249541126 0 0.032412292985028346 -0.033181550461398659 0 0.032435852673461787 -0.032108677249541126 0 0.033862284497740092 -0.032591651876731201 0 0.032509723409645135 -0.031471422635381288 0 0.032435852673461787 -0.032108677249541126 0 0.033862284497740092 -0.032591651876731201 0 0.022902597219118321 -0.04922919093879112 0 0.028114765451703879 -0.039676050072921784 0 0.032509723409645135 -0.031471422635381288 0 0.033140517923386875 -0.031255094511129476 0 0.033862284497740092 -0.032591651876731201 0 0.039310056192177971 -0.044228016648114495 0 0.037723660404972839 -0.042867137566037078 0 0.037142260684326071 -0.038583648162163205 0 0.032509723409645135 -0.031471422635381288 0 0.033140517923386875 -0.031255094511129476 0 0.032639764011002 -0.031067704955578566 0 0.039310056192177971 -0.044228016648114495 0 0.038653924445221297 -0.04434280402132007 0 0.038368174326860162 -0.043873875452950642 0 0.039310056192177971 -0.044228016648114495 0 0.038653924445221297 -0.04434280402132007 0 0.038222495907918111 -0.04524097180311909 0 0.038653924445221297 -0.04434280402132007 0 0.037871917047809116 -0.044178143153167079 0 0.038222495907918111 -0.04524097180311909 0 0.038653924445221297 -0.04434280402132007 0 0.037871917047809116 -0.044178143153167079 0 0.038368174326860162 -0.043873875452950642 0 0.039310056192177971 -0.044228016648114495 0 0.038368174326860162 -0.043873875452950642 0 0.037723660404972839 -0.042867137566037078 0 0.037871917047809116 -0.044178143153167079 0 0.038368174326860162 -0.043873875452950642 0 0.037723660404972839 -0.042867137566037078 0 0.036982208822943743 -0.043700079213340265 0 0.036971002781761367 -0.044816152340799283 0 0.035124499950185031 -0.044517536426555281 0 0.037871917047809116 -0.044178143153167079 0 0.036982208822943743 -0.043700079213340265 0 0.037723660404972839 -0.042867137566037078 0 0.037871917047809116 -0.044178143153167079 0 0.036982208822943743 -0.043700079213340265 0 0.036971002781761367 -0.044816152340799283 0 0.037871917047809116 -0.044178143153167079 0 0.036971002781761367 -0.044816152340799283 0 0.038222495907918111 -0.04524097180311909 0 0.035124499950185031 -0.044517536426555281 0 0.035812569445010441 -0.042871909237007837 0 0.033887357060983656 -0.042879741754664746 0 0.036982208822943743 -0.043700079213340265 0 0.035124499950185031 -0.044517536426555281 0 0.035812569445010441 -0.042871909237007837 0 0.035812569445010441 -0.042871909237007837 0 0.035180801906227348 -0.040281542469648324 0 0.033887357060983656 -0.042879741754664746 0 0.036982208822943743 -0.043700079213340265 0 0.035812569445010441 -0.042871909237007837 0 0.037723660404972839 -0.042867137566037078 0 0.035812569445010441 -0.042871909237007837 0 0.037723660404972839 -0.042867137566037078 0 0.035180801906227348 -0.040281542469648324 0 0.03389956049779496 -0.037424581135171719 0 0.037142260684326071 -0.038583648162163205 0 0.035180801906227348 -0.040281542469648324 0 0.037723660404972839 -0.042867137566037078 0 0.037142260684326071 -0.038583648162163205 0 0.035180801906227348 -0.040281542469648324 0 0.035180801906227348 -0.040281542469648324 0 0.032865070527714896 -0.041362300749897253 0 0.033887357060983656 -0.042879741754664746 0 0.035180801906227348 -0.040281542469648324 0 0.03270029468957307 -0.039358726923639571 0 0.032865070527714896 -0.041362300749897253 0 0.03389956049779496 -0.037424581135171719 0 0.035180801906227348 -0.040281542469648324 0 0.03270029468957307 -0.039358726923639571 0 0.03270029468957307 -0.039358726923639571 0 0.032865070527714896 -0.041362300749897253 0 0.030426949687240155 -0.040104553926614384 0 0.031435877731407824 -0.044416920136270119 0 0.030335349613012385 -0.04683196642346104 0 0.032865070527714896 -0.041362300749897253 0 0.032434456408187255 -0.044279717536381054 0 0.030129901604515154 -0.046444413515277706 0 0.032865070527714896 -0.041362300749897253 0 0.033887357060983656 -0.042879741754664746 0 0.032434456408187255 -0.044279717536381054 0 0.035124499950185031 -0.044517536426555281 0 0.033887357060983656 -0.042879741754664746 0 0.032434456408187255 -0.044279717536381054 0 0.032434456408187255 -0.044279717536381054 0 0.031109781974095817 -0.048335627487090256 0 0.030129901604515154 -0.046444413515277706 0 0.032434456408187255 -0.044279717536381054 0 0.033953667449252864 -0.04663584012180863 0 0.031243751820729134 -0.048942307439353294 0 0.030802207301402689 -0.047540586747702361 0 0.030186459770385917 -0.04956982334539798 0 0.035124499950185031 -0.044517536426555281 0 0.032434456408187255 -0.044279717536381054 0 0.033953667449252864 -0.04663584012180863 0 0.033953667449252864 -0.04663584012180863 0 0.031243751820729134 -0.048942307439353294 0 0.034594715912622837 -0.048992610841062552 0 0.030129503261221213 -0.053684886338528193 0 0.031243751820729134 -0.048942307439353294 0 0.033110294268411652 -0.051566643540805576 0 0.031243751820729134 -0.048942307439353294 0 0.033110294268411652 -0.051566643540805576 0 0.034594715912622837 -0.048992610841062552 0 0.033110294268411652 -0.051566643540805576 0 0.034594715912622837 -0.048992610841062552 0 0.036828677471524629 -0.051232628183660846 0 0.034594715912622837 -0.048992610841062552 0 0.036828677471524629 -0.051232628183660846 0 0.037386933994674666 -0.048175576381533587 0 0.037386933994674666 -0.048175576381533587 0 0.036310758666785126 -0.046505084037605046 0 0.038620217861928985 -0.046443081197254425 0 0.033953667449252864 -0.04663584012180863 0 0.034594715912622837 -0.048992610841062552 0 0.036310758666785126 -0.046505084037605046 0 0.034594715912622837 -0.048992610841062552 0 0.037386933994674666 -0.048175576381533587 0 0.036310758666785126 -0.046505084037605046 0 0.036971002781761367 -0.044816152340799283 0 0.035124499950185031 -0.044517536426555281 0 0.036310758666785126 -0.046505084037605046 0 0.035124499950185031 -0.044517536426555281 0 0.033953667449252864 -0.04663584012180863 0 0.036310758666785126 -0.046505084037605046 0 0.036971002781761367 -0.044816152340799283 0 0.036310758666785126 -0.046505084037605046 0 0.038222495907918111 -0.04524097180311909 0 0.036310758666785126 -0.046505084037605046 0 0.038620217861928985 -0.046443081197254425 0 0.038222495907918111 -0.04524097180311909 0 0.023375739921371416 -0.052428011825272049 0 0.022562892579363523 -0.050171337845680342 0 0.022094900124272815 -0.050599035518727922 0 0.022902597219118321 -0.04922919093879112 0 0.02037716337936504 -0.057218568428798848 0 0.039310056192177971 -0.044228016648114495 0 0.038620217861928985 -0.046443081197254425 0 0.040558797274090459 -0.047716633019824324 0 0.039310056192177971 -0.044228016648114495 0 0.038620217861928985 -0.046443081197254425 0 0.038222495907918111 -0.04524097180311909 0 0.022902597219118321 -0.04922919093879112 0 0.021274347563178388 -0.053394660419480315 0 0.033140517923386875 -0.031255094511129476 0 0.032639764011002 -0.031067704955578566 0 0.032591185257700633 -0.030584499557839352 0 0.02037716337936504 -0.057218568428798848 0 0.021274347563178388 -0.053394660419480315 0 0.037386933994674666 -0.048175576381533587 0 0.038620217861928985 -0.046443081197254425 0 0.040558797274090459 -0.047716633019824324 0 0.0058045569944045047 -0.082712970927096258 0 0.007853522958794967 -0.088695038325701525 0 0.0086292914298374841 -0.084550564741885242 0 0.012146950880484128 -0.084947618567212807 0 0.007853522958794967 -0.088695038325701525 0 0.0086292914298374841 -0.084550564741885242 0 0.036828677471524629 -0.051232628183660846 0 0.037386933994674666 -0.048175576381533587 0 0.040558797274090459 -0.047716633019824324 0 0.021553805709038941 -0.062785892713247748 0 0.02037716337936504 -0.057218568428798848 0 0.0058045569944045047 -0.082712970927096258 0 0.0070367229008121111 -0.086233322577240465 0 0.0051539012364960326 -0.084787927652853493 0 0.020039646586650622 -0.070734636848540394 0 0.02037716337936504 -0.057218568428798848 0 0.016455492038765465 -0.057265896052839757 0 0.021274347563178388 -0.053394660419480315 0 0.0034029807917320132 -0.082680020153322931 0 0.0045962020577952189 -0.082749513014445719 0 0.0051539012364960326 -0.084787927652853493 0 0.010676799815996766 -0.060351653061087952 0 0.016455492038765465 -0.057265896052839757 0 0.031535853460904997 -0.030573473446561677 0 0.031995169144004403 -0.030083190467647385 0 0.032043542013820925 -0.030500371558220177 0 0.031535853460904997 -0.030573473446561677 0 0.032043542013820925 -0.030500371558220177 0 0.032237571447511285 -0.030893178507253195 0 0.031535853460904997 -0.030573473446561677 0 0.031904842016451822 -0.031349283978667396 0 0.032237571447511285 -0.030893178507253195 0 0.032043542013820925 -0.030500371558220177 0 0.032456675638001843 -0.030672097908489609 0 0.032237571447511285 -0.030893178507253195 0 0.0070367229008121111 -0.086233322577240465 0 0.0051539012364960326 -0.084787927652853493 0 0.0065510151130354051 -0.086669499218581483 0 0.031995169144004403 -0.030083190467647385 0 0.032043542013820925 -0.030500371558220177 0 0.032456675638001843 -0.030672097908489609 0 0.032639764011002 -0.031067704955578566 0 0.032591185257700633 -0.030584499557839352 0 0.032237571447511285 -0.030893178507253195 0 0.021274347563178388 -0.053394660419480315 0 0.022806520920020786 -0.051669644795125626 0 0.0248761869189487 -0.042489772402759182 0 0.022632108263146902 -0.044127718290157901 0 0.024403569874856777 -0.045973157218086487 0 0.028709987561641954 -0.042890266575444765 0 0.031205264797212858 -0.038422317903287297 0 0.0248761869189487 -0.042489772402759182 0 0.027352245796224209 -0.043050049967938049 0 0.024403569874856777 -0.045973157218086487 0 0.0248761869189487 -0.042489772402759182 0 0.022632108263146902 -0.044127718290157901 0 0.023716596453231393 -0.03925052571742188 0 0.034683905280948127 -0.041131402901332666 0 0.03214156626826023 -0.040347903004497067 0 0.032672501142146371 -0.038207295686266497 0 0.034683905280948127 -0.041131402901332666 0 0.03214156626826023 -0.040347903004497067 0 0.031599313468911344 -0.042277971712206167 0 0.031733602132720987 -0.036875148955010852 0 0.032008918229255494 -0.038552256352093826 0 0.034094815289718215 -0.037448026900356354 0 0.034683905280948127 -0.041131402901332666 0 0.032672501142146371 -0.038207295686266497 0 0.035703546939070629 -0.036630332255768706 0 0.031623928063578097 -0.038386519255114285 0 0.031205264797212858 -0.038422317903287297 0 0.0248761869189487 -0.042489772402759182 0 0.023716596453231393 -0.03925052571742188 0 0.02648294185463565 -0.040223781188892908 0 0.027134136257944377 -0.037350423409611248 0 0.023716596453231393 -0.03925052571742188 0 0.02648294185463565 -0.040223781188892908 0 0.02648294185463565 -0.040223781188892908 0 0.030426949687240155 -0.040104553926614384 0 0.027352245796224209 -0.043050049967938049 0 0.027134136257944377 -0.037350423409611248 0 0.02648294185463565 -0.040223781188892908 0 0.030426949687240155 -0.040104553926614384 0 0.032865070527714896 -0.041362300749897253 0 0.030426949687240155 -0.040104553926614384 0 0.03005047414059989 -0.043635233154385597 0 0.031179306983368162 -0.037682519152263921 0 0.03270029468957307 -0.039358726923639571 0 0.030426949687240155 -0.040104553926614384 0 0.029012280329930983 -0.042773022669506597 0 0.027861951902238873 -0.044186966665274004 0 0.032865070527714896 -0.041362300749897253 0 0.03005047414059989 -0.043635233154385597 0 0.030866634043625257 -0.046777286705792766 0 0.030426949687240155 -0.040104553926614384 0 0.03005047414059989 -0.043635233154385597 0 0.027517791830550968 -0.043809949922862752 0 0.0248761869189487 -0.042489772402759182 0 0.02648294185463565 -0.040223781188892908 0 0.027352245796224209 -0.043050049967938049 0 0.03005047414059989 -0.043635233154385597 0 0.027517791830550968 -0.043809949922862752 0 0.028605141834265296 -0.046017336072733624 0 0.027861951902238873 -0.044186966665274004 0 0.026201982490147796 -0.046634298514515837 0 0.028605141834265296 -0.046017336072733624 0 0.027869139712269928 -0.048241331240048674 0 0.025076070387647201 -0.04720874692207333 0 0.027517791830550968 -0.043809949922862752 0 0.028605141834265296 -0.046017336072733624 0 0.025076070387647201 -0.04720874692207333 0 0.028605141834265296 -0.046017336072733624 0 0.030866634043625257 -0.046777286705792766 0 0.027869139712269928 -0.048241331240048674 0 0.03005047414059989 -0.043635233154385597 0 0.028605141834265296 -0.046017336072733624 0 0.030866634043625257 -0.046777286705792766 0 0.028071068398606767 -0.050936570404954869 0 0.030038292729951142 -0.051881710902387607 0 0.031109781974095817 -0.048335627487090256 0 0.028657037403630962 -0.05046484858119097 0 0.030335349613012385 -0.04683196642346104 0 0.028669644255687157 -0.051271426945653904 0 0.030866634043625257 -0.046777286705792766 0 0.027869139712269928 -0.048241331240048674 0 0.028071068398606767 -0.050936570404954869 0 0.031109781974095817 -0.048335627487090256 0 0.030129901604515154 -0.046444413515277706 0 0.028723082462785928 -0.053952294337269995 0 0.030186459770385917 -0.04956982334539798 0 0.028669644255687157 -0.051271426945653904 0 0.027869139712269928 -0.048241331240048674 0 0.02734458954965515 -0.050281451731250308 0 0.027869139712269928 -0.048241331240048674 0 0.025855759603813318 -0.049798180816355619 0 0.025076070387647201 -0.04720874692207333 0 0.027869139712269928 -0.048241331240048674 0 0.02734458954965515 -0.050281451731250308 0 0.025855759603813318 -0.049798180816355619 0 0.026746781035398005 -0.051362201358543802 0 0.02734458954965515 -0.050281451731250308 0 0.025855759603813318 -0.049798180816355619 0 0.026201982490147796 -0.046634298514515837 0 0.026087068408252142 -0.048196303439572784 0 0.025855759603813318 -0.049798180816355619 0 0.025076070387647201 -0.04720874692207333 0 0.02313538936566898 -0.050141963200256795 0 0.025537801584237803 -0.052097983708075654 0 0.025855759603813318 -0.049798180816355619 0 0.02313538936566898 -0.050141963200256795 0 0.022632108263146902 -0.044127718290157901 0 0.024403569874856777 -0.045973157218086487 0 0.021541770054983429 -0.048878202988943256 0 0.034683905280948127 -0.041131402901332666 0 0.033677934849500386 -0.045943014466138951 0 0.031599313468911344 -0.042277971712206167 0 0.028709987561641954 -0.042890266575444765 0 0.026087068408252142 -0.048196303439572784 0 0.033677934849500386 -0.045943014466138951 0 0.029378801682844877 -0.044301139412878068 0 0.028275358660471268 -0.047114329468501706 0 0.029378801682844877 -0.044301139412878068 0 0.028275358660471268 -0.047114329468501706 0 0.026105268619365574 -0.04455461340789757 0 0.024688673294463542 -0.048253653428146706 0 0.028275358660471268 -0.047114329468501706 0 0.026105268619365574 -0.04455461340789757 0 0.029378801682844877 -0.044301139412878068 0 0.028192228073223521 -0.041841066956358815 0 0.026105268619365574 -0.04455461340789757 0 0.033677934849500386 -0.045943014466138951 0 0.029378801682844877 -0.044301139412878068 0 0.031599313468911344 -0.042277971712206167 0 0.029378801682844877 -0.044301139412878068 0 0.028192228073223521 -0.041841066956358815 0 0.031599313468911344 -0.042277971712206167 0 0.031623928063578097 -0.038386519255114285 0 0.031099324058864238 -0.038715642352009326 0 0.028192228073223521 -0.041841066956358815 0 0.031599313468911344 -0.042277971712206167 0 0.029677472182547758 -0.039798498583100139 0 0.03214156626826023 -0.040347903004497067 0 0.032672501142146371 -0.038207295686266497 0 0.029677472182547758 -0.039798498583100139 0 0.03214156626826023 -0.040347903004497067 0 0.031599313468911344 -0.042277971712206167 0 0.029677472182547758 -0.039798498583100139 0 0.028192228073223521 -0.041841066956358815 0 0.029677472182547758 -0.039798498583100139 0 0.027541219597192114 -0.039464489447569077 0 0.029677472182547758 -0.039798498583100139 0 0.027541219597192114 -0.039464489447569077 0 0.029110847713617518 -0.037471063601284958 0 0.027541219597192114 -0.039464489447569077 0 0.029110847713617518 -0.037471063601284958 0 0.026454808074673656 -0.037615260344516878 0 0.031733602132720987 -0.036875148955010852 0 0.029110847713617518 -0.037471063601284958 0 0.030580037289199641 -0.038164821119460166 0 0.032008918229255494 -0.038552256352093826 0 0.029677472182547758 -0.039798498583100139 0 0.030580037289199641 -0.038164821119460166 0 0.029677472182547758 -0.039798498583100139 0 0.029110847713617518 -0.037471063601284958 0 0.030580037289199641 -0.038164821119460166 0 0.031774976375277632 -0.036548522854358466 0 0.030817087601580393 -0.036830723801881612 0 0.031733602132720987 -0.036875148955010852 0 0.032008918229255494 -0.038552256352093826 0 0.030580037289199641 -0.038164821119460166 0 0.024264038023635224 -0.038191200833179492 0 0.026454808074673656 -0.037615260344516878 0 0.025136645071196322 -0.036097469948337797 0 0.024264038023635224 -0.038191200833179492 0 0.026454808074673656 -0.037615260344516878 0 0.024928610323662195 -0.041098670809998024 0 0.027541219597192114 -0.039464489447569077 0 0.026454808074673656 -0.037615260344516878 0 0.024928610323662195 -0.041098670809998024 0 0.028192228073223521 -0.041841066956358815 0 0.027541219597192114 -0.039464489447569077 0 0.024928610323662195 -0.041098670809998024 0 0.024264038023635224 -0.038191200833179492 0 0.024928610323662195 -0.041098670809998024 0 0.023426091453133124 -0.039926776642940989 0 0.023646222295825921 -0.042362566436610377 0 0.022707662247865953 -0.043454819505702076 0 0.024928610323662195 -0.041098670809998024 0 0.023316908639989829 -0.041337944181542428 0 0.023426091453133124 -0.039926776642940989 0 0.024928610323662195 -0.041098670809998024 0 0.026105268619365574 -0.04455461340789757 0 0.021254296497972412 -0.045456539532828771 0 0.028192228073223521 -0.041841066956358815 0 0.024928610323662195 -0.041098670809998024 0 0.026105268619365574 -0.04455461340789757 0 0.024688673294463542 -0.048253653428146706 0 0.026105268619365574 -0.04455461340789757 0 0.021254296497972412 -0.045456539532828771 0 0.02140327896961754 -0.045227611410672532 0 0.022707662247865953 -0.043454819505702076 0 0.022348442536524338 -0.041300053975284391 0 0.023316908639989829 -0.041337944181542428 0 0.022029983381034967 -0.040934492648520358 0 0.022029983381034967 -0.040934492648520358 0 0.022449518649906918 -0.040442311368632751 0 0.021267523844925848 -0.040295402992926978 0 0.023316908639989829 -0.041337944181542428 0 0.022449518649906918 -0.040442311368632751 0 0.023426091453133124 -0.039926776642940989 0 0.023316908639989829 -0.041337944181542428 0 0.022029983381034967 -0.040934492648520358 0 0.022449518649906918 -0.040442311368632751 0 0.021927032401911978 -0.040821080182247282 0 0.02171584631638393 -0.040632671221893388 0 0.021904367541113169 -0.040684265010560043 0 0.021998146855080489 -0.041022608355737893 0 0.022029983381034967 -0.040934492648520358 0 0.021902558611637597 -0.040868845203506012 0 0.021927032401911978 -0.040821080182247282 0 0.021902558611637597 -0.040868845203506012 0 0.02171584631638393 -0.040632671221893388 0 0.022029983381034967 -0.040934492648520358 0 0.021902558611637597 -0.040868845203506012 0 0.02171584631638393 -0.040632671221893388 0 0.022029983381034967 -0.040934492648520358 0 0.02171584631638393 -0.040632671221893388 0 0.021267523844925848 -0.040295402992926978 0 0.02171584631638393 -0.040632671221893388 0 0.021701808792582954 -0.040515593550389792 0 0.021267523844925848 -0.040295402992926978 0 0.02171584631638393 -0.040632671221893388 0 0.021816140847226318 -0.040608716419712303 0 0.021904367541113169 -0.040684265010560043 0 0.021701808792582954 -0.040515593550389792 0 0.021816140847226318 -0.040608716419712303 0 0.021901156811281831 -0.040621054231026479 0 0.02171584631638393 -0.040632671221893388 0 0.021701808792582954 -0.040515593550389792 0 0.021816140847226318 -0.040608716419712303 0 0.021933528627557257 -0.040691360822699016 0 0.021816140847226318 -0.040608716419712303 0 0.021901156811281831 -0.040621054231026479 0 0.021933528627557257 -0.040691360822699016 0 0.021816140847226318 -0.040608716419712303 0 0.021904367541113169 -0.040684265010560043 0 0.024351084792048314 -0.041570645191464473 0 0.021836352234178059 -0.041696494829783083 0 0.022718902617879514 -0.040739299270545704 0 0.026826855250435898 -0.032249967164405986 0 0.026425002561328459 -0.03278829545244507 0 0.02188492069723344 -0.041007343456354664 0 0.022718902617879514 -0.040739299270545704 0 0.021901156811281831 -0.040621054231026479 0 0.021701808792582954 -0.040515593550389792 0 0.02188492069723344 -0.041007343456354664 0 0.021901156811281831 -0.040621054231026479 0 0.021267523844925848 -0.040295402992926978 0 0.020511533360173882 -0.038790787370093213 0 0.021401150082931256 -0.038416904677447197 0 0.026826855250435898 -0.032249967164405986 0 0.025286975358742005 -0.033342175392632969 0 0.021701808792582954 -0.040515593550389792 0 0.02188492069723344 -0.041007343456354664 0 0.021267523844925848 -0.040295402992926978 0 0.018947385904677788 -0.039346561724661278 0 0.021267523844925848 -0.040295402992926978 0 0.020511533360173882 -0.038790787370093213 0 0.026826855250435898 -0.032249967164405986 0 0.025607537934547613 -0.028935280368320812 0 0.018947385904677788 -0.039346561724661278 0 0.020511533360173882 -0.038790787370093213 0 0.02038958215464088 -0.037277529564271134 0 0.020511533360173882 -0.038790787370093213 0 0.021401150082931256 -0.038416904677447197 0 0.02038958215464088 -0.037277529564271134 0 0.028171861843798222 -0.017476016466772441 0 0.028366078312792534 -0.017865678299381283 0 0.02809995831215201 -0.018014034075202891 0 0.028171861843798222 -0.017476016466772441 0 0.02809995831215201 -0.018014034075202891 0 0.027690596333248697 -0.018002382014001218 0 0.028366078312792534 -0.017865678299381283 0 0.028371745249801437 -0.018083271475788792 0 0.02809995831215201 -0.018014034075202891 0 0.023426091453133124 -0.039926776642940989 0 0.022275622635530512 -0.039374790942951619 0 0.022686093283112253 -0.038001635555275609 0 0.022449518649906918 -0.040442311368632751 0 0.023426091453133124 -0.039926776642940989 0 0.022275622635530512 -0.039374790942951619 0 0.022449518649906918 -0.040442311368632751 0 0.021267523844925848 -0.040295402992926978 0 0.022275622635530512 -0.039374790942951619 0 0.021267523844925848 -0.040295402992926978 0 0.022275622635530512 -0.039374790942951619 0 0.021401150082931256 -0.038416904677447197 0 0.021401150082931256 -0.038416904677447197 0 0.022686093283112253 -0.038001635555275609 0 0.021616505398800154 -0.036713409643950617 0 0.022275622635530512 -0.039374790942951619 0 0.021401150082931256 -0.038416904677447197 0 0.022686093283112253 -0.038001635555275609 0 0.021401150082931256 -0.038416904677447197 0 0.021616505398800154 -0.036713409643950617 0 0.02038958215464088 -0.037277529564271134 0 0.024264038023635224 -0.038191200833179492 0 0.022686093283112253 -0.038001635555275609 0 0.023457849989889652 -0.036710018454482574 0 0.024264038023635224 -0.038191200833179492 0 0.023426091453133124 -0.039926776642940989 0 0.022686093283112253 -0.038001635555275609 0 0.022686093283112253 -0.038001635555275609 0 0.023457849989889652 -0.036710018454482574 0 0.021616505398800154 -0.036713409643950617 0 0.023457849989889652 -0.036710018454482574 0 0.021616505398800154 -0.036713409643950617 0 0.023656761569476735 -0.034170150134400078 0 0.02277775572862685 -0.035121851630148256 0 0.024052600906773528 -0.033840553585858066 0 0.021616505398800154 -0.036713409643950617 0 0.021267181667801068 -0.03475298294500067 0 0.02038958215464088 -0.037277529564271134 0 0.025210704546164153 -0.026828709773029039 0 0.025607537934547613 -0.028935280368320812 0 0.02718539181977668 -0.018516992266638766 0 0.027690596333248697 -0.018002382014001218 0 0.027609627784327673 -0.018446409417521153 0 0.02718539181977668 -0.018516992266638766 0 0.027475619395966929 -0.01877380279595765 0 0.027174860650620056 -0.018972223744717052 0 0.02718539181977668 -0.018516992266638766 0 0.027475619395966929 -0.01877380279595765 0 0.027609627784327673 -0.018446409417521153 0 0.021616505398800154 -0.036713409643950617 0 0.021267181667801068 -0.03475298294500067 0 0.02314460005795866 -0.034355435433008071 0 0.021267181667801068 -0.03475298294500067 0 0.02314460005795866 -0.034355435433008071 0 0.022588181914485306 -0.031104170127183615 0 0.028264266140209646 -0.018280805208115352 0 0.028371745249801437 -0.018083271475788792 0 0.02809995831215201 -0.018014034075202891 0 0.028264266140209646 -0.018280805208115352 0 0.027906388128332498 -0.018320119734571077 0 0.028142286709911334 -0.018536442302973764 0 0.028264266140209646 -0.018280805208115352 0 0.02809995831215201 -0.018014034075202891 0 0.027906388128332498 -0.018320119734571077 0 0.027906388128332498 -0.018320119734571077 0 0.027690596333248697 -0.018002382014001218 0 0.027609627784327673 -0.018446409417521153 0 0.02809995831215201 -0.018014034075202891 0 0.027906388128332498 -0.018320119734571077 0 0.027690596333248697 -0.018002382014001218 0 0.027475619395966929 -0.01877380279595765 0 0.027788466584925654 -0.018628706964196023 0 0.027738138991064788 -0.018923804141785665 0 0.027475619395966929 -0.01877380279595765 0 0.027609627784327673 -0.018446409417521153 0 0.027788466584925654 -0.018628706964196023 0 0.027906388128332498 -0.018320119734571077 0 0.027788466584925654 -0.018628706964196023 0 0.028142286709911334 -0.018536442302973764 0 0.027906388128332498 -0.018320119734571077 0 0.027609627784327673 -0.018446409417521153 0 0.027788466584925654 -0.018628706964196023 0 0.027788466584925654 -0.018628706964196023 0 0.028142286709911334 -0.018536442302973764 0 0.028055928375461843 -0.018874165888384208 0 0.028414935599359044 -0.018694458837454016 0 0.028142286709911334 -0.018536442302973764 0 0.028055928375461843 -0.018874165888384208 0 0.028404302533475777 -0.018445582064424173 0 0.028264266140209646 -0.018280805208115352 0 0.028142286709911334 -0.018536442302973764 0 0.028414935599359044 -0.018694458837454016 0 0.028404302533475777 -0.018445582064424173 0 0.028142286709911334 -0.018536442302973764 0 0.028384524271503116 -0.019125236995163629 0 0.028414935599359044 -0.018694458837454016 0 0.028055928375461843 -0.018874165888384208 0 0.028384524271503116 -0.019125236995163629 0 0.028055928375461843 -0.018874165888384208 0 0.027860934738886841 -0.019206167999681605 0 0.028055928375461843 -0.018874165888384208 0 0.027738138991064788 -0.018923804141785665 0 0.027860934738886841 -0.019206167999681605 0 0.027788466584925654 -0.018628706964196023 0 0.028055928375461843 -0.018874165888384208 0 0.027738138991064788 -0.018923804141785665 0 0.027475619395966929 -0.01877380279595765 0 0.027738138991064788 -0.018923804141785665 0 0.027505572040954843 -0.019136063492446499 0 0.027738138991064788 -0.018923804141785665 0 0.027860934738886841 -0.019206167999681605 0 0.027505572040954843 -0.019136063492446499 0 0.027891785937026799 -0.019700804927984903 0 0.027580031137862906 -0.019487130213820539 0 0.027860934738886841 -0.019206167999681605 0 0.027580031137862906 -0.019487130213820539 0 0.027860934738886841 -0.019206167999681605 0 0.027505572040954843 -0.019136063492446499 0 0.042075125620127087 -0.011046878633028872 0 0.042600467482538484 -0.0088208317563715395 0 0.028384524271503116 -0.019125236995163629 0 0.027891785937026799 -0.019700804927984903 0 0.027860934738886841 -0.019206167999681605 0 0.054814047319516591 0.00032438644193879726 0 0.05568259603836178 -0.0017809054660284098 0 0.058480527148021794 0.0026860707784609151 0 0.025210704546164153 -0.026828709773029039 0 0.0256725850952297 -0.024658029730259389 0 0.02718539181977668 -0.018516992266638766 0 0.02662760603247066 -0.019066583494892486 0 0.027174860650620056 -0.018972223744717052 0 0.02662760603247066 -0.019066583494892486 0 0.027174860650620056 -0.018972223744717052 0 0.027078587676446272 -0.019372836458129226 0 0.027475619395966929 -0.01877380279595765 0 0.027174860650620056 -0.018972223744717052 0 0.027505572040954843 -0.019136063492446499 0 0.027174860650620056 -0.018972223744717052 0 0.027505572040954843 -0.019136063492446499 0 0.027078587676446272 -0.019372836458129226 0 0.027206798247346748 -0.019760689363226492 0 0.027580031137862906 -0.019487130213820539 0 0.027078587676446272 -0.019372836458129226 0 0.027580031137862906 -0.019487130213820539 0 0.027505572040954843 -0.019136063492446499 0 0.027078587676446272 -0.019372836458129226 0 0.02662760603247066 -0.019066583494892486 0 0.027078587676446272 -0.019372836458129226 0 0.026607813100584878 -0.019541162571762159 0 0.026850962678653834 -0.019649201286154477 0 0.027206798247346748 -0.019760689363226492 0 0.027078587676446272 -0.019372836458129226 0 0.026850962678653834 -0.019649201286154477 0 0.027078587676446272 -0.019372836458129226 0 0.026607813100584878 -0.019541162571762159 0 0.026850962678653834 -0.019649201286154477 0 0.026421898829209818 -0.01970637106537966 0 0.026607813100584878 -0.019541162571762159 0 0.027453425807749329 -0.02150352076833369 0 0.0256725850952297 -0.024658029730259389 0 0.026267948475785799 -0.020116274218909193 0 0.026421898829209818 -0.01970637106537966 0 0.026607813100584878 -0.019541162571762159 0 0.026267948475785799 -0.020116274218909193 0 0.02662760603247066 -0.019066583494892486 0 0.026607813100584878 -0.019541162571762159 0 0.025233247851394497 -0.02501047156231273 0 0.022588181914485306 -0.031104170127183615 0 0.026350834379011579 -0.028166727705166643 0 0.022588181914485306 -0.031104170127183615 0 0.026409221939456187 -0.031181697488902881 0 0.026350834379011579 -0.028166727705166643 0 0.024052600906773528 -0.033840553585858066 0 0.026857065569043694 -0.031180564734071194 0 0.02314460005795866 -0.034355435433008071 0 0.022588181914485306 -0.031104170127183615 0 0.026409221939456187 -0.031181697488902881 0 0.026138550500102786 -0.031386239034389578 0 0.031354318531777399 -0.028302584556061126 0 0.02971680324107363 -0.031581246916031341 0 0.026138550500102786 -0.031386239034389578 0 0.02971680324107363 -0.031581246916031341 0 0.028215863154270344 -0.033548283545217369 0 0.026138550500102786 -0.031386239034389578 0 0.031354318531777399 -0.028302584556061126 0 0.032838473206434377 -0.026420609867579874 0 0.026857065569043694 -0.031180564734071194 0 0.029207023991967559 -0.029063453332224303 0 0.026409221939456187 -0.031181697488902881 0 0.026350834379011579 -0.028166727705166643 0 0.028806670002105107 -0.026299416893121947 0 0.026409221939456187 -0.031181697488902881 0 0.028806670002105107 -0.026299416893121947 0 0.032838473206434377 -0.026420609867579874 0 0.026350834379011579 -0.028166727705166643 0 0.027111689512508197 -0.025689288987010936 0 0.028806670002105107 -0.026299416893121947 0 0.025233247851394497 -0.02501047156231273 0 0.026350834379011579 -0.028166727705166643 0 0.027111689512508197 -0.025689288987010936 0 0.028597048356104868 -0.023022115147274466 0 0.027111689512508197 -0.025689288987010936 0 0.028806670002105107 -0.026299416893121947 0 0.031185316941305077 -0.023981125953660833 0 0.029722517273307582 -0.023739836274450237 0 0.028806670002105107 -0.026299416893121947 0 0.031354318531777399 -0.028302584556061126 0 0.032838473206434377 -0.026420609867579874 0 0.039715565039066737 -0.024928007853406445 0 0.031185316941305077 -0.023981125953660833 0 0.028806670002105107 -0.026299416893121947 0 0.032838473206434377 -0.026420609867579874 0 0.033900149369251745 -0.023148525703012655 0 0.032838473206434377 -0.026420609867579874 0 0.039715565039066737 -0.024928007853406445 0 0.034292341435741232 -0.025381885199087063 0 0.035735437963898206 -0.024218781451676167 0 0.031354318531777399 -0.028302584556061126 0 0.0327757035482628 -0.03035778211164606 0 0.03189353349207056 -0.030784794593691236 0 0.031354318531777399 -0.028302584556061126 0 0.045603050691550899 -0.028416337342467578 0 0.039715565039066737 -0.024928007853406445 0 0.044604463030077188 -0.022125168933119738 0 0.045603050691550899 -0.028416337342467578 0 0.039715565039066737 -0.024928007853406445 0 0.03189353349207056 -0.030784794593691236 0 0.032273729846318815 -0.032362241694806032 0 0.03066869117393119 -0.033284442457338893 0 0.032827547707977862 -0.031546028561184714 0 0.0327757035482628 -0.03035778211164606 0 0.03189353349207056 -0.030784794593691236 0 0.032827547707977862 -0.031546028561184714 0 0.03189353349207056 -0.030784794593691236 0 0.032273729846318815 -0.032362241694806032 0 0.031354318531777399 -0.028302584556061126 0 0.03189353349207056 -0.030784794593691236 0 0.02971680324107363 -0.031581246916031341 0 0.03189353349207056 -0.030784794593691236 0 0.02971680324107363 -0.031581246916031341 0 0.03066869117393119 -0.033284442457338893 0 0.03066869117393119 -0.033284442457338893 0 0.031711045130105565 -0.034604423369703097 0 0.029192188874391168 -0.035351001647068246 0 0.02971680324107363 -0.031581246916031341 0 0.03066869117393119 -0.033284442457338893 0 0.028215863154270344 -0.033548283545217369 0 0.03066869117393119 -0.033284442457338893 0 0.029192188874391168 -0.035351001647068246 0 0.028215863154270344 -0.033548283545217369 0 0.033049653050181947 -0.033471605897541133 0 0.032273729846318815 -0.032362241694806032 0 0.031952225371440074 -0.033435454523323492 0 0.032273729846318815 -0.032362241694806032 0 0.03066869117393119 -0.033284442457338893 0 0.031952225371440074 -0.033435454523323492 0 0.03066869117393119 -0.033284442457338893 0 0.031952225371440074 -0.033435454523323492 0 0.031711045130105565 -0.034604423369703097 0 0.033049653050181947 -0.033471605897541133 0 0.031952225371440074 -0.033435454523323492 0 0.031711045130105565 -0.034604423369703097 0 0.03264867995030496 -0.036257584594813 0 0.029110847713617518 -0.037471063601284958 0 0.031711045130105565 -0.034604423369703097 0 0.029110847713617518 -0.037471063601284958 0 0.031711045130105565 -0.034604423369703097 0 0.029192188874391168 -0.035351001647068246 0 0.029110847713617518 -0.037471063601284958 0 0.026454808074673656 -0.037615260344516878 0 0.029192188874391168 -0.035351001647068246 0 0.026454808074673656 -0.037615260344516878 0 0.0270601010423701 -0.03537634917661453 0 0.025136645071196322 -0.036097469948337797 0 0.026454808074673656 -0.037615260344516878 0 0.029192188874391168 -0.035351001647068246 0 0.0270601010423701 -0.03537634917661453 0 0.0270601010423701 -0.03537634917661453 0 0.025136645071196322 -0.036097469948337797 0 0.026002433196676149 -0.034230532146311422 0 0.023457849989889652 -0.036710018454482574 0 0.023656761569476735 -0.034170150134400078 0 0.025136645071196322 -0.036097469948337797 0 0.024264038023635224 -0.038191200833179492 0 0.023457849989889652 -0.036710018454482574 0 0.025136645071196322 -0.036097469948337797 0 0.023656761569476735 -0.034170150134400078 0 0.026138550500102786 -0.031386239034389578 0 0.026002433196676149 -0.034230532146311422 0 0.023656761569476735 -0.034170150134400078 0 0.025136645071196322 -0.036097469948337797 0 0.026002433196676149 -0.034230532146311422 0 0.026138550500102786 -0.031386239034389578 0 0.028215863154270344 -0.033548283545217369 0 0.026002433196676149 -0.034230532146311422 0 0.0270601010423701 -0.03537634917661453 0 0.028215863154270344 -0.033548283545217369 0 0.026002433196676149 -0.034230532146311422 0 0.029192188874391168 -0.035351001647068246 0 0.0270601010423701 -0.03537634917661453 0 0.028215863154270344 -0.033548283545217369 0 
</DataArray>
</PointData>
<CellData Scalars="region_id,cross_section_updated," Vectors="" Tensors="stress,">
<DataArray type="Float64" Name="region_id" format="ascii">
5 5 5 5 5 6 5 5 5 5 5 5 5 6 5 5 5 5 6 5 5 6 5 5 5 5 6 5 5 5 5 6 5 5 5 5 5 5 5 5 5 5 5 5 5 6 5 5 6 5 5 5 5 5 6 5 5 5 5 5 5 5 6 5 5 5 5 6 5 5 5 5 5 5 5 5 5 6 5 5 6 5 5 6 5 5 5 5 6 5 5 5 5 5 5 5 6 6 6 5 5 6 5 5 5 5 5 6 5 5 5 5 5 5 5 5 5 5 5 5 5 6 5 5 5 6 5 5 5 5 5 5 6 5 5 5 5 5 5 5 5 5 5 5 5 5 5 5 5 5 5 5 5 5 5 5 5 5 6 5 5 5 6 5 5 6 5 5 5 5 5 5 5 5 5 5 5 6 5 5 5 5 5 5 5 5 6 5 5 5 5 5 5 5 5 6 5 5 5 5 5 5 5 5 5 6 5 5 5 5 5 5 5 5 5 5 5 5 5 5 5 5 5 5 5 5 5 5 5 6 5 5 5 6 5 6 5 6 5 5 6 5 5 5 6 5 6 5 6 5 6 6 5 6 5 5 6 5 6 5 5 5 6 5 6 6 5 5 6 5 5 5 6 5 6 6 6 5 6 5 5 5 6 5 6 6 6 5 5 6 6 5 5 5 5 6 5 6 5 5 6 5 5 5 6 5 6 6 6 5 5 5 6 5 6 6 6 6 5 5 5 6 6 5 5 6 6 6 5 6 5 5 5 5 6 5 5 5 5 5 5 5 6 5 5 5 5 5 5 6 6 5 5 5 6 5 5 5 6 5 6 5 6 6 5 5 5 5 6 5 5 6 5 5 5 5 6 5 6 5 5 5 5 5 6 6 5 5 5 5 5 5 5 5 6 5 5 5 6 5 5 6 5 6 5 5 5 5 5 5 5 5 5 5 5 6 5 6 5 6 5 5 5 6 5 6 5 6 5 5 5 5 5 5 6 5 6 5 5 5 6 5 5 5 6 5 6 6 5 5 5 5 6 5 5 5 5 6 6 5 5 6 5 6 5 6 6 5 5 5 6 5 5 5 5 6 5 5 5 5 5 5 5 5 5 5 5 6 5 5 5 5 6 5 5 5 6 5 6 6 6 5 5 5 6 6 5 6 5 5 6 5 5 5 5 6 5 5 5 5 5 5 5 5 5 5 5 6 6 5 5 6 5 5 5 6 5 5 5 5 5 5 6 5 5 5 6 5 5 5 6 5 5 5 5 5 5 5 5 5 5 5 6 5 5 5 6 5 5 5 5 5 5 5 6 5 5 5 5 5 6 5 5 5 5 5 5 5 5 5 5 5 5 5 5 5 5 5 5 5 6 5 5 5 5 6 5 5 6 5 5 5 5 5 5 5 6 5 5 5 5 5 5 5 5 6 5 6 5 5 6 5 5 5 6 5 5 6 5 5 5 6 5 6 5 5 6 5 6 5 5 5 5 5 5 5 5 5 5 5 5 5 5 5 5 5 5 5 5 5 5 6 5 6 5 6 5 5 5 5 5 5 5 5 5 5 5 5 5 5 5 6 5 5 5 5 5 5 5 5 5 6 5 5 5 5 5 5 5 5 5 5 5 5 5 5 5 5 5 5 5 5 5 5 5 5 5 5 5 5 5 6 5 5 6 5 5 5 6 6 5 6 5 5 5 5 5 6 5 5 5 5 5 6 5 5 5 5 5 5 5 5 5 5 5 5 5 5 5 5 5 5 5 5 5 5 5 5 5 5 5 5 5 5 5 5 5 5 5 5 5 5 5 5 5 5 5 5 5 5 5 5 5 6 5 5 5 5 5 5 5 5 5 5 5 5 5 5 5 6 5 5 5 5 6 5 5 5 5 5 5 5 5 5 5 5 5 5 5 5 5 5 5 5 5 5 5 5 5 5 5 5 6 5 5 6 5 6 6 6 6 5 5 6 5 5 5 5 5 5 5 5 5 5 5 5 5 5 5 5 5 6 5 5 6 5 6 5 5 5 5 6 5 6 5 5 5 5 6 5 5 5 6 5 5 5 5 5 6 5 6 5 5 6 6 5 6 5 5 5 5 5 5 5 5 5 5 5 6 5 5 5 6 5 5 5 6 5 5 6 6 6 5 5 5 5 5 5 5 5 5 5 5 6 5 5 5 5 5 5 5 5 6 6 6 5 5 5 5 5 5 5 5 6 6 5 5 5 6 5 5 6 5 5 5 5 5 5 5 5 5 5 5 6 5 5 5 5 5 5 5 5 6 5 5 5 5 5 5 5 5 5 5 6 5 6 6 6 5 5 5 5 5 5 5 6 6 5 6 5 5 5 5 5 6 5 6 6 5 5 5 6 5 6 5 5 5 5 6 5 5 5 5 5 5 5 5 5 5 5 5 5 5 5 5 5 6 5 5 5 6 5 5 5 5 5 6 5 5 5 5 5 5 6 5 6 5 5 5 5 5 5 5 5 6 5 5 5 6 5 5 5 5 5 5 5 5 5 5 5 5 5 5 5 5 5 5 5 5 5 5 5 5 5 6 6 6 5 5 5 5 6 5 5 5 5 6 5 5 5 5 5 5 5 6 5 5 5 5 5 5 5 5 6 5 5 5 5 5 5 5 5 5 5 5 5 6 5 5 5 5 5 5 6 5 5 5 5 5 5 5 5 6 5 5 5 6 5 5 5 5 5 5 5 5 5 5 5 5 6 5 5 5 5 5 5 5 5 5 5 5 5 5 5 5 5 5 5 5 5 5 5 5 5 5 5 5 5 5 5 5 5 5 5 5 5 5 5 5 5 5 5 5 5 5 5 5 6 5 5 5 5 5 5 5 5 5 5 5 5 5 5 5 5 5 5 5 5 5 5 5 5 6 5 5 5 5 5 5 5 5 5 5 6 5 5 6 5 5 5 5 5 5 5 5 5 6 5 6 5 5 5 5 6 5 5 6 5 6 5 5 5 5 5 6 5 5 5 5 5 5 5 5 6 5 5 5 5 5 5 5 5 5 5 5 5 5 5 6 5 6 6 5 5 5 5 5 6 5 5 5 5 5 5 5 5 5 5 5 5 5 5 5 6 5 5 5 5 5 5 5 5 5 5 5 5 5 5 5 5 6 5 5 5 5 5 6 6 5 5 6 5 5 5 5 5 5 5 5 5 5 6 5 5 5 5 5 5 5 5 5 6 5 6 5 5 5 5 5 6 5 5 5 5 6 5 5 5 6 5 5 5 6 5 5 6 5 5 5 5 5 5 5 5 5 5 5 5 5 5 5 5 6 5 5 5 5 5 5 5 6 5 5 5 5 5 5 5 5 5 5 5 5 5 5 5 5 5 5 5 5 5 5 5 5 5 5 5 6 5 5 5 5 6 5 5 5 6 5 5 5 5 5 5 5 5 5 6 5 6 5 5 5 5 5 5 5 5 5 5 5 5 5 5 5 5 5 5 6 6 5 5 5 6 5 5 6 5 5 6 5 5 5 6 5 5 6 5 5 5 5 5 5 5 5 5 5 5 5 5 5 5 5 5 5 5 5 6 5 6 5 5 5 5 5 5 5 5 5 5 5 6 5 6 5 5 5 6 5 5 5 5 5 6 5 5 5 5 5 5 6 5 5 5 5 5 5 5 5 5 5 5 6 5 5 5 5 5 5 5 5 6 5 5 5 6 5 5 6 5 5 5 5 5 6 5 5 5 5 5 5 5 5 5 6 5 5 6 5 6 5 6 6 6 5 6 5 5 5 5 5 5 6 5 5 5 5 5 5 6 5 5 5 5 5 5 5 6 5 5 5 5 6 5 5 5 5 5 6 5 6 5 5 5 5 5 5 5 5 5 5 6 5 5 5 5 5 5 5 6 5 5 5 5 5 5 5 6 5 6 5 5 5 5 5 5 5 5 6 5 5 5 6 6 5 5 5 5 5 6 6 5 6 5 5 6 5 5 6 5 5 5 5 5 5 5 5 6 5 5 5 5 5 6 5 5 5 5 6 5 5 6 5 5 5 5 5 5 5 5 5 5 5 5 5 5 5 5 5 5 5 5 5 5 5 5 5 5 5 5 5 5 5 5 5 5 5 5 5 5 5 5 5 6 5 5 6 5 5 5 5 5 6 5 5 5 5 6 5 5 5 5 5 5 5 5 5 5 5 5 5 5 5 5 5 5 5 5 5 5 5 5 6 5 5 5 6 5 5 5 5 5 5 6 5 5 5 5 5 5 5 5 5 5 5 6 5 6 6 5 5 6 5 5 5 5 5 5 5 5 5 5 5 6 5 5 6 5 5 5 5 5 5 5 5 5 5 5 5 5 5 5 6 5 5 5 5 5 5 5 6 5 6 5 5 5 5 6 5 6 5 5 5 5 5 5 5 5 5 6 5 5 5 5 5 5 5 5 5 5 5 5 5 5 5 5 5 6 5 5 5 5 5 5 5 5 5 5 5 5 5 5 5 5 5 5 5 5 5 5 5 5 5 6 6 5 5 5 5 5 5 5 5 5 5 5 6 5 5 5 5 6 5 5 5 5 6 5 5 5 5 5 5 5 5 6 5 5 5 5 5 5 5 5 5 6 5 5 5 5 5 5 5 5 5 5 5 5 5 5 5 5 5 5 5 5 6 5 5 5 5 5 5 5 5 5 5 5 5 5 5 6 5 6 5 5 5 5 5 5 5 5 6 5 5 6 5 5 5 5 5 5 5 5 5 5 5 5 5 5 5 5 5 5 5 5 5 5 5 5 5 5 5 5 5 5 5 5 5 5 5 5 6 5 5 6 5 5 5 5 6 5 6 5 5 6 5 6 5 5 5 5 5 6 5 5 5 5 5 5 5 5 5 5 5 5 6 5 5 5 6 5 5 5 5 5 5 5 5 5 6 5 5 5 5 6 6 5 5 5 5 5 5 5 5 6 5 5 5 5 5 6 5 5 5 6 5 5 5 6 5 5 5 5 6 5 5 5 5 5 5 5 5 5 5 5 5 5 5 6 5 5 5 5 5 5 6 5 6 6 5 6 5 6 5 5 5 5 6 5 5 5 5 6 5 5 5 5 5 5 5 5 5 6 5 5 5 5 5 5 5 5 5 5 5 5 5 5 6 5 5 5 6 5 5 5 6 5 6 5 5 5 5 5 5 5 5 5 5 5 5 5 5 5 5 6 5 5 5 5 5 5 6 5 5 5 5 5 5 5 5 5 5 5 5 5 5 5 5 5 5 6 5 5 5 5 5 5 5 5 5 5 5 5 5 5 5 5 5 5 5 5 5 5 5 5 5 5 5 5 5 5 5 5 5 5 6 5 5 5 5 6 5 5 5 5 5 5 5 6 5 5 5 5 5 5 5 5 5 6 5 5 6 5 5 5 5 5 6 5 5 5 6 5 5 6 5 5 5 5 5 5 5 5 5 5 5 5 5 5 5 5 5 5 5 5 6 5 5 5 5 5 5 5 5 5 5 6 6 5 6 5 5 5 5 5 6 5 5 5 5 6 5 5 5 5 5 6 5 6 5 5 6 5 5 5 5 5 5 5 5 6 5 5 5 5 5 5 6 5 5 5 5 5 5 6 5 5 5 5 6 5 5 6 5 6 5 5 6 5 5 5 5 5 5 6 5 5 5 5 6 5 5 5 5 5 5 5 5 6 6 5 5 5 5 5 5 5 5 6 5 5 5 5 5 5 6 5 5 5 5 5 5 5 6 5 5 5 6 5 5 5 5 5 5 5 5 5 5 5 5 6 5 5 5 5 6 5 5 6 5 5 5 5 6 5 5 5 6 6 5 5 5 6 5 5 5 6 5 5 5 5 5 5 5 5 5 6 5 5 5 6 5 5 5 5 5 5 5 5 5 5 5 5 6 5 6 5 5 6 5 5 6 5 5 5 5 5 5 5 6 5 5 5 5 5 6 5 6 5 5 5 6 6 5 6 6 5 6 5 5 5 5 5 5 6 5 6 5 5 5 5 5 5 5 5 5 5 5 5 5 6 5 5 6 5 6 5 5 6 5 5 5 6 6 5 5 6 5 5 5 5 5 5 5 5 5 5 5 5 5 5 5 5 5 5 5 5 5 5 5 6 6 5 6 5 6 5 5 6 6 5 5 6 5 5 6 5 5 6 5 6 5 5 5 5 6 5 5 5 5 6 5 6 6 5 6 5 5 6 6 5 5 5 6 5 5 5 5 6 6 5 5 5 5 5 6 5 5 5 5 5 5 5 5 5 5 5 6 5 6 5 6 5 5 6 5 6 5 5 5 5 5 5 5 5 6 5 5 6 5 5 5 5 6 5 5 5 5 5 5 5 5 5 5 5 5 6 5 5 5 5 5 5 5 5 5 5 5 6 5 5 5 5 5 5 6 5 6 5 5 6 5 5 5 5 5 5 5 5 5 5 5 5 5 5 5 5 5 6 6 5 5 5 6 5 5 6 5 5 5 5 5 5 5 5 5 5 5 5 5 5 5 5 5 5 5 5 5 5 5 5 5 6 6 5 5 5 5 5 5 5 5 5 5 5 6 5 5 5 5 5 5 5 5 5 5 5 5 5 5 5 5 5 5 5 5 5 5 5 5 5 5 5 5 5 5 5 5 5 6 5 5 5 5 5 6 5 5 6 5 5 6 6 5 5 5 5 5 5 5 5 5 5 5 5 5 6 5 5 6 5 5 5 5 5 5 6 5 5 6 5 5 5 5 5 5 5 5 5 5 5 5 5 6 5 5 5 5 5 5 5 6 5 5 5 5 5 5 5 5 5 5 5 5 6 5 5 6 5 5 5 5 5 5 5 5 5 5 5 5 5 5 5 5 5 5 5 5 6 5 5 6 5 6 5 5 5 6 5 5 6 5 6 5 5 5 6 5 5 5 5 6 5 5 5 5 5 5 5 6 5 5 5 6 5 5 5 5 5 5 5 5 5 5 5 5 6 5 5 5 5 5 5 5 5 6 5 5 5 5 5 5 5 5 5 5 5 6 5 5 5 5 5 5 5 5 5 5 5 5 5 5 5 5 5 5 5 6 6 5 5 5 6 5 5 5 5 5 5 5 5 5 5 5 5 6 5 5 5 5 5 5 5 5 5 6 5 5 5 5 5 5 5 5 5 5 5 5 5 5 5 5 6 5 6 5 5 5 5 5 6 5 5 5 5 6 5 5 5 6 5 5 5 6 5 5 5 5 5 5 5 5 5 6 5 5 5 6 5 5 6 5 5 5 5 5 5 6 5 5 5 5 5 5 5 5 6 5 5 5 6 5 5 5 5 5 5 5 5 5 5 5 5 5 5 5 5 5 5 5 5 5 5 5 5 5 5 5 6 5 5 5 5 5 5 5 6 5 5 5 5 5 5 5 5 5 5 5 5 5 5 5 5 5 5 5 5 5 5 5 5 5 6 5 6 5 5 5 5 5 5 6 5 5 5 6 5 5 6 5 5 5 5 5 5 5 5 5 5 5 5 6 5 5 5 5 5 6 5 5 5 5 5 5 5 5 5 5 5 5 5 6 5 5 5 6 5 5 5 5 5 5 5 5 5 5 5 5 6 6 5 5 5 5 6 5 5 5 5 5 5 5 5 5 6 6 5 5 5 5 5 6 5 5 5 5 5 6 5 5 5 5 5 6 5 6 5 5 5 5 6 5 6 5 6 6 5 5 5 5 5 5 5 6 6 5 5 5 5 5 5 6 6 6 5 6 6 5 5 5 6 5 5 5 5 5 6 6 6 5 6 5 5 5 6 5 6 6 5 5 5 5 5 5 5 6 6 5 5 6 6 6 5 5 5 5 5 5 5 5 5 5 5 5 5 5 5 5 5 5 5 5 5 5 5 5 5 5 5 5 5 5 5 5 5 5 5 5 5 5 5 5 6 5 5 5 5 5 5 5 5 5 5 6 5 5 5 5 5 5 6 5 5 6 5 5 5 5 5 5 5 5 5 5 5 5 5 6 5 6 5 5 5 5 6 5 5 5 6 5 5 6 5 5 5 6 5 5 6 5 5 5 5 5 6 5 5 5 5 5 5 5 6 5 5 5 5 5 5 5 6 5 5 6 5 5 5 5 6 5 6 5 5 5 5 5 6 5 5 5 5 6 5 5 5 5 5 5 6 6 5 5 5 5 5 6 5 5 6 5 5 5 5 5 5 5 5 5 5 6 5 5 5 5 5 5 5 5 5 5 5 5 5 5 5 5 5 5 6 5 5 5 5 5 5 6 5 5 5 5 5 5 5 6 6 5 5 5 5 6 5 5 5 5 5 5 5 6 5 5 6 5 6 6 6 5 5 5 5 5 5 6 5 5 5 5 5 6 5 5 5 5 6 5 5 5 6 5 5 5 6 5 5 5 5 5 5 5 5 5 5 5 5 5 5 5 5 5 5 5 5 5 5 5 5 5 6 5 5 5 5 5 5 5 6 5 6 5 5 5 5 5 5 6 5 5 6 5 5 5 6 5 5 6 5 5 5 5 5 6 5 5 5 6 6 5 5 5 5 5 5 5 5 5 5 5 5 6 5 5 5 5 5 5 5 5 5 6 5 5 5 5 5 6 6 5 5 5 5 5 5 5 5 5 6 5 5 5 5 5 5 5 5 6 5 5 5 5 5 5 5 5 5 5 5 5 5 5 5 5 5 5 6 5 5 5 5 6 5 6 5 6 5 5 5 5 5 5 5 5 5 5 5 5 5 5 5 5 5 6 5 5 5 5 5 6 5 5 5 6 6 5 5 5 5 5 6 5 5 5 5 6 5 5 5 5 5 5 5 5 6 5 5 5 5 5 5 5 6 5 5 5 5 5 5 5 5 5 6 5 5 5 5 5 5 5 5 5 5 5 5 5 5 5 5 5 5 6 5 5 5 5 5 5 5 5 5 5 5 5 5 6 5 5 5 5 5 5 6 5 5 6 5 5 6 5 5 5 5 5 5 5 5 5 5 5 5 5 5 5 5 5 5 5 5 5 5 5 5 5 5 6 5 6 5 6 6 5 5 5 6 5 5 5 5 5 5 5 5 5 6 6 5 6 5 5 5 5 5 5 5 5 5 5 5 5 5 5 6 5 6 6 5 6 5 5 5 5 5 5 5 5 5 6 6 5 5 5 5 5 5 5 5 5 5 5 5 5 5 5 5 5 5 5 5 5 5 6 5 5 5 5 5 6 5 5 5 5 5 6 5 5 5 6 5 5 5 5 5 5 5 5 5 6 5 5 5 5 6 5 5 5 5 5 5 6 5 5 5 5 5 5 5 6 5 5 5 5 6 5 5 5 5 5 5 5 5 5 5 6 5 5 5 5 6 5 5 5 6 5 5 5 5 5 6 5 5 5 5 5 5 5 5 5 5 5 5 5 5 6 6 5 5 6 5 5 5 5 5 5 5 6 5 5 5 5 5 5 6 5 5 5 5 5 5 5 5 5 5 5 5 5 5 5 5 5 5 5 5 5 5 5 6 5 5 5 5 5 5 5 5 6 5 5 5 5 6 5 5 5 5 5 6 5 6 5 6 5 5 5 5 5 5 5 6 5 5 5 6 5 5 5 5 5 6 5 5 5 5 5 6 5 6 5 5 6 5 6 5 5 5 5 5 6 5 5 5 6 5 5 5 5 5 5 5 5 5 5 6 5 5 5 5 5 5 5 5 5 5 5 5 5 5 5 5 5 5 5 5 5 5 6 5 5 5 5 5 5 5 5 5 5 5 5 5 5 5 5 5 5 6 5 5 5 6 5 5 5 5 5 5 6 5 5 5 6 6 5 6 5 6 6 5 6 5 5 6 5 5 6 6 5 5 5 5 5 5 5 5 6 5 6 5 5 5 5 5 5 5 5 5 5 5 5 5 5 5 5 5 5 5 5 5 5 6 5 5 5 5 5 5 5 5 6 5 5 6 5 5 6 6 5 5 6 5 5 5 5 5 5 5 5 5 5 5 5 5 5 5 5 5 5 5 5 5 5 5 5 5 5 5 5 5 5 5 5 5 5 5 5 5 5 5 6 5 6 5 5 5 5 5 5 5 5 5 5 5 5 5 5 5 5 5 5 5 5 5 5 5 5 5 5 5 5 5 5 5 5 5 5 5 5 5 5 5 5 6 5 5 6 5 5 5 5 5 6 5 6 5 5 6 5 5 5 5 5 5 6 5 5 5 5 5 5 5 5 5 5 5 6 5 5 6 6 5 6 5 5 6 5 5 5 5 6 5 5 5 5 5 5 5 5 5 6 5 6 5 5 5 5 5 5 5 6 5 6 5 5 5 5 5 5 5 5 5 6 5 6 5 5 5 5 5 5 5 5 5 5 6 5 5 5 6 5 5 6 5 5 6 5 5 5 5 6 5 5 5 6 5 5 5 5 5 5 5 5 5 5 5 5 5 5 6 5 5 5 5 5 5 6 5 6 5 6 5 5 5 6 5 5 5 5 5 5 5 5 6 5 5 5 5 5 6 5 5 6 5 5 5 5 5 5 5 5 5 6 5 5 5 6 5 5 5 5 5 5 6 5 5 5 5 5 5 5 5 5 5 5 5 5 5 5 5 5 5 5 5 5 5 5 5 5 5 5 5 5 5 5 6 5 5 5 5 5 6 5 5 6 6 5 5 5 5 6 5 5 5 5 5 6 5 5 5 5 5 5 5 5 5 5 5 5 5 5 5 5 6 5 5 5 5 5 5 5 5 6 6 5 5 5 5 5 5 6 5 5 5 5 6 5 5 5 5 5 5 5 5 5 5 5 5 5 5 5 5 5 5 5 5 5 5 5 5 6 5 5 6 5 5 5 5 5 5 5 5 5 5 5 5 5 5 5 5 5 5 5 5 5 5 5 5 5 5 5 6 5 6 5 5 5 5 5 6 5 5 5 5 5 5 5 5 5 5 5 5 5 5 5 5 5 5 5 5 6 6 5 6 5 5 5 5 5 5 5 5 5 5 5 5 5 5 5 5 6 5 5 5 6 5 5 5 5 5 5 5 5 5 5 5 5 5 6 5 5 5 5 5 5 5 5 5 5 5 5 5 5 5 5 5 5 5 5 5 5 6 5 5 5 5 5 5 5 5 5 5 5 5 5 6 5 6 5 5 6 6 5 5 5 5 5 5 5 5 5 5 5 5 5 5 5 5 5 5 5 5 6 5 5 6 5 5 5 6 5 5 5 5 5 5 6 5 5 5 6 5 5 5 5 5 5 5 5 6 5 5 6 5 5 6 5 6 5 5 5 5 6 6 5 5 6 6 5 5 6 5 5 5 5 6 5 5 6 6 5 6 5 5 5 5 5 5 5 5 5 5 5 5 5 5 5 5 5 5 5 5 6 5 5 5 5 6 5 5 5 5 6 6 5 5 5 5 5 5 5 5 5 5 5 5 6 5 5 5 6 5 5 5 5 5 5 5 6 5 5 5 6 5 5 6 6 5 5 5 6 5 5 5 6 5 5 5 5 5 5 5 5 5 5 5 5 5 5 5 5 5 5 6 5 5 5 5 5 5 5 5 5 5 5 5 5 5 5 5 5 5 6 6 5 5 5 5 5 6 6 5 6 5 5 5 5 5 5 5 5 5 6 5 5 5 6 5 5 5 5 5 5 5 5 5 5 5 5 5 5 6 5 5 5 5 5 5 5 6 5 5 6 5 5 5 5 5 5 6 5 5 5 5 6 5 5 5 5 5 5 6 5 5 5 5 5 5 5 5 6 6 5 5 5 6 6 5 5 5 5 5 6 5 5 5 5 5 5 6 5 5 5 5 6 5 5 5 5 5 6 5 5 5 5 6 5 5 5 5 5 5 5 5 5 5 5 5 5 5 5 5 5 5 5 5 5 5 5 5 5 6 5 5 5 5 6 5 6 5 6 5 5 6 5 5 6 5 5 6 5 5 5 5 5 5 6 5 5 6 5 6 6 6 5 5 6 5 6 6 5 5 5 6 5 6 5 5 5 5 5 5 6 5 5 5 6 5 5 5 5 5 5 5 6 5 5 5 6 5 6 6 5 5 5 5 5 5 5 6 5 5 5 5 5 5 5 5 6 6 5 5 5 5 6 5 5 6 5 5 5 6 5 5 5 6 6 5 5 5 5 6 5 5 5 5 5 6 6 5 5 5 5 5 5 5 5 5 5 5 5 5 5 5 5 5 5 5 5 5 5 5 5 5 5 5 5 5 5 5 6 5 5 5 6 5 5 5 5 5 5 5 5 5 5 5 5 5 5 5 6 5 6 6 5 5 6 5 5 5 5 5 5 5 5 5 5 5 5 5 5 5 5 5 5 5 5 5 5 5 6 5 5 6 6 5 5 5 5 5 5 5 6 5 5 5 6 5 5 5 5 6 6 5 5 5 5 5 5 5 6 5 5 5 5 6 5 5 5 5 6 5 5 5 5 5 5 5 5 5 5 5 5 5 5 5 5 5 5 5 6 5 5 5 5 5 5 5 5 5 5 5 5 5 5 5 5 6 5 5 5 6 5 5 5 5 5 5 5 5 5 6 5 5 5 5 5 5 5 5 5 5 5 5 5 5 5 5 5 5 5 5 5 6 5 5 5 5 5 5 5 5 5 5 5 5 5 5 5 5 5 6 5 5 5 5 5 6 5 5 5 5 5 5 5 5 5 5 5 5 5 5 5 5 5 5 5 5 5 5 5 5 5 5 5 6 5 5 6 5 5 5 6 5 5 5 5 5 5 5 5 5 5 5 5 5 5 5 6 5 6 5 5 5 5 5 5 5 5 5 6 5 5 5 5 5 5 5 5 5 6 6 5 5 5 5 5 5 5 5 5 5 5 5 5 5 5 5 5 5 5 5 5 5 5 5 5 5 5 5 5 5 5 5 5 5 5 5 5 5 5 5 5 5 5 5 5 5 5 5 5 5 5 5 5 5 5 5 5 5 5 5 5 5 5 5 5 5 5 5 5 5 5 6 5 5 5 5 5 5 6 5 5 5 5 5 5 5 5 5 6 5 6 5 5 5 5 5 5 5 5 5 5 5 5 5 5 5 5 5 5 5 5 5 5 5 5 5 5 5 5 5 5 5 5 5 5 6 5 5 5 6 6 5 5 5 5 5 5 5 5 5 5 5 5 5 5 5 5 5 5 5 5 5 5 6 6 5 5 5 5 5 5 5 5 6 5 5 5 5 5 5 6 5 5 5 5 5 6 5 5 5 5 6 5 5 5 6 5 5 5 6 5 5 6 5 5 5 5 5 5 5 5 5 5 5 5 5 6 5 5 5 5 5 5 5 5 6 5 5 5 5 5 5 5 5 5 5 5 6 5 5 5 6 5 5 5 5 6 5 5 5 5 5 5 5 5 6 5 6 5 5 6 5 5 5 5 5 6 5 5 5 5 5 5 5 5 5 5 5 5 6 5 5 5 5 5 5 5 5 5 6 5 5 5 5 5 5 6 5 5 5 5 5 5 5 6 5 5 5 5 5 6 5 5 5 5 5 5 5 5 5 5 5 5 5 5 5 5 5 5 5 5 5 5 5 5 5 5 5 5 5 5 5 5 5 5 5 5 5 5 5 5 5 5 5 5 5 5 5 6 5 6 5 5 5 5 5 5 5 5 5 5 5 5 5 5 6 5 5 5 5 5 5 5 5 5 5 5 5 5 5 5 6 5 5 6 5 6 5 5 5 5 5 6 5 5 5 5 5 5 5 5 5 5 5 5 5 5 5 5 5 5 5 5 6 5 5 5 5 5 5 5 5 5 5 5 6 5 6 5 5 6 5 6 5 5 5 5 5 5 5 6 5 6 5 5 5 5 6 5 5 5 5 6 6 5 5 6 5 5 5 5 5 5 5 5 5 5 5 5 5 5 5 5 6 5 5 5 5 5 5 5 5 5 5 5 5 5 5 6 5 6 5 5 5 5 5 5 5 6 5 6 5 5 5 5 5 5 5 5 5 6 6 5 5 5 6 5 5 5 5 6 5 6 5 5 6 5 6 6 6 5 5 6 5 5 5 6 6 6 5 5 5 5 5 5 5 5 5 5 5 6 5 5 5 5 5 5 6 5 5 5 6 5 5 5 5 5 5 5 5 6 5 5 5 6 5 5 5 5 5 5 5 5 5 5 5 5 5 5 5 5 5 5 5 5 5 5 5 5 5 5 5 5 5 5 5 5 5 5 5 5 5 5 5 5 5 5 5 5 5 5 5 5 5 5 5 5 5 5 5 5 5 5 5 5 6 5 5 5 5 5 6 5 5 5 5 6 5 5 5 6 5 5 5 5 5 5 5 5 5 5 5 5 5 5 5 5 5 5 5 5 5 5 5 5 5 5 5 5 5 5 5 5 5 5 5 5 5 5 5 5 6 5 5 6 5 5 5 5 5 5 5 6 5 5 5 5 5 5 5 5 5 5 5 6 5 5 6 5 6 5 5 5 6 5 5 5 5 5 5 5 5 6 5 5 5 5 6 5 5 5 5 6 5 6 5 5 5 5 5 5 5 5 5 5 5 5 6 5 6 5 5 5 5 5 5 5 5 5 5 5 5 5 6 5 5 5 5 5 5 5 5 5 6 5 5 5 6 5 5 5 5 5 5 5 5 5 5 5 5 5 5 5 5 5 5 5 5 5 5 5 5 5 5 5 5 5 5 5 5 5 5 5 6 5 5 6 5 5 5 5 6 5 5 5 5 5 5 5 5 5 5 5 5 5 5 5 6 5 5 5 5 5 5 5 5 5 6 5 6 5 5 5 5 5 5 5 6 5 5 5 5 5 5 5 5 5 5 5 5 5 5 6 5 5 5 5 5 5 5 5 5 5 5 6 5 5 5 5 5 5 5 5 5 5 5 5 5 5 5 5 5 5 5 5 5 5 5 6 5 6 5 5 5 5 5 5 6 5 6 5 5 5 6 5 5 5 6 5 5 5 6 5 5 6 5 5 5 5 5 5 5 6 5 5 5 5 5 5 5 6 5 5 5 5 5 5 5 5 5 5 5 5 5 6 5 5 5 5 5 5 5 5 6 5 5 5 5 5 5 5 5 5 5 5 5 5 5 5 5 5 5 5 5 6 5 5 5 5 5 5 5 5 5 5 5 5 5 5 5 5 5 5 5 5 5 5 5 5 5 5 5 5 5 5 5 5 5 5 5 5 5 5 5 5 5 5 5 5 5 5 5 5 5 5 6 5 6 5 5 5 6 5 5 6 6 5 6 5 5 5 5 5 5 5 5 5 5 5 5 5 5 5 5 5 5 5 5 5 5 5 5 5 5 5 5 5 5 5 5 5 5 5 6 5 5 5 5 6 5 5 6 5 5 5 6 5 5 5 5 6 5 6 6 5 5 5 5 6 5 5 5 6 5 5 5 6 5 5 5 5 5 5 6 5 5 5 5 5 5 5 5 5 5 5 5 5 5 5 5 5 5 5 5 6 5 5 5 5 5 5 5 5 5 5 5 5 5 5 5 5 5 5 6 5 5 6 5 5 6 5 5 5 5 5 5 5 5 5 5 5 6 5 5 5 5 6 5 5 5 5 6 5 5 5 6 5 5 5 5 5 5 5 5 5 5 5 5 5 5 5 5 5 5 5 5 5 5 5 5 5 6 5 5 5 5 5 5 5 5 6 5 5 5 6 5 5 5 5 5 5 5 5 5 5 5 5 5 5 5 5 5 5 5 5 5 5 5 5 6 5 5 5 6 5 5 5 5 5 5 5 5 6 5 5 6 5 5 5 5 6 5 5 5 5 5 5 5 6 5 6 5 5 6 5 5 6 6 5 5 5 5 5 5 5 5 5 5 5 5 5 5 5 5 5 5 5 5 5 6 5 5 5 5 6 5 5 5 5 5 5 5 5 5 5 5 5 5 6 5 5 6 5 5 5 5 5 5 5 5 5 5 5 5 5 5 5 5 5 5 5 5 5 5 5 5 5 5 5 5 5 5 5 5 5 5 5 5 5 5 5 5 5 5 5 5 5 5 5 5 5 5 5 5 5 5 5 5 5 5 5 5 5 5 5 5 5 5 5 5 5 5 5 5 5 5 5 5 5 5 5 5 5 5 5 5 5 5 5 5 5 5 5 5 5 5 5 5 5 5 5 5 5 5 5 5 5 5 5 5 5 5 5 5 5 5 5 5 5 5 5 5 5 5 5 5 5 5 5 5 6 5 5 5 5 5 5 5 6 5 5 5 5 5 5 5 5 5 6 5 6 5 5 5 6 5 5 6 5 5 5 5 5 5 5 5 5 5 5 5 5 5 5 5 5 5 5 5 5 5 5 5 5 5 5 5 5 5 5 5 5 5 5 5 5 6 5 5 6 6 5 5 6 5 5 6 5 5 5 6 5 5 5 5 5 5 5 5 5 6 5 5 5 5 5 5 6 5 5 5 5 5 5 5 5 5 5 5 5 5 5 5 5 5 5 5 5 5 5 5 5 5 5 5 5 5 5 5 6 5 5 5 5 5 5 5 5 5 5 5 5 5 5 5 5 5 5 5 5 5 5 5 5 5 5 5 5 5 5 5 5 5 5 5 5 5 5 5 5 5 5 5 5 5 5 6 5 6 5 5 5 5 6 5 5 5 5 6 5 5 5 5 6 5 5 5 5 5 5 5 5 6 5 5 6 5 6 5 5 5 5 6 5 5 6 6 5 5 5 5 5 5 6 5 5 5 5 5 5 5 5 5 5 6 6 5 5 5 5 5 6 5 5 6 5 5 5 5 6 5 5 6 5 5 5 5 5 5 5 5 5 5 5 5 5 5 5 5 5 5 5 5 5 5 5 5 5 5 5 5 5 6 5 6 5 5 5 5 5 5 5 5 5 5 5 5 5 6 5 5 5 5 6 6 5 5 5 5 5 5 5 5 5 5 5 5 5 5 5 5 5 5 5 5 5 5 5 5 5 5 5 5 5 5 5 5 5 5 5 5 5 5 5 5 5 5 6 5 5 5 6 5 5 5 5 5 5 5 5 5 5 5 5 5 5 5 5 5 5 5 5 6 5 5 6 5 5 5 5 5 5 5 5 5 6 5 5 5 5 5 6 5 5 5 5 5 6 5 6 5 5 5 5 5 5 5 5 5 5 5 5 5 6 5 5 5 6 6 5 5 5 5 5 5 5 5 6 5 5 6 5 5 6 6 5 5 5 5 5 6 5 5 5 5 5 5 5 6 5 5 6 6 5 5 5 5 5 5 6 6 5 5 5 6 5 5 5 5 5 5 5 6 5 5 5 5 5 5 5 5 5 5 5 5 5 5 5 5 5 5 5 5 5 5 5 5 5 5 6 5 5 5 5 5 5 5 6 5 5 5 5 5 5 5 5 5 5 5 6 5 5 5 5 5 5 5 5 6 5 5 5 5 5 5 5 5 5 5 5 5 5 5 5 5 6 5 5 5 6 5 5 5 5 5 6 5 5 5 5 5 5 5 5 5 5 5 5 5 5 6 5 5 5 5 6 5 5 6 5 5 5 5 5 6 5 5 5 5 5 5 5 5 5 5 5 5 5 5 6 5 6 5 5 5 6 5 6 5 6 5 5 5 5 5 5 6 6 5 5 5 5 5 5 6 5 6 5 5 5 5 5 5 5 5 5 5 5 5 5 5 5 5 5 6 5 5 5 6 6 5 5 5 5 5 6 5 5 6 6 5 5 5 5 5 5 5 5 5 5 5 5 5 5 5 5 5 5 5 5 5 5 5 5 5 5 5 5 5 5 5 5 5 5 5 5 5 5 5 5 5 5 5 5 6 5 5 6 6 6 5 5 5 5 5 5 6 5 5 5 5 5 5 5 5 5 6 5 5 5 6 5 5 5 5 5 5 5 5 5 5 5 5 5 5 5 5 5 5 5 5 6 5 5 5 5 6 5 5 5 5 5 5 5 5 5 5 5 5 5 5 5 5 5 5 5 5 5 5 5 5 5 5 5 5 5 5 5 5 5 5 6 5 6 5 5 5 5 5 5 5 5 6 5 5 5 6 5 6 5 5 5 5 5 5 5 5 6 5 5 5 5 6 5 5 5 5 6 5 5 5 5 5 5 5 6 5 5 5 5 6 5 5 5 5 5 5 5 5 5 5 5 5 5 5 5 5 5 5 5 5 5 5 5 5 5 5 5 5 5 5 5 5 5 5 5 5 5 5 5 5 5 5 5 5 5 5 6 5 5 5 5 6 6 5 5 6 6 5 5 5 5 5 5 5 5 5 5 5 5 5 5 5 5 5 5 5 6 5 5 5 6 6 5 5 5 5 5 5 5 5 5 5 5 5 5 5 5 5 5 5 5 5 5 5 5 5 5 5 5 6 5 5 5 5 5 5 5 6 5 5 5 5 5 5 5 5 5 5 5 5 5 5 5 6 5 5 5 5 5 5 5 5 6 5 6 6 5 5 5 5 5 5 5 5 5 5 5 5 6 5 5 5 5 5 5 5 5 5 5 5 5 5 5 5 5 5 5 6 5 5 5 6 5 5 5 5 5 5 5 5 6 5 5 5 5 5 5 5 5 5 5 5 5 5 5 5 6 5 5 5 6 5 5 5 5 5 5 5 5 5 5 5 5 5 5 5 5 5 5 5 5 5 5 5 5 5 5 5 5 5 5 5 5 5 6 5 6 5 5 5 5 5 5 5 5 6 5 5 5 5 5 5 5 5 5 6 5 5 6 5 5 5 5 5 6 5 5 5 5 6 5 5 5 5 6 5 5 5 6 5 6 5 5 6 5 5 5 5 5 5 5 5 5 5 5 5 5 5 6 5 5 6 5 6 5 5 5 6 5 5 6 5 5 5 5 6 5 6 5 5 5 5 5 5 6 5 6 5 5 5 5 5 6 5 5 5 5 6 5 5 5 5 5 5 6 5 5 5 5 5 5 5 5 5 5 5 5 5 5 5 5 5 5 5 5 5 5 5 5 5 5 5 5 5 5 5 5 5 6 6 5 5 5 5 5 5 5 5 5 5 6 5 5 6 6 5 6 5 5 5 5 5 5 5 6 5 5 5 5 5 5 5 5 5 5 5 5 6 5 5 5 5 6 5 5 5 5 5 5 5 5 5 5 5 5 6 5 5 5 5 5 5 5 5 5 5 5 5 5 5 5 5 5 6 5 5 5 5 5 6 5 5 5 6 5 5 5 5 5 5 6 5 6 5 5 5 6 5 5 5 5 5 5 5 5 5 6 5 5 6 5 5 5 5 5 5 5 6 5 5 5 5 5 5 5 5 5 5 5 5 5 6 5 5 6 5 5 5 5 5 5 6 5 5 5 5 5 5 6 5 5 5 5 5 5 5 6 5 5 5 5 5 5 5 5 5 5 5 5 5 5 5 5 5 5 5 5 5 5 6 5 5 5 5 5 5 5 5 5 5 6 5 5 5 5 6 6 5 5 5 5 6 5 5 5 5 5 5 5 5 5 6 5 5 5 5 5 5 5 5 5 5 5 6 5 5 5 6 5 5 5 6 5 5 5 5 5 5 5 5 5 5 5 5 6 5 5 5 5 5 6 5 5 6 5 5 5 5 5 5 5 5 5 5 5 5 5 5 6 5 5 5 5 5 5 5 6 5 5 5 6 5 5 5 5 5 6 5 5 5 5 5 5 5 5 5 6 5 5 5 5 5 5 5 5 6 5 5 5 5 5 6 5 5 5 5 5 5 5 6 5 5 5 5 5 5 5 5 5 5 5 5 5 5 5 5 5 5 5 5 5 5 5 5 5 5 5 5 5 5 5 5 5 5 5 5 5 5 5 5 5 5 5 5 5 5 5 5 6 5 5 5 5 5 5 5 6 5 5 5 5 5 5 5 5 5 5 5 5 5 5 5 5 5 5 5 5 5 5 6 6 5 5 6 6 5 5 5 5 5 5 5 6 5 5 5 5 5 5 5 5 5 5 5 5 5 5 6 5 5 5 5 5 5 5 5 6 5 5 6 5 5 5 6 5 5 5 5 5 5 5 5 5 5 5 5 5 5 5 5 5 5 5 5 5 5 5 5 5 5 5 5 6 5 5 5 5 5 5 5 5 6 5 5 5 5 5 5 6 6 5 5 5 5 6 5 5 6 5 5 6 5 5 5 5 5 5 6 5 5 5 5 5 5 5 5 6 5 5 5 5 5 5 5 5 5 5 5 6 5 5 6 5 5 5 5 5 5 5 6 5 5 5 6 5 6 5 6 5 5 5 5 5 5 5 5 5 5 5 5 5 5 5 5 5 6 5 6 5 5 5 5 5 5 5 5 5 5 6 5 5 5 5 5 5 5 6 5 5 5 6 5 6 6 5 5 6 5 5 5 5 6 5 5 5 6 5 5 5 6 5 6 6 5 5 5 5 5 5 6 5 5 5 5 5 5 5 5 6 6 6 5 6 5 5 6 6 5 5 6 5 5 5 5 5 5 5 5 5 5 5 6 5 5 5 5 5 5 5 5 5 5 5 5 5 6 6 5 5 5 5 6 5 5 5 6 5 5 5 5 5 6 6 5 5 5 6 5 5 5 5 5 5 5 5 5 5 5 5 5 5 5 6 5 5 5 6 5 5 5 6 5 5 5 5 5 5 6 5 5 5 5 5 6 5 5 5 5 5 5 5 5 6 5 5 5 5 5 5 5 5 5 6 5 5 5 5 6 5 6 5 5 6 5 6 5 5 5 5 5 5 6 5 6 6 5 5 5 5 5 5 5 5 6 5 6 5 6 5 6 5 5 5 5 5 5 5 5 5 5 5 6 5 5 5 6 5 5 5 5 5 5 5 5 6 5 5 5 5 5 5 5 5 5 6 5 5 5 5 6 5 5 6 5 5 5 5 5 5 5 5 5 6 5 5 5 6 5 5 5 5 5 5 5 5 5 5 5 5 5 5 5 5 5 5 5 6 5 5 5 5 5 5 5 5 5 5 6 5 5 5 5 5 5 5 5 5 5 5 5 5 5 5 5 5 5 5 5 5 5 5 5 5 5 5 5 5 5 5 5 5 5 5 5 5 5 5 5 5 5 5 5 5 6 6 5 5 5 5 5 5 5 5 5 5 5 5 5 6 6 5 5 5 6 5 5 6 5 5 5 6 5 5 5 6 5 5 5 5 5 5 5 5 6 5 5 6 5 6 6 5 5 5 5 5 5 6 5 6 6 6 5 5 6 5 5 6 6 5 5 5 5 5 5 5 5 5 5 5 5 5 5 5 5 5 5 5 5 5 6 5 5 5 5 5 5 5 5 5 6 5 5 5 5 5 5 5 6 6 5 5 5 5 5 5 5 5 5 5 5 5 5 5 5 5 5 5 5 5 5 5 5 6 5 6 5 5 5 5 5 5 5 6 5 5 5 6 6 5 5 6 5 5 5 5 6 5 5 5 6 5 5 5 6 5 5 5 5 5 5 5 5 5 6 6 5 5 5 5 5 6 5 5 6 6 6 5 5 5 5 5 6 5 5 5 5 5 5 5 5 5 6 5 6 5 5 5 5 5 5 5 5 5 5 5 5 5 5 5 5 5 5 5 5 5 5 5 5 6 5 5 5 5 6 6 5 5 5 6 5 5 5 5 5 5 5 5 5 5 5 5 5 5 5 5 6 5 5 5 6 5 5 6 5 5 5 5 5 5 5 5 5 5 5 5 5 6 5 5 6 5 5 5 6 5 6 5 6 5 6 6 6 5 5 5 5 5 5 5 5 6 5 5 5 5 5 5 5 5 6 5 5 6 5 5 5 5 5 5 5 5 5 5 5 5 5 5 5 5 5 5 5 5 5 6 5 5 5 5 5 5 5 5 5 5 6 5 6 5 5 6 5 6 5 6 5 5 6 5 6 5 5 6 5 5 5 6 5 5 5 5 5 5 5 5 5 5 5 5 5 5 5 5 5 5 5 5 5 5 5 5 5 5 5 5 5 5 5 5 5 5 5 5 5 5 5 5 5 5 5 5 5 5 5 5 5 5 5 5 5 5 5 5 5 5 5 5 5 6 5 5 6 5 5 5 5 5 5 6 6 5 5 5 5 5 5 5 5 5 5 5 5 5 5 5 5 5 5 6 5 5 5 6 5 5 5 5 5 5 5 5 5 5 5 5 5 5 5 5 6 5 5 5 5 5 5 5 6 5 5 5 5 5 5 5 5 6 5 6 5 5 5 5 5 5 5 5 5 5 5 5 5 5 5 5 6 5 5 5 5 5 5 5 6 5 5 5 5 6 5 5 5 5 5 5 5 6 5 5 6 6 5 5 6 5 5 5 5 5 5 6 5 5 5 5 5 5 5 5 5 6 5 5 6 5 5 6 5 5 6 5 5 5 5 5 6 5 5 5 5 5 5 5 5 6 5 5 5 5 5 5 5 6 5 5 5 5 5 5 5 5 5 5 5 5 6 5 5 5 5 5 5 5 6 6 5 6 5 6 5 5 5 5 5 5 5 5 5 5 5 5 5 5 5 6 5 6 5 5 5 5 5 5 5 5 6 5 6 5 6 5 6 5 6 5 5 6 5 5 5 5 5 6 5 5 5 5 5 5 5 5 6 5 5 5 5 5 6 5 5 6 5 6 6 5 5 5 5 5 5 5 5 6 5 5 5 5 5 5 5 5 5 5 5 5 5 6 5 5 5 5 5 5 5 6 5 5 5 6 5 5 5 5 5 5 5 5 5 5 5 5 5 5 5 5 5 6 5 5 5 5 5 5 5 6 5 5 6 5 5 5 5 5 5 5 5 5 5 5 5 5 5 5 6 5 5 5 5 6 5 5 5 5 5 5 5 5 5 5 5 5 5 5 5 5 5 5 5 5 5 5 5 5 5 6 5 5 5 5 5 5 6 5 5 5 5 5 5 5 5 5 6 6 5 5 5 6 5 6 5 5 5 5 5 5 5 5 5 5 5 5 5 5 5 6 5 5 5 5 5 5 5 5 5 5 5 5 6 6 5 5 5 5 5 5 5 5 6 5 5 6 5 5 6 6 5 5 5 5 5 5 5 6 5 5 5 5 5 5 5 5 5 6 5 5 5 6 5 5 5 5 5 6 5 5 5 5 5 5 5 5 5 5 5 5 6 5 5 5 6 5 5 5 6 5 5 5 5 5 5 5 5 5 5 5 5 5 5 5 5 5 5 5 5 5 5 5 5 5 5 5 5 5 5 5 5 6 5 5 5 5 5 5 5 5 5 5 5 5 5 5 5 5 5 5 5 5 5 5 5 5 6 5 6 5 5 6 5 5 5 5 5 5 5 5 5 6 5 5 5 5 5 5 5 5 5 5 5 5 5 5 6 5 5 5 5 6 5 5 5 6 5 5 5 5 5 5 5 5 5 5 5 5 5 5 5 5 5 5 5 5 5 5 5 5 5 5 5 5 5 5 5 5 5 5 5 5 5 5 5 5 5 5 5 5 5 5 5 5 5 5 5 5 5 5 5 5 5 5 5 5 5 5 5 5 5 5 5 5 5 5 5 5 5 5 5 5 5 5 5 5 5 5 5 5 5 5 5 5 5 5 5 5 5 5 5 5 5 5 5 5 5 5 5 5 5 5 5 5 5 5 5 5 5 5 5 5 5 5 5 5 5 5 5 5 5 5 5 5 5 5 5 5 5 5 5 5 5 5 5 5 5 5 5 5 5 5 5 5 5 5 5 5 5 5 5 5 5 5 5 5 5 5 5 5 5 5 5 5 5 5 5 5 5 5 5 5 5 5 5 5 5 5 5 5 5 5 5 5 5 6 5 5 5 5 5 5 5 5 5 5 5 5 5 5 5 5 6 5 5 5 5 5 5 5 5 6 5 5 5 5 6 5 5 5 5 5 5 5 5 5 5 5 5 5 5 5 5 5 5 5 5 5 5 6 5 5 5 5 5 5 5 5 5 5 5 5 5 6 6 5 5 5 5 5 6 5 6 5 5 5 5 5 5 5 5 5 5 5 6 5 5 5 5 5 5 5 6 5 5 5 5 5 5 5 5 5 5 5 5 5 5 5 6 6 5 5 5 5 5 5 5 5 5 5 5 5 6 5 5 5 5 5 5 5 5 5 5 5 5 5 5 5 5 6 5 5 5 5 5 5 5 6 5 5 5 5 5 5 5 5 5 5 6 6 5 5 5 5 5 5 5 5 5 5 5 5 5 5 5 5 5 5 5 5 5 5 5 5 5 5 5 5 5 5 6 5 5 5 5 5 6 5 5 5 5 5 5 5 5 5 5 6 5 5 5 5 6 5 5 5 5 5 5 5 5 5 5 6 5 6 5 5 5 5 5 5 5 5 5 5 5 5 5 5 5 5 5 5 5 5 5 5 5 5 5 5 5 5 5 5 5 6 5 5 5 5 5 6 5 5 5 5 5 5 5 5 5 5 5 5 5 5 5 5 5 5 6 5 5 6 5 5 5 6 5 5 5 5 5 6 5 5 5 5 5 5 5 5 5 5 6 5 5 5 5 5 5 6 5 5 5 5 5 6 6 5 5 6 5 5 6 5 5 5 5 5 5 5 5 5 5 6 5 5 6 5 5 6 5 5 6 5 5 6 5 5 6 5 5 5 5 5 5 6 5 5 5 5 5 5 5 5 5 5 5 6 5 5 5 5 5 5 5 6 5 5 5 5 6 5 5 5 6 5 5 5 5 5 5 5 5 5 5 5 6 5 5 5 5 5 5 5 5 5 5 5 5 5 5 5 5 5 5 5 5 5 5 5 5 6 5 5 5 5 5 6 5 5 5 5 5 5 5 5 5 5 5 5 5 5 6 5 5 6 5 6 5 5 5 5 6 5 6 6 5 6 5 5 5 5 5 5 5 6 5 6 5 5 5 5 5 5 6 5 5 5 5 5 5 6 5 5 5 5 6 5 5 5 5 5 6 5 5 6 5 5 5 5 6 5 5 5 5 6 5 5 5 5 5 5 6 5 5 5 5 5 5 5 5 5 6 5 5 5 5 5 5 6 5 5 5 5 6 5 5 5 5 5 5 5 5 5 5 5 5 5 5 5 5 6 5 5 5 6 5 5 6 5 5 5 5 5 5 5 5 5 5 5 5 5 5 5 5 6 5 6 5 5 5 5 5 5 5 5 5 5 5 5 5 5 5 5 5 5 5 5 5 5 5 5 5 5 6 5 5 6 5 5 5 5 5 5 5 5 5 5 6 5 5 5 5 6 5 5 5 5 6 5 5 5 5 5 5 5 5 5 6 5 5 5 5 5 5 5 5 5 5 5 5 5 5 5 5 5 5 5 5 5 5 5 5 5 5 5 5 
</DataArray>
<DataArray type="Float64" Name="stress" NumberOfComponents="9" format="ascii">
2369396849.450058 -2373642296.7837029 0 -2373642296.7837029 -1694177.703956604 0 0 0 0 1110076620.985611 -2784549610.9524536 0 -2784549610.9524536 670382571.55911255 0 0 0 0 543309.97569656372 -2396942239.366869 0 -2396942239.366869 1703764450.9484787 0 0 0 0 840054335.03979492 -1736031263.0662766 0 -1736031263.0662766 2134014603.8685455 0 0 0 0 731201530.86508179 -2197067245.3538284 0 -2197067245.3538284 2123481602.056725 0 0 0 0 5710621.3832745403 -385541.05906511098 0 -385541.05906511098 585565.51484004222 0 0 0 0 81703178.923904419 397393553.35338593 0 397393553.35338593 -446144538.25403595 0 0 0 0 1021407510.2666779 -57839360.687339783 0 -57839360.687339783 -246558239.9764595 0 0 0 0 2892232973.6760864 -2205571296.0531158 0 -2205571296.0531158 807380664.33953094 0 0 0 0 2373088011.5366058 -2750043641.4137192 0 -2750043641.4137192 2690961292.4049911 0 0 0 0 875291939.61594391 -875973713.08081055 0 -875973713.08081055 440349996.96166611 0 0 0 0 3607305183.7769165 -1744228086.3494339 0 -1744228086.3494339 185702293.98592377 0 0 0 0 -2400730.1559906006 -11549993.938472748 0 -11549993.938472748 -2763.9249267578125 0 0 0 0 2683562.210568618 -241932.27145867981 0 -241932.27145867981 1850518.0752065703 0 0 0 0 6080687.2359294891 -11628577.861505508 0 -11628577.861505508 871313.28570556641 0 0 0 0 7093806.9348754883 -11357206.690841675 0 -11357206.690841675 -1814.2986615597515 0 0 0 0 4681464.7551193237 -7826111.2016983032 0 -7826111.2016983032 -623480.17974853516 0 0 0 0 8712136.5037078857 -12332275.829818726 0 -12332275.829818726 384090.48380851746 0 0 0 0 5939103.2149638459 -2723782.8790656738 0 -2723782.8790656738 2263603.5056632757 0 0 0 0 5306702.2807540894 -12786580.784912109 0 -12786580.784912109 7698493.2739028931 0 0 0 0 6694882.5050125122 -9960002.0284194946 0 -9960002.0284194946 1839289.0790863037 0 0 0 0 -1577672.9256474227 -10345584.03161259 0 -10345584.03161259 3356125.1300767288 0 0 0 0 -112420716.47311401 43793806.888465881 0 43793806.888465881 -28215741.722915649 0 0 0 0 -224351361.52316284 23440277.336227417 0 23440277.336227417 61877157.324417114 0 0 0 0 -83268909.562698364 -564660.4017868042 0 -564660.4017868042 3161453.9332962036 0 0 0 0 -193976117.63443756 -204884809.14907074 0 -204884809.14907074 -159478094.21174622 0 0 0 0 16408467.885151707 -16354505.901756689 0 -16354505.901756689 5539730.6515311748 0 0 0 0 55357093.297241211 -230634134.56881714 0 -230634134.56881714 -159996499.64078903 0 0 0 0 -31342407.638748169 -83042024.835029602 0 -83042024.835029602 5862750.3392944336 0 0 0 0 -109894901.3430481 -59141907.165653229 0 -59141907.165653229 91121370.40814209 0 0 0 0 225588616.23403931 -63854926.565032959 0 -63854926.565032959 -547936593.89650345 0 0 0 0 16873370.852697313 -4352868.1423852667 0 -4352868.1423852667 -243867.84343650006 0 0 0 0 1027883920.8967667 -739080843.42199326 0 -739080843.42199326 527490473.04595947 0 0 0 0 133617821.64199829 -53440717.914382935 0 -53440717.914382935 92695512.595626831 0 0 0 0 -6414408.1119537354 -257713693.88648987 0 -257713693.88648987 146539915.7779541 0 0 0 0 260326497.44674683 -368353574.28215027 0 -368353574.28215027 -277853149.76905823 0 0 0 0 -128090541.23055634 -101698665.36676514 0 -101698665.36676514 407149638.84906006 0 0 0 0 -12207410.638217926 15678046.940969467 0 15678046.940969467 414330905.72157288 0 0 0 0 -49381151.025268555 -157098101.36834717 0 -157098101.36834717 351894023.84298325 0 0 0 0 -48457809.438049316 -174653186.89935303 0 -174653186.89935303 355105090.11203003 0 0 0 0 -128413607.8785885 -178464847.12795284 0 -178464847.12795284 374487082.34680176 0 0 0 0 57115586.412231445 -147302175.47225952 0 -147302175.47225952 122521935.25075531 0 0 0 0 243333003.98840332 100418380.82672119 0 100418380.82672119 445018271.07897949 0 0 0 0 364595831.45259094 -232745338.0024395 0 -232745338.0024395 123251585.36218262 0 0 0 0 -39633559.857666016 -58936437.133102417 0 -58936437.133102417 509284166.18597412 0 0 0 0 -204673.28947967477 -1341767.8680914268 0 -1341767.8680914268 109776.57137268037 0 0 0 0 306022452.81884766 -276900822.52070618 0 -276900822.52070618 204322522.47537231 0 0 0 0 265051659.51531982 178038379.64039612 0 178038379.64039612 196850372.64505005 0 0 0 0 20229.294239357114 -481120.27867681161 0 -481120.27867681161 -655701.01442441344 0 0 0 0 86499712.721954346 -247399018.51322937 0 -247399018.51322937 47129264.18927002 0 0 0 0 -45746868.431503296 -173569778.48310089 0 -173569778.48310089 330813665.18041992 0 0 0 0 -114319960.73352051 -305273637.84744263 0 -305273637.84744263 717094819.92008972 0 0 0 0 -48418439.79473877 -153601082.13986206 0 -153601082.13986206 331599964.87995434 0 0 0 0 -4578353.1090393066 802760.9817199707 0 802760.9817199707 3917005.8801994324 0 0 0 0 1577679.1883191597 -4330046.0243112966 0 -4330046.0243112966 -4158725.4860046208 0 0 0 0 -74814444.899673462 -13806096.724933624 0 -13806096.724933624 71423667.015090942 0 0 0 0 35863103.104324341 22789767.692855835 0 22789767.692855835 49345665.446678162 0 0 0 0 43674762.14311409 -54776854.451109886 0 -54776854.451109886 63634513.701797485 0 0 0 0 9842264.4926376343 -66803127.080835342 0 -66803127.080835342 156593464.5526123 0 0 0 0 -40813983.477706909 -74285307.165039062 0 -74285307.165039062 168660362.54626465 0 0 0 0 -368362175.22822571 -251878361.83925629 0 -251878361.83925629 50832658.776260376 0 0 0 0 -48654340.903297424 -105799104.96907806 0 -105799104.96907806 7984665.7956695557 0 0 0 0 15644884.478104159 -18598636.199435063 0 -18598636.199435063 6545426.8693254441 0 0 0 0 -170738773.13824463 -51189502.138656616 0 -51189502.138656616 -29586814.029800415 0 0 0 0 -263808843.11701202 -50092819.999362946 0 -50092819.999362946 114037135.72573853 0 0 0 0 -40013413.914642334 -129275598.47549438 0 -129275598.47549438 87715704.250228882 0 0 0 0 81704070.820770264 101293120.0867691 0 101293120.0867691 -4253990.888343811 0 0 0 0 -2698445.3165832236 -1750255.481433358 0 -1750255.481433358 2019994.4778668061 0 0 0 0 -35229656.358001709 78246261.246788025 0 78246261.246788025 140354410.35486412 0 0 0 0 43573308.917877197 19127480.47303009 0 19127480.47303009 85550126.571212769 0 0 0 0 -136155673.77626038 -89941269.561214447 0 -89941269.561214447 5727972.8310546875 0 0 0 0 -204197059.30760193 -58255315.251243591 0 -58255315.251243591 33473761.533905029 0 0 0 0 -221883301.85620117 -24528540.008592606 0 -24528540.008592606 10699460.054458618 0 0 0 0 -225190643.6010437 -34271847.009750366 0 -34271847.009750366 18914165.949821472 0 0 0 0 -116078775.57886505 80774902.802326202 0 80774902.802326202 53239274.891143799 0 0 0 0 -196970708.20789337 -42062836.235889435 0 -42062836.235889435 39907884.737213135 0 0 0 0 62831319.758148193 -46584282.40675354 0 -46584282.40675354 -60119671.677093506 0 0 0 0 -4799675.0890942663 -3502853.6889450625 0 -3502853.6889450625 907296.49110049009 0 0 0 0 -4041219.413646698 -7618433.874994278 0 -7618433.874994278 -2138818.7304077148 0 0 0 0 -1558428.3658905029 -3294901.9905128479 0 -3294901.9905128479 -3387098.3643798828 0 0 0 0 -1004003.2649164796 -5182827.6896690354 0 -5182827.6896690354 -295948.50531303138 0 0 0 0 -53784466.474411011 -26719317.871463776 0 -26719317.871463776 76528273.456130981 0 0 0 0 -6857854.4954891205 -15016562.272422791 0 -15016562.272422791 29038372.055923462 0 0 0 0 -11298873.342164472 -9077954.3611388654 0 -9077954.3611388654 3641937.8059560247 0 0 0 0 6474184.9584503174 92366221.835693359 0 92366221.835693359 21522552.366127014 0 0 0 0 -5041273.0675506592 -8099062.9640655518 0 -8099062.9640655518 -3525496.5152587891 0 0 0 0 8603497.7299041748 -18706957.060630798 0 -18706957.060630798 -13661841.567825317 0 0 0 0 -19290760.596450806 11007863.322341919 0 11007863.322341919 -8636712.9729766846 0 0 0 0 1119753.6028151736 -5660228.7686074637 0 -5660228.7686074637 -3159730.6962505355 0 0 0 0 10843643.862297058 2587108.3253974915 0 2587108.3253974915 -17226675.257041931 0 0 0 0 270282.68338012695 -10430064.559726715 0 -10430064.559726715 8533082.1168632507 0 0 0 0 4249030.4488983154 -9172254.3726005554 0 -9172254.3726005554 -6446075.7127838135 0 0 0 0 -546570.60252380371 -6061601.1765365601 0 -6061601.1765365601 9988044.3898086548 0 0 0 0 -869570.76307678223 -6860164.9090805054 0 -6860164.9090805054 11813179.379859924 0 0 0 0 749246528.89622498 -890463320.59825134 0 -890463320.59825134 954166931.07211304 0 0 0 0 8268651.4177131653 2652521.2128734589 0 2652521.2128734589 -13772146.758575439 0 0 0 0 825432.05059952289 810638.79414460063 0 810638.79414460063 837729.62377161905 0 0 0 0 -40402.298679716885 -270732.84918923676 0 -270732.84918923676 146660.95240298659 0 0 0 0 -1176833.4093223736 -3733584.1129345298 0 -3733584.1129345298 2870015.6785164624 0 0 0 0 4680545.5974273682 -5609617.1022872925 0 -5609617.1022872925 3795038.6342163086 0 0 0 0 2696993.8832702637 -4329024.2612609863 0 -4329024.2612609863 4593516.1677589417 0 0 0 0 -1289409.5414428189 -4707512.0885379985 0 -4707512.0885379985 3178712.9521020576 0 0 0 0 6653334.2733459473 -9189177.3327789307 0 -9189177.3327789307 399625.10722351074 0 0 0 0 5737089.5523986816 -15908394.89490509 0 -15908394.89490509 2028586.6724243164 0 0 0 0 1359692.8123626709 12130835.27589035 0 12130835.27589035 4882026.7931060791 0 0 0 0 3749964.4182891846 -12663046.329509735 0 -12663046.329509735 18597645.134567261 0 0 0 0 10572836.860931396 -15103372.245109558 0 -15103372.245109558 -6988902.2125549316 0 0 0 0 -975774.25252896547 801726.15444555879 0 801726.15444555879 2166393.4059853591 0 0 0 0 6553494.7187194824 3035072.5612716675 0 3035072.5612716675 -45614685.162620544 0 0 0 0 1282021.2605819702 -1033573500.4610519 0 -1033573500.4610519 1634498278.4754486 0 0 0 0 525334586.00053024 -1038549195.0742512 0 -1038549195.0742512 1286093799.1260757 0 0 0 0 868280393.48242188 -1493692416.662735 0 -1493692416.662735 1222564437.6380339 0 0 0 0 1400135.4665801646 -1608087122.1942687 0 -1608087122.1942687 1653405093.6283875 0 0 0 0 856424965.9651947 -1366217054.6020088 0 -1366217054.6020088 773199831.44035339 0 0 0 0 1942935837.888504 -2128251475.451828 0 -2128251475.451828 971594443.71427917 0 0 0 0 2156559471.3418484 -1019687459.6386113 0 -1019687459.6386113 132685029.49264526 0 0 0 0 658378951.67199707 -335348661.28837585 0 -335348661.28837585 137200349.4276132 0 0 0 0 183905578.35282993 -394345298.33220053 0 -394345298.33220053 387914613.15878296 0 0 0 0 229412099.92030334 81192488.639640808 0 81192488.639640808 124186139.24992371 0 0 0 0 55236971.255004883 -144146998.59509277 0 -144146998.59509277 366471386.53503418 0 0 0 0 632595079.45974731 -276617694.10902405 0 -276617694.10902405 181981409.29851532 0 0 0 0 -562333.08575595915 -271421.70721551776 0 -271421.70721551776 1220798.8970766813 0 0 0 0 384893665.96469116 -653165055.87576294 0 -653165055.87576294 702844500.92216492 0 0 0 0 578281445.96459961 -564573225.49807739 0 -564573225.49807739 583300797.16497803 0 0 0 0 1435232190.5980377 -1019643850.90345 0 -1019643850.90345 393619598.10939026 0 0 0 0 -6935292.2981509138 -4857716.7575710546 0 -4857716.7575710546 -200955.28092226386 0 0 0 0 157189898.27002335 56483963.557469368 0 56483963.557469368 -382432545.0710144 0 0 0 0 23807749.346923828 -53561192.722358704 0 -53561192.722358704 19009796.378940582 0 0 0 0 -11573287.845504284 -34762534.674921989 0 -34762534.674921989 10671942.547317505 0 0 0 0 -10936364.282653809 -42246101.7370224 0 -42246101.7370224 60140760.966430664 0 0 0 0 -6757269.3223228455 -94085088.683841705 0 -94085088.683841705 -25051972.512176514 0 0 0 0 26050633.777927399 -44266599.778808594 0 -44266599.778808594 25220894.196624756 0 0 0 0 -2257172.5582824922 -60026.056475253776 0 -60026.056475253776 -32945.017559558153 0 0 0 0 214676144.64714813 -52785560.048500061 0 -52785560.048500061 -104959329.1918335 0 0 0 0 -401815409.17511559 -409924607.52973509 0 -409924607.52973509 -324991346.40501404 0 0 0 0 -342326251.13698006 -334310506.73714304 0 -334310506.73714304 -101161281.4287262 0 0 0 0 -351978645.42898273 -401479604.57035065 0 -401479604.57035065 -235931283.99571228 0 0 0 0 -145568813.16436005 -188585846.87441635 0 -188585846.87441635 -483521.20737457275 0 0 0 0 67667143.552558899 -190373402.19277191 0 -190373402.19277191 -226304671.08451843 0 0 0 0 -23330086.98595047 -95920585.963657379 0 -95920585.963657379 -24220623.039382935 0 0 0 0 -64824033.551086426 -114636884.11169052 0 -114636884.11169052 -3625659.8158111572 0 0 0 0 -26080029.276420593 -124207964.29447174 0 -124207964.29447174 -108802382.9120636 0 0 0 0 -98270259.940151215 -134882342.12854385 0 -134882342.12854385 26413.796768188477 0 0 0 0 -120907639.36126709 -181106008.17265701 0 -181106008.17265701 -93234175.04637146 0 0 0 0 -118823475.99954224 -85828061.722145081 0 -85828061.722145081 -60141107.875671387 0 0 0 0 -143943138.00688934 -114676305.61824036 0 -114676305.61824036 54648989.284744263 0 0 0 0 -62454006.003112793 -130152344.08317566 0 -130152344.08317566 -80312190.356079102 0 0 0 0 -64344726.62310791 -64618118.21006012 0 -64618118.21006012 52237076.636856079 0 0 0 0 -63623395.425106049 -14766132.207466125 0 -14766132.207466125 118758126.66955566 0 0 0 0 -52897901.865463257 -33187347.744247437 0 -33187347.744247437 65966872.940185547 0 0 0 0 -88096224.868659973 -65575433.238319397 0 -65575433.238319397 88606550.3878479 0 0 0 0 -40698463.947418213 -65607700.717674255 0 -65607700.717674255 45223341.104415894 0 0 0 0 -52889597.35723877 -95620971.12852478 0 -95620971.12852478 -10223592.798671722 0 0 0 0 -31821860.797409058 -64619330.855056763 0 -64619330.855056763 43121119.279029846 0 0 0 0 -32675606.060224652 -18884709.606695175 0 -18884709.606695175 75519313.854217529 0 0 0 0 -21765115.052871704 -15386712.119506836 0 -15386712.119506836 68323232.549972534 0 0 0 0 -21296630.083328247 -12524656.955810547 0 -12524656.955810547 25035828.214431763 0 0 0 0 -11909088.705490112 31035380.951164246 0 31035380.951164246 64668753.705589294 0 0 0 0 -1080703.1674058922 -1204191.5610575583 0 -1204191.5610575583 -713926.93350499868 0 0 0 0 8973328.0740280151 16614777.679107666 0 16614777.679107666 -38762654.506785393 0 0 0 0 4526199.9334793091 66800550.971439362 0 66800550.971439362 137609373.76733398 0 0 0 0 109294893.21920776 -110201804.44824409 0 -110201804.44824409 79183010.186325073 0 0 0 0 -20721.103596583009 -3114497.7244199049 0 -3114497.7244199049 -618780.12892971933 0 0 0 0 79201335.017494202 -57564669.230823517 0 -57564669.230823517 90150320.693817139 0 0 0 0 42907879.303100586 -175277541.17984009 0 -175277541.17984009 77882682.337036133 0 0 0 0 -936246.73412674293 -1959304.6315743513 0 -1959304.6315743513 1658994.2092140168 0 0 0 0 -28267038.121665955 36861130.922348022 0 36861130.922348022 172000334.64398193 0 0 0 0 33008868.482139587 -55950174.757701874 0 -55950174.757701874 178654199.45141602 0 0 0 0 60163417.27872467 -122286144.72872162 0 -122286144.72872162 133776839.7755127 0 0 0 0 -102054823.84657288 -77968920.749938965 0 -77968920.749938965 177380096.69824219 0 0 0 0 -26442790.696243286 -173611231.21937561 0 -173611231.21937561 136307299.51953125 0 0 0 0 -60311541.883544922 -28510429.050842285 0 -28510429.050842285 187625145.21907043 0 0 0 0 -5584677.8150100708 -21763606.932308197 0 -21763606.932308197 157930499.43624878 0 0 0 0 -46347334.116500854 -4123556.4493484497 0 -4123556.4493484497 120248182.16973877 0 0 0 0 -54952076.500335693 -8970387.2442626953 0 -8970387.2442626953 198438722.76011658 0 0 0 0 -87736075.600601196 -79568904.003067017 0 -79568904.003067017 135409962.48446274 0 0 0 0 -8183893.4423522949 -73314063.563713074 0 -73314063.563713074 -45232182.670715332 0 0 0 0 473793.11151346564 -1502155.2113633454 0 -1502155.2113633454 -229686.41917992756 0 0 0 0 -23838550.311233521 -55941474.770446777 0 -55941474.770446777 -135519946.88975525 0 0 0 0 48177704.046844482 -236529088.20046997 0 -236529088.20046997 73860605.464447021 0 0 0 0 -34769468.642501831 -40504127.286880493 0 -40504127.286880493 -85618.564722873663 0 0 0 0 -75549041.543617249 -82785726.265228271 0 -82785726.265228271 -33354332.717559814 0 0 0 0 -97052569.775756836 -116243938.68797684 0 -116243938.68797684 -85345536.901763916 0 0 0 0 8731303.5946350098 -12689622.76234436 0 -12689622.76234436 -81388523.23500824 0 0 0 0 8834654.3574676216 1509730.8866161108 0 1509730.8866161108 -17617158.351226807 0 0 0 0 -13038022.058403015 -36275321.886329651 0 -36275321.886329651 -30866258.078903198 0 0 0 0 357629.00254949927 -3004157.0329319909 0 -3004157.0329319909 307688.0416321829 0 0 0 0 297825.08348083496 -10767511.16431427 0 -10767511.16431427 -2809980.7199478149 0 0 0 0 23041796.022636414 -59989158.401695251 0 -59989158.401695251 -168081674.98522949 0 0 0 0 -27095194.639144897 119288242.50985718 0 119288242.50985718 495372434.18998718 0 0 0 0 -11291476.261383057 43362663.704139709 0 43362663.704139709 78752094.374231339 0 0 0 0 4067210.1033477783 -5230808.4639129639 0 -5230808.4639129639 -1642054.1709594727 0 0 0 0 2287477.9675292969 -14525327.880413055 0 -14525327.880413055 -7200.1400833129883 0 0 0 0 6243520.4364242554 -13300250.296859741 0 -13300250.296859741 -3650055.6233901978 0 0 0 0 5233640.8582458496 -11628733.610481262 0 -11628733.610481262 6139633.3457221985 0 0 0 0 -889194.42429803312 -4573444.5128135756 0 -4573444.5128135756 1783712.9251232781 0 0 0 0 -148963543.00381851 -232241984.22568321 0 -232241984.22568321 210021112.9208374 0 0 0 0 583644168.47131348 216409983.7339325 0 216409983.7339325 -205844417.42245483 0 0 0 0 295988104.83938599 -205215078.71635437 0 -205215078.71635437 32641164.937393188 0 0 0 0 -333799172.3001709 35486458.299499512 0 35486458.299499512 458650930.56628418 0 0 0 0 -241711666.09243774 -194843637.63710022 0 -194843637.63710022 164069525.80046082 0 0 0 0 -66925277.145263672 -14289137.307891846 0 -14289137.307891846 278604979.33988953 0 0 0 0 15409004.917678833 14982344.315933228 0 14982344.315933228 189983920.74380493 0 0 0 0 329593332.62239075 46454656.79145813 0 46454656.79145813 5490423.7523803711 0 0 0 0 -77387637.407699585 235019497.7416687 0 235019497.7416687 423711223.05572128 0 0 0 0 -93861.918168693781 -1006223.6493307725 0 -1006223.6493307725 5396.4950190410018 0 0 0 0 82515740.115203857 13271748.941329956 0 13271748.941329956 10558899.145111084 0 0 0 0 27303931.629241943 -6216220.6465911865 0 -6216220.6465911865 79945589.973480225 0 0 0 0 35889900.502750397 -29092050.710033417 0 -29092050.710033417 -25213906.5 0 0 0 0 13155099.577056885 17759271.214416504 0 17759271.214416504 -40531203.555847168 0 0 0 0 44171503.837417603 14144859.688751221 0 14144859.688751221 -25399307.971405029 0 0 0 0 74088100.82409668 22011273.394515991 0 22011273.394515991 -35027557.228271484 0 0 0 0 110661948.49992371 -5720111.3500442505 0 -5720111.3500442505 -49210472.33026123 0 0 0 0 63878852.381530762 -64087724.149093628 0 -64087724.149093628 -42357469.329101562 0 0 0 0 16961713.466789246 -165857889.92365265 0 -165857889.92365265 28356088.341491699 0 0 0 0 232032014.26681519 -50158464.443649292 0 -50158464.443649292 -46059214.662261963 0 0 0 0 9772325.6873397827 -40336172.254180908 0 -40336172.254180908 -28031656.781951904 0 0 0 0 28821939.650588989 -43006855.212677002 0 -43006855.212677002 -38152367.416519165 0 0 0 0 32177215.7137146 -25641086.619255066 0 -25641086.619255066 -27774417.412261963 0 0 0 0 38320063.221851349 2763060.3535919189 0 2763060.3535919189 -20884650.985748291 0 0 0 0 72251777.408172607 -13277247.287155151 0 -13277247.287155151 -42379023.134231567 0 0 0 0 45556003.600143433 -12959006.260284424 0 -12959006.260284424 -23640749.011322021 0 0 0 0 36825752.058517456 -7614745.3527984619 0 -7614745.3527984619 -8511599.7652587891 0 0 0 0 37594669.61932373 -25077503.572738647 0 -25077503.572738647 -38917150.005996704 0 0 0 0 26977230.475143433 -32883133.9335289 0 -32883133.9335289 -32445037.757232666 0 0 0 0 17534006.701622009 -27749585.92641449 0 -27749585.92641449 -13387070.558380127 0 0 0 0 29573591.874969482 -23387916.563598633 0 -23387916.563598633 -21201063.944396973 0 0 0 0 37872421.63180542 -23696689.534210205 0 -23696689.534210205 -25049238.083389282 0 0 0 0 35404352.873718262 -25905004.717090607 0 -25905004.717090607 -1620603.2460632324 0 0 0 0 274906.32339201868 -601258.79749604315 0 -601258.79749604315 -1263052.4687685743 0 0 0 0 26373372.929824829 -25322247.046875 0 -25322247.046875 -22365092.683021545 0 0 0 0 16676490.734535217 -7529675.4657669067 0 -7529675.4657669067 -23280294.689239502 0 0 0 0 -357881.94854736328 -54387997.249198914 0 -54387997.249198914 -28284516.62474823 0 0 0 0 15105826.418964341 -21533210.81622126 0 -21533210.81622126 5980728.2858174369 0 0 0 0 8255460.3965988159 -34346356.300270081 0 -34346356.300270081 -18027984.343490601 0 0 0 0 -692584.93018117547 -8846452.4950223416 0 -8846452.4950223416 699483.19286918128 0 0 0 0 -72948357.443756104 -132032914.13472748 0 -132032914.13472748 -115024180.4632926 0 0 0 0 11707977.794563532 -17062483.562596336 0 -17062483.562596336 -5694133.941248931 0 0 0 0 -25755659.159103394 -63282639.978919983 0 -63282639.978919983 -20498653.468322754 0 0 0 0 -22025348.250457764 -50268939.941078186 0 -50268939.941078186 -21649778.576994896 0 0 0 0 -16303699.39249859 -17965673.89637791 0 -17965673.89637791 2380250.5358572435 0 0 0 0 -41709675.881896973 -52527990.498703003 0 -52527990.498703003 15036917.005996704 0 0 0 0 4638607.4619369507 -14212557.326961517 0 -14212557.326961517 -4943675.2958602905 0 0 0 0 8654906.2931747437 -15214980.097717285 0 -15214980.097717285 -2487429.2680053711 0 0 0 0 9383732.1275473721 -11876405.38455053 0 -11876405.38455053 -1705374.2202247903 0 0 0 0 5946504.515625 -14843816.675109863 0 -14843816.675109863 5184669.917930603 0 0 0 0 7642470.4969530329 -14037170.176925942 0 -14037170.176925942 -8808358.6178160459 0 0 0 0 -2073297.185546875 -8265786.7699584961 0 -8265786.7699584961 -1054125.9165287018 0 0 0 0 28863.462551817298 -17029202.030026462 0 -17029202.030026462 -3566249.1262819394 0 0 0 0 -4108918.9705810547 -10185868.799438477 0 -10185868.799438477 2253866.2236328125 0 0 0 0 4907125.6753950864 -17376316.295588583 0 -17376316.295588583 -4815628.6301134676 0 0 0 0 8235223.0341254398 -16999757.795982894 0 -16999757.795982894 -1181770.4264777107 0 0 0 0 -2987405.0878448486 -15119606.476589203 0 -15119606.476589203 -1040098.5177307129 0 0 0 0 2798558.3725598976 -12048680.487660039 0 -12048680.487660039 -3485467.3556464654 0 0 0 0 3549278.643447876 -16327572.736930847 0 -16327572.736930847 -2046989.9385223389 0 0 0 0 7279372.1790924072 -13403500.148208618 0 -13403500.148208618 -3619046.8245582581 0 0 0 0 5225157.9540508315 -16089940.1509091 0 -16089940.1509091 -6711953.8762278911 0 0 0 0 6954515.2277793884 -15775594.800518036 0 -15775594.800518036 -2549360.288192749 0 0 0 0 4929476.4399715066 -13179644.994127858 0 -13179644.994127858 -205253.68246468157 0 0 0 0 8490291.0321044922 -12708882.0025177 0 -12708882.0025177 2580420.6582336426 0 0 0 0 4268847.0311889648 -12448417.293991089 0 -12448417.293991089 -6683851.1660547256 0 0 0 0 1584777.9042778015 -15672028.22926712 0 -15672028.22926712 958804.40684509277 0 0 0 0 -2936099.8760634772 -13568354.583115123 0 -13568354.583115123 -7222763.2375879288 0 0 0 0 2125369.2529354095 -11882187.012029648 0 -11882187.012029648 -4737423.8872299194 0 0 0 0 -1285822.0820714049 -12593141.073365219 0 -12593141.073365219 -3777618.6364588216 0 0 0 0 -9292.6341249868274 -10539648.743358575 0 -10539648.743358575 -196703.57579967612 0 0 0 0 -837742.86912536621 -12806806.698814392 0 -12806806.698814392 -7626271.0942001343 0 0 0 0 -78279.986373901367 -11847161.586669922 0 -11847161.586669922 -7310788.3317108154 0 0 0 0 88516.231147117913 -9492670.7929539122 0 -9492670.7929539122 1920252.2286211308 0 0 0 0 -58653.782600402832 -11698698.501684189 0 -11698698.501684189 -6269134.2760925293 0 0 0 0 4193561.2746582031 -10280322.336425781 0 -10280322.336425781 -3074321.0612182617 0 0 0 0 2452344.4256896973 -12159145.391136169 0 -12159145.391136169 -2747647.0793681145 0 0 0 0 932237.03415019065 -10308934.201585039 0 -10308934.201585039 -5046521.2059919983 0 0 0 0 1533068.2656707764 -11769475.999965668 0 -11769475.999965668 -7582639.4179992676 0 0 0 0 12455290.61983937 -11864329.539611112 0 -11864329.539611112 -8158416.2628698722 0 0 0 0 5957376.2098791115 -8442623.6182884015 0 -8442623.6182884015 -5440294.7862609327 0 0 0 0 -1354966.5723223351 -7936178.6903988859 0 -7936178.6903988859 -3053042.9963425472 0 0 0 0 2973569.7603759766 -6488744.6667480469 0 -6488744.6667480469 -1477791.8346405029 0 0 0 0 3112717.8647314161 -8083130.3105515093 0 -8083130.3105515093 -3149159.9386225566 0 0 0 0 -19308915.787811279 -24408118.085113525 0 -24408118.085113525 -1346350.0082397461 0 0 0 0 -1021442.2346248627 -8360679.4391002655 0 -8360679.4391002655 -2435237.667388916 0 0 0 0 837042.49740600586 -6869556.978931427 0 -6869556.978931427 -2628450.7703704834 0 0 0 0 380249.29627985507 -2383617.6867421009 0 -2383617.6867421009 -2197385.5436853468 0 0 0 0 4173895.1059265137 -10600822.764266968 0 -10600822.764266968 -8100243.2078857422 0 0 0 0 3307781.1938833613 -8396308.1201622151 0 -8396308.1201622151 -3344789.8699679673 0 0 0 0 -5477991.105577521 -9650894.1185234655 0 -9650894.1185234655 1425665.7447360381 0 0 0 0 -1009915.0690489747 -6058093.7636277573 0 -6058093.7636277573 -4916385.1990689933 0 0 0 0 -3127350.5565719604 -43379082.435264587 0 -43379082.435264587 -45438803.492102623 0 0 0 0 -13412397.220352173 -10606127.697376251 0 -10606127.697376251 -25048673.000366211 0 0 0 0 -3141493.9944021702 -13530294.439349905 0 -13530294.439349905 4159983.2614170052 0 0 0 0 -3658805.0683112592 -11170231.765273366 0 -11170231.765273366 -194933.84384228289 0 0 0 0 -18966811.758079529 -19113421.504470825 0 -19113421.504470825 29358837.902587891 0 0 0 0 -2983744.6675262451 -8613252.8259735107 0 -8613252.8259735107 -383886.94733428955 0 0 0 0 -3052458.3486175537 -16070333.849441528 0 -16070333.849441528 -6646487.0299377441 0 0 0 0 15668635.337860107 -44769522.853210449 0 -44769522.853210449 27220935.055343628 0 0 0 0 -7393656.4439088926 -14553512.327031441 0 -14553512.327031441 -1664391.7892488576 0 0 0 0 -858095.91234207153 -18937603.987888336 0 -18937603.987888336 -127687.77909088135 0 0 0 0 -1734096.7694341177 -4414010.6869861446 0 -4414010.6869861446 900495.37046661973 0 0 0 0 -19800263.900060654 -14583081.885059357 0 -14583081.885059357 31303845.429138184 0 0 0 0 1502148.0380516052 -19948194.948890686 0 -19948194.948890686 -372696.3127746582 0 0 0 0 -1288843.296749189 -9912666.8048781604 0 -9912666.8048781604 -2505204.237459667 0 0 0 0 125223.15406894684 -20509218.236932755 0 -20509218.236932755 -338864.44485473633 0 0 0 0 -7858642.5695037842 -13203443.697639465 0 -13203443.697639465 -8162268.0626525879 0 0 0 0 -1744314.8913192749 -9415951.2177047729 0 -9415951.2177047729 -2849746.849319458 0 0 0 0 -4722697.745428361 -7741176.7726587411 0 -7741176.7726587411 -3387886.124561891 0 0 0 0 -3660416.2705841064 -12782308.18094635 0 -12782308.18094635 -6592602.9441452026 0 0 0 0 -3357624.9475649446 -10306356.430818964 0 -10306356.430818964 -7420842.9687345996 0 0 0 0 -3423835.7058059797 -9281935.1573621836 0 -9281935.1573621836 -4823572.3044310138 0 0 0 0 -3511225.1031464953 -9085934.4259615205 0 -9085934.4259615205 -6129042.0094229281 0 0 0 0 -3323167.7998352051 -7822441.6965179443 0 -7822441.6965179443 -6663001.2994880676 0 0 0 0 1548274.6840515137 -10762760.59085083 0 -10762760.59085083 -2470886.3635559082 0 0 0 0 -9647598.5277099609 -11543394.010467529 0 -11543394.010467529 -3441905.634563446 0 0 0 0 -2376852.9969606325 -10697651.299553476 0 -10697651.299553476 72366.478272129549 0 0 0 0 -2225042.362197876 -11062101.279678345 0 -11062101.279678345 -2965958.307434082 0 0 0 0 -4255186.0644739643 -12580633.96875193 0 -12580633.96875193 -5688609.1125746593 0 0 0 0 2802151.5374008804 -14881282.94410282 0 -14881282.94410282 -7175856.0518976897 0 0 0 0 -492648.04543001205 -15433383.607579876 0 -15433383.607579876 -4292846.5124112712 0 0 0 0 1659696.4746338837 -12822220.575393103 0 -12822220.575393103 2390304.9248571806 0 0 0 0 -111196.8205871582 -17661851.522064209 0 -17661851.522064209 1005159.417388916 0 0 0 0 5196120.8673706055 -20584743.915405273 0 -20584743.915405273 -4239697.0976104736 0 0 0 0 -4962951.2546386719 -22842064.990936279 0 -22842064.990936279 8585953.3937988281 0 0 0 0 -14091221.372324981 -15644330.005715754 0 -15644330.005715754 4550528.0640609115 0 0 0 0 -232385.91400054283 -311999.34241890162 0 -311999.34241890162 -243796.55159053206 0 0 0 0 -2650809.6690063477 -6273221.9812011719 0 -6273221.9812011719 -7236118.5015869141 0 0 0 0 -3444063.4101638794 -7480543.5043792725 0 -7480543.5043792725 -1331921.5196533203 0 0 0 0 -11454241.189336222 -12116046.489883061 0 -12116046.489883061 1855369.7407694533 0 0 0 0 2000543.4293744331 -8027194.4033767544 0 -8027194.4033767544 -4662737.4299234822 0 0 0 0 -4640501.7437867075 -16152963.267561041 0 -16152963.267561041 -1969299.0237529036 0 0 0 0 -441059.67343139648 -22423721.192672729 0 -22423721.192672729 -5865913.1796264648 0 0 0 0 -2210977.8563779071 -16268535.12814001 0 -16268535.12814001 -3249945.6434303429 0 0 0 0 9984118.9249954224 -24363983.00642395 0 -24363983.00642395 -10302954.141601562 0 0 0 0 -8576516.4761810303 -22053842.547485352 0 -22053842.547485352 -4625542.4523620605 0 0 0 0 -12033120.28012085 -22324455.849838257 0 -22324455.849838257 4186298.3864135742 0 0 0 0 -39428900.08549881 -26649884.471475601 0 -26649884.471475601 12087985.821746826 0 0 0 0 -1398839.1345780622 -815363.41763951909 0 -815363.41763951909 -438521.32345104218 0 0 0 0 9159430.9750823975 -27479815.018356323 0 -27479815.018356323 -6987248.3526916504 0 0 0 0 4837167.0487060547 -31655225.188369751 0 -31655225.188369751 -1819815.9454345703 0 0 0 0 4964480.76953125 -31285069.512313843 0 -31285069.512313843 -4669844.9844665527 0 0 0 0 14992684.844406128 -33959586.222625732 0 -33959586.222625732 -6501811.5324707031 0 0 0 0 8717395.1018829346 -28535476.711227417 0 -28535476.711227417 -3815675.9260253906 0 0 0 0 912498.24465942383 -26583455.720748901 0 -26583455.720748901 -8493784.8460845947 0 0 0 0 6116956.1173477173 -33548990.288871765 0 -33548990.288871765 -2077399.7614440918 0 0 0 0 -3817674.4745062105 -18112975.297929194 0 -18112975.297929194 -4021695.948151846 0 0 0 0 17410948.302734375 -17858812.407974243 0 -17858812.407974243 4686309.9354400635 0 0 0 0 2637952.6790962219 -25884197.036167145 0 -25884197.036167145 -7637498.5370483398 0 0 0 0 -846311.19481658936 -27240250.39629364 0 -27240250.39629364 -7364566.1170806885 0 0 0 0 -15866523.137786865 -15145549.207427979 0 -15145549.207427979 -12153516.865447998 0 0 0 0 28081020.904998779 -25702797.277038574 0 -25702797.277038574 -1095310.1666259766 0 0 0 0 -35003625.332611084 1558238.001953125 0 1558238.001953125 26785842.476287842 0 0 0 0 -8265932.0902731046 -18832838.49539718 0 -18832838.49539718 4471517.1567962542 0 0 0 0 -944735.55288564041 -241825.68430211395 0 -241825.68430211395 771226.00599466264 0 0 0 0 -3137280.2702178955 -24321603.528900146 0 -24321603.528900146 6806884.8993682861 0 0 0 0 -15245788.927650452 -25507742.492038727 0 -25507742.492038727 10100570.757789612 0 0 0 0 -7264105.0876433849 -18854417.252157211 0 -18854417.252157211 13731550.107887268 0 0 0 0 -4446254.7904890329 -18690881.410158057 0 -18690881.410158057 -3638598.4255262581 0 0 0 0 -5972684.2785949707 -19564636.354545593 0 -19564636.354545593 -3419520.4299807549 0 0 0 0 -8040335.5670928955 -27007678.822952271 0 -27007678.822952271 -4482968.4521636963 0 0 0 0 -30906059.764122009 -7909802.6628723145 0 -7909802.6628723145 12076868.237854004 0 0 0 0 -1313766.7403648514 -2779131.7854365623 0 -2779131.7854365623 -975945.6929377839 0 0 0 0 17602010.917591095 -29823489.162971497 0 -29823489.162971497 -9222809.7984313965 0 0 0 0 -5880251.6011908129 -13485628.282984696 0 -13485628.282984696 493823.33002175356 0 0 0 0 17137856.432489753 -36725159.205207825 0 -36725159.205207825 -29810787.422454834 0 0 0 0 11474766.462737778 -5219329.1213314272 0 -5219329.1213314272 -3799197.2284724093 0 0 0 0 -13253963.294489264 -21263481.455143865 0 -21263481.455143865 5498525.2337969616 0 0 0 0 60838478.130479813 -62889150.604606628 0 -62889150.604606628 -81904136.414428711 0 0 0 0 59685195.084443092 -86072505.993667603 0 -86072505.993667603 -53374482.837532043 0 0 0 0 18459971.740424275 -48812646.936019897 0 -48812646.936019897 73559358.797607422 0 0 0 0 82917912.92817688 -11288512.903381348 0 -11288512.903381348 -18591488.221153259 0 0 0 0 -862179.99960529432 -6399252.594567433 0 -6399252.594567433 -652480.87951693358 0 0 0 0 -19814269.276714325 -135819681.30362701 0 -135819681.30362701 226220728.11068726 0 0 0 0 -78501936.800168037 -2960700.7645263672 0 -2960700.7645263672 -553290.76488494873 0 0 0 0 -13944657.784520507 -20270902.443044718 0 -20270902.443044718 4972516.6483667418 0 0 0 0 -14339089.207733154 -17306613.810493469 0 -17306613.810493469 2181632.2025604248 0 0 0 0 -5161916.5096588135 -17520988.017578125 0 -17520988.017578125 2165207.7932076454 0 0 0 0 51394052.755335331 -25978711.859886169 0 -25978711.859886169 2409155.4742736816 0 0 0 0 237779124.03476429 -14322681.892253876 0 -14322681.892253876 -122298172.79766846 0 0 0 0 -3267159.7619282305 -909652.60272746719 0 -909652.60272746719 -49960.000618420541 0 0 0 0 212732863.55269814 -58852719.410339355 0 -58852719.410339355 9726537.2217407227 0 0 0 0 1279151.9378676016 3063.4145391713828 0 3063.4145391713828 -279861.32205842435 0 0 0 0 -3985283.5243530273 -20759898.240097046 0 -20759898.240097046 1552300.4119873047 0 0 0 0 -9992744.011390686 -20320830.665016174 0 -20320830.665016174 4932761.3040008545 0 0 0 0 -141856.78914928436 -21554854.961663246 0 -21554854.961663246 1704371.5662231445 0 0 0 0 -6087909.4932899475 -16520726.813289642 0 -16520726.813289642 6349271.3485107422 0 0 0 0 -7490168.2268753052 -18350845.320983887 0 -18350845.320983887 9478153.5757293701 0 0 0 0 -15418213.18982565 -21282687.820730917 0 -21282687.820730917 5957916.3471268266 0 0 0 0 -6126215.0013200752 -16534326.802377746 0 -16534326.802377746 -2991512.6793815792 0 0 0 0 -6429155.7156906128 -18994490.290679932 0 -18994490.290679932 5896074.6181030273 0 0 0 0 62332587.050949097 -52914543.745605469 0 -52914543.745605469 -46872705.241760254 0 0 0 0 1448327143.6007538 194319195.41271591 0 194319195.41271591 -499362836.62872314 0 0 0 0 619740851.89614105 -1902209.6860580444 0 -1902209.6860580444 -317749500.77130127 0 0 0 0 1074393584.3662758 -24919832.388751984 0 -24919832.388751984 -381666416.80117798 0 0 0 0 474741837.28754044 161859262.91902351 0 161859262.91902351 -103102472.16702271 0 0 0 0 1346236330.9302177 -301411029.14207458 0 -301411029.14207458 -313070572.45378113 0 0 0 0 -28590659.72797966 -794059.55105209351 0 -794059.55105209351 -22124751.888618469 0 0 0 0 -798319.23343770253 -2998561.5053531937 0 -2998561.5053531937 -725480.04913281277 0 0 0 0 591894186.85193634 -268337569.80767822 0 -268337569.80767822 -567110183.89056396 0 0 0 0 -28022063.844666898 -66543133.747801393 0 -66543133.747801393 -3020140.1321411133 0 0 0 0 -65333858.673904419 13146921.587709427 0 13146921.587709427 160699798.23532867 0 0 0 0 -2753328.2473243997 -3895453.100610116 0 -3895453.100610116 -1856158.91176318 0 0 0 0 -70385364.388635635 24516822.916189194 0 24516822.916189194 135816544.46767044 0 0 0 0 35055173.999359131 13499155.675884247 0 13499155.675884247 -84054867.888664246 0 0 0 0 4001741.502240099 -12513184.850229319 0 -12513184.850229319 -10642781.184384704 0 0 0 0 -30066963.566864014 33081179.716560364 0 33081179.716560364 61298711.119670868 0 0 0 0 321932.27540964633 -808849.53138101101 0 -808849.53138101101 -468447.21446496714 0 0 0 0 712291432.07948685 205566308.06626129 0 205566308.06626129 291393688.16728973 0 0 0 0 1179349727.6431198 424962641.45227432 0 424962641.45227432 -148304507.66917419 0 0 0 0 1108461174.9973984 165739486.23490334 0 165739486.23490334 -403687333.48486328 0 0 0 0 530447315.85234833 -123441816.4419632 0 -123441816.4419632 -77032299.363235474 0 0 0 0 490694101.40533257 -28400305.932508469 0 -28400305.932508469 -302404186.77440643 0 0 0 0 493283138.30923843 -279920575.6493187 0 -279920575.6493187 33519580.931163788 0 0 0 0 299210107.39604187 -499064881.54460526 0 -499064881.54460526 -259959470.2942276 0 0 0 0 482982878.92456818 -253500048.28352165 0 -253500048.28352165 -33995532.173171997 0 0 0 0 197612138.28563499 -280319701.03930664 0 -280319701.03930664 406921443.03977203 0 0 0 0 223637538.04241753 -428268953.12679291 0 -428268953.12679291 224984262.11840057 0 0 0 0 383843552.99303436 -357019243.7234726 0 -357019243.7234726 -56433486.068616867 0 0 0 0 3793242.3912400417 -13927817.348783743 0 -13927817.348783743 -6587240.1319085583 0 0 0 0 764411.5020904541 -9489482.0011749268 0 -9489482.0011749268 2058357.2715406418 0 0 0 0 -6962150.3661955027 -12796109.820627594 0 -12796109.820627594 -2383128.2391988114 0 0 0 0 -63037177.731651306 35935364.429878235 0 35935364.429878235 56316911.915405273 0 0 0 0 361763.00579129998 -14637166.394718952 0 -14637166.394718952 -9009.5199754685163 0 0 0 0 434599870.69177628 -205308866.86691284 0 -205308866.86691284 128775382.49795532 0 0 0 0 547814314.1278801 -214155282.17951965 0 -214155282.17951965 -9639835.5693359375 0 0 0 0 -39920781.852271557 -44127210.144471169 0 -44127210.144471169 -5167805.1518249512 0 0 0 0 -4562563.4968704805 -9168027.6353891343 0 -9168027.6353891343 -1436957.6141109318 0 0 0 0 -24298781.390548706 -9968961.8221435547 0 -9968961.8221435547 -1629314.8039321899 0 0 0 0 1211005.3612897228 -127739.57800714672 0 -127739.57800714672 -197385.5002816543 0 0 0 0 -1595797.5999183655 -13122697.164794922 0 -13122697.164794922 -3404965.154920578 0 0 0 0 -8899610.5819539055 -10365323.76123617 0 -10365323.76123617 -1535367.5696547031 0 0 0 0 3397334.4342498779 -12155736.875015259 0 -12155736.875015259 -4213621.4967226982 0 0 0 0 -15190408.785217285 -15566663.473953247 0 -15566663.473953247 1744036.7201538086 0 0 0 0 -12567830.824790955 -8808612.9294319153 0 -8808612.9294319153 -6399766.9190629721 0 0 0 0 -4467655.0534515381 -17022099.912475586 0 -17022099.912475586 -3273190.2990436554 0 0 0 0 -13201903.960922241 -15976415.404762268 0 -15976415.404762268 -734253.81596374512 0 0 0 0 3449367.8899917603 -13290091.436134338 0 -13290091.436134338 -6870271.9963378906 0 0 0 0 1784509.8709600419 -10679992.898409495 0 -10679992.898409495 -3740199.9752399772 0 0 0 0 -4118411.879989624 -6802947.2917976379 0 -6802947.2917976379 -2890591.1503753662 0 0 0 0 -6723484.3695944771 -13246674.863618134 0 -13246674.863618134 -3797780.035913974 0 0 0 0 -19100612.733108521 -28245756.246253967 0 -28245756.246253967 -9922960.8370666504 0 0 0 0 808140.52894496918 -26010357.185464859 0 -26010357.185464859 -11579633.050247192 0 0 0 0 -11699933.237541199 -14792205.591655731 0 -14792205.591655731 -3120370.2819676399 0 0 0 0 2325977.2810161514 -10528480.155844174 0 -10528480.155844174 -2449290.1270886287 0 0 0 0 -30670535.441131592 -23663695.334693909 0 -23663695.334693909 -11514942.980293274 0 0 0 0 -27775906.03074646 -23340302.587394714 0 -23340302.587394714 -11612243.97334671 0 0 0 0 -40311698.529308319 -14374457.782258987 0 -14374457.782258987 -14125319.0597229 0 0 0 0 1599761.7497565937 -13885485.005563248 0 -13885485.005563248 -8038940.8186508045 0 0 0 0 -271096.31606292725 -9372049.1218032837 0 -9372049.1218032837 -2433971.3537139893 0 0 0 0 -9941402.9755937215 -13214570.548594171 0 -13214570.548594171 -3228741.1123881117 0 0 0 0 -13106213.356545195 -15891430.928351352 0 -15891430.928351352 295016.55891216826 0 0 0 0 -18026940.841400146 -17186655.934997559 0 -17186655.934997559 6159814.3332214355 0 0 0 0 15006551.140777588 -9754582.5018157959 0 -9754582.5018157959 -15112108.059112549 0 0 0 0 15323781.06186676 49363.368440628052 0 49363.368440628052 -9859666.1724700928 0 0 0 0 -53403355.613452911 -13031107.325874329 0 -13031107.325874329 -15245225.856391907 0 0 0 0 -2540470.8865760583 -11743183.24410864 0 -11743183.24410864 -7951284.867041707 0 0 0 0 -46108795.010353088 -12828336.888027191 0 -12828336.888027191 -18461355.080821991 0 0 0 0 -62302344.527050018 -28161312.713680267 0 -28161312.713680267 -35598295.812576294 0 0 0 0 -69958709.994441032 4016905.8952264786 0 4016905.8952264786 5306791.3411254883 0 0 0 0 19835306.615379333 -14290716.413108826 0 -14290716.413108826 598296.96313476562 0 0 0 0 -8804556.3174498007 -20607487.085698053 0 -20607487.085698053 -4745087.6512924135 0 0 0 0 -9549173.6534036994 -21293450.698500618 0 -21293450.698500618 1295391.763025552 0 0 0 0 -5345242.3190612793 -10733855.291374207 0 -10733855.291374207 -502276.86529541016 0 0 0 0 -14809685.87985611 -14722774.629707336 0 -14722774.629707336 -2471594.5450134277 0 0 0 0 580128.62059271336 -16001837.858746018 0 -16001837.858746018 -3595450.7192445723 0 0 0 0 -5837509.4784851074 -11028632.064575195 0 -11028632.064575195 -6780394.0951843262 0 0 0 0 -3297369.7327484041 -9437956.5781380069 0 -9437956.5781380069 -1069518.9572792724 0 0 0 0 11578815.162513733 -22027476.907167435 0 -22027476.907167435 -4523079.9056549072 0 0 0 0 6230830.6284530982 -19580317.210623175 0 -19580317.210623175 -6752522.5018889271 0 0 0 0 4201569.1861789152 -21642900.121853054 0 -21642900.121853054 -5323801.0065978058 0 0 0 0 9304973.9248771667 -31339697.463178635 0 -31339697.463178635 -11260939.71383667 0 0 0 0 11542671.69080925 -32198654.151583672 0 -32198654.151583672 -14315176.357276917 0 0 0 0 -34592475.859071732 -32144686.655660629 0 -32144686.655660629 -8035843.7816314697 0 0 0 0 -4380420.6417993754 -2974920.8505474338 0 -2974920.8505474338 -1844922.8544435203 0 0 0 0 15095503.994392395 -23943164.209438324 0 -23943164.209438324 -26891321.455570221 0 0 0 0 -26885012.553520203 -35168996.398293495 0 -35168996.398293495 -7190411.6186676025 0 0 0 0 -22162548.471635818 -36187920.77712822 0 -36187920.77712822 -7071787.2117004395 0 0 0 0 -2892404.4029998779 -30491782.218490601 0 -30491782.218490601 -8891707.8696060181 0 0 0 0 -2232241.8912509121 -15874196.603818689 0 -15874196.603818689 62325.571065425873 0 0 0 0 -3053170.4510574341 -29943484.312307358 0 -29943484.312307358 -9147505.9925308228 0 0 0 0 2497384.31300354 -31316314.378166199 0 -31316314.378166199 -9083432.4925308228 0 0 0 0 5009335.2590332031 -29282747.02495575 0 -29282747.02495575 -13171818.887435913 0 0 0 0 7015444.7446193695 -28290452.47190094 0 -28290452.47190094 -15774017.460021973 0 0 0 0 1191373.7418823242 -33486732.096923828 0 -33486732.096923828 -8036218.8527908325 0 0 0 0 23731881.365783691 -35455392.740356445 0 -35455392.740356445 -14203511.022960663 0 0 0 0 5993394.1740264893 -35797378.162204742 0 -35797378.162204742 -14812534.391700745 0 0 0 0 11570185.535522461 -31863239.625724792 0 -31863239.625724792 -12229698.499252319 0 0 0 0 8819105.8245849609 -41745272.198789597 0 -41745272.198789597 -7350503.8082885742 0 0 0 0 -3830994.4189453125 -27973885.519432068 0 -27973885.519432068 -10741887.634300232 0 0 0 0 1203757.2133636475 -31481565.752388 0 -31481565.752388 -8314544.6101379395 0 0 0 0 773447.84763426706 -2112882.5230550244 0 -2112882.5230550244 -3186959.4400795698 0 0 0 0 -13294902.335296631 -39424587.577514648 0 -39424587.577514648 -4785931.8558998108 0 0 0 0 3797843.4383544922 -15528498.639282227 0 -15528498.639282227 6665118.6070966721 0 0 0 0 -13890085.787368774 -30863526.574768066 0 -30863526.574768066 -2793274.7694168091 0 0 0 0 14768492.469005585 -4753198.5198822021 0 -4753198.5198822021 -31618514.435623169 0 0 0 0 4521046.8776555732 -16887248.514837377 0 -16887248.514837377 -3619327.5160090625 0 0 0 0 7325790.0374755859 -14732407.871704102 0 -14732407.871704102 5155781.9520263672 0 0 0 0 3607029.9204101562 -14641804.475158691 0 -14641804.475158691 2557826.1618652344 0 0 0 0 27077019.630655289 -12649826.220417976 0 -12649826.220417976 -27157280.20703125 0 0 0 0 -10941776.338406648 -13342344.08971737 0 -13342344.08971737 -1943228.0432451814 0 0 0 0 -33286468.944091797 -30293813.940032959 0 -30293813.940032959 -1293504.3558959961 0 0 0 0 8935958.0525888167 -7181250.2799370885 0 -7181250.2799370885 -940027.38302027434 0 0 0 0 -10254829.96198426 -17738144.370465048 0 -17738144.370465048 9261778.4981277958 0 0 0 0 -563209.19658687897 -985621.69774922729 0 -985621.69774922729 490103.23478531092 0 0 0 0 -885462.15835571289 -14477081.810905457 0 -14477081.810905457 6434589.6277885437 0 0 0 0 -8372201.4680404663 -26637581.786119461 0 -26637581.786119461 -8060545.3082122803 0 0 0 0 -7675699.8022613525 -23500231.33823204 0 -23500231.33823204 -6041294.3290863037 0 0 0 0 -1849970.4368809164 -18613967.320089936 0 -18613967.320089936 1749425.5073355269 0 0 0 0 9801075.5228259116 -15079426.208752038 0 -15079426.208752038 -5771632.0347697735 0 0 0 0 -4865536.4403610229 -28421664.595804214 0 -28421664.595804214 -7269658.6860122681 0 0 0 0 10990193.259866729 -17472420.666876525 0 -17472420.666876525 -2642605.8687913269 0 0 0 0 -10773917.687057495 -35339736.691677094 0 -35339736.691677094 1117279.0159454346 0 0 0 0 11775588.25868988 -27010078.67464447 0 -27010078.67464447 -11351155.03962326 0 0 0 0 7031846.6185784042 -11938730.828300223 0 -11938730.828300223 -4196441.4214570317 0 0 0 0 5495948.5518188477 -36201411.663833618 0 -36201411.663833618 -1975982.1764812469 0 0 0 0 18271215.130195618 -1817159.0488109589 0 -1817159.0488109589 -22221176.483032227 0 0 0 0 28628438.894561768 -15082697.446632385 0 -15082697.446632385 -5379892.0958194733 0 0 0 0 35851437.667655945 -9729691.0238552094 0 -9729691.0238552094 -21241135.644866943 0 0 0 0 15996508.472638063 -18181827.955310464 0 -18181827.955310464 -9862471.6664888039 0 0 0 0 31851842.159030914 -14022093.774748802 0 -14022093.774748802 -18674044.278327942 0 0 0 0 31321116.904327393 -16877588.005028725 0 -16877588.005028725 -33194874.385231018 0 0 0 0 67959985.485046387 -33857196.928206444 0 -33857196.928206444 -28875842.427177429 0 0 0 0 48216402.635635376 39790541.124857903 0 39790541.124857903 -27397136.163040161 0 0 0 0 155572186.13934326 62672709.25201416 0 62672709.25201416 -27328698.014053345 0 0 0 0 34938700.809082031 553411.27702331543 0 553411.27702331543 -23722991.672271252 0 0 0 0 124957045.64675903 -22368847.357818604 0 -22368847.357818604 -31651447.434364319 0 0 0 0 60197064.305282593 -84663410.15542984 0 -84663410.15542984 12979299.476707458 0 0 0 0 44260391.289268494 -22927397.673696518 0 -22927397.673696518 -33352547.449954987 0 0 0 0 -1945598.1767692566 -30917604.204874039 0 -30917604.204874039 -24150082.693447113 0 0 0 0 27830652.790664673 -43580772.520900726 0 -43580772.520900726 -9339531.2366023064 0 0 0 0 10319713.641662717 -20702235.145026796 0 -20702235.145026796 -6529614.5366057642 0 0 0 0 -237687.03404035419 -21448244.188614622 0 -21448244.188614622 -6953495.764333535 0 0 0 0 11966738.474975586 -38453075.117706299 0 -38453075.117706299 -8086697.5048274994 0 0 0 0 -5526897.4370117188 -26185078.933271408 0 -26185078.933271408 2991392.1459732056 0 0 0 0 -17842904.472001974 -12433256.176548833 0 -12433256.176548833 5026194.6283694394 0 0 0 0 -12411844.367385864 -25686916.519527435 0 -25686916.519527435 2236170.9986701012 0 0 0 0 -5455167.754527092 -26598382.74101305 0 -26598382.74101305 -4584199.6389846802 0 0 0 0 -60294667.404136658 -18628182.708080292 0 -18628182.708080292 4352505.2709579468 0 0 0 0 1979864.8612879887 -337445.26781125739 0 -337445.26781125739 -524764.81942087039 0 0 0 0 -4288072.9226169586 -27227066.156964302 0 -27227066.156964302 69199.00244140625 0 0 0 0 -2961941.1911668777 -36194807.295376301 0 -36194807.295376301 -13877395.798034668 0 0 0 0 -4681629.1163024902 -19696797.125692368 0 -19696797.125692368 -242728.57027053833 0 0 0 0 -10602115.680557251 -32227623.548727036 0 -32227623.548727036 -10491828.336954117 0 0 0 0 5888024.5906486511 -20422533.174245358 0 -20422533.174245358 -11818330.360229492 0 0 0 0 8440108.8233642578 -10006894.232349873 0 -10006894.232349873 1847999.6175918579 0 0 0 0 26709.935507945716 -22693278.941707481 0 -22693278.941707481 -9460664.9957032576 0 0 0 0 24984408.12689209 -20306640.245845795 0 -20306640.245845795 -6474723.8683166504 0 0 0 0 -50242826.766853333 -34268153.719747543 0 -34268153.719747543 -18519078.883407593 0 0 0 0 -49269541.552448273 -32066903.30177021 0 -32066903.30177021 -14444356.434127808 0 0 0 0 -20372185.511902399 -5143407.2009894801 0 -5143407.2009894801 5227776.7331178859 0 0 0 0 -48935203.142692566 -34681383.12399292 0 -34681383.12399292 -21608890.357513428 0 0 0 0 -19213677.908409119 -11162517.283866882 0 -11162517.283866882 -4935962.2690582275 0 0 0 0 -171256144.67383194 -58595755.84462738 0 -58595755.84462738 20202324.915260315 0 0 0 0 1867155.6329642655 -10146510.629380394 0 -10146510.629380394 -7515101.241163794 0 0 0 0 -144656927.05951309 28494815.623949051 0 28494815.623949051 57030150.594299316 0 0 0 0 -47839371.132720947 -33470492.019584656 0 -33470492.019584656 -23253853.639343262 0 0 0 0 -48893129.628417969 -32063682.211425781 0 -32063682.211425781 -25128926.80065918 0 0 0 0 -50837616.055511475 -29306329.700546265 0 -29306329.700546265 -18620307.769859314 0 0 0 0 -52069799.843963623 -26130989.437484741 0 -26130989.437484741 -26779037.022907257 0 0 0 0 -58149550.297615051 -27895783.298755646 0 -27895783.298755646 -15963992.757614136 0 0 0 0 -47671705.859466553 -27106934.297492981 0 -27106934.297492981 -23142586.2395401 0 0 0 0 -62739309.74212265 -22920108.35150528 0 -22920108.35150528 -18749155.314426422 0 0 0 0 -41139827.404506683 -28122993.250236511 0 -28122993.250236511 -22545250.710430145 0 0 0 0 -40022730.161136627 -14447647.927127838 0 -14447647.927127838 -14814999.114505768 0 0 0 0 -29465270.561479568 -20104895.562310219 0 -20104895.562310219 -17207944.041374207 0 0 0 0 3358988.8848506473 -19307579.949940696 0 -19307579.949940696 -9407818.9336301349 0 0 0 0 -48617818.940404415 -23319454.091267109 0 -23319454.091267109 -9490544.2087173462 0 0 0 0 37262359.232475281 -8402205.8438453674 0 -8402205.8438453674 -36525143.905166626 0 0 0 0 -34431285.91318512 -16118542.061220169 0 -16118542.061220169 -9021837.5655212402 0 0 0 0 10184150.742693275 -17933884.294569567 0 -17933884.294569567 -8903831.2469503246 0 0 0 0 -32721839.275741577 -26942914.975502014 0 -26942914.975502014 2711993.5875148773 0 0 0 0 -37047935.584972382 -12258893.04350853 0 -12258893.04350853 20266673.617118835 0 0 0 0 -35636397.582462311 -43243810.44386673 0 -43243810.44386673 45782826.429916382 0 0 0 0 -32645787.696094513 -26350471.744411469 0 -26350471.744411469 -13759953.66891861 0 0 0 0 -44222234.957337379 -22181738.652773857 0 -22181738.652773857 -13564070.599220276 0 0 0 0 -21913671.059822083 -19885936.505443573 0 -19885936.505443573 -20808963.093021393 0 0 0 0 -35716796.941540718 -45939838.628954887 0 -45939838.628954887 -35824035.045051575 0 0 0 0 -970173.9909164086 -2207382.9729111032 0 -2207382.9729111032 -758363.81457934901 0 0 0 0 -61729527.693761826 -54028980.227391243 0 -54028980.227391243 110923221.14510727 0 0 0 0 579686815.16870117 318528563.68213463 0 318528563.68213463 -74352598.612806797 0 0 0 0 205024221.50179482 62132099.427997589 0 62132099.427997589 -6071535.7350730896 0 0 0 0 344370598.56720352 118312009.81316376 0 118312009.81316376 -24847920.459121704 0 0 0 0 -65702110.480757475 -51462233.39095962 0 -51462233.39095962 -22044399.1690979 0 0 0 0 -5922931.6591600999 -7508338.1542799575 0 -7508338.1542799575 -1809312.6468638927 0 0 0 0 258265052.94871521 -73669406.521360397 0 -73669406.521360397 -22379899.922134399 0 0 0 0 248900333.45293427 -54030167.775867462 0 -54030167.775867462 -39349199.967636108 0 0 0 0 496909116.98121643 -98203821.283462524 0 -98203821.283462524 -48668927.029602051 0 0 0 0 257819626.46240234 -87891980.397186279 0 -87891980.397186279 -9974090.8492736816 0 0 0 0 191554495.94976807 -88208151.961975098 0 -88208151.961975098 -1324123.9984283447 0 0 0 0 441899593.75552368 -229822293.72925186 0 -229822293.72925186 14199510.742004395 0 0 0 0 -30275473.656394958 38349837.428512573 0 38349837.428512573 -21093622.733873367 0 0 0 0 163737038.77073479 -35253543.357288361 0 -35253543.357288361 -6166546.9981231689 0 0 0 0 -51609842.249958038 -21832575.259418488 0 -21832575.259418488 -14856378.943832397 0 0 0 0 -6814064.4278259277 38042045.566268921 0 38042045.566268921 12037498.878726959 0 0 0 0 36268937.676528931 -72551349.158876419 0 -72551349.158876419 52696453.472259521 0 0 0 0 198516512.37770844 -146324194.64540863 0 -146324194.64540863 22701059.305541992 0 0 0 0 725693901.67909241 -236673628.29453278 0 -236673628.29453278 127321624.34407806 0 0 0 0 365368119.16186142 47751051.126983643 0 47751051.126983643 23747244.487567902 0 0 0 0 600348512.87534237 -180655069.52759457 0 -180655069.52759457 102749927.2951355 0 0 0 0 625385911.28285599 -171243044.34131622 0 -171243044.34131622 -103853361.53742981 0 0 0 0 558141451.3329525 301298421.75707293 0 301298421.75707293 342404482.80810547 0 0 0 0 35327728.116775513 11705251.222049713 0 11705251.222049713 4701830.8823165894 0 0 0 0 -984850.11128234863 -107530315.13256073 0 -107530315.13256073 121975798.7939415 0 0 0 0 -1427056.0269931853 -69933.603154823184 0 -69933.603154823184 1896986.574252598 0 0 0 0 22514727.522741318 -32925741.147267342 0 -32925741.147267342 29052535.310882568 0 0 0 0 -37395446.893184662 11378768.259963989 0 11378768.259963989 -168951794.46118927 0 0 0 0 -35007101.689292908 710692.39545059204 0 710692.39545059204 -121333672.49354553 0 0 0 0 321476501.16461182 -97542644.294059753 0 -97542644.294059753 -331961265.8032074 0 0 0 0 -2003810.8104435354 767235.48589372262 0 767235.48589372262 1626855.6502252519 0 0 0 0 92279779.324401855 80234995.506000519 0 80234995.506000519 -422143809.45962524 0 0 0 0 -72316008.774108887 208581358.49310303 0 208581358.49310303 -12185832.06288147 0 0 0 0 -2067983.0570483655 1500106.4929639399 0 1500106.4929639399 1769193.1914222911 0 0 0 0 101601.92700195312 -27673457.512992859 0 -27673457.512992859 25411029.654628754 0 0 0 0 -71482259.031143188 -7839771.5461730957 0 -7839771.5461730957 228184573.67242432 0 0 0 0 7829280.5738430023 -9910277.6445617676 0 -9910277.6445617676 4392432.9487915039 0 0 0 0 -56822158.883804321 42158241.352050781 0 42158241.352050781 27888294.155815125 0 0 0 0 -65664394.187004089 -37227448.753761292 0 -37227448.753761292 -5700077.8759994507 0 0 0 0 944590.24297142029 -56837243.49064827 0 -56837243.49064827 -109864864.21989441 0 0 0 0 121337690.43710327 -130888366.82040405 0 -130888366.82040405 -241189201.91943359 0 0 0 0 -455734.07229910046 -1496493.400316529 0 -1496493.400316529 293619.61596413702 0 0 0 0 -13591690.960021973 -13448864.454597473 0 -13448864.454597473 4614724.8102340698 0 0 0 0 -17019685.639434814 -32641677.181243896 0 -32641677.181243896 -5415020.1479187012 0 0 0 0 -8551.4415435791016 -32652974.009334564 0 -32652974.009334564 -24192109.183563232 0 0 0 0 -39597.445497448585 -19377038.377907157 0 -19377038.377907157 -3677348.3794403076 0 0 0 0 -4497700.9487915039 -22190045.263580322 0 -22190045.263580322 -2376360.0077075958 0 0 0 0 14041239.592727661 -12256288.99848175 0 -12256288.99848175 -6422047.4642791748 0 0 0 0 8971400.935256958 -3187997.1501483917 0 -3187997.1501483917 844428.47418212891 0 0 0 0 -1310137.0962142944 -26018583.692314148 0 -26018583.692314148 -5613936.4382476807 0 0 0 0 28804.083621561527 -126834.62980401143 0 -126834.62980401143 91250.784490721999 0 0 0 0 -9701559.3305397034 13022094.501872063 0 13022094.501872063 -10641443.030319214 0 0 0 0 -606133.72228118032 -3548321.1348627582 0 -3548321.1348627582 289109.446154356 0 0 0 0 3912663.4884109497 -12647455.2831707 0 -12647455.2831707 -13287056.172195435 0 0 0 0 15720735.725898743 891900.62887573242 0 891900.62887573242 -18153108.334625244 0 0 0 0 3346827.9235242605 -89964.607934847474 0 -89964.607934847474 -698008.54060319834 0 0 0 0 -700499.69564819336 -8052618.5468921661 0 -8052618.5468921661 812970.0672454834 0 0 0 0 9965819.9772033691 -7587159.7433700562 0 -7587159.7433700562 -8956760.1771728992 0 0 0 0 2123767.4920196533 -5766575.7190971375 0 -5766575.7190971375 1935618.0944213867 0 0 0 0 1667569.7314183414 -1429586.1134172156 0 -1429586.1134172156 -518369.85425329395 0 0 0 0 4329788.031829834 -14693534.557350159 0 -14693534.557350159 10695201.961322784 0 0 0 0 -1380982.6002998352 22056842.500355721 0 22056842.500355721 -87268788.833702087 0 0 0 0 148938.62774562836 -2049903.8017447889 0 -2049903.8017447889 2181893.9475105256 0 0 0 0 11180480.568893433 -5223933.8208045959 0 -5223933.8208045959 1465703.2719917297 0 0 0 0 945028.92582702637 -6830875.9510040283 0 -6830875.9510040283 -3100395.8062286377 0 0 0 0 4083383.7988739014 -11817413.748725891 0 -11817413.748725891 1974618.5149137974 0 0 0 0 -4074713.055337429 -8799089.9533513524 0 -8799089.9533513524 -2447665.6439356655 0 0 0 0 1904121.6639556885 -6184236.9500045776 0 -6184236.9500045776 -3435348.6246948242 0 0 0 0 1069925.556155039 -5606087.5882258862 0 -5606087.5882258862 -260093.88960313052 0 0 0 0 25980102.313293457 -15576817.373214722 0 -15576817.373214722 -36386231.656234741 0 0 0 0 36406690.852020264 19546269.490186691 0 19546269.490186691 -116424272.93185425 0 0 0 0 324330.52220912278 -419162.64256962389 0 -419162.64256962389 -135225.2958330363 0 0 0 0 14328046.223373413 -19687358.271373749 0 -19687358.271373749 -25133937.723464966 0 0 0 0 9804899.9952706918 -4845201.3340370432 0 -4845201.3340370432 -2677077.2186656222 0 0 0 0 23863906.424285889 -13045380.123931885 0 -13045380.123931885 -37651421.913528442 0 0 0 0 12581478.849708557 -27618768.380588531 0 -27618768.380588531 -19116429.706108093 0 0 0 0 23116116.124267578 -41509695.771484375 0 -41509695.771484375 -2306363.9704284668 0 0 0 0 30516536.526939392 -26852892.663694382 0 -26852892.663694382 -45869636.10244751 0 0 0 0 8087636.5383682251 3581562.2024078369 0 3581562.2024078369 -43729503.168273926 0 0 0 0 27879640.431472778 -25087599.943870544 0 -25087599.943870544 -36192516.643615723 0 0 0 0 50197458.18939209 -57718508.409797668 0 -57718508.409797668 -7169565.977142334 0 0 0 0 21957622.369720459 -31967178.510932922 0 -31967178.510932922 -42766150.146789551 0 0 0 0 55017472.921085358 -12760171.348921776 0 -12760171.348921776 -65572962.743728638 0 0 0 0 20353527.304901123 -53370221.165538788 0 -53370221.165538788 5719703.8504867554 0 0 0 0 16956315.532806396 -74738991.169368744 0 -74738991.169368744 193048345.97570038 0 0 0 0 12406653.260543823 -56291444.427314758 0 -56291444.427314758 55068102.985900879 0 0 0 0 5517064.3927890211 -24950181.424784184 0 -24950181.424784184 -5141460.1641082764 0 0 0 0 -26167244.944763184 39163974.058532715 0 39163974.058532715 -64842174.593650818 0 0 0 0 -44450970.250762939 -5853893.5700263977 0 -5853893.5700263977 -148555682.20611954 0 0 0 0 46721682.545440674 25777924.904930115 0 25777924.904930115 -89120147.614788055 0 0 0 0 130306090.74882507 -37350835.556976318 0 -37350835.556976318 -162269806.37429047 0 0 0 0 92855191.750656128 -116426896.68892288 0 -116426896.68892288 23022010.018848419 0 0 0 0 -212969729.775383 -8705552.6912746429 0 -8705552.6912746429 87996935.970241547 0 0 0 0 46314315.886171341 -15482058.843144417 0 -15482058.843144417 -71345311.620895386 0 0 0 0 74479803.620855331 -180858697.90982103 0 -180858697.90982103 -137524636.97073364 0 0 0 0 -172971582.67713928 -198908343.54634094 0 -198908343.54634094 -82176812.005306244 0 0 0 0 2059852.0842127353 -2124866.2480730712 0 -2124866.2480730712 -1996057.8168002404 0 0 0 0 -60632026.117446899 -264363843.6523571 0 -264363843.6523571 -228002744.40422821 0 0 0 0 2063424.5877557993 -1699437.8151608184 0 -1699437.8151608184 -438665.45029067807 0 0 0 0 8777125.1166687012 -14503269.599918365 0 -14503269.599918365 -21388135.378486633 0 0 0 0 335439.27041272819 315670.69098293036 0 315670.69098293036 197268.8621350266 0 0 0 0 9511743.2232971191 -8381492.7612838745 0 -8381492.7612838745 -62587339.52645874 0 0 0 0 8043036.4973983765 -6430575.5091362 0 -6430575.5091362 -42446794.849845886 0 0 0 0 9570739.2262420654 -45834634.008674622 0 -45834634.008674622 -94585990.336959839 0 0 0 0 -5608863.2152709961 -32202950.208877563 0 -32202950.208877563 -33603600.590763092 0 0 0 0 -9807425.0145568848 -4742925.2872695923 0 -4742925.2872695923 -18256524.891235352 0 0 0 0 -12288477.762197495 -41052220.201033115 0 -41052220.201033115 -43568360.876831055 0 0 0 0 -605986.68762207031 -8478421.9085235596 0 -8478421.9085235596 -23546939.216770172 0 0 0 0 -43403679.927337646 -91007335.157302856 0 -91007335.157302856 -58245274.573099136 0 0 0 0 -29356734.736999512 -60533654.359203339 0 -60533654.359203339 3184652.530380249 0 0 0 0 -289037296.49746704 -10674172.113647461 0 -10674172.113647461 17965312.768821716 0 0 0 0 -151587331.48976135 -330558361.61797714 0 -330558361.61797714 -53703981.297332764 0 0 0 0 -121679374.49554443 -65300934.490291595 0 -65300934.490291595 8964414.174659729 0 0 0 0 -97631695.013324738 53572053.309008598 0 53572053.309008598 12764099.290771484 0 0 0 0 -5392849.3060913086 64660505.220100403 0 64660505.220100403 -32391949.398445129 0 0 0 0 -24939164.114067078 -102419025.64668846 0 -102419025.64668846 -85062172.390838623 0 0 0 0 1225112.3904620335 -1273707.3799182177 0 -1273707.3799182177 -1208451.7420476414 0 0 0 0 168255049.75160217 -133697296.97219849 0 -133697296.97219849 -86803627.602079391 0 0 0 0 -487394747.64375305 -444671472.88450241 0 -444671472.88450241 -243954759.51927185 0 0 0 0 24026998.929145813 -303252590.34870529 0 -303252590.34870529 -301659306.23913193 0 0 0 0 -11794861.108612061 -292948691.3176918 0 -292948691.3176918 -288764176.99104309 0 0 0 0 -12972271.646316528 -264898518.07685852 0 -264898518.07685852 -234103834.53722382 0 0 0 0 -28131165.123474121 -202454794.5220356 0 -202454794.5220356 -110399418.32553101 0 0 0 0 61795378.524368286 -207014548.54454041 0 -207014548.54454041 -264395235.75917149 0 0 0 0 82531373.655509949 -3619639.9214687347 0 -3619639.9214687347 -195195275.88049316 0 0 0 0 30991001.942153931 -111988727.90660095 0 -111988727.90660095 -314254557.94254875 0 0 0 0 1157474.8463923857 -1152957.0945940763 0 -1152957.0945940763 -1127255.4977056831 0 0 0 0 -317643003.30734253 -269954377.86245728 0 -269954377.86245728 -171155042.12445 0 0 0 0 363348933.70109558 48677991.809494019 0 48677991.809494019 -283957464.09910583 0 0 0 0 233533278.98260498 48292212.209892273 0 48292212.209892273 -190959906.56312561 0 0 0 0 27407606.556976318 -17418239.226615906 0 -17418239.226615906 -911720015.95080948 0 0 0 0 -31587173.703048706 -62558768.667818069 0 -62558768.667818069 -316879948.40839386 0 0 0 0 46719093.212627411 -262448852.29623508 0 -262448852.29623508 -433356484.33761597 0 0 0 0 -15579767.490783691 -206656304.84284973 0 -206656304.84284973 -380995666.81159973 0 0 0 0 -271567.09185791016 -258688747.7027359 0 -258688747.7027359 -455000740.0333252 0 0 0 0 77554.356201171875 -270857132.04693031 0 -270857132.04693031 -289726639.29673004 0 0 0 0 -30981182.439651489 -272498112.4542923 0 -272498112.4542923 -303364152.6893158 0 0 0 0 47086906.830184937 -262455560.20360184 0 -262455560.20360184 -304778418.2753334 0 0 0 0 -16187691.326713562 -248008256.51949883 0 -248008256.51949883 -225718512.35641098 0 0 0 0 20149.526123046875 -249363385.49113846 0 -249363385.49113846 -87825951.803379059 0 0 0 0 54170990.409301758 -217231882.5727005 0 -217231882.5727005 -226935656.2133193 0 0 0 0 25023334.006031036 -254555285.7783308 0 -254555285.7783308 -142124868.29787445 0 0 0 0 91818848.632614136 -198250673.26576996 0 -198250673.26576996 -124477238.49396992 0 0 0 0 55637178.03678894 -127796812.43518829 0 -127796812.43518829 -34468771.595425606 0 0 0 0 -58680026.296127319 -325801520.45709229 0 -325801520.45709229 -229042300.47113419 0 0 0 0 69451506.392837524 -235275392.30820847 0 -235275392.30820847 -287793894.4221797 0 0 0 0 33249358.504516602 -202314799.50076485 0 -202314799.50076485 59405740.731861115 0 0 0 0 148917545.26662445 -219298781.63238716 0 -219298781.63238716 -260050080.48217773 0 0 0 0 141022526.39069653 -306741408.25780344 0 -306741408.25780344 146810891.20975876 0 0 0 0 112335777.31724072 -96752652.961336374 0 -96752652.961336374 117711041.17150497 0 0 0 0 77072423.022064209 -261897269.49188805 0 -261897269.49188805 295685937.83770561 0 0 0 0 32605.88355255127 -222950351.77153969 0 -222950351.77153969 131865262.87630844 0 0 0 0 33856301.745887756 -133968300.43600559 0 -133968300.43600559 306891964.5927124 0 0 0 0 45786940.614395142 -153328098.82016182 0 -153328098.82016182 175146518.42292786 0 0 0 0 4398.2854690551758 -186370303.8023243 0 -186370303.8023243 326763989.46028519 0 0 0 0 35420370.927688599 -97462483.97253418 0 -97462483.97253418 449405719.9324646 0 0 0 0 1302967.3472101763 -1132395.665796347 0 -1132395.665796347 -5672309.5277874786 0 0 0 0 2011.3262939453125 -3505318.4305801392 0 -3505318.4305801392 -2294846.8219871521 0 0 0 0 -1863105.7708740234 -22401596.754852295 0 -22401596.754852295 -85182144.341011047 0 0 0 0 -1251340.4298510998 692181.19143078849 0 692181.19143078849 639811.61816554517 0 0 0 0 37440362.517456055 -25571353.138118744 0 -25571353.138118744 -6287903.8202785254 0 0 0 0 31097322.792663574 -12300517.896350861 0 -12300517.896350861 -5812774.7675950527 0 0 0 0 -2870070.5532875061 -14483590.30441463 0 -14483590.30441463 -52978633.320281982 0 0 0 0 6646407.3946410492 -511514.12495519035 0 -511514.12495519035 -6448860.4291917328 0 0 0 0 -5890485.4062330648 -3265650.6306745969 0 -3265650.6306745969 -413490.06363619119 0 0 0 0 6217405.9164047241 -168776457.07876492 0 -168776457.07876492 317705433.87565613 0 0 0 0 -6889139.8286849409 -2265912.9598435797 0 -2265912.9598435797 1065654.504675677 0 0 0 0 131536949.96760559 -98464372.003408432 0 -98464372.003408432 48527793.606870651 0 0 0 0 169957701.77708054 -44541099.035963535 0 -44541099.035963535 -97246325.81187439 0 0 0 0 141376604.43882751 -1165809.0926113129 0 -1165809.0926113129 -48642713.552490234 0 0 0 0 30070933.239196777 -1610269.3605194092 0 -1610269.3605194092 -23849560.430357575 0 0 0 0 40699039.51307106 -16696261.497981548 0 -16696261.497981548 -24675990.323497772 0 0 0 0 7417245.8931378648 567977.86733121425 0 567977.86733121425 -6436462.9356612936 0 0 0 0 -8840970.6897735596 -38304653.493461609 0 -38304653.493461609 -37307363.520439625 0 0 0 0 109667600.99507523 42764334.430563211 0 42764334.430563211 -10523324.703296661 0 0 0 0 110225567.29396057 86594986.487979889 0 86594986.487979889 61980037.435930014 0 0 0 0 112304995.30601692 39301884.282633305 0 39301884.282633305 -77938036.808765411 0 0 0 0 121185891.06933594 186237038.96425629 0 186237038.96425629 78127949.908195019 0 0 0 0 7131918.9202058017 1017623.3744027317 0 1017623.3744027317 -6189614.0072324369 0 0 0 0 22869220.992767334 4293093.5404148102 0 4293093.5404148102 -28509695.283503056 0 0 0 0 -48657953.26651001 -43401664.434679031 0 -43401664.434679031 8202165.7760105133 0 0 0 0 -31835827.334945679 8753210.8332138062 0 8753210.8332138062 60135776.644721985 0 0 0 0 -36964509.096969604 -90702846.29473877 0 -90702846.29473877 -96081203.800555229 0 0 0 0 63083.226010881284 -49891991.793213077 0 -49891991.793213077 -53420713.936050415 0 0 0 0 -10397136.906433105 -36917273.048938751 0 -36917273.048938751 -69382915.601791382 0 0 0 0 -12698881.600198746 -30898508.811564207 0 -30898508.811564207 -46416865.638553619 0 0 0 0 -6322907.2559967041 -16117331.887367249 0 -16117331.887367249 -36653587.089847565 0 0 0 0 -88000830.837890625 147294032.25128937 0 147294032.25128937 -348891559.90291834 0 0 0 0 -333768774.61907196 133843824.39027643 0 133843824.39027643 -4221222.2478561401 0 0 0 0 -87991223.762863159 82513396.127991676 0 82513396.127991676 -54252940.315471649 0 0 0 0 -257010704.10866165 -139974375.93755198 0 -139974375.93755198 -94860177.027179718 0 0 0 0 -627993362.97824097 85342174.050602913 0 85342174.050602913 -229291729.90182686 0 0 0 0 -26513294.296722412 -7728565.7049913406 0 -7728565.7049913406 -54718755.786911011 0 0 0 0 -205024330.61192322 70701288.848367691 0 70701288.848367691 218838933.14677429 0 0 0 0 -87953263.479171753 58395506.272006989 0 58395506.272006989 18429622.177921295 0 0 0 0 -37626891.452438354 171912801.10584068 0 171912801.10584068 -53879137.454544067 0 0 0 0 -136332203.62528229 129690918.08983612 0 129690918.08983612 151179252.56299591 0 0 0 0 -46407379.676635742 83244457.906635284 0 83244457.906635284 169183304.78449249 0 0 0 0 5513104.4776306152 152303883.54547119 0 152303883.54547119 118508320.23777771 0 0 0 0 -13691477.241363525 143429421.12973785 0 143429421.12973785 201306601.03315735 0 0 0 0 50722932.452301025 101989342.35533905 0 101989342.35533905 135201336.25006866 0 0 0 0 20216980.508972168 161719225.8387146 0 161719225.8387146 142964365.70647001 0 0 0 0 12796964.596786499 175946833.46586418 0 175946833.46586418 11486072.478027344 0 0 0 0 -37869316.197906494 121418380.0977478 0 121418380.0977478 118736431.5841749 0 0 0 0 151536255.87023926 88748232.835571289 0 88748232.835571289 107432928.50153351 0 0 0 0 90659856.547080994 164931292.71566629 0 164931292.71566629 19682041.171100616 0 0 0 0 121415622.89865112 71525932.864011765 0 71525932.864011765 -145506332.13362885 0 0 0 0 47250828.558288574 135375191.71767426 0 135375191.71767426 25024834.320025444 0 0 0 0 -7273577.220664978 165851694.98699856 0 165851694.98699856 -158179197.92012024 0 0 0 0 44378877.033782959 82203819.721086502 0 82203819.721086502 -42411128.922145844 0 0 0 0 19693851.915283203 -16702479.020080566 0 -16702479.020080566 -265871064.46206856 0 0 0 0 47778121.154556274 71336096.260361195 0 71336096.260361195 -124531559.77856445 0 0 0 0 144196649.31167603 14831049.611001968 0 14831049.611001968 -234413687.47623062 0 0 0 0 101810977.52503967 -35839785.236927032 0 -35839785.236927032 28817027.87745285 0 0 0 0 59491828.55708313 -135274854.27030182 0 -135274854.27030182 -140047281.07241821 0 0 0 0 -7823545.2319335938 -18201459.301649094 0 -18201459.301649094 -193857982.59153748 0 0 0 0 -363169334.38670349 -158543777.6232605 0 -158543777.6232605 -411669462.83879852 0 0 0 0 -308840749.81993103 -238574408.35875511 0 -238574408.35875511 -320576635.71012497 0 0 0 0 -646443954.70794678 -477851118.68648529 0 -477851118.68648529 -227535851.94947052 0 0 0 0 -53790904.392440796 71258117.764425278 0 71258117.764425278 -362395386.28900528 0 0 0 0 -282797502.2021637 -52296795.853393555 0 -52296795.853393555 -290611723.96474075 0 0 0 0 -497521530.01091766 -484114774.85367012 0 -484114774.85367012 -1581791758.5709152 0 0 0 0 -599675738.31652832 -329054121.37922859 0 -329054121.37922859 -463388078.03639984 0 0 0 0 -208797089.4139595 -165850241.32890844 0 -165850241.32890844 -798439703.7496109 0 0 0 0 -1118151335.7678223 -887893864.28827858 0 -887893864.28827858 -435748548.19509125 0 0 0 0 -504107875.99749756 -430921270.74674606 0 -430921270.74674606 -631360936.20151901 0 0 0 0 -1117150267.713623 -394845993.29624939 0 -394845993.29624939 -300508905.98919296 0 0 0 0 -1208705051.4921112 -687948380.25018883 0 -687948380.25018883 169398455.30712891 0 0 0 0 511503.38423229009 -1143529.2958551422 0 -1143529.2958551422 -133247.65774423629 0 0 0 0 -34012331.432739258 -199717647.89559555 0 -199717647.89559555 -498051038.74171448 0 0 0 0 -1015504572.109848 -267860046.82114887 0 -267860046.82114887 148643365.036026 0 0 0 0 -605640352.6154747 -93074116.198815346 0 -93074116.198815346 206258813.98854828 0 0 0 0 -740039878.94955444 -464021032.84441376 0 -464021032.84441376 28602777.579631805 0 0 0 0 -854324809.10066986 -640209974.83903122 0 -640209974.83903122 -138024743.02301025 0 0 0 0 -676372096.12384033 -358369667.14138031 0 -358369667.14138031 -427826246.22408676 0 0 0 0 -419730551.91998291 -306172464.76235962 0 -306172464.76235962 -97620890.946575165 0 0 0 0 -739632766.46472359 -471929138.5354346 0 -471929138.5354346 171068190.34367371 0 0 0 0 -686936859.93981171 -667411769.53060722 0 -667411769.53060722 -205900874.85161209 0 0 0 0 -878324012.72351074 -624457625.09950638 0 -624457625.09950638 99052434.248662949 0 0 0 0 -485790078.46362305 -370752668.7487793 0 -370752668.7487793 15397177.739219666 0 0 0 0 -151842296.7097168 -140778455.47984123 0 -140778455.47984123 -47340472.595741272 0 0 0 0 14863892.813537598 -109641231.42900848 0 -109641231.42900848 37934272.207954407 0 0 0 0 -484518245.14950562 -404931221.80218506 0 -404931221.80218506 117514769.23595428 0 0 0 0 -700049723.71655273 -527420361.88881683 0 -527420361.88881683 101163020.53212738 0 0 0 0 -6088963.7249652222 -1578486.5937775485 0 -1578486.5937775485 1357999.8121858314 0 0 0 0 205763529.7035675 -342289198.69133377 0 -342289198.69133377 143339539.14035225 0 0 0 0 86691342.792098999 15419189.700595856 0 15419189.700595856 77778513.115718842 0 0 0 0 -431424712.00447083 -292421072.28922272 0 -292421072.28922272 -74639619.574817657 0 0 0 0 -769075480.66888428 -266810518.83195496 0 -266810518.83195496 419218512.18651772 0 0 0 0 -2998758.0643224195 -456647.37964238971 0 -456647.37964238971 996263.99529988505 0 0 0 0 15404613.936843872 -145459346.42430496 0 -145459346.42430496 63717728.926187515 0 0 0 0 213527998.91948318 -254395943.70587063 0 -254395943.70587063 -660165782.42345047 0 0 0 0 -356302273.23272705 -635315766.50124359 0 -635315766.50124359 -425150004.24620056 0 0 0 0 43318364.120193481 -410195562.60836792 0 -410195562.60836792 -319491978.90731812 0 0 0 0 -215694253.98843384 -117914644.63401985 0 -117914644.63401985 -75706405.301063538 0 0 0 0 -22940895.030487061 -220633836.13194275 0 -220633836.13194275 -84191624.773069382 0 0 0 0 141096005.04168701 -74954286.332740784 0 -74954286.332740784 -147110980.93831635 0 0 0 0 -574680249.32822418 68077724.033185005 0 68077724.033185005 -164149949.08795929 0 0 0 0 -350182287.03625488 -469767885.66957283 0 -469767885.66957283 -508023301.98167419 0 0 0 0 -202541834.55749512 -45020058.473197937 0 -45020058.473197937 -495989062.77819788 0 0 0 0 -768785196.23326874 -328750287.41578102 0 -328750287.41578102 -33620645.108428955 0 0 0 0 -232166432.85595703 -108968699.78849411 0 -108968699.78849411 -90474348.781703949 0 0 0 0 -193317859.41497421 64639822.87184906 0 64639822.87184906 -12185481.862426758 0 0 0 0 8800122.4170227051 -32012806.325199127 0 -32012806.325199127 -183007838.35250854 0 0 0 0 -72972945.495635986 -20296213.274105072 0 -20296213.274105072 -1522103.5025939941 0 0 0 0 96111200.140716553 -49106875.250366211 0 -49106875.250366211 68267655.235877991 0 0 0 0 37328202.897689819 56942609.897850037 0 56942609.897850037 -51807685.630325317 0 0 0 0 138681526.99493408 -68136058.560515404 0 -68136058.560515404 75856700.387496948 0 0 0 0 450776253.53326416 -142581531.85423279 0 -142581531.85423279 47494544.368942261 0 0 0 0 214647602.0703125 -79498237.815872192 0 -79498237.815872192 113018891.41706848 0 0 0 0 475580375.39273071 27494178.433052063 0 27494178.433052063 59980154.983901978 0 0 0 0 199521396.60383606 20911772.019619942 0 20911772.019619942 49377528.398132324 0 0 0 0 267075119.73449707 -115562552.62903595 0 -115562552.62903595 11689965.003990173 0 0 0 0 255760075.85583496 -48009060.351531982 0 -48009060.351531982 150996667.95948792 0 0 0 0 48126324.959075928 -122353241.01239014 0 -122353241.01239014 24402346.518575668 0 0 0 0 366346958.26075745 -46610811.385665894 0 -46610811.385665894 -125990316.13766479 0 0 0 0 204045646.92071533 -182628293.92506409 0 -182628293.92506409 -106848750.78552246 0 0 0 0 913317.13707638532 -6288519.9831282124 0 -6288519.9831282124 -2268803.297263965 0 0 0 0 105354077.66407776 -48249464.383659363 0 -48249464.383659363 29064106.554260254 0 0 0 0 389417228.61314392 -173761762.17639542 0 -173761762.17639542 -62187870.887325287 0 0 0 0 1138777.6956716254 -3520052.4820708744 0 -3520052.4820708744 -3120881.1223788895 0 0 0 0 2160140.3676757812 -2248273.5409698486 0 -2248273.5409698486 383357.82454299927 0 0 0 0 371324.53864835203 -11480149.783193298 0 -11480149.783193298 -812189.125455264 0 0 0 0 5286554.6362612918 -4357071.7735365108 0 -4357071.7735365108 35313.260467801243 0 0 0 0 -11803599.737839766 -1253901.2604913674 0 -1253901.2604913674 1692288.3677911051 0 0 0 0 -6301343.2946172506 -18795304.934641615 0 -18795304.934641615 -378952.54042786732 0 0 0 0 -41190818.469818115 964940.49312591553 0 964940.49312591553 7481523.5272216797 0 0 0 0 -28428465.780090332 -24494673.847803116 0 -24494673.847803116 29307533.196083069 0 0 0 0 -2341365.5506070089 -1885885.7997850478 0 -1885885.7997850478 765479.77432367578 0 0 0 0 640634843.84945679 -96799959.259571075 0 -96799959.259571075 -25704914.754943848 0 0 0 0 14425965.743637085 -26630865.144302368 0 -26630865.144302368 -2704120.9783782959 0 0 0 0 9956643.5711364746 -16993735.494152069 0 -16993735.494152069 -4547393.6344013214 0 0 0 0 -22830437.117538452 -22236387.187885284 0 -22236387.187885284 -750188.19541931152 0 0 0 0 -1776220.7518997192 -23826900.020887375 0 -23826900.020887375 -8266221.915725708 0 0 0 0 -1767999.6777114868 -23523962.785217285 0 -23523962.785217285 -5011488.1114807129 0 0 0 0 -11732042.219665527 -17045234.270965576 0 -17045234.270965576 -3958469.3254928589 0 0 0 0 -9850660.3235015869 -22494792.396900177 0 -22494792.396900177 -716024.35980224609 0 0 0 0 -10536516.927032471 -28606572.392616272 0 -28606572.392616272 -9867304.8802947998 0 0 0 0 -2568326.9699707031 -20747464.948942184 0 -20747464.948942184 -3483917.0838470459 0 0 0 0 -2576314.1801147461 -20111251.667152405 0 -20111251.667152405 -6920653.77186203 0 0 0 0 -2491747.9921951294 -20708865.79101944 0 -20708865.79101944 -4858509.8179473877 0 0 0 0 -1848543.8721008301 -20605488.935272217 0 -20605488.935272217 -10540408.741961002 0 0 0 0 7541932.6131286621 -17913975.950969696 0 -17913975.950969696 969569.14085960388 0 0 0 0 -13132887.528259277 -21100033.87387085 0 -21100033.87387085 -19277948.708427429 0 0 0 0 7402918.9614868164 -16885820.667945862 0 -16885820.667945862 -7667827.7109985352 0 0 0 0 8331043.5493011475 -18275865.369760513 0 -18275865.369760513 -5701351.3889770508 0 0 0 0 5754003.5047050565 -10925273.289334495 0 -10925273.289334495 -2939945.0407152083 0 0 0 0 9298277.4580230713 -14475540.999874115 0 -14475540.999874115 -4246426.0432415009 0 0 0 0 -13004510.256515503 -21215623.283626556 0 -21215623.283626556 -19597948.939834595 0 0 0 0 6992749.9327726811 -20276354.317921214 0 -20276354.317921214 -1395151.748535204 0 0 0 0 -5120193.6404953003 -51620633.631809235 0 -51620633.631809235 -30620433.966304064 0 0 0 0 -2844398.8169067129 -24526210.943721604 0 -24526210.943721604 1589979.3014182979 0 0 0 0 7090381.7356719971 7904499.9670009613 0 7904499.9670009613 -12555259.965338945 0 0 0 0 -2404981.4421539307 -25953319.390781403 0 -25953319.390781403 -328289.32383728027 0 0 0 0 10717322.922485352 -20768943.341377258 0 -20768943.341377258 -6018768.4106636047 0 0 0 0 71687175.111206055 -570063.26473999023 0 -570063.26473999023 29355789.793640137 0 0 0 0 19592760.336781606 -11908327.506240841 0 -11908327.506240841 -7320802.9138469175 0 0 0 0 54939684.64516449 -44306474.049985886 0 -44306474.049985886 -29185114.191017151 0 0 0 0 6772819.1881305426 1177310.8766507171 0 1177310.8766507171 -4219236.5077552386 0 0 0 0 16319436.87008667 -12183877.489971161 0 -12183877.489971161 -8466390.5701141357 0 0 0 0 -39720980.17666626 59785359.068946838 0 59785359.068946838 -2928118.7939147949 0 0 0 0 4575829.487953186 -7298122.2048273087 0 -7298122.2048273087 -2142827.1685180664 0 0 0 0 7705875.0790100098 3196063.6476745605 0 3196063.6476745605 7215417.5008544922 0 0 0 0 4511034.997849226 116595.88704755902 0 116595.88704755902 -2639758.8216624036 0 0 0 0 -4804888.7545166016 -12584681.837554932 0 -12584681.837554932 7860314.440757513 0 0 0 0 6201431.8842773438 -5248702.2876796722 0 -5248702.2876796722 -16885126.303283691 0 0 0 0 854286.61245727539 -5192926.7044639587 0 -5192926.7044639587 -2439818.8793578148 0 0 0 0 2556314.3405952714 -7162883.3365941867 0 -7162883.3365941867 1020616.4619622678 0 0 0 0 3975095.5832061768 -5338321.4135932922 0 -5338321.4135932922 -2967078.0443305969 0 0 0 0 12612093.193832397 -17304744.249485016 0 -17304744.249485016 11779899.996444702 0 0 0 0 11738336.563735962 -13906546.797079086 0 -13906546.797079086 -1374691.7705612183 0 0 0 0 17831741.030517578 -7147724.9488525391 0 -7147724.9488525391 5678075.5548095703 0 0 0 0 2274655.8889770508 -3225133.0292510986 0 -3225133.0292510986 1267856.1412265301 0 0 0 0 6749986.5485914499 -3032767.5590589326 0 -3032767.5590589326 -5444853.967040603 0 0 0 0 108963349.55839539 -282812307.39222336 0 -282812307.39222336 167877746.13776398 0 0 0 0 2708867.1946467534 -2373690.1322311088 0 -2373690.1322311088 -1405813.1357737705 0 0 0 0 307375602.94076538 -251353000.95159912 0 -251353000.95159912 44746832.443397522 0 0 0 0 111835248.21899414 -42803290.710559845 0 -42803290.710559845 75344132.957977295 0 0 0 0 2692123.7571367249 -4443564.1836480871 0 -4443564.1836480871 522765.76237374917 0 0 0 0 -1198236.8125374243 -6648870.9783964753 0 -6648870.9783964753 1009607.487161383 0 0 0 0 1693624.4747161865 -6482917.9720153809 0 -6482917.9720153809 1750250.9247894287 0 0 0 0 2540366.7219799906 -4104523.3814468309 0 -4104523.3814468309 -1596780.336163186 0 0 0 0 2980165.4930419922 -3701271.1864700317 0 -3701271.1864700317 -2576673.7745943069 0 0 0 0 2296453.9247741699 -4595738.465959549 0 -4595738.465959549 -2252958.4325714111 0 0 0 0 149322246.84608746 -29233073.407151222 0 -29233073.407151222 -119934255.58657837 0 0 0 0 161195640.62359238 -52638528.085601807 0 -52638528.085601807 -194868412.12741089 0 0 0 0 124177736.12036514 -195076914.5884819 0 -195076914.5884819 96440671.8826828 0 0 0 0 2046774.3135299683 -72035680.717733383 0 -72035680.717733383 -12314733.359767914 0 0 0 0 20772556.033298492 -84315400.935297012 0 -84315400.935297012 -15422753.053551674 0 0 0 0 13242887.557447433 -63592257.156036377 0 -63592257.156036377 -69859966.253128052 0 0 0 0 -17274647.578100204 -52395628.464584351 0 -52395628.464584351 -21729358.362857819 0 0 0 0 7076780.3206520081 -56467293.045703888 0 -56467293.045703888 -23179007.346236229 0 0 0 0 -2481584.8080863953 -74236206.467660904 0 -74236206.467660904 8361138.9710388184 0 0 0 0 8485286.216548156 -22538823.203270108 0 -22538823.203270108 -4347101.0253618658 0 0 0 0 -21650862.503322601 -52501448.704421997 0 -52501448.704421997 -5736386.7285461426 0 0 0 0 -33543793.957787991 -33382548.906040668 0 -33382548.906040668 -7924397.6678695679 0 0 0 0 -26391510.588399887 -40300357.45873642 0 -40300357.45873642 -11888475.661338806 0 0 0 0 12842577.628344614 -21091576.979984883 0 -21091576.979984883 -5904332.6212111153 0 0 0 0 -9124381.2289886475 -23682788.7123909 0 -23682788.7123909 -10233949.654604435 0 0 0 0 -21737420.305397034 -36307629.044969559 0 -36307629.044969559 -5520995.0960617065 0 0 0 0 -17745638.152290344 -31442593.778616905 0 -31442593.778616905 5104722.8239707947 0 0 0 0 -2097391.1335013732 -26436098.6982878 0 -26436098.6982878 1587628.6555156545 0 0 0 0 9554539.6663818359 -19307960.747270584 0 -19307960.747270584 -26782421.398426056 0 0 0 0 -15933048.805986404 -55614234.391036987 0 -55614234.391036987 10015006.035106659 0 0 0 0 14450246.932509128 -18516823.908420295 0 -18516823.908420295 1123698.6845085844 0 0 0 0 2683685.8782073297 -19509975.375767503 0 -19509975.375767503 -2369112.6671015224 0 0 0 0 676873.83270869032 -4619973.7874142267 0 -4619973.7874142267 -558032.01457912382 0 0 0 0 5277543.4848175049 -32607597.316840172 0 -32607597.316840172 -9032570.2600669861 0 0 0 0 20664457.108543396 -55330983.060970306 0 -55330983.060970306 -14483387.942444324 0 0 0 0 33265814.841339111 -19675567.136623383 0 -19675567.136623383 -35341958.132038116 0 0 0 0 59083419.285926819 -22919304.10581398 0 -22919304.10581398 -39318609.740104675 0 0 0 0 113858676.97641087 -23999739.138054848 0 -23999739.138054848 -58707405.277069092 0 0 0 0 61828036.501346588 -104279097.58518982 0 -104279097.58518982 81799607.013656616 0 0 0 0 25792660.732809067 -56897953.475715637 0 -56897953.475715637 66135573.215034485 0 0 0 0 26753901.665794373 -12555778.428237915 0 -12555778.428237915 42904003.853096008 0 0 0 0 16903250.509269714 -36774853.643417358 0 -36774853.643417358 76567531.928329468 0 0 0 0 18237706.135282516 -33556361.914534569 0 -33556361.914534569 34363987.826751709 0 0 0 0 128269938.34497452 12465051.716487885 0 12465051.716487885 -89765426.846710205 0 0 0 0 6183100.3103548586 -4477105.249771066 0 -4477105.249771066 -2102941.7317581661 0 0 0 0 77692397.46338582 -31389509.245674849 0 -31389509.245674849 -25935394.612533569 0 0 0 0 81817479.611656189 -71384631.631435394 0 -71384631.631435394 27475613.745082855 0 0 0 0 40831765.904191017 -32550524.109390259 0 -32550524.109390259 -8783446.3386230469 0 0 0 0 58036872.550445557 -23297682.01599884 0 -23297682.01599884 -31820999.291080475 0 0 0 0 53182252.629508972 -35786477.44260025 0 -35786477.44260025 -12073545.082107544 0 0 0 0 67960323.110937119 -18689470.340875626 0 -18689470.340875626 -29681218.241737366 0 0 0 0 35289901.825435638 -19109096.343025208 0 -19109096.343025208 -27065807.899932861 0 0 0 0 -14857996.04611969 -26039782.2831707 0 -26039782.2831707 -39115563.283126831 0 0 0 0 18454858.090307903 -17663315.165671084 0 -17663315.165671084 -279404.02086304128 0 0 0 0 8806009.225810647 -27129017.30194968 0 -27129017.30194968 1914479.4900208414 0 0 0 0 27596485.885089636 -20263333.917438895 0 -20263333.917438895 -7307523.6685135514 0 0 0 0 -41173773.324676514 -69904272.047241211 0 -69904272.047241211 -44564444.56754303 0 0 0 0 100719255.16357422 -398850025.61608887 0 -398850025.61608887 -152662402.22610807 0 0 0 0 620870693.8644104 235511076.94700623 0 235511076.94700623 59669198.159544945 0 0 0 0 -55416892.183929443 -53116672.933893204 0 -53116672.933893204 -143312889.53661728 0 0 0 0 240902008.03359985 305464504.50948524 0 305464504.50948524 -150167768.44571686 0 0 0 0 -269147966.73141479 31623338.163578033 0 31623338.163578033 171902748.54393291 0 0 0 0 -18541964.805854797 -64645620.359165192 0 -64645620.359165192 -32410705.667779207 0 0 0 0 279184261.79727173 -188989475.18059921 0 -188989475.18059921 -255893976.57350922 0 0 0 0 20635754.672308303 -16991786.700054675 0 -16991786.700054675 -4651807.4166769981 0 0 0 0 340556.70938572288 535754.7763124695 0 535754.7763124695 -335726.27048285352 0 0 0 0 -33564465.54460144 110511770.95690346 0 110511770.95690346 -26333228.684808165 0 0 0 0 -9236266.5701599121 -31718830.834798813 0 -31718830.834798813 57824573.473419189 0 0 0 0 93241692.31262207 -28088148.152450562 0 -28088148.152450562 -13682131.63381958 0 0 0 0 4357320.3773338869 2640025.313287735 0 2640025.313287735 -5954406.6599879377 0 0 0 0 -3070886.7625808716 -68787365.18061173 0 -68787365.18061173 -156976451.22811127 0 0 0 0 -571567.66421508789 -39162512.194797516 0 -39162512.194797516 -139851750.84225464 0 0 0 0 5107647.9624341056 -1052825.3237542473 0 -1052825.3237542473 -3130110.7219988499 0 0 0 0 332726644.27520752 69980081.966163635 0 69980081.966163635 7385318.433807373 0 0 0 0 -116644105.68136597 -154227559.3524456 0 -154227559.3524456 -98906264.765771866 0 0 0 0 -21761892.694347382 -93522995.050988197 0 -93522995.050988197 -194106723.0040741 0 0 0 0 -21356439.619400024 -103497816.27634287 0 -103497816.27634287 -90068432.276809692 0 0 0 0 -32122990.398014069 -170418678.74409318 0 -170418678.74409318 -206170351.40394974 0 0 0 0 -106408696.74369812 -353176308.09376526 0 -353176308.09376526 -146161026.60770893 0 0 0 0 88056188.073394775 -355741076.18170357 0 -355741076.18170357 -92070517.204220772 0 0 0 0 -36164876.799694061 -181670262.35549879 0 -181670262.35549879 95424953.116603851 0 0 0 0 362580569.94241333 -295543372.72079659 0 -295543372.72079659 -137387567.50991821 0 0 0 0 116612311.37741089 -41367405.37830162 0 -41367405.37830162 -67505720.701725006 0 0 0 0 -51147065.81155467 -261770902.43106371 0 -261770902.43106371 -138851100.07095337 0 0 0 0 1796142.7593624219 -339202.19048949704 0 -339202.19048949704 -1174284.0571445245 0 0 0 0 101493873.04501343 -85348498.086112976 0 -85348498.086112976 -237608633.1407671 0 0 0 0 337956269.24880981 -345219827.48293114 0 -345219827.48293114 20263614.503158569 0 0 0 0 -368021659.88375854 -55019423.418292999 0 -55019423.418292999 65529120.568603516 0 0 0 0 -79058186.179168701 -4837155.4555654526 0 -4837155.4555654526 -25608808.40852356 0 0 0 0 -11339192.976135254 -134382907.76815987 0 -134382907.76815987 104539858.03250885 0 0 0 0 155276600.87298584 27649727.308673859 0 27649727.308673859 98619007.486561775 0 0 0 0 429991480.40563965 -189244857.48590088 0 -189244857.48590088 -13904515.283035278 0 0 0 0 130257937.18099976 -153653543.12065125 0 -153653543.12065125 86883746.101289749 0 0 0 0 -913156.56293868273 -1830054.1820419878 0 -1830054.1820419878 -1122739.8200874534 0 0 0 0 -30600985.826843262 -32168916.389328003 0 -32168916.389328003 25334251.645724297 0 0 0 0 -122932471.18249512 1234020.4676017761 0 1234020.4676017761 12750884.769939423 0 0 0 0 -26572494.203094482 -5210154.523065567 0 -5210154.523065567 -33881743.522733688 0 0 0 0 -93820844.334075928 -50867609.829662323 0 -50867609.829662323 -4086585.1938858032 0 0 0 0 -47449735.63180542 21238245.236240387 0 21238245.236240387 32362990.878433228 0 0 0 0 -148989034.10675049 -25661322.658592224 0 -25661322.658592224 28267343.767780304 0 0 0 0 -256308588.87487793 -105881062.72350121 0 -105881062.72350121 -10547233.393920898 0 0 0 0 -120826351.68386841 -8760536.0226669312 0 -8760536.0226669312 -16796635.101570129 0 0 0 0 -112522231.11196899 -44561458.526712894 0 -44561458.526712894 -72953118.584823608 0 0 0 0 -154106768.84268188 -129750372.79955101 0 -129750372.79955101 -27025787.763729095 0 0 0 0 4518577.7915093899 -5105837.7232292406 0 -5105837.7232292406 -3822070.8020683397 0 0 0 0 6972208.5972213745 -9063302.7169920057 0 -9063302.7169920057 -7468920.2527523041 0 0 0 0 24924532.913993966 -24403679.320284054 0 -24403679.320284054 -10938498.762663305 0 0 0 0 34128537.731233232 -28762001.084195159 0 -28762001.084195159 -21380079.766325731 0 0 0 0 -3802421.7260200605 -12731835.648860224 0 -12731835.648860224 -6935664.6714770254 0 0 0 0 -263761593.72723389 -84939161.744363785 0 -84939161.744363785 22278046.021156311 0 0 0 0 -313709942.44155884 -40460088.581295013 0 -40460088.581295013 -17169790.523849487 0 0 0 0 -11388894.744464874 -21757042.755329132 0 -21757042.755329132 -12323986.565010071 0 0 0 0 -246920102.69244385 -100933045.80585098 0 -100933045.80585098 59077028.05745697 0 0 0 0 -240385740.29577637 -84069267.450614929 0 -84069267.450614929 -57511070.119636536 0 0 0 0 -25944606.497314453 -23545546.640968323 0 -23545546.640968323 -11914016.055847168 0 0 0 0 -413056231.12335205 -240280891.66622543 0 -240280891.66622543 -11761231.291938782 0 0 0 0 20045425.946079008 -27627484.739827834 0 -27627484.739827834 -9022587.0662096646 0 0 0 0 -230688.67486491799 -26197488.330877744 0 -26197488.330877744 3445718.4425579049 0 0 0 0 27989157.272815704 -21236218.317081451 0 -21236218.317081451 17584898.637939453 0 0 0 0 22342910.10538505 -11973123.4791172 0 -11973123.4791172 -9126263.7791038677 0 0 0 0 -36380075.439071655 -270986862.45698547 0 -270986862.45698547 -497566676.32581711 0 0 0 0 44931943.308029175 -251588503.52242661 0 -251588503.52242661 -658361721.89564133 0 0 0 0 -211208288.42532349 -734426207.83226395 0 -734426207.83226395 -1422360061.4155998 0 0 0 0 -1387010971.7453461 -175715476.70981789 0 -175715476.70981789 -470423132.02223587 0 0 0 0 42141688.449935913 165353168.45161819 0 165353168.45161819 -698208504.19737244 0 0 0 0 570584.25180842355 -2213901.7159196436 0 -2213901.7159196436 -1355404.3486648947 0 0 0 0 -1361719736.8605957 -255938670.99299145 0 -255938670.99299145 -43789126.404830933 0 0 0 0 -67121.678154751658 -886054.47350271605 0 -886054.47350271605 240127.68889490794 0 0 0 0 5535083.3515488952 -1866161.1370894881 0 -1866161.1370894881 -2043354.7201998974 0 0 0 0 2982472.1676940918 -7589492.0102062225 0 -7589492.0102062225 -5571496.6408576965 0 0 0 0 -164173790.37254333 78641130.423715591 0 78641130.423715591 41939623.306587219 0 0 0 0 -40565193.213867188 -88448285.164081573 0 -88448285.164081573 -174571088.85350704 0 0 0 0 5829016.4264804274 -1901023.4874432175 0 -1901023.4874432175 -1294796.1789546856 0 0 0 0 3011690.748840332 -18696859.015327454 0 -18696859.015327454 -26407993.058036804 0 0 0 0 6503406.8869762719 -1760428.0839334656 0 -1760428.0839334656 -1208835.1218628818 0 0 0 0 98283957.616790771 -20542922.071708679 0 -20542922.071708679 -25010145.367088318 0 0 0 0 -44353323.301361084 -30375903.294651031 0 -30375903.294651031 -71896585.957514763 0 0 0 0 11937741.979187012 18199154.111637115 0 18199154.111637115 -21183351.850265503 0 0 0 0 1162763.221862793 21827264.564292908 0 21827264.564292908 -22184977.749328613 0 0 0 0 1270434.2344831079 55813.246056772768 0 55813.246056772768 -716353.484512344 0 0 0 0 -23682230.16696167 -1968765.5140533447 0 -1968765.5140533447 -10981912.352313995 0 0 0 0 8980360.0069122314 -23664983.774095535 0 -23664983.774095535 -201564401.85865021 0 0 0 0 -41674829.679656982 -133448082.96363068 0 -133448082.96363068 -243437167.37753582 0 0 0 0 -35912421.975738525 -63334825.842765808 0 -63334825.842765808 -153556814.98888016 0 0 0 0 56229797.091467857 -93498502.729598343 0 -93498502.729598343 -303902114.8977356 0 0 0 0 -147829685.07946777 -328541090.41894913 0 -328541090.41894913 -427572832.9712925 0 0 0 0 -99907222.413314819 -220862072.78478241 0 -220862072.78478241 -277022927.55045128 0 0 0 0 -100178302.73533249 -137495173.38703156 0 -137495173.38703156 -204341287.65104294 0 0 0 0 -314756113.57975769 -165449716.46543407 0 -165449716.46543407 -248994378.38156128 0 0 0 0 -439655234.14673996 -475489603.01738977 0 -475489603.01738977 -251317872.28575516 0 0 0 0 -164057307.93528748 -590762802.97462749 0 -590762802.97462749 -266503641.56184387 0 0 0 0 -155269008.53733826 -560015324.01596689 0 -560015324.01596689 -609391278.66026688 0 0 0 0 -115366941.38615417 -439658535.2541666 0 -439658535.2541666 -255759869.13532257 0 0 0 0 -521531635.22142029 -458928889.63180065 0 -458928889.63180065 -188220318.35487366 0 0 0 0 -335698848.76202393 -402447642.36848068 0 -402447642.36848068 -427199366.46894836 0 0 0 0 -327522287.43920898 -84437223.584130287 0 -84437223.584130287 372177686.83634567 0 0 0 0 104848129.70445251 -208867183.1681633 0 -208867183.1681633 -168999598.93677247 0 0 0 0 -2875761.0220991224 1165243.8760436736 0 1165243.8760436736 824350.19939760165 0 0 0 0 30022607.249473572 -36022789.494853497 0 -36022789.494853497 27686879.908483505 0 0 0 0 -43841111.670806885 -291034876.4892807 0 -291034876.4892807 461704929.24081326 0 0 0 0 43055420.710296631 2725718.7566328049 0 2725718.7566328049 -17741997.129470825 0 0 0 0 1387347.0078608692 871913.13290010579 0 871913.13290010579 -1539962.6031403826 0 0 0 0 208454.26936340332 -3220536.7075920105 0 -3220536.7075920105 -8797816.2667036057 0 0 0 0 -186160429.60529327 -88881457.277653694 0 -88881457.277653694 -42127518.256565094 0 0 0 0 14911650.720550537 36448835.189422607 0 36448835.189422607 -57246181.461280823 0 0 0 0 60599596.635414124 -17832087.260579109 0 -17832087.260579109 -63889450.392877579 0 0 0 0 -277785743.81668091 21263967.218950272 0 21263967.218950272 63398273.9796381 0 0 0 0 -1399691.0824622363 599875.89521998167 0 599875.89521998167 456604.31969223637 0 0 0 0 -566824796.71337128 -312138635.42781925 0 -312138635.42781925 -70453372.82129097 0 0 0 0 -220585908.77655029 -433951290.50840664 0 -433951290.50840664 -401054653.34869766 0 0 0 0 -140627060.20082092 -301098896.42221928 0 -301098896.42221928 -187521400.5983696 0 0 0 0 -164541760.76600647 -373352988.95803356 0 -373352988.95803356 -222073882.86991882 0 0 0 0 -223588185.20635986 -304197225.6913166 0 -304197225.6913166 -297538201.59399986 0 0 0 0 -147280735.2928772 -115515666.17366409 0 -115515666.17366409 -40126178.24543047 0 0 0 0 939887.35597130656 1139529.2504478376 0 1139529.2504478376 -1060617.1036341828 0 0 0 0 -32716368.806777954 -64928080.34859848 0 -64928080.34859848 119537115.32563305 0 0 0 0 447597.45352104306 708079.72881715791 0 708079.72881715791 -507062.64128485136 0 0 0 0 -22815196.300384521 -10695925.519024611 0 -10695925.519024611 369747698.79989052 0 0 0 0 -107285645.77024841 -404373126.79870701 0 -404373126.79870701 -470530406.83502007 0 0 0 0 28255588.393051147 -223263248.73216534 0 -223263248.73216534 194374327.44635773 0 0 0 0 -55648775.861175537 -165748505.37498665 0 -165748505.37498665 41568470.315649271 0 0 0 0 -20199740.825370789 -167357623.36317897 0 -167357623.36317897 -138318845.11658764 0 0 0 0 -45777927.977783203 -136215926.9495554 0 -136215926.9495554 -78120039.799283981 0 0 0 0 -5322817.7852363586 -107146176.09836876 0 -107146176.09836876 -116443626.59804153 0 0 0 0 13674950.9009552 -42305411.539357185 0 -42305411.539357185 708253.80342102051 0 0 0 0 -5145165.3511458114 -5507599.5358523615 0 -5507599.5358523615 -2346976.0927411448 0 0 0 0 -81763491.717270851 -50680842.831795543 0 -50680842.831795543 -17149111.97611618 0 0 0 0 -88832034.204818726 -47032295.038169861 0 -47032295.038169861 -18135285.741092682 0 0 0 0 -81278401.844005585 -24790449.22422491 0 -24790449.22422491 -11919177.222206116 0 0 0 0 33598886.395182282 -16141860.602434158 0 -16141860.602434158 -11847013.223357771 0 0 0 0 -97412705.069015503 -27670190.184560776 0 -27670190.184560776 -12343427.458610535 0 0 0 0 -181080356.63156128 -204738594.68234348 0 -204738594.68234348 -119744054.5143528 0 0 0 0 -178003091.81472778 -241640404.65062809 0 -241640404.65062809 -97088229.902402878 0 0 0 0 -97560445.608444214 -370910404.28579521 0 -370910404.28579521 -110186752.20633984 0 0 0 0 -5554543.1158218384 -288142452.03257132 0 -288142452.03257132 -201343406.78063965 0 0 0 0 202378399.5716095 -146075827.37221718 0 -146075827.37221718 -165638009.39144516 0 0 0 0 -79382846.760948181 -179367921.6420002 0 -179367921.6420002 -165812619.59456444 0 0 0 0 -57222440.067321777 -328634192.6677742 0 -328634192.6677742 -189389605.08251119 0 0 0 0 1429801.8620605469 -263221350.64209461 0 -263221350.64209461 -177811434.32824898 0 0 0 0 -125783570.12591553 -436846946.82484436 0 -436846946.82484436 -260641036.28688073 0 0 0 0 -97630904.542472839 -289624022.65450764 0 -289624022.65450764 -219327163.25503159 0 0 0 0 -12428168.918800354 -278957339.92468762 0 -278957339.92468762 -36123314.418195724 0 0 0 0 -2968481.4276618958 -305876922.13009989 0 -305876922.13009989 20415812.832657814 0 0 0 0 -186509781.80152893 -331996932.15672874 0 -331996932.15672874 8668965.7365760803 0 0 0 0 -192001430.33026123 -279088979.19483805 0 -279088979.19483805 2047550.8234872818 0 0 0 0 -155208527.88920593 -291574829.35914135 0 -291574829.35914135 -7538783.5665941238 0 0 0 0 -146866899.10074234 -277987943.4846344 0 -277987943.4846344 -71174149.707193375 0 0 0 0 -294018448.4874115 -273491806.83132076 0 -273491806.83132076 11661902.667369843 0 0 0 0 -276721362.22923279 -190449437.34386706 0 -190449437.34386706 7107215.8833580017 0 0 0 0 -520002675.76779175 -157541545.88452339 0 -157541545.88452339 98525096.600337505 0 0 0 0 -327962076.94161987 -163436021.22126389 0 -163436021.22126389 72120556.966324806 0 0 0 0 -348483226.89967728 -83009195.417259932 0 -83009195.417259932 -14955980.650203705 0 0 0 0 -195276085.98616028 -8353946.3445625305 0 -8353946.3445625305 11250482.216335297 0 0 0 0 -242077059.24928284 -108697240.90383172 0 -108697240.90383172 -8917014.9838237762 0 0 0 0 -259332435.79550171 -165901602.01809883 0 -165901602.01809883 -54735089.156574249 0 0 0 0 -15686104.869571127 -10067730.925336096 0 -10067730.925336096 -1947021.9863155726 0 0 0 0 -1912967.1220541615 -8862945.8499246314 0 -8862945.8499246314 2116168.8298762636 0 0 0 0 6620275.4089612775 -12498272.01730312 0 -12498272.01730312 -16594075.563051932 0 0 0 0 134261733.11526489 -78523674.363491058 0 -78523674.363491058 -77338791.173957825 0 0 0 0 10508043.834350586 -8781369.6025643349 0 -8781369.6025643349 4347472.634185791 0 0 0 0 -542416265.88380241 -36475961.238416851 0 -36475961.238416851 -233183462.40231895 0 0 0 0 79869615.604156494 59311146.419208527 0 59311146.419208527 378754148.77744293 0 0 0 0 -9197006.5420099255 -3927608.091597192 0 -3927608.091597192 8510375.3588611633 0 0 0 0 -1224286261.725769 68594756.008159161 0 68594756.008159161 168287470.05795288 0 0 0 0 -1375087931.1540222 -212526894.20545101 0 -212526894.20545101 15440313.184576035 0 0 0 0 -601029982.71585083 670317883.50767517 0 670317883.50767517 -926874437.19195461 0 0 0 0 -753298939.76786613 60000368.897739947 0 60000368.897739947 136056509.98617554 0 0 0 0 -8497711.9503471944 -8208173.9422444329 0 -8208173.9422444329 14350276.403670384 0 0 0 0 -516670900.42387581 89722583.27737999 0 89722583.27737999 135512431.36012459 0 0 0 0 -492387301.22597885 -145037975.41796327 0 -145037975.41796327 86976749.923727036 0 0 0 0 -723949055.99085045 -190655153.94377148 0 -190655153.94377148 78974458.856126785 0 0 0 0 -844008873.02850342 -115220452.03597069 0 -115220452.03597069 32887778.67681694 0 0 0 0 -633414044.62994385 -494623939.49151325 0 -494623939.49151325 -166832301.1756115 0 0 0 0 -463889284.77832031 -306150077.09222507 0 -306150077.09222507 12721809.143300056 0 0 0 0 -392400474.60916901 -379393358.46818864 0 -379393358.46818864 23118681.040616989 0 0 0 0 -2203376.2764560282 623138.1987692751 0 623138.1987692751 339134.57633527031 0 0 0 0 -1325754306.4832764 156595245.03964043 0 156595245.03964043 1220629447.0960243 0 0 0 0 -376317212.27648926 -519779641.15337229 0 -519779641.15337229 -460727825.27989149 0 0 0 0 -1058777362.2214966 -556666071.05090809 0 -556666071.05090809 -175798630.55722046 0 0 0 0 -6563487.2978820801 -335212365.70392704 0 -335212365.70392704 -390250106.87816143 0 0 0 0 41027416.964223862 -85463915.990419209 0 -85463915.990419209 70552397.881818771 0 0 0 0 61197904.397476196 -159086591.59146047 0 -159086591.59146047 94040810.200736046 0 0 0 0 17727685.490997314 -305340871.78785849 0 -305340871.78785849 -103427156.99440479 0 0 0 0 2782399.3585586548 -183146458.52006435 0 -183146458.52006435 317039198.18917227 0 0 0 0 -3566238.9898853451 328595.1263374025 0 328595.1263374025 396515.52875533863 0 0 0 0 -320627897.73790741 -853973340.35268307 0 -853973340.35268307 542950075.3684597 0 0 0 0 -71499034.153167725 -482668470.80352098 0 -482668470.80352098 23032821.490189314 0 0 0 0 -10675466.85760498 -901862934.3487587 0 -901862934.3487587 -687461181.42453122 0 0 0 0 -402756951.63513184 -584491294.94606447 0 -584491294.94606447 -750280491.7035377 0 0 0 0 -836673035.71337891 -221178895.17848599 0 -221178895.17848599 -157342447.14113334 0 0 0 0 -1293021430.7954102 -276848842.96715593 0 -276848842.96715593 -891208222.44379377 0 0 0 0 -1438010956.9564514 -704917780.73929405 0 -704917780.73929405 -545926271.78884888 0 0 0 0 425597971.68887329 -391780868.31825089 0 -391780868.31825089 -136367800.21573019 0 0 0 0 -963415713.01376343 570065892.33592701 0 570065892.33592701 799639319.09927726 0 0 0 0 -1143013281.2850342 213696591.68674624 0 213696591.68674624 -96918366.070641041 0 0 0 0 -1440027152.5930939 35688307.784110621 0 35688307.784110621 324754540.00306863 0 0 0 0 -1812537101.852417 545121254.80189323 0 545121254.80189323 -55017297.289333344 0 0 0 0 153440.93033843115 -2382940.0176017731 0 -2382940.0176017731 -4244982.3657790422 0 0 0 0 -3203496648.8056641 151626990.57487679 0 151626990.57487679 -415952507.46693516 0 0 0 0 -1667062901.9378662 312945223.20345402 0 312945223.20345402 243691932.96147287 0 0 0 0 -1571777472.6828156 743580094.15462089 0 743580094.15462089 -436690995.60212612 0 0 0 0 -1322236152.6017303 485604831.33290017 0 485604831.33290017 -412253874.62063599 0 0 0 0 -318955967.92724609 500514186.20884347 0 500514186.20884347 -724702604.6376152 0 0 0 0 -117881121.93991089 524768735.90658855 0 524768735.90658855 383756263.55536008 0 0 0 0 4199828.6962906979 -1039470.6003515944 0 -1039470.6003515944 -213136.06793223321 0 0 0 0 -193561682.58035278 481048948.45886707 0 481048948.45886707 -1155653996.0149746 0 0 0 0 -54613278.358428955 202610132.92342949 0 202610132.92342949 -430819967.65906143 0 0 0 0 -112714381.94052124 408614931.34051037 0 408614931.34051037 -782260120.18271637 0 0 0 0 -186042134.24624634 333814103.61542511 0 333814103.61542511 -587279908.22159576 0 0 0 0 -292151396.99023438 445406706.75028992 0 445406706.75028992 -450974389.15235901 0 0 0 0 -291765789.7052002 296795654.45235443 0 296795654.45235443 -75020708.267997742 0 0 0 0 -391001730.91784668 406876522.05176163 0 406876522.05176163 -15794867.923828125 0 0 0 0 -333378139.07740784 483890095.0325079 0 483890095.0325079 -185757583.83403015 0 0 0 0 -8199733.9972722698 -9548326.9784579761 0 -9548326.9784579761 6509832.6204489814 0 0 0 0 305446887.97521973 -263317511.24863815 0 -263317511.24863815 -186531704.7379837 0 0 0 0 39820157.597362518 -1713246.0123747587 0 -1713246.0123747587 -8119522.5177688599 0 0 0 0 -1157502942.1410828 283371827.936198 0 283371827.936198 521463272.75435019 0 0 0 0 1554570.4963909648 -7663164.098813992 0 -7663164.098813992 -11272493.716268316 0 0 0 0 -208461686.13119507 -513197865.7985096 0 -513197865.7985096 43993228.204255104 0 0 0 0 -265554148.40029907 -564009652.05799961 0 -564009652.05799961 -107027560.91326082 0 0 0 0 30006475.152404785 -492779915.99493027 0 -492779915.99493027 -707865587.41700888 0 0 0 0 67272198.942474365 -361232861.16853809 0 -361232861.16853809 -304658529.7533989 0 0 0 0 -23731633.857635498 -302291987.40802526 0 -302291987.40802526 -304625786.23081398 0 0 0 0 -127988282.51185608 -306282718.68036318 0 -306282718.68036318 -101604709.34882236 0 0 0 0 -62244292.918487549 -202672405.23665357 0 -202672405.23665357 5951586.5187330246 0 0 0 0 3228329.868347168 -213011760.16518259 0 -213011760.16518259 -33227418.247210979 0 0 0 0 13819795.720783234 -165736244.9233284 0 -165736244.9233284 98024501.640413284 0 0 0 0 95915761.720207214 -112734320.21049547 0 -112734320.21049547 132228970.89603543 0 0 0 0 121939645.7300415 -172648328.95484853 0 -172648328.95484853 89801798.601138353 0 0 0 0 -183454513.86746216 -304148762.46131134 0 -304148762.46131134 649162388.92323279 0 0 0 0 -1461289.5109121799 180566.17132917885 0 180566.17132917885 120958.40156635552 0 0 0 0 235648217.66585541 -769124272.02493548 0 -769124272.02493548 -1343597728.0712502 0 0 0 0 117264560.12665176 -683428386.20585585 0 -683428386.20585585 -649033272.76391017 0 0 0 0 68410268.790298462 -710570733.57745278 0 -710570733.57745278 -660445279.97641122 0 0 0 0 -181818986.35844421 -536214148.65439796 0 -536214148.65439796 -527754130.9646256 0 0 0 0 195716903.01898193 -177105816.98984396 0 -177105816.98984396 -646769689.54792166 0 0 0 0 90325039.398078918 -152284812.69527322 0 -152284812.69527322 -392636032.7681669 0 0 0 0 -2465572.1277313232 -184490187.41060781 0 -184490187.41060781 -305700398.38626188 0 0 0 0 -196862605.14356995 -207815953.36591789 0 -207815953.36591789 -302026633.01259536 0 0 0 0 -78527816.847885132 -247503207.36754179 0 -247503207.36754179 -338516589.58317471 0 0 0 0 53434007.245429993 -195292843.61746287 0 -195292843.61746287 -433236399.05131388 0 0 0 0 4022477.4358711243 -291335929.34477472 0 -291335929.34477472 -331760275.33555222 0 0 0 0 38291657.867584229 -300352086.33079195 0 -300352086.33079195 -432547909.43614751 0 0 0 0 -4094408.4624481201 -275143854.6999433 0 -275143854.6999433 -331364273.40388107 0 0 0 0 -2022194.4412918091 -256120184.76028728 0 -256120184.76028728 -331059994.5968399 0 0 0 0 -4649867.3576812744 -260265914.84064484 0 -260265914.84064484 -335836831.91346931 0 0 0 0 -16264732.39528656 -280455236.90329456 0 -280455236.90329456 -247783305.42084312 0 0 0 0 -54981771.096389771 -353250714.93875909 0 -353250714.93875909 -447607301.64547539 0 0 0 0 -10642069.201217651 -260171275.77597332 0 -260171275.77597332 -437937689.96403074 0 0 0 0 -26072587.043991089 -258231264.63071012 0 -258231264.63071012 -491036258.23417568 0 0 0 0 -8140667.4316101074 -270241368.23439789 0 -270241368.23439789 -399322839.28789139 0 0 0 0 1078406.8534393311 -251806395.37262249 0 -251806395.37262249 -364790356.15710688 0 0 0 0 -29908037.373947144 -304498062.36500025 0 -304498062.36500025 -364412036.18318802 0 0 0 0 -35269162.653945923 -296894093.61205292 0 -296894093.61205292 -336185727.84018946 0 0 0 0 -49411489.843139648 -333494315.50795698 0 -333494315.50795698 -378995270.97601461 0 0 0 0 -84264332.55531311 -270964018.99109936 0 -270964018.99109936 -231791552.88977718 0 0 0 0 -41861838.199531555 -312344661.19578266 0 -312344661.19578266 -325536298.89747238 0 0 0 0 -66241134.779708862 -281609092.72333169 0 -281609092.72333169 -249746060.20732093 0 0 0 0 6196276.063949585 -189469808.77076647 0 -189469808.77076647 -341740066.63023871 0 0 0 0 -21519570.378234863 -126038851.09187248 0 -126038851.09187248 -104524943.40597218 0 0 0 0 -119666482.86108398 -178632816.85290384 0 -178632816.85290384 -74532842.930006742 0 0 0 0 -86119404.962646484 -101567128.23151863 0 -101567128.23151863 -79345577.38909626 0 0 0 0 -109962377.44816589 -151733753.4092207 0 -151733753.4092207 -103453440.77564716 0 0 0 0 -169648766.21554947 -140346539.01445806 0 -140346539.01445806 -96255077.83429718 0 0 0 0 -144731549.8179245 -206771599.79561353 0 -206771599.79561353 -189443072.04101372 0 0 0 0 -57448421.262664795 -245202191.40004587 0 -245202191.40004587 -250379868.97136307 0 0 0 0 -47921203.522827148 -278401095.90318251 0 -278401095.90318251 -231820608.3020525 0 0 0 0 -22277276.349273682 -253356643.26452971 0 -253356643.26452971 -250471076.20921803 0 0 0 0 2115606.6139984131 -6843878.8538726568 0 -6843878.8538726568 -548894.203196913 0 0 0 0 -188167459.50390625 -83690367.73958087 0 -83690367.73958087 -80846151.044680119 0 0 0 0 -316659703.6725769 -37401382.38270092 0 -37401382.38270092 -56148226.091637611 0 0 0 0 -203923736.92834473 -103969690.35818815 0 -103969690.35818815 53614313.676406741 0 0 0 0 -210196550.86853027 -131720753.83475924 0 -131720753.83475924 -86673581.311984777 0 0 0 0 -304480957.63168335 -132206757.87676525 0 -132206757.87676525 -77526607.719222069 0 0 0 0 -208302687.60912514 -100114896.63495722 0 -100114896.63495722 -67021347.164485931 0 0 0 0 168494954.72685242 -44529226.780417919 0 -44529226.780417919 6344649.8837108612 0 0 0 0 -416012431.25559235 -130395818.83789015 0 -130395818.83789015 26109020.784157753 0 0 0 0 364694.48217010498 -306791553.31886578 0 -306791553.31886578 194161231.99267197 0 0 0 0 506097.7351277303 -1523821.4221485108 0 -1523821.4221485108 -95116.800969178788 0 0 0 0 -304525691.71057129 -216652628.82022381 0 -216652628.82022381 84389249.981906891 0 0 0 0 -132377445.1802063 -280053735.15944958 0 -280053735.15944958 -145373248.39971513 0 0 0 0 171042481.73721313 -282587651.20080948 0 -282587651.20080948 -145518836.7984314 0 0 0 0 -103170279.75299072 -412291709.84802246 0 -412291709.84802246 96028890.335918427 0 0 0 0 -121190905.4193573 -400843033.68865681 0 -400843033.68865681 -164639675.04198021 0 0 0 0 -217476599.39169312 -239861809.12828255 0 -239861809.12828255 -162798378.25866085 0 0 0 0 -259796589.12793732 -193428705.89782107 0 -193428705.89782107 -5875767.1227607727 0 0 0 0 -255501157.59596252 -217720724.03893089 0 -217720724.03893089 -150304828.64380026 0 0 0 0 -260289409.59895325 -342604762.52738476 0 -342604762.52738476 -214613352.05818176 0 0 0 0 -174453633.90205383 -266784656.17791748 0 -266784656.17791748 -406964114.03757477 0 0 0 0 -335858309.43392944 -284513657.37898445 0 -284513657.37898445 -407466783.77199364 0 0 0 0 -215588.07653808594 -317984631.83500767 0 -317984631.83500767 -509709752.05447006 0 0 0 0 -152319603.65270996 -326037767.45125484 0 -326037767.45125484 -300458809.24157047 0 0 0 0 -135649233.80574036 -305672158.78016472 0 -305672158.78016472 -318129202.15424967 0 0 0 0 -122279396.89698792 -276963028.84170175 0 -276963028.84170175 -289686404.06253433 0 0 0 0 -211566195.70059204 -240132084.40765953 0 -240132084.40765953 -175971583.73724771 0 0 0 0 -198606424.83718872 -218648473.02026653 0 -218648473.02026653 -191168046.81856823 0 0 0 0 -207429185.36737061 -331596854.28717804 0 -331596854.28717804 -293483206.03176832 0 0 0 0 -242894031.89074707 -273191061.56591606 0 -273191061.56591606 -459421897.17084002 0 0 0 0 -181646850.0930481 -329935379.59326315 0 -329935379.59326315 -448254055.27049637 0 0 0 0 -242144764.19195557 -366866694.53323269 0 -366866694.53323269 -447343846.09729075 0 0 0 0 -139183102.75068665 -336728763.24911785 0 -336728763.24911785 -442474729.06626129 0 0 0 0 -54208764.677764893 -346051413.69577646 0 -346051413.69577646 -757076794.0811739 0 0 0 0 -24522568.288536072 -201793437.77391624 0 -201793437.77391624 -1610194608.7290916 0 0 0 0 -1768096.3852526695 448300.41358739138 0 448300.41358739138 305597.38810057146 0 0 0 0 -30012020.263004303 -94414925.789828777 0 -94414925.789828777 -624958731.6559391 0 0 0 0 2033357.3980865479 -74931777.220208168 0 -74931777.220208168 -692891155.17286587 0 0 0 0 -5318425.9035110474 -237630802.71121502 0 -237630802.71121502 -724400808.7458725 0 0 0 0 -176614412.1444397 -332364423.19268894 0 -332364423.19268894 -684218803.54536629 0 0 0 0 -466644270.07717896 -478334010.42873955 0 -478334010.42873955 -724888282.64346218 0 0 0 0 -310787573.17390442 -122487447.63034916 0 -122487447.63034916 -744283157.247751 0 0 0 0 206120.7286605835 -197369243.31313705 0 -197369243.31313705 -978191862.83694363 0 0 0 0 -267560742.91680908 -540092936.96920586 0 -540092936.96920586 -586300274.75930786 0 0 0 0 -395855059.18873596 -224291454.22653532 0 -224291454.22653532 1823923.6007423401 0 0 0 0 -200513404.54023743 -43091600.79024601 0 -43091600.79024601 -26602691.750495911 0 0 0 0 820449.11906996369 1417553.2456073086 0 1417553.2456073086 -1044380.3423772287 0 0 0 0 -7912810.5766296387 -147593523.45446587 0 -147593523.45446587 -344476551.83104324 0 0 0 0 -367758.69205474854 -80381552.518342972 0 -80381552.518342972 -104311108.95935297 0 0 0 0 -4230045.6993745267 73450.494453348219 0 73450.494453348219 417035.72254771041 0 0 0 0 -24691334.789276123 13760844.810958862 0 13760844.810958862 4531015.6538772583 0 0 0 0 47092517.575057983 -59807141.628861427 0 -59807141.628861427 44231061.853603363 0 0 0 0 -201472545.50576782 -35262222.475343704 0 -35262222.475343704 138573513.12924671 0 0 0 0 86504669.861457825 -6134533.9400200844 0 -6134533.9400200844 -75189873.929992676 0 0 0 0 -14708758.664306641 -58483542.730953217 0 -58483542.730953217 -156151721.18519211 0 0 0 0 9171562.3979797363 37154025.166786194 0 37154025.166786194 -52347351.212085724 0 0 0 0 -21203382.035224915 -14134015.4835186 0 -14134015.4835186 17742902.478931427 0 0 0 0 56430410.437179565 5002068.5420589447 0 5002068.5420589447 -37561646.068695068 0 0 0 0 8931769.1055908203 -16446990.280069351 0 -16446990.280069351 -42715223.328639984 0 0 0 0 1665878.9157506377 2046288.2646362665 0 2046288.2646362665 -2310332.0420552781 0 0 0 0 -13509530.786849976 -20061202.823099136 0 -20061202.823099136 -1574291.5914649963 0 0 0 0 1409316.0176395774 -141690.59521032637 0 -141690.59521032637 -3026562.1460254239 0 0 0 0 24612916.148040771 116047439.5712986 0 116047439.5712986 245918904.60699081 0 0 0 0 14077769.208953857 -26304451.287294388 0 -26304451.287294388 -19218719.850793839 0 0 0 0 -24061201.595993042 -54565903.941884995 0 -54565903.941884995 -263211777.58160686 0 0 0 0 -10180293.766845703 -3678139.3283843994 0 -3678139.3283843994 3480145.5460586548 0 0 0 0 -5490654.9552537799 -1550092.0136599541 0 -1550092.0136599541 29081.709613774437 0 0 0 0 4742564.6752471924 -40456539.044336319 0 -40456539.044336319 -284876216.34871292 0 0 0 0 123093411.41644287 19870283.826633453 0 19870283.826633453 169031769.89177704 0 0 0 0 1155141.8935726881 347479.10269444995 0 347479.10269444995 -3188394.1046854672 0 0 0 0 236410.26513671875 -145961.44319152832 0 -145961.44319152832 -2013160.0916137695 0 0 0 0 3785127.7942810804 -1893029.0217323937 0 -1893029.0217323937 -4585683.3354164716 0 0 0 0 5132438.2443847656 172656376.06941223 0 172656376.06941223 251028474.07707596 0 0 0 0 123905384.98670197 95433909.393393517 0 95433909.393393517 232826323.9416275 0 0 0 0 49199739.633056641 82951529.743991852 0 82951529.743991852 252814865.83355713 0 0 0 0 42632123.357299805 176028878.37695694 0 176028878.37695694 243098616.55158234 0 0 0 0 112088259.9229126 63068705.73840332 0 63068705.73840332 237352295.15681458 0 0 0 0 6391746.159545958 946822.13101348653 0 946822.13101348653 -5892614.9027910829 0 0 0 0 94824805.24029541 97214621.813121796 0 97214621.813121796 249789031.53376007 0 0 0 0 24557042.101165771 113567196.9525528 0 113567196.9525528 220624161.96580648 0 0 0 0 831100.61050415039 130639234.13475418 0 130639234.13475418 240204222.88871765 0 0 0 0 42589347.18850708 155393738.32518959 0 155393738.32518959 199110568.37080383 0 0 0 0 -55173313.560180664 122381565.44249725 0 122381565.44249725 224753203.74190521 0 0 0 0 -71174926.816955566 -64352593.10004425 0 -64352593.10004425 479487875.29818916 0 0 0 0 -56287079.939208984 147843298.6179924 0 147843298.6179924 214365875.3805542 0 0 0 0 -133036209.41052246 19606146.047651291 0 19606146.047651291 487541487.74998093 0 0 0 0 -2366573.5378889143 819957.19823763892 0 819957.19823763892 209411.33407911565 0 0 0 0 -13245073.271209717 45649008.105735779 0 45649008.105735779 304021898.18373489 0 0 0 0 -116117829.23464966 76411449.195726395 0 76411449.195726395 347065944.29579926 0 0 0 0 -28087244.183776855 -13858663.002105713 0 -13858663.002105713 366995605.29299355 0 0 0 0 137074528.74578857 -16015724.315002441 0 -16015724.315002441 249716856.45469666 0 0 0 0 24353409.52557373 33179175.434570312 0 33179175.434570312 293766307.1638031 0 0 0 0 66802628.988037109 -19761983.562728882 0 -19761983.562728882 338822101.41428757 0 0 0 0 118022214.38116455 -62497283.65070343 0 -62497283.65070343 307151166.52968979 0 0 0 0 -37210028.535087585 44269407.984686613 0 44269407.984686613 313034792.78380585 0 0 0 0 -29053379.8515625 127897912.36738205 0 127897912.36738205 374805620.70830536 0 0 0 0 -54778889.584136963 20520682.730068207 0 20520682.730068207 225691832.74310255 0 0 0 0 3115753.7823371887 -15755159.683339477 0 -15755159.683339477 -6770008.2488327026 0 0 0 0 358981.09173583984 -3210664.9126625061 0 -3210664.9126625061 -11481746.445116997 0 0 0 0 -7125005.7715759277 13894833.510042191 0 13894833.510042191 999085.54717445374 0 0 0 0 -1906049.3179626465 -3449871.9357204437 0 -3449871.9357204437 -11152352.219313622 0 0 0 0 1652835.3231797814 -175436.45354698412 0 -175436.45354698412 -2244575.7446501092 0 0 0 0 -664316.02113342285 -3574526.2698965073 0 -3574526.2698965073 -11863006.685639381 0 0 0 0 -888138.33925110102 -1519817.1845765002 0 -1519817.1845765002 -1073831.7789122425 0 0 0 0 1092474.3315390423 -202213.66197572649 0 -202213.66197572649 -3332239.6612072773 0 0 0 0 -7858533.1399230957 -14923362.480796814 0 -14923362.480796814 -183419626.85942459 0 0 0 0 13614826.692565918 -106037518.61583042 0 -106037518.61583042 -336313475.13092422 0 0 0 0 -27901118.057678223 -121246780.89286518 0 -121246780.89286518 -221393033.28342915 0 0 0 0 -40617198.936714172 -151289063.68540049 0 -151289063.68540049 -277513127.53432846 0 0 0 0 -19792536.110900879 -161194204.46838379 0 -161194204.46838379 -281860762.60273552 0 0 0 0 578921.37253922224 34770.053576443344 0 34770.053576443344 -1289417.5570065761 0 0 0 0 -16897173.209114075 -172941852.27865839 0 -172941852.27865839 -268766545.10797501 0 0 0 0 -34970277.101982117 -162808497.84309053 0 -162808497.84309053 -257759644.21708679 0 0 0 0 -32108386.044311523 -173928327.94166565 0 -173928327.94166565 -241368492.75940549 0 0 0 0 4783777.7172393799 -169615905.4174881 0 -169615905.4174881 -329963847.61545563 0 0 0 0 -6378929.0669174194 -179115388.50388288 0 -179115388.50388288 -330081237.19906998 0 0 0 0 26237261.91934967 -167216705.51285219 0 -167216705.51285219 -395459514.60109329 0 0 0 0 19208524.963623047 -176360014.41367054 0 -176360014.41367054 -404748282.91485238 0 0 0 0 36292004.106567383 -185681572.76267338 0 -185681572.76267338 -617313606.38257027 0 0 0 0 -23314189.00353241 -270331030.55894041 0 -270331030.55894041 -438516399.53012276 0 0 0 0 6941273.446434021 -30664252.728654861 0 -30664252.728654861 -416475717.4642601 0 0 0 0 -16365934.549041748 -28373642.593332291 0 -28373642.593332291 -288334805.15930653 0 0 0 0 11554659.515975952 -73519751.382941246 0 -73519751.382941246 -436465191.31327629 0 0 0 0 7200710.6807556152 -93930436.635679245 0 -93930436.635679245 -280039270.54695153 0 0 0 0 -238615437.21349144 111554570.16527176 0 111554570.16527176 932866370.85295105 0 0 0 0 -84239982.06224823 -38339232.656358719 0 -38339232.656358719 573112767.68670654 0 0 0 0 1232222.4206627179 271156.99382543936 0 271156.99382543936 -1102280.4710441139 0 0 0 0 642000594.6633625 536655680.15398502 0 536655680.15398502 558992603.04210663 0 0 0 0 362851727.3851738 1079646901.1712751 0 1079646901.1712751 1288391871.3384781 0 0 0 0 -205431333.70992279 93668110.279666901 0 93668110.279666901 804902092.97719574 0 0 0 0 28724812.190620422 42486759.953178406 0 42486759.953178406 602618235.65583801 0 0 0 0 65779997.129807711 391653142.11984897 0 391653142.11984897 786618247.69958496 0 0 0 0 -115502014.47003174 255797549.94128418 0 255797549.94128418 1096277324.9760904 0 0 0 0 -73230969.333030701 -4704319.2602767944 0 -4704319.2602767944 551805626.25396347 0 0 0 0 -93634497.394790649 229375637.93107033 0 229375637.93107033 358120157.28449631 0 0 0 0 -106543927.59298706 -130363382.30786133 0 -130363382.30786133 104720046.68885803 0 0 0 0 -128161710.64250183 114563717.85373688 0 114563717.85373688 -193464373.2856636 0 0 0 0 -213549796.98468018 159105654.3512516 0 159105654.3512516 686038507.2905159 0 0 0 0 228303539.94570827 -78868068.415530205 0 -78868068.415530205 11287417.016567707 0 0 0 0 -572224442.98811913 -174224956.60083008 0 -174224956.60083008 106672068.28202438 0 0 0 0 2658516.092004776 -286904226.60372353 0 -286904226.60372353 -177020530.23807144 0 0 0 0 -166751296.87136722 -273303525.53124368 0 -273303525.53124368 596683062.32722473 0 0 0 0 -60522506.870501518 -479275469.12861252 0 -479275469.12861252 150279789.81830215 0 0 0 0 544074.78311400861 -2253252.7771743545 0 -2253252.7771743545 -206426.45709514059 0 0 0 0 -951814200.61804676 138347571.88214397 0 138347571.88214397 738393689.65381622 0 0 0 0 83388501.964035034 117313198.7466383 0 117313198.7466383 339353954.79408073 0 0 0 0 134351297.80046558 237614056.04156876 0 237614056.04156876 621990836.17301559 0 0 0 0 -122241639.59086037 -34954861.593410492 0 -34954861.593410492 626704037.59903312 0 0 0 0 3940216.7852134705 61275874.022535324 0 61275874.022535324 319183635.79615378 0 0 0 0 2070282.7167069679 -2224342.6943349312 0 -2224342.6943349312 673530.66641514096 0 0 0 0 2330324.9245236777 -1099519.0970607763 0 -1099519.0970607763 -2660480.8402668783 0 0 0 0 -9762445.9610443115 93151498.150997818 0 93151498.150997818 -41854777.122528292 0 0 0 0 -386790506.39906311 -259811695.85969687 0 -259811695.85969687 -39654564.887825966 0 0 0 0 1698955.4674886242 -566552.31612644903 0 -566552.31612644903 -459068.54567113798 0 0 0 0 -33441307.149474144 377343718.36773539 0 377343718.36773539 905914664.60202789 0 0 0 0 -355238373.77388 -373648240.10363865 0 -373648240.10363865 -559436548.4442606 0 0 0 0 -695430365.74853134 -652709899.87203693 0 -652709899.87203693 -788317964.38079071 0 0 0 0 -769484904.25464249 -348704688.78881407 0 -348704688.78881407 -280877403.82853031 0 0 0 0 -1085633877.6293755 -1057312996.2693064 0 -1057312996.2693064 -547485443.87913251 0 0 0 0 -695361506.14136505 -552447951.02978706 0 -552447951.02978706 -513101585.21379197 0 0 0 0 -560032587.25487518 -396455896.85591102 0 -396455896.85591102 -530274339.93861139 0 0 0 0 1546149229.5128009 160980593.26949808 0 160980593.26949808 -321501722.72707677 0 0 0 0 -629713451.44353485 -197612328.35399771 0 -197612328.35399771 -286688051.7304343 0 0 0 0 2271171294.5180988 -1128262438.7978597 0 -1128262438.7978597 1380464785.851114 0 0 0 0 1784268.529969804 -873406.02736018784 0 -873406.02736018784 -1718128.9117348241 0 0 0 0 1636733383.843483 -698163588.84791064 0 -698163588.84791064 46511753.684991539 0 0 0 0 -972963478.19865417 -373416655.33151436 0 -373416655.33151436 -97930471.930549622 0 0 0 0 1571735676.1583176 1022101727.5471387 0 1022101727.5471387 -1537956772.5788345 0 0 0 0 2361762142.0325508 -143335654.30058813 0 -143335654.30058813 -383570261.85028982 0 0 0 0 -745100693.08978021 853677303.91041374 0 853677303.91041374 -287787788.18349171 0 0 0 0 -850025923.22471619 -1069713603.6476016 0 -1069713603.6476016 17703458.383116722 0 0 0 0 -840868539.1963768 -470488779.80351448 0 -470488779.80351448 -395553759.77087784 0 0 0 0 -816974790.65711975 -508808281.50126839 0 -508808281.50126839 -395613241.98373222 0 0 0 0 -663183576.44685364 -508200100.43521309 0 -508200100.43521309 -401598757.64043427 0 0 0 0 4356008.326940421 -2265409.4919265388 0 -2265409.4919265388 -2008780.7272105971 0 0 0 0 -902288902.30496979 -521272223.10668373 0 -521272223.10668373 -354000121.93048096 0 0 0 0 -25238094.630551018 -31684508.328504056 0 -31684508.328504056 -16993552.217551183 0 0 0 0 42742359.975862503 -174691880.61198574 0 -174691880.61198574 180589166.74530411 0 0 0 0 -34607144.887181282 -8532114.8661027253 0 -8532114.8661027253 80263836.476280093 0 0 0 0 49814309.735080719 -149935075.95998594 0 -149935075.95998594 246887570.32734358 0 0 0 0 142258472.76802826 -697064001.5348599 0 -697064001.5348599 748800005.89395738 0 0 0 0 231394290.70783997 -359171125.05240786 0 -359171125.05240786 315894801.40854788 0 0 0 0 -4861138.6876507271 -4042007.6439930182 0 -4042007.6439930182 -262651.92161528557 0 0 0 0 -17702031.384773254 42344812.7021662 0 42344812.7021662 -81326650.052396297 0 0 0 0 -227958272.54901505 -320392565.84730911 0 -320392565.84730911 418965006.98579931 0 0 0 0 -207262999.99830627 -54198242.612394571 0 -54198242.612394571 256822320.23890448 0 0 0 0 118680000.4818306 -72745546.072167873 0 -72745546.072167873 -31514697.258331299 0 0 0 0 -24025784.161203325 -31850917.095728949 0 -31850917.095728949 -14127349.654424388 0 0 0 0 111850663.97955894 -49818083.477203369 0 -49818083.477203369 -50734160.905891418 0 0 0 0 94005192.162220001 -37534397.914558411 0 -37534397.914558411 -58422182.036598206 0 0 0 0 90754029.95803833 -42563219.42149353 0 -42563219.42149353 5285593.2225494385 0 0 0 0 -17985445.966213476 -11769283.362815581 0 -11769283.362815581 1268526.0510029569 0 0 0 0 552049510.84125519 -1018200759.538084 0 -1018200759.538084 -744110783.40348816 0 0 0 0 -66948292.25636673 -24336577.965984583 0 -24336577.965984583 -115483601.51150608 0 0 0 0 -85180914.307636261 -32336476.414495468 0 -32336476.414495468 7088115.0280952454 0 0 0 0 -18198355.131750651 -35282975.961209096 0 -35282975.961209096 -386930.48028451391 0 0 0 0 -93129799.001651764 -274841222.54390335 0 -274841222.54390335 570935324.48853397 0 0 0 0 700058837.05622864 628300423.70993042 0 628300423.70993042 206933793.14457798 0 0 0 0 -24170162.923819058 -5245052.6704001445 0 -5245052.6704001445 769997.62381706014 0 0 0 0 80778028.106170654 -14407820.134660721 0 -14407820.134660721 -13318141.776788712 0 0 0 0 86665037.531204224 -8872899.6702985764 0 -8872899.6702985764 -22998462.524124146 0 0 0 0 88919350.797012329 -9358948.8044433594 0 -9358948.8044433594 -23096807.191635132 0 0 0 0 -1096602387.4776154 -1034508717.3478775 0 -1034508717.3478775 -517275050.0138588 0 0 0 0 -76044999.815605164 1112170865.8469124 0 1112170865.8469124 1924734795.8718491 0 0 0 0 -1595236416.0483704 -864796467.66396713 0 -864796467.66396713 186681697.33655548 0 0 0 0 -1324791753.1075287 -575939829.7579155 0 -575939829.7579155 201014233.06292725 0 0 0 0 -860961154.96498871 -458203865.89581108 0 -458203865.89581108 203510303.3819046 0 0 0 0 -1547189518.0083389 6421706.721698761 0 6421706.721698761 758960953.88078308 0 0 0 0 -1874088248.6481323 -468350467.30773544 0 -468350467.30773544 588232831.78748322 0 0 0 0 -781412507.50753784 -372467257.89831734 0 -372467257.89831734 57961023.163509369 0 0 0 0 -1211113789.2788162 -778695134.22451019 0 -778695134.22451019 -284278454.21908569 0 0 0 0 -846333747.09844208 -440242183.85698605 0 -440242183.85698605 -258727272.57612228 0 0 0 0 -204926099.0306797 -63891066.596893311 0 -63891066.596893311 -64948499.299736023 0 0 0 0 595693932.44712067 -1158897591.8334131 0 -1158897591.8334131 -475162525.93314826 0 0 0 0 -228672482.92479706 -110701790.41008186 0 -110701790.41008186 329135927.39935303 0 0 0 0 3212644.6578365471 -1306431.5305712856 0 -1306431.5305712856 -1722311.361740686 0 0 0 0 -705047074.91600037 -457766146.19869232 0 -457766146.19869232 -8890044.1156082153 0 0 0 0 -253304528.98078918 -247553700.83129311 0 -247553700.83129311 -270707218.39274216 0 0 0 0 -236364330.1985321 -345000329.84233856 0 -345000329.84233856 544571674.71513367 0 0 0 0 -365770055.79672241 -317993671.29325867 0 -317993671.29325867 305910220.13671398 0 0 0 0 -543288759.48321533 -187200170.80248642 0 -187200170.80248642 328712430.43091583 0 0 0 0 -655278752.60025644 -232146663.67648292 0 -232146663.67648292 686704156.44074249 0 0 0 0 -654288181.69923401 -222783799.29771423 0 -222783799.29771423 445396692.03167725 0 0 0 0 -9033264.8354492988 -3725635.6536060497 0 -3725635.6536060497 169725.07369756885 0 0 0 0 -781272324.28399658 -375494089.46417236 0 -375494089.46417236 883908576.01189423 0 0 0 0 -88414818.481952667 -168721728.06667519 0 -168721728.06667519 622805955.83412409 0 0 0 0 -467548888.65177917 -312791216.10042191 0 -312791216.10042191 188410653.83058929 0 0 0 0 -240151433.36745071 7708414.5088672638 0 7708414.5088672638 828144123.63542628 0 0 0 0 -357664011.82144928 -246877718.34155083 0 -246877718.34155083 615236989.08353424 0 0 0 0 -520609104.73579025 -181599251.72529984 0 -181599251.72529984 697587212.52242279 0 0 0 0 -370236326.51141739 -82696503.267522573 0 -82696503.267522573 971150501.45840454 0 0 0 0 -379037056.63201761 113961243.69633424 0 113961243.69633424 1233814124.2453308 0 0 0 0 -243603112.61264038 189031662.41122437 0 189031662.41122437 1381601675.5617943 0 0 0 0 -238659643.52845383 -187802413.89721489 0 -187802413.89721489 1587336652.0053558 0 0 0 0 -591173310.05960083 199911113.00868225 0 199911113.00868225 626560122.11688232 0 0 0 0 -61825338.06350708 -61023075.933692932 0 -61023075.933692932 741564821.84945679 0 0 0 0 -791631218.35354614 -547285943.77731323 0 -547285943.77731323 614171788.43946838 0 0 0 0 -139091458.58556366 419189889.30327988 0 419189889.30327988 1480025786.1259384 0 0 0 0 -509010772.80203247 181702385.73291016 0 181702385.73291016 2188054855.8741875 0 0 0 0 -142246821.00740051 -14868510.262825012 0 -14868510.262825012 882499172.06167603 0 0 0 0 38196379.712875366 111431689.75224113 0 111431689.75224113 373509436.12921906 0 0 0 0 -90669069.116462708 86530530.35597229 0 86530530.35597229 865236639.06929207 0 0 0 0 -86748350.989402771 -27317337.468494415 0 -27317337.468494415 316923515.66350555 0 0 0 0 -35968342.240520477 -31737969.296069145 0 -31737969.296069145 245125895.68215942 0 0 0 0 -78569264.355133057 96885190.065483093 0 96885190.065483093 377361914.08769798 0 0 0 0 -82482677.568968773 43734116.709136009 0 43734116.709136009 8722292.3537063599 0 0 0 0 -59838816.847637177 139971424.42649078 0 139971424.42649078 -57657088.988109589 0 0 0 0 -152740508.43997955 62728102.78150177 0 62728102.78150177 128688982.93219376 0 0 0 0 -65582185.54063797 50985171.841766357 0 50985171.841766357 88904767.707450867 0 0 0 0 -169480089.824687 -9782721.0084266663 0 -9782721.0084266663 -164466605.46430206 0 0 0 0 -138470062.36911774 118922420.51739693 0 118922420.51739693 -78545746.744926453 0 0 0 0 -5911327.559466308 -23832541.63863181 0 -23832541.63863181 -15591298.683212373 0 0 0 0 -7004848.4231672287 -65402152.108535767 0 -65402152.108535767 -19080378.432434082 0 0 0 0 -126536876.52357864 92293465.904405594 0 92293465.904405594 -89216144.102668762 0 0 0 0 -86277871.520446777 51738088.311683655 0 51738088.311683655 -52759491.997707367 0 0 0 0 60568502.011421204 12211615.579368591 0 12211615.579368591 7739283.7076269388 0 0 0 0 -7042836.3967079073 -1651783.7741851788 0 -1651783.7741851788 204677.31609538943 0 0 0 0 71841649.524032593 11452070.206756592 0 11452070.206756592 7764169.2406654358 0 0 0 0 -158659262.013237 -53001729.821880341 0 -53001729.821880341 2338586.8758926392 0 0 0 0 -7640972.5821838379 -60805885.567447662 0 -60805885.567447662 -39258000.01322937 0 0 0 0 -4189833.5091703041 -27895224.243281253 0 -27895224.243281253 15373821.753964331 0 0 0 0 -125183952.02860641 24983207.299958229 0 24983207.299958229 28475425.888000488 0 0 0 0 147415964.29471207 -84450981.502767563 0 -84450981.502767563 102427373.20442963 0 0 0 0 122655994.06613159 -317825825.42350769 0 -317825825.42350769 -72196838.991729736 0 0 0 0 114080826.301651 -84341730.467266083 0 -84341730.467266083 -12435322.817642212 0 0 0 0 -14663034.575317383 -48630825.836864471 0 -48630825.836864471 116843987.17964172 0 0 0 0 -23631444.205749512 -97603873.520847321 0 -97603873.520847321 137954890.80175209 0 0 0 0 -140644154.42681885 -118595327.91351318 0 -118595327.91351318 -44246472.428222656 0 0 0 0 -89000850.182556152 -289229333.27167892 0 -289229333.27167892 -33520237.277938843 0 0 0 0 -76658891.352035522 -141410721.29060745 0 -141410721.29060745 -107855748.4153595 0 0 0 0 3498296.9926501177 -21627884.799503855 0 -21627884.799503855 15694430.371442985 0 0 0 0 -175043123.80160522 -254666753.8589325 0 -254666753.8589325 -314231357.03785706 0 0 0 0 -727722.43652940728 -393804.30960000493 0 -393804.30960000493 991561.69026611 0 0 0 0 -112240996.36090088 -7671088.8708782196 0 -7671088.8708782196 -126566827.75549316 0 0 0 0 -12693933.068412781 -56866432.023599625 0 -56866432.023599625 -103355210.55285645 0 0 0 0 -161077101.86894226 -85981139.874181747 0 -85981139.874181747 -45694228.402084351 0 0 0 0 -95509403.936500549 -135060737.52669144 0 -135060737.52669144 -18308788.953399658 0 0 0 0 -21414167.198707581 -72743214.949867249 0 -72743214.949867249 -121272505.90694046 0 0 0 0 -50195333.865164757 -49146297.569566727 0 -49146297.569566727 -22645595.473526001 0 0 0 0 8611993.4823913574 -59695886.359474182 0 -59695886.359474182 -81380986.97530365 0 0 0 0 10473533.818279266 5809478.5721511841 0 5809478.5721511841 25926304.955368042 0 0 0 0 55652830.413223267 -13353142.830669403 0 -13353142.830669403 -42339097.244743347 0 0 0 0 36333834.508911371 1748577.6283602715 0 1748577.6283602715 -53603272.178833008 0 0 0 0 19580035.101150036 -76013862.510033607 0 -76013862.510033607 -141755019.63819885 0 0 0 0 25742311.798870087 -118670575.30286598 0 -118670575.30286598 -148175361.68075562 0 0 0 0 112161003.25590515 49881859.438674927 0 49881859.438674927 -80998613.006378174 0 0 0 0 -68769496.998165131 -101399968.1197052 0 -101399968.1197052 -88264574.62437439 0 0 0 0 -54340815.637893677 -183844279.8332901 0 -183844279.8332901 -352258659.80886841 0 0 0 0 -142885665.88899994 -98041110.754089355 0 -98041110.754089355 -121677089.44210815 0 0 0 0 -177016727.40168762 -243602462.79469299 0 -243602462.79469299 -264647229.05004883 0 0 0 0 -241377698.12358475 -368904035.9015274 0 -368904035.9015274 -361932452.48669434 0 0 0 0 2449188.4148129551 -782522.27771110367 0 -782522.27771110367 -2645982.875722032 0 0 0 0 -6159612.6797640054 -15036895.163305579 0 -15036895.163305579 -11653555.743616924 0 0 0 0 -40646971.26398468 -1718060.3123168945 0 -1718060.3123168945 -96420445.270460129 0 0 0 0 35142728.427463531 -12142294.993743896 0 -12142294.993743896 -28137319.303845406 0 0 0 0 42085214.457275152 -18296702.745904922 0 -18296702.745904922 -29990821.782806396 0 0 0 0 -3109875.9878079752 -7694317.1459287535 0 -7694317.1459287535 -2038866.9104193021 0 0 0 0 43752265.85962677 18191345.805229187 0 18191345.805229187 -6889495.6865959167 0 0 0 0 -110068224.4382441 112484612.49353409 0 112484612.49353409 -133430854.69834518 0 0 0 0 -1221695.9024791196 -5538112.3804905396 0 -5538112.3804905396 -9685165.242187582 0 0 0 0 -608633158.23417282 -245504861.34887314 0 -245504861.34887314 -133195742.93484879 0 0 0 0 -802027670.78649902 -562081055.48523712 0 -562081055.48523712 38223369.173326492 0 0 0 0 -7512796.3581532333 -2269451.7810988612 0 -2269451.7810988612 -2629820.6121922769 0 0 0 0 -756134385.27856255 -151498425.38895416 0 -151498425.38895416 -49934058.995166779 0 0 0 0 -1482892516.6437111 -591332261.13145065 0 -591332261.13145065 -522003844.64051819 0 0 0 0 -1756042571.6934834 -513992061.22805405 0 -513992061.22805405 90561190.613765717 0 0 0 0 397392.01741773123 -2331205.9914056947 0 -2331205.9914056947 -452303.24767781049 0 0 0 0 -1174871903.7000442 -1372020216.2484865 0 -1372020216.2484865 -564894143.27114105 0 0 0 0 -516114444.08658075 -14977613.2101717 0 -14977613.2101717 -1529532512.940506 0 0 0 0 -1975741.9664145373 -183677.55830501392 0 -183677.55830501392 -1486689.2149203718 0 0 0 0 -120989355.71269417 352110883.52061653 0 352110883.52061653 -603824526.45033264 0 0 0 0 -119836256.95989799 8612015.6150550842 0 8612015.6150550842 -96245711.300113678 0 0 0 0 -69614945.972044945 60783974.984376907 0 60783974.984376907 -42238650.899642944 0 0 0 0 -74911436.084180832 73589202.682880878 0 73589202.682880878 -217301188.73350525 0 0 0 0 -213904066.43065262 161899897.92581558 0 161899897.92581558 -97411215.656707764 0 0 0 0 -318481157.69471741 -36369823.645383835 0 -36369823.645383835 47737252.375827789 0 0 0 0 -1051508737.1729431 392838771.05896378 0 392838771.05896378 63900452.597442627 0 0 0 0 -1215885745.8025913 -6223703.6052341461 0 -6223703.6052341461 354414610.52709961 0 0 0 0 -746044909.82605505 -261844906.37849522 0 -261844906.37849522 414540975.73627472 0 0 0 0 -626028303.1389122 152419143.16002274 0 152419143.16002274 111609640.16677523 0 0 0 0 -423831364.92525673 -473426849.26751137 0 -473426849.26751137 -46049006.18833971 0 0 0 0 -898120782.8168354 -415383522.20159721 0 -415383522.20159721 262674929.44528961 0 0 0 0 -399441060.35265231 -79854149.232062697 0 -79854149.232062697 191141870.67481232 0 0 0 0 -45847838.536785126 112874089.83551407 0 112874089.83551407 76842116.098312378 0 0 0 0 -145755368.83447266 -69344813.533267975 0 -69344813.533267975 135337693.21969795 0 0 0 0 -5365552.1368713379 118229311.6851902 0 118229311.6851902 245186753.78134918 0 0 0 0 -176750665.3539772 -17582675.083856583 0 -17582675.083856583 49282420.373809814 0 0 0 0 -319492662.84064293 -748139695.36482382 0 -748139695.36482382 -621520239.27062225 0 0 0 0 40819880.082137108 108426271.31251907 0 108426271.31251907 -1066983419.3092737 0 0 0 0 -537707397.51914024 -485340857.00661945 0 -485340857.00661945 -587779538.23721695 0 0 0 0 891264.72696288978 -4275496.9515456194 0 -4275496.9515456194 -537114.82111471146 0 0 0 0 -44061743.761071205 -909570145.32001686 0 -909570145.32001686 -234766394.18795013 0 0 0 0 -416098.95822046977 -1551552.9834270906 0 -1551552.9834270906 349509.29742546007 0 0 0 0 -61950196.919692308 -1158519536.8040943 0 -1158519536.8040943 525781513.16639328 0 0 0 0 785499327.66449642 -292319870.13328934 0 -292319870.13328934 -221095095.94892025 0 0 0 0 -425268081.28385806 -384399048.78255367 0 -384399048.78255367 766143183.84147263 0 0 0 0 -1648305676.2815545 -783056924.89526796 0 -783056924.89526796 63894211.004695892 0 0 0 0 -433910613.30592823 -111127804.27879715 0 -111127804.27879715 -45405043.395801544 0 0 0 0 -140922565.01431847 -401131186.75831795 0 -401131186.75831795 -643414608.18909454 0 0 0 0 -382847237.35045052 -218278578.29556656 0 -218278578.29556656 -539205205.78646851 0 0 0 0 -37823099.520095825 -62000527.147129059 0 -62000527.147129059 -25053145.797214508 0 0 0 0 428506086.16179037 -274654225.80240822 0 -274654225.80240822 -351837516.08823395 0 0 0 0 42349058.791786194 11714857.404759407 0 11714857.404759407 -115295040.258461 0 0 0 0 368092043.17859173 -319444868.60811615 0 -319444868.60811615 278935562.25303555 0 0 0 0 3447915.61648513 -3477424.8889919007 0 -3477424.8889919007 -1017134.9493113756 0 0 0 0 867514323.6753149 -858522817.54927254 0 -858522817.54927254 202749489.31451011 0 0 0 0 20281279.972500566 -4059293.1683958648 0 -4059293.1683958648 -9906625.7777621076 0 0 0 0 53012576.962005854 3970508.8348293304 0 3970508.8348293304 -5380249.768386364 0 0 0 0 41099661.218521118 -93878930.039587021 0 -93878930.039587021 -103973982.33705807 0 0 0 0 -112649709.84884644 -208179972.81435966 0 -208179972.81435966 -163963837.29811001 0 0 0 0 26337868.960550245 -27789137.352312867 0 -27789137.352312867 -8865823.0278378539 0 0 0 0 63280510.883448958 5528704.1739082336 0 5528704.1739082336 -42697119.42401123 0 0 0 0 29547126.173084736 -17286043.826303482 0 -17286043.826303482 -9368234.1135869026 0 0 0 0 66976639.47200942 -52795552.163856506 0 -52795552.163856506 -75175797.497484207 0 0 0 0 62682278.739974737 -97883956.062393188 0 -97883956.062393188 -31123319.444122314 0 0 0 0 43987781.755553365 -104916864.83548832 0 -104916864.83548832 25838077.704311371 0 0 0 0 16562158.799837939 -12158132.762375398 0 -12158132.762375398 -10890670.411524393 0 0 0 0 71436676.766187668 -82065305.953327179 0 -82065305.953327179 -229073710.94972229 0 0 0 0 85218511.335179329 -187804461.04186058 0 -187804461.04186058 -153226988.05758286 0 0 0 0 85867339.048261642 -212915566.23860741 0 -212915566.23860741 -471891044.63516521 0 0 0 0 25224102.42935276 -60665511.690039635 0 -60665511.690039635 -111982118.95602608 0 0 0 0 46066265.330273628 17441061.729349136 0 17441061.729349136 -280195178.70037365 0 0 0 0 29687929.961608887 -34241425.362930298 0 -34241425.362930298 592683.12560129166 0 0 0 0 24342246.202991366 -2165557.25974961 0 -2165557.25974961 -6805730.5551481927 0 0 0 0 -206378990.57626343 -12016679.172275543 0 -12016679.172275543 138323830.81840515 0 0 0 0 104072388.70428848 130525978.17182422 0 130525978.17182422 -409262824.77638245 0 0 0 0 82422309.715209961 11042189.885328293 0 11042189.885328293 -257750683.52347946 0 0 0 0 -59085503.881570816 281797105.00080109 0 281797105.00080109 -478576117.03446579 0 0 0 0 84223911.935821533 83559788.787614822 0 83559788.787614822 -683118865.66087914 0 0 0 0 134940302.7696228 146107150.04245615 0 146107150.04245615 -768675693.78324127 0 0 0 0 149684555.00869751 23907068.402460098 0 23907068.402460098 -460887313.07126427 0 0 0 0 136038177.56552124 -28378110.19332695 0 -28378110.19332695 -424991742.89648628 0 0 0 0 184365030.88221741 52280745.108738899 0 52280745.108738899 -587996539.2632618 0 0 0 0 57745282.529556274 94221288.207220078 0 94221288.207220078 -143515319.82112122 0 0 0 0 48242844.906066895 -32078507.122877121 0 -32078507.122877121 -72103329.855669022 0 0 0 0 23053662.326121733 -7362692.6939223688 0 -7362692.6939223688 -7812079.4956724253 0 0 0 0 55919883.384658813 26385208.642808914 0 26385208.642808914 -74032868.119626999 0 0 0 0 62228446.329086304 -80893128.942258835 0 -80893128.942258835 -203822331.53464317 0 0 0 0 136306446.24360561 -20557038.243673861 0 -20557038.243673861 -292352645.5073204 0 0 0 0 177123176.35902405 -155520070.62646389 0 -155520070.62646389 -505241625.12372875 0 0 0 0 173583776.02539062 -148198587.61657667 0 -148198587.61657667 -281450181.35779524 0 0 0 0 24626404.080818176 -156204863.54367352 0 -156204863.54367352 -235875482.7997961 0 0 0 0 66916213.254432678 -36503560.268724918 0 -36503560.268724918 -52958931.056533813 0 0 0 0 47317037.192525625 -52831139.766646385 0 -52831139.766646385 2466220.4842071533 0 0 0 0 30650803.212706778 -31460679.308129679 0 -31460679.308129679 -6586006.9978596997 0 0 0 0 78647933.813491821 -9516709.0774555206 0 -9516709.0774555206 -52954200.150761299 0 0 0 0 77535859.548463821 4277150.9218244553 0 4277150.9218244553 -62802439.220554352 0 0 0 0 61543847.763386726 -39713112.69767952 0 -39713112.69767952 -152397183.62703514 0 0 0 0 33048227.297981799 -24852212.706551723 0 -24852212.706551723 -18251016.87332049 0 0 0 0 -69305178.652816772 -49706265.973788738 0 -49706265.973788738 9869547.3305671215 0 0 0 0 -6512565.6787414551 -1571007.5053403378 0 -1571007.5053403378 -40289525.640959263 0 0 0 0 34364107.7616648 -21026220.167954989 0 -21026220.167954989 -18677595.934115011 0 0 0 0 50864977.524711609 -40577637.858363628 0 -40577637.858363628 1668526.8704719543 0 0 0 0 -5255304.3401641846 -10233915.230186701 0 -10233915.230186701 -15612951.736396313 0 0 0 0 35747968.494567871 2188035.4322648048 0 2188035.4322648048 -51583259.97586441 0 0 0 0 73238657.828536987 17225454.261715889 0 17225454.261715889 -25471969.275780678 0 0 0 0 -17073760.232147217 -46629853.562753677 0 -46629853.562753677 54212972.40152812 0 0 0 0 -7968380.2724352442 -10046998.134404529 0 -10046998.134404529 1062927.5715006678 0 0 0 0 16373179.852057457 -14280587.14398887 0 -14280587.14398887 3618525.5872974396 0 0 0 0 76837103.713151932 -55753632.583033822 0 -55753632.583033822 -5247933.3177132607 0 0 0 0 15688140.373657227 -2774063.8533434868 0 -2774063.8533434868 79908.967025756836 0 0 0 0 42564897.410354614 -21900012.820503712 0 -21900012.820503712 -25778743.6127491 0 0 0 0 19355110.894813538 -19045809.992518187 0 -19045809.992518187 -9305171.1577301025 0 0 0 0 51546583.633880615 -35358962.388886929 0 -35358962.388886929 -18377938.605085373 0 0 0 0 -66960064.518157959 -36105804.959480286 0 -36105804.959480286 -18546443.583692551 0 0 0 0 132762456.18916321 -87505127.915277004 0 -87505127.915277004 -38353094.285131633 0 0 0 0 112296001.49947357 -39735493.148665726 0 -39735493.148665726 -23529608.404304981 0 0 0 0 4438715.4458399341 1343836.1707212701 0 1343836.1707212701 -1026106.2066148022 0 0 0 0 47474692.230407715 3170170.7751305103 0 3170170.7751305103 5796161.1513147354 0 0 0 0 100525625.79522705 43548382.788140535 0 43548382.788140535 -8085987.138584137 0 0 0 0 15066389.645613775 -21312752.603689935 0 -21312752.603689935 -11467700.21328285 0 0 0 0 10440101.134216309 -7328982.0397031307 0 -7328982.0397031307 1471433.1233663559 0 0 0 0 65682.90069613792 -14617017.959268376 0 -14617017.959268376 -4806623.7897568736 0 0 0 0 9252204.1077270508 -4970207.5635221004 0 -4970207.5635221004 1274997.9524688721 0 0 0 0 -7724595.9066914245 -18098510.705303475 0 -18098510.705303475 -9320380.4651265461 0 0 0 0 -2182256.2079992518 -16733395.636680361 0 -16733395.636680361 1937484.9847127344 0 0 0 0 9001762.2291124091 -5436361.6573771387 0 -5436361.6573771387 1042435.3517891201 0 0 0 0 -41812700.407592773 -6074205.4928741455 0 -6074205.4928741455 -2877647.6017532349 0 0 0 0 -5044348.768936418 -1012042.0868313424 0 -1012042.0868313424 1333118.4855353851 0 0 0 0 -77938004.286769867 -124226509.67516515 0 -124226509.67516515 21047811.533171177 0 0 0 0 34571656.052932739 -85023897.291490912 0 -85023897.291490912 93919171.919366479 0 0 0 0 8878707.762802124 -20319802.858599305 0 -20319802.858599305 -68792516.339034557 0 0 0 0 164742630.77903748 42247214.320512772 0 42247214.320512772 -31503294.613185406 0 0 0 0 6946413.5763015747 38953686.332866222 0 38953686.332866222 -53126568.803634405 0 0 0 0 131309391.28799438 -78421072.578816235 0 -78421072.578816235 -82734826.482322723 0 0 0 0 28643826.95902507 -25235642.453416809 0 -25235642.453416809 -15514230.132742906 0 0 0 0 -65885365.632599354 2687267.3941249847 0 2687267.3941249847 -36185301.878455162 0 0 0 0 39780523.041178703 -1332346.8148326874 0 -1332346.8148326874 -46253595.262335777 0 0 0 0 -7411602.0064793825 -101005923.08447313 0 -101005923.08447313 -10902837.154830933 0 0 0 0 13469377.460910797 -87537293.290193558 0 -87537293.290193558 -2237509.6326360703 0 0 0 0 -71219062.106778979 -182734799.7856884 0 -182734799.7856884 -42685824.996946335 0 0 0 0 -147518825.44184923 -89592497.064161301 0 -89592497.064161301 -3227171.1147003174 0 0 0 0 -1570503.8321392334 -275094.17224852741 0 -275094.17224852741 1610491.0885384232 0 0 0 0 -30854729.020347357 -2371089.6364908218 0 -2371089.6364908218 8000620.7873644829 0 0 0 0 -212962781.36571789 19993381.432644844 0 19993381.432644844 7556162.6675434113 0 0 0 0 -47900743.080216408 -80728956.203803062 0 -80728956.203803062 -16188184.910331726 0 0 0 0 -30260286.790998459 -73186105.922369003 0 -73186105.922369003 -15165644.635453224 0 0 0 0 3291864.2568902969 -108846197.49051857 0 -108846197.49051857 -142685008.9416275 0 0 0 0 -141015848.56932712 -153001334.34641767 0 -153001334.34641767 -63176581.694496155 0 0 0 0 -60522994.723983765 -106366989.62385571 0 -106366989.62385571 38895539.149032116 0 0 0 0 24626351.326378126 -27664885.916088652 0 -27664885.916088652 -15407584.218982972 0 0 0 0 35969091.104905605 -48548733.046751022 0 -48548733.046751022 -84036195.937232971 0 0 0 0 -19627849.520748138 -80385938.270402908 0 -80385938.270402908 -34352389.130409241 0 0 0 0 -31773169.595879078 -102970533.70847416 0 -102970533.70847416 -55682126.609401703 0 0 0 0 79725430.734420776 -22900961.27423048 0 -22900961.27423048 -48689008.764544487 0 0 0 0 16368845.534766782 -31850980.84387356 0 -31850980.84387356 -16326436.720856566 0 0 0 0 31587687.944000244 -54001483.540363312 0 -54001483.540363312 -33574752.300170898 0 0 0 0 -27914353.837931633 -88543435.052790642 0 -88543435.052790642 -21891464.891145706 0 0 0 0 70781086.856063843 -57781124.933539152 0 -57781124.933539152 -64684744.87315464 0 0 0 0 -61840449.862976074 -38868991.404359818 0 -38868991.404359818 -17113011.862449646 0 0 0 0 99182941.502990723 31490386.72831881 0 31490386.72831881 4395096.8426280022 0 0 0 0 21853092.093055043 -16840599.794701491 0 -16840599.794701491 -12603887.538257074 0 0 0 0 63981837.642944336 65175831.139719009 0 65175831.139719009 -26314663.020963252 0 0 0 0 3463729.3181817457 1411064.1230616495 0 1411064.1230616495 -641424.87837703805 0 0 0 0 -51544311.196451664 -246734287.11532116 0 -246734287.11532116 25864954.723395348 0 0 0 0 -174383365.90614206 -337651159.76032853 0 -337651159.76032853 320319869.84254074 0 0 0 0 -41526837.683346272 -235008995.37356853 0 -235008995.37356853 -18914832.281472206 0 0 0 0 -96429878.645723343 -423015626.27992821 0 -423015626.27992821 -93617049.17972374 0 0 0 0 45584013.931072295 -173286724.0231514 0 -173286724.0231514 -126422039.64616203 0 0 0 0 46151753.151102245 -181469960.05222416 0 -181469960.05222416 -69015076.322650909 0 0 0 0 9699580.3028941154 -130432144.51377678 0 -130432144.51377678 -131251688.97612381 0 0 0 0 -12247106.637072325 -95956090.923521996 0 -95956090.923521996 89445114.280988693 0 0 0 0 74647318.090005398 -161653998.58262157 0 -161653998.58262157 -75864281.486589432 0 0 0 0 -699158.29783856869 -82285458.9308424 0 -82285458.9308424 102084105.41836166 0 0 0 0 -3325818.0200749589 -1014720.4175935346 0 -1014720.4175935346 3891279.627570916 0 0 0 0 3865402.0913741589 -95604576.564114571 0 -95604576.564114571 107943341.0301671 0 0 0 0 -5799900.4674048424 -55732359.626254082 0 -55732359.626254082 134382859.46519089 0 0 0 0 -84253296.713033676 -87834520.899119377 0 -87834520.899119377 123020050.01054001 0 0 0 0 -86561716.276579857 -35607517.127025604 0 -35607517.127025604 286801876.16331673 0 0 0 0 -110089410.06652755 -76501506.03658092 0 -76501506.03658092 245597123.45216751 0 0 0 0 1239373.5356464386 38573397.775120735 0 38573397.775120735 132551072.08810997 0 0 0 0 -3661828.2689497471 -6686472.9623181522 0 -6686472.9623181522 92715693.242902756 0 0 0 0 1961673.4153131275 -4077014.7847184641 0 -4077014.7847184641 1006493.8665601888 0 0 0 0 -37300738.414892673 -49982845.464548886 0 -49982845.464548886 -48958827.73683393 0 0 0 0 -32078787.427247047 -55367624.111899972 0 -55367624.111899972 -43459038.801493883 0 0 0 0 -33566666.071891785 -2698241.4428052902 0 -2698241.4428052902 -13474970.436144352 0 0 0 0 -8487547.0029885769 -22507120.826973796 0 -22507120.826973796 -36546615.776119232 0 0 0 0 -56933640.157140255 -28929496.814263344 0 -28929496.814263344 -14218698.79360199 0 0 0 0 -52187537.830659866 -45346770.134631157 0 -45346770.134631157 -28008197.282636642 0 0 0 0 -718862.62767410278 -47256131.241747856 0 -47256131.241747856 -115448946.93078423 0 0 0 0 60808.54419833445 -114595.20303009218 0 -114595.20303009218 153995.04450815427 0 0 0 0 -3703751.7269487083 -5899630.2409721017 0 -5899630.2409721017 77955621.432035446 0 0 0 0 -5808375.223547196 -1937630.0791494078 0 -1937630.0791494078 7999722.8881153837 0 0 0 0 -10367738.925596178 -3341756.3069791794 0 -3341756.3069791794 16398369.207660675 0 0 0 0 -35336269.444529831 2760281.2340073586 0 2760281.2340073586 15307959.870402336 0 0 0 0 -14484912.668518186 -14998785.750089884 0 -14998785.750089884 34753430.967327118 0 0 0 0 -23521094.50684309 -4264319.8660993576 0 -4264319.8660993576 27437816.513376236 0 0 0 0 -6495469.7741594315 -11612147.165737152 0 -11612147.165737152 18033660.249589741 0 0 0 0 -9111065.0630836487 -3559361.3422365189 0 -3559361.3422365189 12864312.043236732 0 0 0 0 -7151914.6565713882 -9533804.2599449158 0 -9533804.2599449158 12968838.179104254 0 0 0 0 -9107336.4713783264 -5214084.6540107727 0 -5214084.6540107727 19077172.999053955 0 0 0 0 -14492364.274491822 -12048597.395894464 0 -12048597.395894464 1594088.3412595391 0 0 0 0 -5538043.1065359116 -29339186.693346977 0 -29339186.693346977 -18204251.427352905 0 0 0 0 -33079766.042095184 -9783408.0127487183 0 -9783408.0127487183 -36360419.42993927 0 0 0 0 4710146.0817604065 -12410690.674583435 0 -12410690.674583435 -36325816.204113007 0 0 0 0 -12148556.882107109 -18179790.655336272 0 -18179790.655336272 -8224372.7693426516 0 0 0 0 -440990.01492528431 -1995992.7267634962 0 -1995992.7267634962 -4756691.7312392518 0 0 0 0 -20395459.222568512 26439577.885345459 0 26439577.885345459 -31055182.820241928 0 0 0 0 -13828985.931030273 -12697967.036737442 0 -12697967.036737442 -66572062.079502106 0 0 0 0 -13046691.96776247 -6826515.750462532 0 -6826515.750462532 -22795496.776863098 0 0 0 0 -16702779.280553818 11817094.29466629 0 11817094.29466629 -50734027.251140594 0 0 0 0 -31637370.84405899 -10563415.905029297 0 -10563415.905029297 -18302332.727735519 0 0 0 0 -11671585.814356174 -11554404.058287736 0 -11554404.058287736 3918.0760786039755 0 0 0 0 -301180.63301691972 -1702931.1037613391 0 -1702931.1037613391 -2832632.5079643689 0 0 0 0 -118352016.93711948 -245810275.02922297 0 -245810275.02922297 -454513916.79637527 0 0 0 0 -14621860.655501559 -5154343.0902375691 0 -5154343.0902375691 3740157.3314127875 0 0 0 0 -42911282.69874382 -1565700.2663316727 0 -1565700.2663316727 21270524.19496727 0 0 0 0 -3270344.3994967937 8746138.7920352221 0 8746138.7920352221 9309342.1293711662 0 0 0 0 3268668.6769746044 -9379672.7129696589 0 -9379672.7129696589 -2583135.9278547782 0 0 0 0 -12232186.342679977 -671290.92870521545 0 -671290.92870521545 -15558152.164567947 0 0 0 0 -19184934.95097971 -24939316.458499908 0 -24939316.458499908 -5092702.0301990509 0 0 0 0 345261.74080799799 -11536567.973379903 0 -11536567.973379903 -10218762.725945108 0 0 0 0 -8907408.8312616348 -28473651.664474487 0 -28473651.664474487 -18319771.177892685 0 0 0 0 -36166867.608476639 -17096260.085935593 0 -17096260.085935593 -8296924.499994278 0 0 0 0 -23660864.441869736 -30449055.732982635 0 -30449055.732982635 -20825785.66434288 0 0 0 0 -24534333.1369735 -34254048.251313925 0 -34254048.251313925 -11536494.563865662 0 0 0 0 -5117407.4302835464 -22088394.610645294 0 -22088394.610645294 -9333293.8796132803 0 0 0 0 -17781851.2107144 -25276213.65205729 0 -25276213.65205729 23421251.476982117 0 0 0 0 -20064419.460289001 -13986959.955041409 0 -13986959.955041409 10637286.655000687 0 0 0 0 18362010.297527313 -30571761.643665314 0 -30571761.643665314 18597184.889146328 0 0 0 0 2777056.4887902252 -27518144.862866215 0 -27518144.862866215 -93740.702893286943 0 0 0 0 16146825.741106033 -35700592.642130136 0 -35700592.642130136 24709374.565460205 0 0 0 0 12107282.423835754 -28505388.446052551 0 -28505388.446052551 24278375.261055946 0 0 0 0 15340582.109355927 -29571879.327213287 0 -29571879.327213287 24095121.093048573 0 0 0 0 -3787701.4498672485 -22443063.216877937 0 -22443063.216877937 -13284272.18740654 0 0 0 0 -18594923.836071014 -67821559.686941147 0 -67821559.686941147 -35845815.426365852 0 0 0 0 -22514084.799819425 -44277399.316935033 0 -44277399.316935033 2800939.0984489946 0 0 0 0 877651.61932373047 18960033.241558075 0 18960033.241558075 24219753.531143188 0 0 0 0 685702.62815093994 -74302056.825951576 0 -74302056.825951576 -845079.01556777954 0 0 0 0 -23780799.871476173 -91017598.216317177 0 -91017598.216317177 28623628.835079193 0 0 0 0 -41217151.894976616 -86256996.952978134 0 -86256996.952978134 -4186511.3565330505 0 0 0 0 -6088339.9154161001 -35402908.360094711 0 -35402908.360094711 -14068942.156860903 0 0 0 0 11463864.956073761 -43552674.602270126 0 -43552674.602270126 21860874.62021637 0 0 0 0 8163503.6905555725 -42041339.445106506 0 -42041339.445106506 25068727.847164154 0 0 0 0 -13109341.70175056 -22784198.880009778 0 -22784198.880009778 -8763442.941981649 0 0 0 0 -55022544.418480635 -55911598.596416473 0 -55911598.596416473 72434777.061658382 0 0 0 0 10097395.575717926 -49419141.821598053 0 -49419141.821598053 -1056187.9195270538 0 0 0 0 -27654750.648257256 -34324512.113805771 0 -34324512.113805771 48041609.021715164 0 0 0 0 -84001051.118611827 -73860502.745827466 0 -73860502.745827466 21616227.060401917 0 0 0 0 -85313724.744199648 -11719647.005083293 0 -11719647.005083293 31606448.23692131 0 0 0 0 -9390095.7321507931 -32260238.108603477 0 -32260238.108603477 35838755.58011961 0 0 0 0 77384077.400976181 -66337114.237855911 0 -66337114.237855911 -30757329.364395142 0 0 0 0 -656960.89884185791 -33680510.970009089 0 -33680510.970009089 -12887133.794723511 0 0 0 0 25638561.348873138 -20486289.300956726 0 -20486289.300956726 -64518765.996459961 0 0 0 0 54575684.204719543 -100408106.76393509 0 -100408106.76393509 -32853623.919828415 0 0 0 0 2216950.8484077454 -96397709.569084167 0 -96397709.569084167 2179285.2872867584 0 0 0 0 71046819.419002533 -128523388.88289642 0 -128523388.88289642 54235888.138816833 0 0 0 0 68688036.1563797 -105198095.91399384 0 -105198095.91399384 -238401.18382930756 0 0 0 0 -67893652.99388504 -160197461.29411697 0 -160197461.29411697 91625096.463050842 0 0 0 0 -2084099.8118438721 -56160704.031600952 0 -56160704.031600952 10554950.12184906 0 0 0 0 2293270.2168006897 -41690279.428889275 0 -41690279.428889275 28002585.854873657 0 0 0 0 1325521.3302154541 -39492979.084644318 0 -39492979.084644318 24231969.959336281 0 0 0 0 -25587564.209754944 -52306716.424592972 0 -52306716.424592972 24680973.295646667 0 0 0 0 -5948520.7447052002 -66557443.932838917 0 -66557443.932838917 20500010.519493103 0 0 0 0 -14462640.242034912 -64712222.758377075 0 -64712222.758377075 35034856.619491577 0 0 0 0 -113942152.40190506 -43719575.447544098 0 -43719575.447544098 36990140.953535318 0 0 0 0 -35991900.035293579 -23905597.231372833 0 -23905597.231372833 2693763.7920646667 0 0 0 0 4785653.5246543884 -36579176.695537567 0 -36579176.695537567 6543915.3923149109 0 0 0 0 27918300.36290741 -30915648.909374237 0 -30915648.909374237 -10699213.689842224 0 0 0 0 9105267.6698760986 -24569514.43403244 0 -24569514.43403244 -2510308.2009391785 0 0 0 0 35342639.536040306 -49114153.858383179 0 -49114153.858383179 20406851.515869141 0 0 0 0 9291697.1575469971 -28504979.300109863 0 -28504979.300109863 33922169.3253479 0 0 0 0 -10205698.151348114 -29287464.483348846 0 -29287464.483348846 23397018.052635193 0 0 0 0 5083810.0012969971 -37533036.767009735 0 -37533036.767009735 26251757.595603943 0 0 0 0 7551186.4006481171 -29367912.84604454 0 -29367912.84604454 31123869.60609436 0 0 0 0 13900068.486915588 -22420169.25276947 0 -22420169.25276947 36871506.414779663 0 0 0 0 -46238429.535512924 8983516.2286396027 0 8983516.2286396027 -27725585.215629578 0 0 0 0 33960873.474393845 -12792482.962648392 0 -12792482.962648392 -39396251.439727783 0 0 0 0 41282936.781421661 913635.76120948792 0 913635.76120948792 -52396381.433769226 0 0 0 0 31946499.565763474 -24449854.614573479 0 -24449854.614573479 -52072688.523300171 0 0 0 0 -444264.5396232605 -4246946.8646430969 0 -4246946.8646430969 -31711872.300251007 0 0 0 0 -36667394.805785656 -19785594.265852928 0 -19785594.265852928 -21380904.389122009 0 0 0 0 -211422189.50356293 -37477996.919403076 0 -37477996.919403076 -10013402.077606201 0 0 0 0 -208171940.40955162 37258744.762544632 0 37258744.762544632 27670787.178661346 0 0 0 0 -45393362.015358925 9832099.944149971 0 9832099.944149971 -36908153.181182861 0 0 0 0 1586271.1375293732 8837005.3644256592 0 8837005.3644256592 29359916.931613922 0 0 0 0 -744763.67614891473 -58908.401776222512 0 -58908.401776222512 2152859.5692874454 0 0 0 0 -215629886.88263702 22898358.157197952 0 22898358.157197952 7669006.8293876648 0 0 0 0 -216361585.88830781 83128149.015093148 0 83128149.015093148 -20279892.530563354 0 0 0 0 -433526.79818223417 -38230.372160099447 0 -38230.372160099447 350419.4983073771 0 0 0 0 121908775.40291214 -208511467.46748352 0 -208511467.46748352 103919652.6982975 0 0 0 0 145446194.62036037 -83870807.144028664 0 -83870807.144028664 77067458.189300537 0 0 0 0 100264362.43959188 -45191889.97253418 0 -45191889.97253418 19225272.320281982 0 0 0 0 95672427.284744263 -112943028.52082825 0 -112943028.52082825 200474861.65253448 0 0 0 0 134795807.55369568 -107483322.58246422 0 -107483322.58246422 34207907.544754028 0 0 0 0 -1376883.6806949712 -1659672.4438146818 0 -1659672.4438146818 -768351.84174837731 0 0 0 0 217063743.49320221 -141575580.01551437 0 -141575580.01551437 83864785.525291443 0 0 0 0 148270883.49967575 -224187637.49230194 0 -224187637.49230194 195080519.12307167 0 0 0 0 -53858083.689601898 28332493.189070702 0 28332493.189070702 23540440.656929016 0 0 0 0 -54895223.729253769 66651015.554164886 0 66651015.554164886 -31473298.258861542 0 0 0 0 -529699.24795393972 -43406.469967949204 0 -43406.469967949204 1966667.6025675833 0 0 0 0 61848234.356191635 18088447.872812271 0 18088447.872812271 -24242518.975488663 0 0 0 0 -73516280.204515457 88885149.745918274 0 88885149.745918274 17402324.257072449 0 0 0 0 -355399985.27818489 13636976.185773849 0 13636976.185773849 31478275.921145678 0 0 0 0 71134968.479056358 250210360.84788084 0 250210360.84788084 37025797.576057434 0 0 0 0 352599605.9017849 -69490252.363197327 0 -69490252.363197327 -112111467.99208736 0 0 0 0 -289612072.30027688 -374867679.73117542 0 -374867679.73117542 -206190115.11656189 0 0 0 0 -274300390.00092697 -296353914.55673218 0 -296353914.55673218 -100487286.18200302 0 0 0 0 -248981554.82512498 -436535017.65684617 0 -436535017.65684617 -426081845.69122696 0 0 0 0 -68028032.08067894 -73176773.030569077 0 -73176773.030569077 -139473199.39765167 0 0 0 0 -147467281.03928375 -80319259.609618187 0 -80319259.609618187 -29716224.251602173 0 0 0 0 -81121189.290252686 -172769126.49019241 0 -172769126.49019241 -257680039.20972061 0 0 0 0 -102712661.51585007 -26293046.958873749 0 -26293046.958873749 15850876.567344666 0 0 0 0 -49311359.779754639 -27946424.598526001 0 -27946424.598526001 -76702197.513355255 0 0 0 0 -8698666.7197532654 17909486.606479645 0 17909486.606479645 -44408938.827423096 0 0 0 0 20991660.831727028 -36648878.985389709 0 -36648878.985389709 14167870.755409241 0 0 0 0 79278803.569648743 -26515479.318050385 0 -26515479.318050385 7488524.2610054016 0 0 0 0 48443559.84116745 -92608008.91910553 0 -92608008.91910553 102107543.5022583 0 0 0 0 77346618.035484314 -63607104.54357338 0 -63607104.54357338 138754430.59774399 0 0 0 0 21670368.706611633 -115076060.58911133 0 -115076060.58911133 92022546.771728516 0 0 0 0 -306298866.61561584 -169997600.42229271 0 -169997600.42229271 94029389.025377274 0 0 0 0 23641096.989933014 -49979784.749126434 0 -49979784.749126434 -29576913.8360672 0 0 0 0 -625626891.60892105 -345754926.78793526 0 -345754926.78793526 214447981.52636337 0 0 0 0 31421619.435297012 -36181237.450929642 0 -36181237.450929642 110365387.13528442 0 0 0 0 128268738.67910004 -269713873.4667244 0 -269713873.4667244 178718992.96511269 0 0 0 0 -1197389.7600785065 -1414878.1449236926 0 -1414878.1449236926 -865070.161951188 0 0 0 0 -1060213.652510643 -59138347.571635246 0 -59138347.571635246 13826289.210391998 0 0 0 0 -178994108.16481018 -63378210.56785965 0 -63378210.56785965 27124474.818270683 0 0 0 0 -44674731.088338852 -105497568.29491806 0 -105497568.29491806 -203759024.04087067 0 0 0 0 -563972.94808779657 -609201.37491546199 0 -609201.37491546199 -384479.62841927074 0 0 0 0 -181119453.19023132 -552184685.74361992 0 -552184685.74361992 -678798172.70330429 0 0 0 0 -426803210.3903532 -681298877.08412552 0 -681298877.08412552 -452862440.27236176 0 0 0 0 -337801854.04413033 -470316325.02596664 0 -470316325.02596664 -125781793.02072334 0 0 0 0 -337986568.62828588 -466665370.70423734 0 -466665370.70423734 -179722703.75015259 0 0 0 0 -444486106.79969025 -376821072.27462769 0 -376821072.27462769 -255478668.50246429 0 0 0 0 -346773782.54323864 -221405131.41566563 0 -221405131.41566563 -30794512.213829041 0 0 0 0 -406782.18586472981 -184094.74208162166 0 -184094.74208162166 125479.90904856473 0 0 0 0 -471807938.38998604 -46072849.631035805 0 -46072849.631035805 -26270118.969409943 0 0 0 0 -732665098.92423058 -222753108.89539909 0 -222753108.89539909 354327626.16226959 0 0 0 0 -883226409.86814117 10557988.820720673 0 10557988.820720673 322775558.29801941 0 0 0 0 -815948363.45651245 -418941982.47048378 0 -418941982.47048378 -35271508.922507823 0 0 0 0 -586795938.12287903 -605623037.68252182 0 -605623037.68252182 -246647452.16097832 0 0 0 0 -47209837.987117767 9548182.7388343811 0 9548182.7388343811 -35820305.626598358 0 0 0 0 -39700896.471235275 29540317.776823044 0 29540317.776823044 17231186.498512268 0 0 0 0 -1944931.9001541138 -18656506.577581406 0 -18656506.577581406 -34621911.590603352 0 0 0 0 -129112148.40847778 -34110451.920940399 0 -34110451.920940399 -36495147.674617767 0 0 0 0 -21358521.073200226 52381550.02179718 0 52381550.02179718 -10522339.957931519 0 0 0 0 -62988363.295051575 19138457.501600266 0 19138457.501600266 -20519983.043071747 0 0 0 0 -595693.82790255826 -4922391.1949608456 0 -4922391.1949608456 -9731036.6412994303 0 0 0 0 -2034501.1594486237 -10297782.960899353 0 -10297782.960899353 -41654181.063835144 0 0 0 0 3362802.5991015621 2538484.1752769323 0 2538484.1752769323 -5163686.2754649939 0 0 0 0 -1888521.3314559497 -5591769.8545085471 0 -5591769.8545085471 -1513570.8233217918 0 0 0 0 -365875.19434976578 -1466162.3652434349 0 -1466162.3652434349 325807.18740844727 0 0 0 0 59969184.532886505 39301504.074325562 0 39301504.074325562 -77668385.921669006 0 0 0 0 -2529010.034034133 -6282960.5580688044 0 -6282960.5580688044 -1394474.0662711281 0 0 0 0 73891176.848417282 -98785699.323206902 0 -98785699.323206902 -122283301.58550262 0 0 0 0 -25741961.796527863 1159545983.8293076 0 1159545983.8293076 507762306.89432144 0 0 0 0 207319796.32124329 140107998.3028183 0 140107998.3028183 -18580193.786975384 0 0 0 0 -13606308.9152565 509743682.54223919 0 509743682.54223919 608477138.01357269 0 0 0 0 324985129.07616329 -133273312.35684156 0 -133273312.35684156 50392032.728096008 0 0 0 0 -1600420686.1001816 108084648.14310455 0 108084648.14310455 1124129139.3668556 0 0 0 0 -183097000.89784145 32310631.381319046 0 32310631.381319046 97332577.319473267 0 0 0 0 -492703050.49762726 -1137712701.3992157 0 -1137712701.3992157 -2947939043.0851307 0 0 0 0 -2029336164.172863 1053636023.969883 0 1053636023.969883 -479633558.35745239 0 0 0 0 869033105.98697281 -267754130.87256622 0 -267754130.87256622 -581387548.89925385 0 0 0 0 -6497108.3342494965 4729722.9074246883 0 4729722.9074246883 -15925260.944810867 0 0 0 0 2097130.483284513 -7864227.9205394844 0 -7864227.9205394844 -13423316.85632837 0 0 0 0 -1142440090.4140396 -601308791.93130875 0 -601308791.93130875 102239978.30358124 0 0 0 0 -2414474011.8699455 -937212735.64677048 0 -937212735.64677048 472082194.78876495 0 0 0 0 -5871606.4964532489 -1163668.1968889069 0 -1163668.1968889069 1531334.779495189 0 0 0 0 -579804831.75004005 -1219555029.0538158 0 -1219555029.0538158 -2083000193.642952 0 0 0 0 -219056684.39822769 -304367349.57256317 0 -304367349.57256317 -294088509.12991142 0 0 0 0 29137130.48603487 -61692419.179931164 0 -61692419.179931164 -173438838.46815777 0 0 0 0 28414663.26955843 -32070493.457284927 0 -32070493.457284927 3183245.1271224022 0 0 0 0 -940347812.97741342 -590051166.25475061 0 -590051166.25475061 58268098.772396088 0 0 0 0 -1273490508.0012817 -891425703.79370308 0 -891425703.79370308 -76216728.92216301 0 0 0 0 -941031569.66836119 -589944159.94430304 0 -589944159.94430304 187528240.11439133 0 0 0 0 -1420049738.121624 -630832047.05202675 0 -630832047.05202675 447099538.82186508 0 0 0 0 -1758306381.6696854 406813421.63678741 0 406813421.63678741 150889105.79855537 0 0 0 0 -2502941774.7298288 -980375117.54940701 0 -980375117.54940701 373585019.33979034 0 0 0 0 -420141715.86412811 -1110292068.3475857 0 -1110292068.3475857 -321201615.0340271 0 0 0 0 -1381996859.4464607 -530693365.19475174 0 -530693365.19475174 604714921.83712769 0 0 0 0 -28747433.300601959 7204228.5225596428 0 7204228.5225596428 -1402159.8546009064 0 0 0 0 420308955.31759453 -259246826.82009315 0 -259246826.82009315 136237397.81851959 0 0 0 0 -1119931.7456970215 6964039.8085260391 0 6964039.8085260391 -15157296.336867332 0 0 0 0 112386.89795447281 -8304363.700737115 0 -8304363.700737115 -8326880.2567056771 0 0 0 0 -27590024.948535919 3846403.4318292141 0 3846403.4318292141 8337059.2588977814 0 0 0 0 -34198811.534908295 -35836140.411668539 0 -35836140.411668539 -8207615.163469553 0 0 0 0 -12378512.491344452 -13705493.839425087 0 -13705493.839425087 1950112.6961517334 0 0 0 0 -16642351.71628952 -3534376.1622724533 0 -3534376.1622724533 -22042377.005702972 0 0 0 0 -3116496521.0202217 -346386827.9886837 0 -346386827.9886837 98815626.413097382 0 0 0 0 -1806044308.2090454 -928288971.38204384 0 -928288971.38204384 482615204.69657898 0 0 0 0 -1366653841.5791359 -396498548.30688477 0 -396498548.30688477 -194594352.44188309 0 0 0 0 357209.55195727199 -512335.92527343519 0 -512335.92527343519 -860382.34262896888 0 0 0 0 -1295797142.0581093 -783698759.90271187 0 -783698759.90271187 -155677544.61875534 0 0 0 0 -346854.00487387413 -1437197.5584757105 0 -1437197.5584757105 -2100203.356882887 0 0 0 0 -1492144596.1213098 338985149.67782044 0 338985149.67782044 -1256755682.3951054 0 0 0 0 -1282830285.2804565 -1368666175.0857182 0 -1368666175.0857182 -1125037069.158884 0 0 0 0 -2585089308.6799965 -1252758106.4462028 0 -1252758106.4462028 -223485147.7025423 0 0 0 0 -9524536.5197505951 -117933591.32726443 0 -117933591.32726443 -1030080793.2415762 0 0 0 0 3139405.3519827239 -2293227.864776162 0 -2293227.864776162 -6367918.6592280921 0 0 0 0 -902870652.55970716 -1484958087.7239246 0 -1484958087.7239246 -712475732.69236565 0 0 0 0 2155877.338921681 -1035851.3471397636 0 -1035851.3471397636 -1339059.2755310209 0 0 0 0 -625817592.45687103 -254880164.71617413 0 -254880164.71617413 151455961.13199139 0 0 0 0 -791680012.37400436 -675195851.42056084 0 -675195851.42056084 356447587.65153933 0 0 0 0 -1189292142.361362 -499146530.59930384 0 -499146530.59930384 37761771.974209785 0 0 0 0 -633233134.8529129 -772309465.15803337 0 -772309465.15803337 19225418.267696261 0 0 0 0 -40784640.03189671 -114276139.63761573 0 -114276139.63761573 -41264054.402926207 0 0 0 0 -9548359.9073762894 27777709.756455421 0 27777709.756455421 825533.5644056201 0 0 0 0 -41708679.574966431 -50349902.797258019 0 -50349902.797258019 6639766.6324567795 0 0 0 0 -239408347.07130051 493456040.35241318 0 493456040.35241318 -477192582.81074142 0 0 0 0 -861403120.86259079 -361785327.87139702 0 -361785327.87139702 186557947.4072566 0 0 0 0 4428944.2637238558 -4007247.9697860861 0 -4007247.9697860861 -4290656.5251603136 0 0 0 0 -589754779.5044136 -423145887.79853725 0 -423145887.79853725 -462512923.46277809 0 0 0 0 401257657.01448822 -136077328.44315052 0 -136077328.44315052 -153100255.74984026 0 0 0 0 519548168.57992172 -176420674.67641783 0 -176420674.67641783 -148481716.34006977 0 0 0 0 411135704.31027603 -164954970.12837601 0 -164954970.12837601 -125021411.35923672 0 0 0 0 245363786.76409149 -105645218.91606832 0 -105645218.91606832 -27218999.476913452 0 0 0 0 260666670.97049332 -85451666.99323225 0 -85451666.99323225 -83799938.757183075 0 0 0 0 356981325.95988083 -181800761.8849504 0 -181800761.8849504 -95271205.867084503 0 0 0 0 198868568.55665779 -204379375.04399997 0 -204379375.04399997 -10832512.11511755 0 0 0 0 57823285.245052338 -131837933.14252996 0 -131837933.14252996 8917282.4591293335 0 0 0 0 195402251.25419235 -211134405.65059263 0 -211134405.65059263 -19503704.908834934 0 0 0 0 379157792.07066345 -417738780.81480277 0 -417738780.81480277 174428836.03022486 0 0 0 0 417073326.66503906 -206862668.55948353 0 -206862668.55948353 -85738658.139292002 0 0 0 0 420079371.5229845 -227281502.73411649 0 -227281502.73411649 -147948147.08516455 0 0 0 0 604068492.81999207 -396350003.12462783 0 -396350003.12462783 -37840424.836403728 0 0 0 0 545607806.52045441 -306325784.57768428 0 -306325784.57768428 -142601469.75229692 0 0 0 0 1139712732.5105572 256664853.58560231 0 256664853.58560231 -343868168.65608931 0 0 0 0 116291696.28747559 235525250.64001012 0 235525250.64001012 -198964837.05395675 0 0 0 0 2978292.0646133125 -1822552.9477741397 0 -1822552.9477741397 -3896375.7692048941 0 0 0 0 -41033873.618103027 -20177240.425981283 0 -20177240.425981283 -24015833.503849983 0 0 0 0 -788595532.88903046 -766369126.70468044 0 -766369126.70468044 -133377574.10082698 0 0 0 0 -600778672.50139284 -319414000.03703529 0 -319414000.03703529 -337505103.14638448 0 0 0 0 46641021.584098816 13564479.403358936 0 13564479.403358936 -22868861.052602679 0 0 0 0 -37362471.4624753 -13366608.376335204 0 -13366608.376335204 21716135.157898903 0 0 0 0 138768779.07092667 -2287922.9598093033 0 -2287922.9598093033 -73137275.125831604 0 0 0 0 518627752.54094356 4011626.7982767858 0 4011626.7982767858 -147205110.07287598 0 0 0 0 132353540.08764887 -32664745.191398799 0 -32664745.191398799 -23783246.470200539 0 0 0 0 315109245.08922577 -141928451.44711876 0 -141928451.44711876 -9570710.2830495834 0 0 0 0 168566212.51438141 -100268016.62891912 0 -100268016.62891912 -19241191.213143349 0 0 0 0 26040411.389938354 -21890506.423326015 0 -21890506.423326015 29132013.411010742 0 0 0 0 9199930.6680145264 6839063.0709295273 0 6839063.0709295273 -51796.954802513123 0 0 0 0 47063074.747890472 1874483.100769043 0 1874483.100769043 2474436.7595200539 0 0 0 0 -1280947.4124908447 -3915170.1602993011 0 -3915170.1602993011 15895528.310112953 0 0 0 0 92387802.842006683 16916286.539226532 0 16916286.539226532 -20154475.19995594 0 0 0 0 70518691.156923294 -84555906.010332704 0 -84555906.010332704 97320695.222846985 0 0 0 0 -29158501.039638519 -114374321.78979874 0 -114374321.78979874 235321968.79500437 0 0 0 0 696702089.3368988 -220414282.18520641 0 -220414282.18520641 -144777929.83764362 0 0 0 0 368626238.83983803 -359292272.77193761 0 -359292272.77193761 187702115.24926949 0 0 0 0 429665486.63195801 -176599751.12694073 0 -176599751.12694073 -118099893.76197529 0 0 0 0 247374057.62915993 -2887740.1144751012 0 -2887740.1144751012 -33598452.71918869 0 0 0 0 248371131.04584503 8293789.850985527 0 8293789.850985527 -94674752.787516594 0 0 0 0 457086793.90712738 -56831751.382305145 0 -56831751.382305145 -95633305.102261543 0 0 0 0 614216362.21414185 8863014.7422513962 0 8863014.7422513962 -148207388.55810595 0 0 0 0 29738082.287010193 -239059520.41997099 0 -239059520.41997099 462929955.14800549 0 0 0 0 3405924.4358677305 167162.93160268012 0 167162.93160268012 -1492126.4582307376 0 0 0 0 227769.26641421765 -3412435.2607621644 0 -3412435.2607621644 -1689144.7989149655 0 0 0 0 1998244779.849823 -309833818.84313774 0 -309833818.84313774 -178203818.92297935 0 0 0 0 293795427.09656906 101174421.8475771 0 101174421.8475771 -117059047.86832047 0 0 0 0 1147791243.8838444 233584201.37866521 0 233584201.37866521 -360395935.9257946 0 0 0 0 1263954197.8472333 -800362833.30889344 0 -800362833.30889344 158158007.10905838 0 0 0 0 390201596.5981741 393118219.74076653 0 393118219.74076653 -333621124.37204742 0 0 0 0 926154608.79465675 -235516003.32281208 0 -235516003.32281208 -90862626.203409195 0 0 0 0 296392242.01228333 397447277.32971954 0 397447277.32971954 -179987051.20863628 0 0 0 0 286258386.41903877 476461206.34481239 0 476461206.34481239 -138246129.35000229 0 0 0 0 308510356.10191345 480183316.159338 0 480183316.159338 -207954909.78462982 0 0 0 0 266373843.58159256 452113311.12342644 0 452113311.12342644 -67933764.794136047 0 0 0 0 229166923.62905121 -719072839.47588348 0 -719072839.47588348 1112256292.5102234 0 0 0 0 3276189.6138132047 1069043.9011227386 0 1069043.9011227386 189730.13437036984 0 0 0 0 1687644153.0873661 -834779717.20842361 0 -834779717.20842361 -214747544.74805069 0 0 0 0 216671367.33480835 348388346.08146667 0 348388346.08146667 -23683272.775133133 0 0 0 0 546546126.026577 133507730.92379475 0 133507730.92379475 -118418972.50847626 0 0 0 0 -154945809.09249878 61290842.282413483 0 61290842.282413483 -121885148.69412994 0 0 0 0 8205083.5037295241 -3774222.1001009336 0 -3774222.1001009336 -5076018.3544748742 0 0 0 0 7670977.7110652924 3255116.8434791565 0 3255116.8434791565 -47600841.085763931 0 0 0 0 -228993851.15289307 -129818927.22528839 0 -129818927.22528839 -119176697.31407356 0 0 0 0 6106666.5279312134 24850944.51028347 0 24850944.51028347 -11329787.491104126 0 0 0 0 37790249.877166748 -49031605.89910984 0 -49031605.89910984 -66234057.11656189 0 0 0 0 7380939.7732622325 -1166358.024220984 0 -1166358.024220984 -3350056.515274791 0 0 0 0 643716900.11938334 -675889907.36305082 0 -675889907.36305082 -491137290.27224159 0 0 0 0 -627229789.76885986 497827117.15367126 0 497827117.15367126 623419391.93625426 0 0 0 0 -436371469.47743416 -241538191.59830475 0 -241538191.59830475 711989956.59149551 0 0 0 0 -251017860.61967087 313391388.25999451 0 313391388.25999451 -177034750.71108913 0 0 0 0 -195669659.83926773 -13904933.906402588 0 -13904933.906402588 -8710799.6290340424 0 0 0 0 -462672626.42248034 -72540261.783730984 0 -72540261.783730984 -5569324.4433135986 0 0 0 0 -4862302.2454566956 -743756.29220104218 0 -743756.29220104218 -2213644.1416130066 0 0 0 0 5165385.4970188141 -1473089.3754491806 0 -1473089.3754491806 -14390757.694084167 0 0 0 0 -4029189.6116438489 -2440379.6245086752 0 -2440379.6245086752 -1624907.4876564587 0 0 0 0 9231334.7814788818 -9772882.1437931061 0 -9772882.1437931061 -9108112.4722013474 0 0 0 0 -6940257.804359436 5231813.0198144913 0 5231813.0198144913 30825135.690990448 0 0 0 0 43877883.791385651 63257405.198404312 0 63257405.198404312 47770779.837862492 0 0 0 0 26166178.660425186 18873205.136949539 0 18873205.136949539 -7873435.915772438 0 0 0 0 -3453347.738779068 -5402792.0706186295 0 -5402792.0706186295 12829462.527276993 0 0 0 0 135180061.53180695 -131180676.52983856 0 -131180676.52983856 212422303.12695599 0 0 0 0 105229135.43341732 -421708794.91308689 0 -421708794.91308689 249071896.74423981 0 0 0 0 -256013985.53434181 -27355566.176225662 0 -27355566.176225662 901931151.63052368 0 0 0 0 941545927.25183105 14483685.548412323 0 14483685.548412323 -498466316.26238251 0 0 0 0 -815640.54997146688 -226448.20369036589 0 -226448.20369036589 -297427.76437358139 0 0 0 0 49931797.382076263 73624971.788166046 0 73624971.788166046 93316246.998939514 0 0 0 0 204750822.85292816 66227120.977294922 0 66227120.977294922 32234159.505710602 0 0 0 0 84079787.183139801 97018620.863130569 0 97018620.863130569 43615859.033146381 0 0 0 0 263323562.83521461 -80768767.621152878 0 -80768767.621152878 165990302.02174377 0 0 0 0 160692663.78380585 87223708.069843292 0 87223708.069843292 78125083.688949585 0 0 0 0 104125836.06468964 60416430.551935196 0 60416430.551935196 -98140757.838950157 0 0 0 0 172576958.91303253 20199290.639552116 0 20199290.639552116 -75596132.918109894 0 0 0 0 71077239.365104675 38689231.682040215 0 38689231.682040215 -41718979.324363708 0 0 0 0 77264943.721330643 72267991.952944756 0 72267991.952944756 -34596272.279941559 0 0 0 0 92903309.427314758 35264125.887309074 0 35264125.887309074 -86779910.587135315 0 0 0 0 85746916.917030334 -7125913.5848674774 0 -7125913.5848674774 -127192356.91473961 0 0 0 0 -50387398.668649673 -78316875.876530647 0 -78316875.876530647 -109765996.35221672 0 0 0 0 71769371.489081383 -43272495.515321255 0 -43272495.515321255 -201726879.21260834 0 0 0 0 10612043.547697067 -62602209.539073944 0 -62602209.539073944 -135106805.46513367 0 0 0 0 620809.14690208435 -53975612.324648857 0 -53975612.324648857 -79466740.653495789 0 0 0 0 53625487.27571106 -43999385.34261322 0 -43999385.34261322 -100566163.78231812 0 0 0 0 -54763442.691749334 -79928613.79262948 0 -79928613.79262948 -26192752.329971313 0 0 0 0 20270253.772361755 -47416659.252067566 0 -47416659.252067566 -45301073.125027537 0 0 0 0 -192288472.54404831 -109388666.198246 0 -109388666.198246 23060263.32485199 0 0 0 0 -49358579.605367661 -145805780.2368412 0 -145805780.2368412 -124579494.24335408 0 0 0 0 17882300.827823505 -29348108.925805554 0 -29348108.925805554 29754634.81067222 0 0 0 0 -153969332.72315979 7879454.3174438477 0 7879454.3174438477 112780700.59203339 0 0 0 0 -20581361.855316162 -71696285.06452179 0 -71696285.06452179 6890996.8769989014 0 0 0 0 -21695137.97618103 -61633977.84211731 0 -61633977.84211731 42451140.146789551 0 0 0 0 -119490893.10777664 -128160532.62097359 0 -128160532.62097359 2463167.5985717773 0 0 0 0 -8788576.3724975586 -43025303.478843689 0 -43025303.478843689 1696495.0594863892 0 0 0 0 7252821.9674987793 67769896.763793945 0 67769896.763793945 91584065.051595688 0 0 0 0 -6089909.9561004639 -9200944.3632659912 0 -9200944.3632659912 41192042.459564209 0 0 0 0 -66661302.526664734 -35849078.256004333 0 -35849078.256004333 29808753.800460815 0 0 0 0 26924770.231990814 -67290285.264808655 0 -67290285.264808655 10183302.678741455 0 0 0 0 99560410.03156662 10523929.159008026 0 10523929.159008026 -23461753.152238846 0 0 0 0 50852039.817890167 -22469485.668269157 0 -22469485.668269157 -34085722.498428345 0 0 0 0 139062825.26050568 -915552.38060760498 0 -915552.38060760498 -61315595.143817902 0 0 0 0 107091365.56416321 -34775598.840776443 0 -34775598.840776443 -69395902.11693573 0 0 0 0 154435089.834445 -33801461.693499088 0 -33801461.693499088 -64785148.645988464 0 0 0 0 3919843.0319348718 -5563660.735890232 0 -5563660.735890232 -13978964.255858896 0 0 0 0 -120857102.7691077 31842270.657785773 0 31842270.657785773 -9614533.3099136353 0 0 0 0 -328877.59474883601 -178110.79563145339 0 -178110.79563145339 81037.868877023458 0 0 0 0 -130908348.11408234 -83604032.044128418 0 -83604032.044128418 -76187918.213668823 0 0 0 0 25065690.569225311 -123751223.73947144 0 -123751223.73947144 -4074391.9873323441 0 0 0 0 73232887.365966797 34251226.971429825 0 34251226.971429825 -56314305.025758743 0 0 0 0 73560106.304004669 20904243.818239212 0 20904243.818239212 -14070493.363547087 0 0 0 0 88161635.422473907 2775701.0986690521 0 2775701.0986690521 -70155589.07967788 0 0 0 0 69442407.101663589 -1482330.3400678635 0 -1482330.3400678635 -49914443.535671234 0 0 0 0 106536614.69591904 -32338094.991817474 0 -32338094.991817474 -15511157.120704651 0 0 0 0 -101134861.31847572 24647430.864095688 0 24647430.864095688 13526502.734054565 0 0 0 0 1534268.4591596578 -3395057.9813039722 0 -3395057.9813039722 -12630839.211375086 0 0 0 0 60729111.606574535 26797312.287249565 0 26797312.287249565 -11464923.802444458 0 0 0 0 -39093315.92547226 -14558708.856395721 0 -14558708.856395721 -10649732.264944077 0 0 0 0 -656238.96099160239 -348383.60936523974 0 -348383.60936523974 138427.71772695705 0 0 0 0 -61066701.590366602 5579139.3618024588 0 5579139.3618024588 -3544535.3241043091 0 0 0 0 -142321734.4051857 59927394.732131958 0 59927394.732131958 34856668.439622879 0 0 0 0 -64390950.867515564 -28375879.534649253 0 -28375879.534649253 54903950.410629272 0 0 0 0 -34125453.006240845 40891536.975669861 0 40891536.975669861 -12661877.693527222 0 0 0 0 -80597317.203613281 26362381.861160278 0 26362381.861160278 66757287.861679077 0 0 0 0 -165727179.67840576 -166395015.10649872 0 -166395015.10649872 -161507310.34818077 0 0 0 0 -326997301.63026237 -125133434.48009682 0 -125133434.48009682 -60301653.148578644 0 0 0 0 -161307766.52077866 60338145.342906952 0 60338145.342906952 -3765666.3921127319 0 0 0 0 -176667844.54125214 48240657.954376221 0 48240657.954376221 83538070.682006836 0 0 0 0 -167724354.48824883 -13959191.094552994 0 -13959191.094552994 64685174.037151337 0 0 0 0 -110696440.47534943 17479135.858970642 0 17479135.858970642 -15654481.286680222 0 0 0 0 83307303.85278511 -26136741.637708664 0 -26136741.637708664 53259639.200937271 0 0 0 0 -175094020.25393677 38875730.119419098 0 38875730.119419098 86181685.466850281 0 0 0 0 -200063364.07061768 95173309.395996094 0 95173309.395996094 58612533.753372192 0 0 0 0 -589332208.53077316 -87158352.526027679 0 -87158352.526027679 44325413.647392273 0 0 0 0 -69795093.832237244 33152367.092512131 0 33152367.092512131 43893220.085205078 0 0 0 0 -85608699.623879433 32031172.249073982 0 32031172.249073982 151197912.11566544 0 0 0 0 48120613.887418747 -92159156.818035126 0 -92159156.818035126 -32393087.565887451 0 0 0 0 27374676.513504028 -3167456.8976740837 0 -3167456.8976740837 14445452.28956604 0 0 0 0 -107212346.3803978 -98197850.326557159 0 -98197850.326557159 -5983824.4707183838 0 0 0 0 -99691631.965877533 8068381.5360584259 0 8068381.5360584259 69420979.488708496 0 0 0 0 -161676286.47924995 16789417.747502327 0 16789417.747502327 86264002.197021484 0 0 0 0 -155935869.54450989 15834705.965270996 0 15834705.965270996 70508276.212806702 0 0 0 0 -181387626.89286423 -192801812.72851372 0 -192801812.72851372 -72770673.351402283 0 0 0 0 -391378532.65975189 -25404283.806179047 0 -25404283.806179047 81745252.933393002 0 0 0 0 27978064.97354126 -107025668.63430023 0 -107025668.63430023 -98970899.816995621 0 0 0 0 -8242686.8689346313 -36847880.927288055 0 -36847880.927288055 -948254.24760437012 0 0 0 0 -26768814.552787781 -83245871.646186829 0 -83245871.646186829 -20051314.085540771 0 0 0 0 -20332402.66100502 -92760988.540222168 0 -92760988.540222168 -38465553.137519836 0 0 0 0 -11646906.786956787 -78273258.656364441 0 -78273258.656364441 -14336592.468570709 0 0 0 0 1773138.1329193115 -40629111.683509827 0 -40629111.683509827 -32170851.149116516 0 0 0 0 -7003681.3943767548 -44420272.136819839 0 -44420272.136819839 -82208.986602783203 0 0 0 0 8467108.0638046265 -21118251.234428406 0 -21118251.234428406 14038928.591842651 0 0 0 0 5034905.4750900269 -21942026.062725067 0 -21942026.062725067 25380986.57358551 0 0 0 0 20147454.468856812 -22286460.148735046 0 -22286460.148735046 18100010.12733078 0 0 0 0 2339618.0118522644 -40407362.572099686 0 -40407362.572099686 239468.62426757812 0 0 0 0 944145.32003103383 -3175833.285112923 0 -3175833.285112923 643936.82219762355 0 0 0 0 -471880405.80300331 -208390417.892313 0 -208390417.892313 -63842870.171676636 0 0 0 0 101287270.09008026 -46076188.926994324 0 -46076188.926994324 -48454481.038074493 0 0 0 0 414473.53615963086 -857379.89891072363 0 -857379.89891072363 784891.14960488304 0 0 0 0 18323072.703549385 -25967409.438961983 0 -25967409.438961983 35478603.072738647 0 0 0 0 -400301983.26030731 220838004.3684082 0 220838004.3684082 246159068.49777985 0 0 0 0 -182900960.41350555 -265064984.73121262 0 -265064984.73121262 -588042015.7724762 0 0 0 0 -4241126.2686672211 -7036361.1199302673 0 -7036361.1199302673 9416331.7542953491 0 0 0 0 -2009348.6089888138 -5654789.4184556305 0 -5654789.4184556305 10230384.87744873 0 0 0 0 11618615.171222687 -20911131.127101898 0 -20911131.127101898 22851334.28478241 0 0 0 0 5168828.1209079139 -8935066.9318478014 0 -8935066.9318478014 2046263.3815093003 0 0 0 0 15415541.409731865 -20762840.368647575 0 -20762840.368647575 22799954.036323547 0 0 0 0 21016874.911689758 -40376044.731304169 0 -40376044.731304169 35848540.212407231 0 0 0 0 4763051.9255388398 -6161512.953037262 0 -6161512.953037262 265588.60933854803 0 0 0 0 23985686.627655029 -37221415.725708008 0 -37221415.725708008 26243527.978601456 0 0 0 0 -1891089.5132208932 -1459992.0856725983 0 -1459992.0856725983 -592748.83314801753 0 0 0 0 135233525.91789103 -219822136.07869339 0 -219822136.07869339 174017333.73151779 0 0 0 0 109048828.80641556 -184875197.03083038 0 -184875197.03083038 223997726.79130554 0 0 0 0 -29294136.06603241 154689052.08915138 0 154689052.08915138 -2966268.3623657227 0 0 0 0 100706297.06140518 -181099389.06322098 0 -181099389.06322098 -218762196.85124969 0 0 0 0 -553816196.56477547 -132479942.08612442 0 -132479942.08612442 210281448.44891357 0 0 0 0 -919514.28172797523 -594680.70297691785 0 -594680.70297691785 -178210.47607216239 0 0 0 0 139251692.4576664 -60804205.803304672 0 -60804205.803304672 -81371163.43711853 0 0 0 0 138942376.13138199 -44497587.569616318 0 -44497587.569616318 -60537801.02230835 0 0 0 0 9406545.0699806213 -117846758.96598434 0 -117846758.96598434 -32526112.67634201 0 0 0 0 160571111.49356079 -98118392.532272339 0 -98118392.532272339 -126277102.7532692 0 0 0 0 7953648.1626417041 -182981588.39134502 0 -182981588.39134502 620365.66928100586 0 0 0 0 -209632498.59654236 -373028025.91642761 0 -373028025.91642761 -159568872.0912323 0 0 0 0 -205298633.87077332 -126047500.19112778 0 -126047500.19112778 39156710.418121338 0 0 0 0 -31981493.058215141 -75142362.220796585 0 -75142362.220796585 -4784759.0027084351 0 0 0 0 -38685038.340129852 -83876060.56774807 0 -83876060.56774807 48067700.370864868 0 0 0 0 69231914.135037422 -48262748.707494736 0 -48262748.707494736 -24740737.001846313 0 0 0 0 47303519.192798615 -101974900.9507103 0 -101974900.9507103 -26325883.461210251 0 0 0 0 -6015015.861574173 -5971601.3737831116 0 -5971601.3737831116 3698497.5564880371 0 0 0 0 1902662.0895948405 -12329112.610988857 0 -12329112.610988857 7201750.3287565634 0 0 0 0 -4175353.0331611633 -8788056.202255249 0 -8788056.202255249 3314788.1556091309 0 0 0 0 393138.18068099022 -10148542.95320797 0 -10148542.95320797 3583161.2227630615 0 0 0 0 -173334.25695586205 -5907991.896048069 0 -5907991.896048069 2978825.9271087646 0 0 0 0 -1169584.4585299364 -11021408.902040232 0 -11021408.902040232 13605653.314719148 0 0 0 0 -9157574.3027038574 14125929.603752136 0 14125929.603752136 58699777.420722961 0 0 0 0 -683252040.10834122 -168623143.80664444 0 -168623143.80664444 386965370.07229614 0 0 0 0 -144882765.16777802 39580876.741134644 0 39580876.741134644 236893401.1079483 0 0 0 0 -75249299.93479538 -46528788.11677742 0 -46528788.11677742 11551522.336448669 0 0 0 0 6544058.8248414993 -33523332.875778198 0 -33523332.875778198 8491300.3466719389 0 0 0 0 -371556.2247505188 -17938246.272514343 0 -17938246.272514343 8184126.3250565529 0 0 0 0 8128169.4000049233 -16823227.691994667 0 -16823227.691994667 551891.13609313965 0 0 0 0 33546826.478496552 -27176014.46723938 0 -27176014.46723938 6339362.2661972046 0 0 0 0 14353512.255491257 -26298296.210067749 0 -26298296.210067749 10180391.063262939 0 0 0 0 1993387.9250348341 -10238673.151616029 0 -10238673.151616029 2399026.9718664065 0 0 0 0 -962475.98004722595 -11296233.065063477 0 -11296233.065063477 5790197.9819526672 0 0 0 0 -5399740.799932003 -27207265.853427887 0 -27207265.853427887 19367931.58319664 0 0 0 0 -6724559.4479503632 -6837054.9188079834 0 -6837054.9188079834 5051861.199180603 0 0 0 0 -238436.50737953186 -5875961.0014419556 0 -5875961.0014419556 2561545.8714752197 0 0 0 0 2814303.8739339239 -7711565.766680032 0 -7711565.766680032 -381897.65145614743 0 0 0 0 -3498411.9509977768 -5513307.4602837246 0 -5513307.4602837246 8517193.1295389086 0 0 0 0 -3973166.9962720871 -9312156.1115226746 0 -9312156.1115226746 10969830.596321106 0 0 0 0 14018386.430992141 -9443800.2232915163 0 -9443800.2232915163 185164.20059204102 0 0 0 0 -22026200.688941956 28722232.414749146 0 28722232.414749146 -8042174.8310394287 0 0 0 0 -27044112.353998184 -6677511.6054229736 0 -6677511.6054229736 21556246.020393372 0 0 0 0 23983195.418833733 22317427.645484924 0 22317427.645484924 9411718.9426422119 0 0 0 0 -38349925.845126629 2585478.366027832 0 2585478.366027832 31323283.468765259 0 0 0 0 17081232.39713192 1181722.6918907166 0 1181722.6918907166 -22715063.873291016 0 0 0 0 -23202091.894091606 8160940.920539856 0 8160940.920539856 78864305.636764526 0 0 0 0 288148.51929891761 -917271.22923254035 0 -917271.22923254035 -427751.16161583364 0 0 0 0 -76649161.063206673 -73527605.190608978 0 -73527605.190608978 4007017.7871398926 0 0 0 0 -19375537.09495163 -61060896.669395447 0 -61060896.669395447 -3033008.8964309692 0 0 0 0 -65482769.513887405 -41758739.089752197 0 -41758739.089752197 27750916.937606812 0 0 0 0 -19355011.414983749 -31983298.270507812 0 -31983298.270507812 27692845.417266846 0 0 0 0 14205039.121999741 -4461024.0167694092 0 -4461024.0167694092 45205121.932685852 0 0 0 0 -22203505.946472712 -16065381.293720607 0 -16065381.293720607 10719316.838365346 0 0 0 0 -12030359.903980255 -28624212.806499481 0 -28624212.806499481 26840439.434116364 0 0 0 0 -9183292.4099826813 -44895492.052915573 0 -44895492.052915573 52062469.844070435 0 0 0 0 -35811222.952032089 -49678001.271255493 0 -49678001.271255493 41639480.332977295 0 0 0 0 -13207572.264172975 -16912599.868503001 0 -16912599.868503001 11956442.362500109 0 0 0 0 -46318853.382667542 -3988463.1121082306 0 -3988463.1121082306 38496835.947036743 0 0 0 0 -14634243.131164551 -35809776.18075943 0 -35809776.18075943 30892633.840423584 0 0 0 0 -56101014.849594116 -37059601.169734955 0 -37059601.169734955 24851000.135627747 0 0 0 0 13672301.740451332 -30919325.790298741 0 -30919325.790298741 25626193.974271461 0 0 0 0 -49293275.941815376 -30934700.106495857 0 -30934700.106495857 30244560.313598633 0 0 0 0 -42220197.042826653 -53514018.089544296 0 -53514018.089544296 28303185.466201782 0 0 0 0 47882304.724157333 -87307421.935639381 0 -87307421.935639381 -31400362.165066719 0 0 0 0 70706796.672424316 768712.1036529541 0 768712.1036529541 7693984.4614715576 0 0 0 0 6587617.22450497 -16788463.949758798 0 -16788463.949758798 -10948659.953880966 0 0 0 0 45186397.279340744 -80242925.464489937 0 -80242925.464489937 -46919431.761069059 0 0 0 0 45539051.771576047 -26230366.205336928 0 -26230366.205336928 14182220.908874512 0 0 0 0 44552017.726886511 -4474397.7858166695 0 -4474397.7858166695 20097514.394546509 0 0 0 0 16991736.344589233 -12530898.000762939 0 -12530898.000762939 19571184.905273438 0 0 0 0 13572593.452079773 -15972575.325202942 0 -15972575.325202942 20447015.858306885 0 0 0 0 -1012597.3867053986 -28345804.034696579 0 -28345804.034696579 20857605.963851929 0 0 0 0 9097839.2937011719 -23195545.538864136 0 -23195545.538864136 15690347.079811096 0 0 0 0 36174510.593642712 -30780943.275781631 0 -30780943.275781631 20304286.119529724 0 0 0 0 18295703.669761658 -20584915.093631744 0 -20584915.093631744 22830563.016204834 0 0 0 0 33966027.05418396 -12890871.403373718 0 -12890871.403373718 17523433.199317932 0 0 0 0 21674181.15512085 -20175216.196868896 0 -20175216.196868896 22787339.171554565 0 0 0 0 29980196.121398926 -24618158.301063538 0 -24618158.301063538 20761665.014923096 0 0 0 0 -3945595.6833591461 -8418896.9427337646 0 -8418896.9427337646 4274410.8835983276 0 0 0 0 10382357.746490479 -19279844.31438446 0 -19279844.31438446 18306701.486564636 0 0 0 0 1441042.7601135746 -14578252.42557844 0 -14578252.42557844 6020711.7233039215 0 0 0 0 18895708.236404419 -25015052.442687988 0 -25015052.442687988 22159949.845714569 0 0 0 0 11504146.664304316 -24542238.112314641 0 -24542238.112314641 20688271.900993347 0 0 0 0 12983555.889175415 -21495807.627010345 0 -21495807.627010345 25394082.445415497 0 0 0 0 12940473.962524414 -21035252.55128479 0 -21035252.55128479 24868777.362342834 0 0 0 0 -3681451.9005661011 -7752339.5610809326 0 -7752339.5610809326 -2734227.9255371094 0 0 0 0 12040012.239654541 -13103205.518096924 0 -13103205.518096924 24220010.370803833 0 0 0 0 -3916242.0188675616 -8590549.859702263 0 -8590549.859702263 10426870.476630345 0 0 0 0 22907784.85459137 -30204956.182762146 0 -30204956.182762146 27198764.432312012 0 0 0 0 5237518.6293329392 -16573586.308287444 0 -16573586.308287444 -1466292.5581526533 0 0 0 0 1341444.7040154207 -1452759.4898492265 0 -1452759.4898492265 533936.45802379027 0 0 0 0 24928951.886779785 -20414306.699157715 0 -20414306.699157715 31012232.516479492 0 0 0 0 912905.67080043303 -20584987.33032921 0 -20584987.33032921 14737056.578265026 0 0 0 0 644881.28749084473 -6577607.4802627563 0 -6577607.4802627563 1047940.4376831055 0 0 0 0 1869285.2869325406 -9693183.2093061134 0 -9693183.2093061134 10013945.469480284 0 0 0 0 286576800.43303299 327479374.53724098 0 327479374.53724098 3874482.4139709473 0 0 0 0 -449611797.88557816 121342452.77702713 0 121342452.77702713 118367575.73726654 0 0 0 0 49118940.163381577 106686358.35677528 0 106686358.35677528 37789493.744873047 0 0 0 0 279490328.46649933 -13179387.588237762 0 -13179387.588237762 67777817.680404663 0 0 0 0 -4508.7608455326408 -408144.02730622422 0 -408144.02730622422 377184.50570085272 0 0 0 0 -412481706.98385429 -294258877.8836422 0 -294258877.8836422 65363330.823112488 0 0 0 0 3686596.4249124527 72011175.639196396 0 72011175.639196396 68112671.564781189 0 0 0 0 73726667.379806519 155712772.68781662 0 155712772.68781662 72534454.621139526 0 0 0 0 141815555.19233513 -271054318.88278246 0 -271054318.88278246 146468502.77048111 0 0 0 0 -229092.8602592526 -430540.44963640161 0 -430540.44963640161 1305959.5095164143 0 0 0 0 -547206420.93341827 33105442.743080139 0 33105442.743080139 156397919.58067846 0 0 0 0 2028409.6790323257 -2711998.1743831635 0 -2711998.1743831635 -34509240.385829926 0 0 0 0 -248698372.84980774 -190185716.55624962 0 -190185716.55624962 -84731544.981347561 0 0 0 0 -387518606.68358612 -350456281.68410301 0 -350456281.68410301 124309749.96722794 0 0 0 0 -1012693774.0245056 -695355166.58790016 0 -695355166.58790016 -50323360.776790619 0 0 0 0 -1133249832.3761215 -90538596.989048004 0 -90538596.989048004 283231859.96278572 0 0 0 0 -410787592.60848236 -273504590.44704056 0 -273504590.44704056 -62970534.298684597 0 0 0 0 -351101848.39749527 -325556732.72750092 0 -325556732.72750092 65172753.358119011 0 0 0 0 74694084.30773735 -66630094.550647736 0 -66630094.550647736 -72050329.68944931 0 0 0 0 -922862.12407084927 -729874.22185404785 0 -729874.22185404785 -333120.23939708434 0 0 0 0 -556063071.83632088 -122687770.43804145 0 -122687770.43804145 379957643.98706055 0 0 0 0 -474043712.36348724 -559978675.58743906 0 -559978675.58743906 -282882877.79530334 0 0 0 0 -642639639.04597664 -553947045.83368301 0 -553947045.83368301 -19390934.800706863 0 0 0 0 -238612100.30328655 -160619456.50023174 0 -160619456.50023174 -277992112.45274734 0 0 0 0 -621578391.27275467 -426348159.77533722 0 -426348159.77533722 -273526081.76540327 0 0 0 0 -541914896.78904533 -589594399.19722366 0 -589594399.19722366 -219717961.93917847 0 0 0 0 52444010.990619659 -498279008.42989922 0 -498279008.42989922 -485658039.77976799 0 0 0 0 -569055518.27576303 -621237640.13866735 0 -621237640.13866735 -245050082.20712662 0 0 0 0 -296933893.46852684 -245488394.48401451 0 -245488394.48401451 -465131334.44190001 0 0 0 0 -296084923.51042557 -314211240.95890522 0 -314211240.95890522 -233576299.33413315 0 0 0 0 11045408.180812836 -135210839.06298065 0 -135210839.06298065 -263366469.54530573 0 0 0 0 15062900.388261795 -249677142.57903481 0 -249677142.57903481 269484531.69069672 0 0 0 0 -14784094.231719971 -10987036.941064835 0 -10987036.941064835 40571732.407688141 0 0 0 0 83485053.649852753 -256609379.89050674 0 -256609379.89050674 263503996.84740448 0 0 0 0 -1953026.2654887624 -1576419.7137369402 0 -1576419.7137369402 -692708.41370904818 0 0 0 0 148081177.06744957 -189309811.36249924 0 -189309811.36249924 -38033650.840606689 0 0 0 0 95209598.836618423 -17933136.938062668 0 -17933136.938062668 -801871.43690490723 0 0 0 0 21438626.80330658 -98572589.361204147 0 -98572589.361204147 -86864043.929634094 0 0 0 0 -223029.3882454196 -2787057.8171990579 0 -2787057.8171990579 -1440461.9628536478 0 0 0 0 192307493.36114693 -3327614.7571716309 0 -3327614.7571716309 -53657328.197364807 0 0 0 0 58950872.424098969 -41124033.37512207 0 -41124033.37512207 -17270603.564373016 0 0 0 0 74590355.071035385 -34215395.103691101 0 -34215395.103691101 -28499547.246692657 0 0 0 0 2008803.9603942409 -12705587.785849638 0 -12705587.785849638 -7990802.9231583811 0 0 0 0 -16114538.927024841 -52820029.722145081 0 -52820029.722145081 -20461090.831205368 0 0 0 0 -5673138.2971198484 -3273770.4110743329 0 -3273770.4110743329 8905995.8639044538 0 0 0 0 -90849644.735015869 -23252653.972281456 0 -23252653.972281456 31560634.430969238 0 0 0 0 -113385530.69692039 -101911021.76416111 0 -101911021.76416111 -68314947.655563354 0 0 0 0 -64161195.259819031 -51132172.078924179 0 -51132172.078924179 -16000577.856246948 0 0 0 0 -65429558.210136414 -45611288.564472198 0 -45611288.564472198 -25969017.294734955 0 0 0 0 -74886240.052696228 -55765425.176204681 0 -55765425.176204681 24370634.738063812 0 0 0 0 -66357473.736715317 -34536021.118120193 0 -34536021.118120193 1764830.1574134827 0 0 0 0 -40891759.768398285 -38741354.011831284 0 -38741354.011831284 48650468.642333984 0 0 0 0 -47320825.443049431 -60969641.19926548 0 -60969641.19926548 -13905571.647186279 0 0 0 0 -87283193.331062317 -33573010.315574646 0 -33573010.315574646 -11235914.03305006 0 0 0 0 -10030049.902736664 -44925214.831199646 0 -44925214.831199646 -136803444.19706726 0 0 0 0 -182931659.18966293 -132097442.51304626 0 -132097442.51304626 -112041249.14961243 0 0 0 0 2182905.1522293091 -21634029.916296959 0 -21634029.916296959 -112146765.10610962 0 0 0 0 -71207657.485767365 -8896561.7042217255 0 -8896561.7042217255 -74866839.054111481 0 0 0 0 -162770266.43964005 -90201594.485208511 0 -90201594.485208511 43009597.509075165 0 0 0 0 -130143610.91858387 -199137686.99632025 0 -199137686.99632025 -260041856.82292938 0 0 0 0 -500044907.77163458 -789844271.71058941 0 -789844271.71058941 -527811681.56355667 0 0 0 0 -633095.45224252553 -2588276.7739506569 0 -2588276.7739506569 -2332169.2142167985 0 0 0 0 443859688.78947449 21297696.867778778 0 21297696.867778778 -408221518.74599075 0 0 0 0 -3360260027.3437734 -441025825.27957678 0 -441025825.27957678 -117970698.02896118 0 0 0 0 102534573.55987549 -382046449.73361588 0 -382046449.73361588 -739652575.61099434 0 0 0 0 68278005.43482399 -151495466.10748386 0 -151495466.10748386 35475625.207130432 0 0 0 0 -73967219.501256943 -53260529.436265945 0 -53260529.436265945 53435720.872127533 0 0 0 0 257891964.03253174 -72194132.577108383 0 -72194132.577108383 -14026683.110088348 0 0 0 0 -990721.14357634704 -7383556.9624954462 0 -7383556.9624954462 -7714684.294934243 0 0 0 0 -3189786633.7517042 714967091.43142843 0 714967091.43142843 471199691.49609375 0 0 0 0 -406218067.70866394 739016810.24221802 0 739016810.24221802 -796107336.26942444 0 0 0 0 -987805225.24575424 44758051.278827667 0 44758051.278827667 -547663631.86405563 0 0 0 0 -1650786950.6473923 -432401092.12546539 0 -432401092.12546539 -125242837.49685669 0 0 0 0 -376671813.84775543 -55327699.201225281 0 -55327699.201225281 -165914922.80734253 0 0 0 0 -429227080.75301361 -1109516343.5701599 0 -1109516343.5701599 677149460.25752258 0 0 0 0 -497420183.83193207 -142197676.00379848 0 -142197676.00379848 1084354036.6350937 0 0 0 0 299233638.33016205 -342071109.04853058 0 -342071109.04853058 -26332381.127071142 0 0 0 0 -765572601.53216553 -666071373.34270668 0 -666071373.34270668 -290668292.67198944 0 0 0 0 -72104385.809791565 -157098472.94133377 0 -157098472.94133377 -40433799.823465347 0 0 0 0 116339591.54961014 -235153069.09975433 0 -235153069.09975433 -301409367.27306366 0 0 0 0 526506526.99881744 161707469.74864197 0 161707469.74864197 -452371859.49898911 0 0 0 0 104337380.86653614 -147825564.008461 0 -147825564.008461 -854641036.93668365 0 0 0 0 -787481922.63980865 -605699743.75744247 0 -605699743.75744247 -1047012483.3453369 0 0 0 0 -395815127.94535828 155782512.95600128 0 155782512.95600128 -420755469.40274429 0 0 0 0 -462542797.99369812 254640817.71678352 0 254640817.71678352 -584239254.52975464 0 0 0 0 67827660.66591835 308877929.29616165 0 308877929.29616165 -331193410.84083557 0 0 0 0 25093042.043039322 -159036885.66632462 0 -159036885.66632462 -357230326.41890717 0 0 0 0 -23152294.047838341 -7242809.3602760807 0 -7242809.3602760807 5731930.6673453823 0 0 0 0 -323928624.7278862 99554659.20602417 0 99554659.20602417 3820580.6250457764 0 0 0 0 -449795139.0709877 -139961997.66360474 0 -139961997.66360474 220260024.56316566 0 0 0 0 9540615.649269104 -13722931.295074463 0 -13722931.295074463 -5462592.8885498047 0 0 0 0 -607694085.24697113 -69060332.47227478 0 -69060332.47227478 213243164.83623981 0 0 0 0 -681714743.819664 126659980.14042664 0 126659980.14042664 663188709.33360291 0 0 0 0 -277436233.75809479 1519376021.9949417 0 1519376021.9949417 -1991482016.0645294 0 0 0 0 -1244238060.0389481 2954635226.5637817 0 2954635226.5637817 1758293691.8053074 0 0 0 0 -683817660.2926178 -880126900.75938416 0 -880126900.75938416 263776797.84564209 0 0 0 0 -1109909138.1390533 -815209145.608078 0 -815209145.608078 1352365779.1730671 0 0 0 0 -1322017884.1595631 -309551849.78056335 0 -309551849.78056335 387463297.32199097 0 0 0 0 -729982739.40737915 -330514331.24311829 0 -330514331.24311829 361382937.31833649 0 0 0 0 -823352049.28116608 -482348572.00984192 0 -482348572.00984192 158570845.79492188 0 0 0 0 -573092502.47099209 -316621851.91129303 0 -316621851.91129303 102741869.42062378 0 0 0 0 -823919097.949718 -407228733.927369 0 -407228733.927369 -13052224.66696167 0 0 0 0 -793536291.61642456 -576610893.94204712 0 -576610893.94204712 259952321.01324463 0 0 0 0 -898756774.22356415 -561690731.98706818 0 -561690731.98706818 -203921640.68679047 0 0 0 0 -874186147.26045227 -436381361.1789093 0 -436381361.1789093 -29769124.012756348 0 0 0 0 -1006753321.7024708 -311185777.35837555 0 -311185777.35837555 -117925423.2906189 0 0 0 0 -596068109.35561371 -401284613.50169373 0 -401284613.50169373 -118962656.80386353 0 0 0 0 -342826879.86024475 -390955235.98193359 0 -390955235.98193359 -181950473.67142487 0 0 0 0 -688638464.03386497 -365770246.60168839 0 -365770246.60168839 98743752.338867188 0 0 0 0 -193442308.3968544 -130563372.58825684 0 -130563372.58825684 54061897.857177734 0 0 0 0 -155096269.01681519 -17682877.743515015 0 -17682877.743515015 19723978.814849854 0 0 0 0 -320714538.27684975 -237961814.20285034 0 -237961814.20285034 35298488.193481445 0 0 0 0 -49203096.312681198 -168656086.34946442 0 -168656086.34946442 33547145.900817871 0 0 0 0 48068923.761604309 -16463405.274078369 0 -16463405.274078369 61686751.023483276 0 0 0 0 -3679458.1435527802 -176338007.18162537 0 -176338007.18162537 -121491770.90447998 0 0 0 0 62752688.371080399 -77364564.3853302 0 -77364564.3853302 12629350.190200806 0 0 0 0 -37074088.649982452 10646160.716400146 0 10646160.716400146 -53917734.842658997 0 0 0 0 -27601105.488601685 -118358185.47668457 0 -118358185.47668457 -310324001.79088593 0 0 0 0 106050255.37250113 -132410051.08954239 0 -132410051.08954239 -161870147.77728271 0 0 0 0 99895612.134830475 -226267522.36785889 0 -226267522.36785889 50957993.638427734 0 0 0 0 30241470.178672791 -36041562.40145874 0 -36041562.40145874 -81339413.794174194 0 0 0 0 83504998.886367798 25968250.99887085 0 25968250.99887085 -247413018.6955719 0 0 0 0 3437816.4065649603 2330222.1129610315 0 2330222.1129610315 -832058.46590032976 0 0 0 0 -174757140.79589844 -181620942.99880981 0 -181620942.99880981 -413654591.02410746 0 0 0 0 -843907740.37330627 -683881985.93717194 0 -683881985.93717194 1667351241.0125046 0 0 0 0 -751697970.51565552 -148683664.42323303 0 -148683664.42323303 -102877236.18022156 0 0 0 0 -350323964.93559265 -469944080.88014984 0 -469944080.88014984 -688387567.42588806 0 0 0 0 -281154.56843690015 1305632.7814289145 0 1305632.7814289145 -381619.80864285771 0 0 0 0 -821697945.91870117 -472932581.62894058 0 -472932581.62894058 -110539535.29676819 0 0 0 0 -449379395.59766769 -1970665.043800354 0 -1970665.043800354 485136059.64956665 0 0 0 0 -934720781.58493805 -307453453.50231934 0 -307453453.50231934 -238583487.18622589 0 0 0 0 -1083506951.7396469 -147961839.80312347 0 -147961839.80312347 -283610813.71100044 0 0 0 0 -979591077.10578537 -321217128.80612183 0 -321217128.80612183 -157929350.90322876 0 0 0 0 137046974.17729044 -65418100.755798817 0 -65418100.755798817 -29159504.80682373 0 0 0 0 -2674987258.3556719 -313382709.90045738 0 -313382709.90045738 592706420.64335632 0 0 0 0 86013.463574426249 -12841577.059905833 0 -12841577.059905833 -16568077.541944869 0 0 0 0 -1410904210.8693848 -1432700783.4169998 0 -1432700783.4169998 936941158.91481781 0 0 0 0 41847050.157880783 -52446159.391628265 0 -52446159.391628265 5749239.4749603271 0 0 0 0 58488764.127422333 -80374424.19443512 0 -80374424.19443512 10641131.764547348 0 0 0 0 19555239.614280701 -72077205.830118179 0 -72077205.830118179 7982159.8111724854 0 0 0 0 71918098.760375977 -18305853.513801575 0 -18305853.513801575 -17665753.781288147 0 0 0 0 14038756.304771423 -43565670.645454407 0 -43565670.645454407 -10158668.865989685 0 0 0 0 14451558.553190231 -34433913.185880661 0 -34433913.185880661 -53330405.973777771 0 0 0 0 23663900.740314484 -59214553.008956909 0 -59214553.008956909 -44160442.489139557 0 0 0 0 -491349265.05657196 174375089.79238892 0 174375089.79238892 -231602725.50951862 0 0 0 0 -2752914.4567211755 -17759468.68092712 0 -17759468.68092712 20024155.074019976 0 0 0 0 27096366.194906235 -58682487.342515945 0 -58682487.342515945 -61401903.348472595 0 0 0 0 -1006335162.5389519 -282959310.72427368 0 -282959310.72427368 -140909723.88592529 0 0 0 0 2992575.987267958 -20419806.923052672 0 -20419806.923052672 -28507047.225543708 0 0 0 0 -920624617.4441452 -292297811.44647217 0 -292297811.44647217 -158682561.85650635 0 0 0 0 -879018254.31747437 -387085304.10595703 0 -387085304.10595703 -62080207.164306641 0 0 0 0 -845944486.29223633 -402580078.93504333 0 -402580078.93504333 -135538509.1630249 0 0 0 0 -918982752.05533981 -289573066.30657196 0 -289573066.30657196 -253564532.34790039 0 0 0 0 217880886.2039032 -1015493618.9672318 0 -1015493618.9672318 646174073.40029907 0 0 0 0 -1033520.0558393677 -3321015.6914447434 0 -3321015.6914447434 642108.58164918423 0 0 0 0 337032046.81001282 873627755.34896851 0 873627755.34896851 2318222027.1531677 0 0 0 0 -2157550873.5075378 -196386011.45291138 0 -196386011.45291138 3535316334.5681458 0 0 0 0 -698074864.96255493 -763202848.67973328 0 -763202848.67973328 90372868.333068848 0 0 0 0 3380280.7005859911 -4583932.5946410298 0 -4583932.5946410298 -4341443.0419853926 0 0 0 0 -783993736.75124359 -601553110.88720703 0 -601553110.88720703 -210410165.0453186 0 0 0 0 -4557761133.5172195 -2324288591.7213745 0 -2324288591.7213745 2644517088.3191071 0 0 0 0 -1000741.1491662282 577529.89508386236 0 577529.89508386236 -621047.76675285399 0 0 0 0 223180132.18881989 -140071363.42079926 0 -140071363.42079926 -6840807.3208770752 0 0 0 0 193424876.50431824 -1265365386.3267899 0 -1265365386.3267899 485094703.90087128 0 0 0 0 240779735.15989399 -40419705.381425858 0 -40419705.381425858 8531524.7951049805 0 0 0 0 359139117.33700562 -572741114.01330566 0 -572741114.01330566 -177689372.31803131 0 0 0 0 120233759.71664429 -116845964.26667786 0 -116845964.26667786 -2937630.9584350586 0 0 0 0 146614544.35930634 -215986973.11005402 0 -215986973.11005402 -80863865.177490234 0 0 0 0 131674449.59222412 -122239460.043396 0 -122239460.043396 67254379.322982788 0 0 0 0 182200714.32830048 -157114341.39038086 0 -157114341.39038086 22712410.846099854 0 0 0 0 161943574.85167313 -93339296.581058502 0 -93339296.581058502 12773812.265930176 0 0 0 0 309782312.93095398 -135195213.78358459 0 -135195213.78358459 21458854.674758911 0 0 0 0 285802426.73760986 8736998.7090606689 0 8736998.7090606689 24900378.712289572 0 0 0 0 133630697.35583115 -9193524.8010253906 0 -9193524.8010253906 24576655.098266602 0 0 0 0 215069832.93292999 -85272568.623062134 0 -85272568.623062134 -19559723.116638184 0 0 0 0 66146863.839851379 -72289895.391571045 0 -72289895.391571045 -9239601.6783752441 0 0 0 0 128501088.89908409 -12524330.275905609 0 -12524330.275905609 -33532640.715896606 0 0 0 0 61481919.93270874 -134795511.14712524 0 -134795511.14712524 -63590526.893829346 0 0 0 0 142901875.30792618 -146790480.71599579 0 -146790480.71599579 -71868627.477172852 0 0 0 0 6610391.5885848999 -256409221.64311218 0 -256409221.64311218 -62115155.735797882 0 0 0 0 -49627632.971065521 -67383339.512588501 0 -67383339.512588501 -7040099.8635559082 0 0 0 0 -31463979.738502502 -93096853.750523567 0 -93096853.750523567 -19059991.832366943 0 0 0 0 -4265242.6794171631 -19662439.694692791 0 -19662439.694692791 22388907.337852869 0 0 0 0 14171848.839775085 -87545792.648460388 0 -87545792.648460388 19716445.76981163 0 0 0 0 -34807849.295209885 -73590448.710849762 0 -73590448.710849762 24086672.788925171 0 0 0 0 -39113014.325594902 -60631331.17322731 0 -60631331.17322731 -13757931.337532043 0 0 0 0 13997582.017822266 -60712089.644268036 0 -60712089.644268036 -12973460.179937363 0 0 0 0 -40391714.84053421 -53536152.46472168 0 -53536152.46472168 22077567.760164261 0 0 0 0 -57733820.829798698 -24838454.455141068 0 -24838454.455141068 30520017.323944092 0 0 0 0 -41242130.395403862 -32439770.655972481 0 -32439770.655972481 -12787126.843460083 0 0 0 0 7642102.8769073486 -187725587.87533569 0 -187725587.87533569 -84577111.013614655 0 0 0 0 34082803.050254822 -54112411.304229736 0 -54112411.304229736 -105328376.40484619 0 0 0 0 -31006996.899681091 -73131130.362285614 0 -73131130.362285614 -5005526.0797424316 0 0 0 0 1083607.9253222151 -19138540.460399665 0 -19138540.460399665 -15622018.037279621 0 0 0 0 -2484875.6089698859 -20838026.556549408 0 -20838026.556549408 19243293.456744932 0 0 0 0 26366418.491016388 -31754922.097522736 0 -31754922.097522736 -27269679.119894981 0 0 0 0 242418.75562544726 -20498580.189262219 0 -20498580.189262219 -21387085.116852842 0 0 0 0 41478248.446624756 -58024681.426921844 0 -58024681.426921844 -26986552.588362694 0 0 0 0 48717899.529426575 -26411121.408992767 0 -26411121.408992767 -26165708.929389954 0 0 0 0 30058323.452477455 -42272606.691313744 0 -42272606.691313744 -23121171.995895386 0 0 0 0 41322860.94213891 -29032431.741147041 0 -29032431.741147041 -80527674.267379761 0 0 0 0 39250963.030440331 -41439834.749196053 0 -41439834.749196053 -29546152.958129883 0 0 0 0 -924452.3618920017 -23751369.647940118 0 -23751369.647940118 -19597736.807421003 0 0 0 0 24598327.118076324 -10769056.405883789 0 -10769056.405883789 -12152431.220428467 0 0 0 0 -9002584.5427017212 22074072.94569397 0 22074072.94569397 -12480530.891716003 0 0 0 0 11170954.021968842 21109077.102325439 0 21109077.102325439 -71654839.388153076 0 0 0 0 28759396.344049454 -6760138.3562088013 0 -6760138.3562088013 -37111315.470703125 0 0 0 0 -897635.17442177515 -4062003.2148177568 0 -4062003.2148177568 -6038640.7480280548 0 0 0 0 136077796.11915588 -22625088.211074829 0 -22625088.211074829 -20283093.375976562 0 0 0 0 -12183444.630214691 31064633.129806519 0 31064633.129806519 -37617133.816772461 0 0 0 0 -208010000.27941132 -347540080.38202667 0 -347540080.38202667 -44947094.403778076 0 0 0 0 -451515946.95713806 391285194.63990784 0 391285194.63990784 -103105281.32023621 0 0 0 0 250644796.97393036 24834135.373840332 0 24834135.373840332 -401747607.75279236 0 0 0 0 234525.00295061432 -2270083.3876890317 0 -2270083.3876890317 -4053455.4896421954 0 0 0 0 243275166.30278015 -40825615.922592163 0 -40825615.922592163 -51634963.101425171 0 0 0 0 -582448.21573232859 -1667657.0274332836 0 -1667657.0274332836 -2656272.5408132151 0 0 0 0 -28187744.066223145 -59394824.256530762 0 -59394824.256530762 -6329348.7486572266 0 0 0 0 -38653966.668827057 -38403693.485565186 0 -38403693.485565186 -47320324.779052734 0 0 0 0 2044353.9617947713 -8484120.4863535836 0 -8484120.4863535836 -6514890.7453891635 0 0 0 0 -9212094.9685287476 -19881820.172134399 0 -19881820.172134399 -15313929.776012421 0 0 0 0 -21960472.463184595 9245445.8152332306 0 9245445.8152332306 171045760.08612061 0 0 0 0 -1534570.0133132935 -39510159.736190796 0 -39510159.736190796 -13730807.311981201 0 0 0 0 -10428353.979240417 -26215910.041137695 0 -26215910.041137695 -11174409.218479156 0 0 0 0 -25272248.845253468 -20950876.66391468 0 -20950876.66391468 -9589129.4213867188 0 0 0 0 181831490.68886948 72822438.660919189 0 72822438.660919189 -48546213.471292496 0 0 0 0 217114002.01405334 28897807.653167725 0 28897807.653167725 -31692615.861663818 0 0 0 0 -47628197.968338013 -279520733.58700562 0 -279520733.58700562 302689350.75430298 0 0 0 0 -46461.865749096498 -2450412.3006446008 0 -2450412.3006446008 -870788.99886935949 0 0 0 0 -138410937.64197445 -1055649799.7597122 0 -1055649799.7597122 651970851.71212769 0 0 0 0 409801335.35418701 -379054635.7019577 0 -379054635.7019577 183594687.49851227 0 0 0 0 496260390.39006519 34000525.593734741 0 34000525.593734741 -327114192.35818481 0 0 0 0 396859955.13445282 -315084422.88043213 0 -315084422.88043213 47419960.514022827 0 0 0 0 293231370.50835133 -614165989.50844383 0 -614165989.50844383 232438097.28636169 0 0 0 0 4812890.0315628052 22650484.614616394 0 22650484.614616394 -107637676.10719681 0 0 0 0 1721294.662098106 -145042.76372766495 0 -145042.76372766495 -1521691.9014883563 0 0 0 0 6855479.1133270264 -80638300.198753357 0 -80638300.198753357 -142756973.65858459 0 0 0 0 6025484.3600978851 -482706333.17173004 0 -482706333.17173004 348592106.2147522 0 0 0 0 -109014707.43637466 -209649313.478508 0 -209649313.478508 -526971.75346374512 0 0 0 0 360263004.6329174 -65253992.494495392 0 -65253992.494495392 -126312799.20294952 0 0 0 0 -56163664.898273468 -155997845.63237 0 -155997845.63237 -257242566.8331604 0 0 0 0 -89319638.153518677 -205740459.49241638 0 -205740459.49241638 210978264.73739624 0 0 0 0 108248.73969989643 -1123642.4824929833 0 -1123642.4824929833 -620117.42145313323 0 0 0 0 82832692.104700089 -55489379.671649933 0 -55489379.671649933 58449341.941436768 0 0 0 0 -15542199.245552063 -46230331.93850708 0 -46230331.93850708 94306685.880981445 0 0 0 0 -13214632.287620544 -6656570.6593551636 0 -6656570.6593551636 104774497.16571045 0 0 0 0 43086470.105392456 -27998376.587677002 0 -27998376.587677002 15426352.556724548 0 0 0 0 -345864.26446925849 -2456830.0344700292 0 -2456830.0344700292 -1137506.6377854273 0 0 0 0 -20930088.88359642 -57676513.317287445 0 -57676513.317287445 -69315.032440185547 0 0 0 0 -48393236.417625427 -32011575.193714142 0 -32011575.193714142 -19980706.918411255 0 0 0 0 -723694.65659732325 2445637.3029339164 0 2445637.3029339164 -765228.99240763485 0 0 0 0 31919649.029263496 -23392192.228725433 0 -23392192.228725433 8879580.4321746826 0 0 0 0 -1350553.5470793135 -2803724.2026148885 0 -2803724.2026148885 -2020331.2602428757 0 0 0 0 -8287864.5906085968 -5858646.0443248749 0 -5858646.0443248749 -4102556.7378540039 0 0 0 0 137701253.95443726 -46548283.833358765 0 -46548283.833358765 -4010418.9668121338 0 0 0 0 -689951.22531349305 834591.42979156412 0 834591.42979156412 -263682.05427753925 0 0 0 0 10846625.711929321 -28988358.624448776 0 -28988358.624448776 52565968.769836426 0 0 0 0 -67731686.317253113 -68388816.285491943 0 -68388816.285491943 87237348.366874695 0 0 0 0 -60940662.981361389 -22383845.142196655 0 -22383845.142196655 105253827.9610877 0 0 0 0 79548242.45716095 -203772552.83502197 0 -203772552.83502197 210644252.9369812 0 0 0 0 337480710.27957916 -290291060.6289978 0 -290291060.6289978 120727188.86668396 0 0 0 0 570433866.51193619 -81294707.614830017 0 -81294707.614830017 -23048813.419525146 0 0 0 0 -454393.12691147439 -825819.75674566999 0 -825819.75674566999 -1363505.4445619732 0 0 0 0 -810887993.00484657 -490648909.62643433 0 -490648909.62643433 519422157.33355713 0 0 0 0 175474523.46385574 -163817949.72186279 0 -163817949.72186279 104456003.96214294 0 0 0 0 131950388.59565938 -112341012.5472455 0 -112341012.5472455 19802845.548370361 0 0 0 0 -38368211.670103073 -5025104.7578315735 0 -5025104.7578315735 8555627.9869995117 0 0 0 0 -156546.20848004334 434561.89376272261 0 434561.89376272261 -109023.18904517591 0 0 0 0 164625283.87307358 -144272177.26930237 0 -144272177.26930237 126887281.37437439 0 0 0 0 229573969.65253258 -140811930.7209053 0 -140811930.7209053 96004740.708984375 0 0 0 0 79290435.105129242 -95140783.380523682 0 -95140783.380523682 76965697.41178894 0 0 0 0 36049496.401428223 22168020.434509277 0 22168020.434509277 -10599950.650413513 0 0 0 0 -8307203.7459220886 -4553033.8741455078 0 -4553033.8741455078 6834707.1731872559 0 0 0 0 841477623.72773361 108867859.86682129 0 108867859.86682129 -1104968599.4144287 0 0 0 0 -811717042.98077393 -2565129867.4216309 0 -2565129867.4216309 -1601503716.146637 0 0 0 0 -2542600361.4446106 1564442409.1492004 0 1564442409.1492004 -1493131620.4131057 0 0 0 0 -3102834.9919012673 1171563.0239895051 0 1171563.0239895051 167890.41545790434 0 0 0 0 -2630227.1170148216 -3173158.6975347474 0 -3173158.6975347474 -1812112.5024036318 0 0 0 0 2569568.0354995728 4411241.964515686 0 4411241.964515686 -5503279.7119445801 0 0 0 0 4667085.2704162598 -10660732.648246765 0 -10660732.648246765 -3288937.8174743652 0 0 0 0 -962899.50072479248 -11466356.470542908 0 -11466356.470542908 12290516.39466095 0 0 0 0 -4530710.1291847229 -15517868.829139709 0 -15517868.829139709 40840465.6769104 0 0 0 0 -11169262.929904938 -32843489.16053772 0 -32843489.16053772 26770159.370452881 0 0 0 0 9779199.4484405518 -37798577.829582214 0 -37798577.829582214 440265.39868145273 0 0 0 0 -36087943.247764587 63115614.816207886 0 63115614.816207886 281948993.97856903 0 0 0 0 -11888604.771894455 -34075389.014839172 0 -34075389.014839172 58204874.43006897 0 0 0 0 -3811687.0822868776 1013337.9859010288 0 1013337.9859010288 1972891.9562077746 0 0 0 0 -8771058.2675170898 4036623.9358940125 0 4036623.9358940125 51725795.438583374 0 0 0 0 -4320137.5104904175 -2139605.0310974121 0 -2139605.0310974121 7883696.2192993164 0 0 0 0 -373715389.96814346 316135179.95774078 0 316135179.95774078 -190949773.962677 0 0 0 0 -982329832.81108856 -319309115.47679138 0 -319309115.47679138 162983625.4723053 0 0 0 0 -890566469.13768005 -335918345.02728271 0 -335918345.02728271 117202508.62336731 0 0 0 0 -980265526.94544983 -214699022.04631805 0 -214699022.04631805 34340921.926879883 0 0 0 0 -1675354.5797508154 736580.54058647621 0 736580.54058647621 995024.86214328557 0 0 0 0 -956752944.71462631 -180781871.45495987 0 -180781871.45495987 -15672842.364044189 0 0 0 0 -734301319.60079956 -231734336.83874512 0 -231734336.83874512 -240714391.70073128 0 0 0 0 -950239093.52339172 -316050351.68012238 0 -316050351.68012238 -25633331.351606369 0 0 0 0 -833521775.8225174 -503223847.21546173 0 -503223847.21546173 -200742174.9187851 0 0 0 0 -532136034.53674316 -229917855.77787018 0 -229917855.77787018 45331239.222763062 0 0 0 0 -816459330.42458344 -954481005.9149437 0 -954481005.9149437 -1241220376.8914337 0 0 0 0 -1117871442.2835236 355531574.33039093 0 355531574.33039093 -96777182.98828125 0 0 0 0 -1149727.8290418088 -1506437.8416083679 0 -1506437.8416083679 -953479.21850317717 0 0 0 0 -1877597206.9576492 -334234677.68345642 0 -334234677.68345642 162663399.72547531 0 0 0 0 -1580611656.2498627 -1321297683.1887283 0 -1321297683.1887283 -136764068.01502991 0 0 0 0 -1047208175.9734192 -1176343943.9201355 0 -1176343943.9201355 -301475997.09608841 0 0 0 0 -8339749.0375106968 -1356691.5669153556 0 -1356691.5669153556 1931133.3460228927 0 0 0 0 -989246392.9631958 -1507271361.1247368 0 -1507271361.1247368 -973148953.49330139 0 0 0 0 -378020246.15449524 158707760.58721161 0 158707760.58721161 -157218191.27487946 0 0 0 0 -314327013.24816513 -32373019.424842834 0 -32373019.424842834 281626086.32669067 0 0 0 0 69595098.937635422 -13312288.925338745 0 -13312288.925338745 -13631696.108348846 0 0 0 0 45766629.676206589 -35528517.954841614 0 -35528517.954841614 -21135748.696903229 0 0 0 0 56299571.085514069 -6732737.1807479858 0 -6732737.1807479858 1063363.1073455811 0 0 0 0 26823481.007618904 -29699563.349321365 0 -29699563.349321365 -15776431.270874023 0 0 0 0 29567045.866252661 -36509736.940641403 0 -36509736.940641403 -5085388.5456390381 0 0 0 0 83233900.139460564 -19138699.794143677 0 -19138699.794143677 -5844310.84313941 0 0 0 0 8953882.7862024307 -45144392.968696594 0 -45144392.968696594 23217490.544342041 0 0 0 0 73548504.480428696 -21012110.977561951 0 -21012110.977561951 1267508.014541626 0 0 0 0 81542497.125871658 5422126.309173584 0 5422126.309173584 20519308.505874634 0 0 0 0 4466364.5346535174 -8496740.7315290608 0 -8496740.7315290608 1151010.6977153942 0 0 0 0 -59445688.980884552 -26552612.595480919 0 -26552612.595480919 15378378.551071167 0 0 0 0 -73070854.420116425 -52848727.509849548 0 -52848727.509849548 -151403101.96908569 0 0 0 0 -104515621.24629402 86163511.821464539 0 86163511.821464539 -39411959.345905304 0 0 0 0 -17970409.924046516 -32272265.570993423 0 -32272265.570993423 -5800260.4351348877 0 0 0 0 -7437419.3084186567 -9554975.6634918377 0 -9554975.6634918377 10386551.12862163 0 0 0 0 -67176052.945878983 -27193323.757791519 0 -27193323.757791519 40214859.139846802 0 0 0 0 -39886293.858689308 6080636.2336769104 0 6080636.2336769104 27807291.205612183 0 0 0 0 -12143418.418873604 2436641.3206143007 0 2436641.3206143007 11195496.615599506 0 0 0 0 -40936648.92473793 -15927030.361930847 0 -15927030.361930847 30499944.272216797 0 0 0 0 -49545927.108179092 2779526.3328399658 0 2779526.3328399658 -5722257.5888519287 0 0 0 0 -38173747.336669922 -39895140.04460144 0 -39895140.04460144 -54985137.36390686 0 0 0 0 -40593117.501518488 -7877286.6911659241 0 -7877286.6911659241 10112856.451416016 0 0 0 0 1074845.5475452994 -1555115.9562532725 0 -1555115.9562532725 -1925524.5676389113 0 0 0 0 96407985.073253155 -83597.207984924316 0 -83597.207984924316 -11060565.200042725 0 0 0 0 -99356809.382814407 -66806325.74937439 0 -66806325.74937439 -39969790.900970459 0 0 0 0 -420333539.86594582 -57986383.360168457 0 -57986383.360168457 111672401.31311035 0 0 0 0 20155.630227860529 -287211.92773980089 0 -287211.92773980089 34917.969399333 0 0 0 0 1526712.8633515793 -3456374.4539934713 0 -3456374.4539934713 -1247304.1996433437 0 0 0 0 -355536.91202068329 7298749.4267063141 0 7298749.4267063141 6960841.9900970459 0 0 0 0 50279526.866027832 -18937317.434467316 0 -18937317.434467316 -13118342.636993408 0 0 0 0 -176658629.26569843 -72342618.075241089 0 -72342618.075241089 16833679.492172241 0 0 0 0 -22188.8308366274 -1433498.970345906 0 -1433498.970345906 -578437.61759274453 0 0 0 0 -915910.41388130188 -130919842.05561066 0 -130919842.05561066 -45704938.41734314 0 0 0 0 -116088074.50965309 -68301588.594970703 0 -68301588.594970703 8280440.1957473755 0 0 0 0 5077544.4006795883 11426095.838490248 0 11426095.838490248 -35818919.040603638 0 0 0 0 3593451.8828018722 -10687850.220409365 0 -10687850.220409365 4160721.591513887 0 0 0 0 -130959070.43020248 -28731270.694999695 0 -28731270.694999695 40211676.781188965 0 0 0 0 -81366061.378787041 -7712189.7242012024 0 -7712189.7242012024 32073920.627044678 0 0 0 0 -97921752.4936409 24056172.856815338 0 24056172.856815338 -22484447.117462158 0 0 0 0 -36888199.044758558 -49241342.16774559 0 -49241342.16774559 -58941915.229309082 0 0 0 0 -48537942.7530756 -64877404.457307816 0 -64877404.457307816 -46880185.222076416 0 0 0 0 -6382285.9281177521 -77908541.565483093 0 -77908541.565483093 -940180.55334472656 0 0 0 0 -35831503.399845123 -43402719.531158447 0 -43402719.531158447 -34444339.771179199 0 0 0 0 -51034711.187004089 -60141258.896850586 0 -60141258.896850586 1335043.6330032349 0 0 0 0 -6378623.6430840492 -19481641.626277924 0 -19481641.626277924 3230135.7920532227 0 0 0 0 1644165.3050761872 -6610084.5887954403 0 -6610084.5887954403 -1041678.8208051175 0 0 0 0 -32937977.311420441 2997362.2676696777 0 2997362.2676696777 26592560.251083374 0 0 0 0 -46121116.279750824 -37842321.885375977 0 -37842321.885375977 -12585006.312072754 0 0 0 0 -25005554.329006195 37218383.456665039 0 37218383.456665039 -4536894.9130859375 0 0 0 0 246338.39114902634 -473124.01131387055 0 -473124.01131387055 675980.03125386685 0 0 0 0 32793945.330873489 -41398419.112232208 0 -41398419.112232208 9032740.0872955322 0 0 0 0 23683356.936880112 -23831287.780181885 0 -23831287.780181885 2665496.6057739258 0 0 0 0 21381296.520709038 -21676034.501125336 0 -21676034.501125336 1726739.1552734375 0 0 0 0 19012491.112811089 -24207880.909461975 0 -24207880.909461975 17791829.143264771 0 0 0 0 37418986.497132301 -38532233.095481873 0 -38532233.095481873 -22129916.778137207 0 0 0 0 47503733.989282608 -19766035.599151611 0 -19766035.599151611 -2267983.9591293335 0 0 0 0 65123644.210125923 -17390016.588867188 0 -17390016.588867188 -17504483.083312988 0 0 0 0 25221534.708049774 -60675979.345817566 0 -60675979.345817566 -38993801.284648895 0 0 0 0 15441326.643310547 -43848063.932506561 0 -43848063.932506561 -31751065.362091064 0 0 0 0 30124908.433617592 -24194454.756267548 0 -24194454.756267548 -25346398.876541138 0 0 0 0 13099040.349695206 -44659551.235862732 0 -44659551.235862732 50808094.636520386 0 0 0 0 -17866047.564985275 -13587815.854759216 0 -13587815.854759216 60096928.334472656 0 0 0 0 3567219.3980485615 -15656743.818984197 0 -15656743.818984197 5928525.0143082961 0 0 0 0 15939690.649300575 -48508909.90788269 0 -48508909.90788269 -53302182.582885742 0 0 0 0 -2483172.9267265568 -1939523.6230631359 0 -1939523.6230631359 2535155.4578570947 0 0 0 0 -18550137.752687454 -8628936.7856826782 0 -8628936.7856826782 44398499.518432617 0 0 0 0 -10292273.448930264 -24353165.997223377 0 -24353165.997223377 -15748106.695114136 0 0 0 0 -4255115.9236331359 -13776641.366494987 0 -13776641.366494987 15400346.110427745 0 0 0 0 -40685050.028636932 -60491276.036849976 0 -60491276.036849976 15850016.397867203 0 0 0 0 -20195956.199440002 -5066618.7408599854 0 -5066618.7408599854 -11581561.08436203 0 0 0 0 7748431.7214004053 -6558561.5446951278 0 -6558561.5446951278 -5404126.5001148358 0 0 0 0 -10801953.069366455 -26351244.781799316 0 -26351244.781799316 -7320501.8426628113 0 0 0 0 -614589.51912975311 -32544061.368309021 0 -32544061.368309021 17412104.267272949 0 0 0 0 -37051514.656169891 -62892700.492584229 0 -62892700.492584229 -5798509.1902008057 0 0 0 0 -45261582.276477814 -23263035.401275635 0 -23263035.401275635 -21608591.791595459 0 0 0 0 3646224.1316871643 -24180419.288635254 0 -24180419.288635254 -64450819.132572174 0 0 0 0 -61751671.409427643 -54180654.046951294 0 -54180654.046951294 -50735757.839912415 0 0 0 0 25358476.592092514 -12630877.108428955 0 -12630877.108428955 -73304734.625366211 0 0 0 0 508758.89533510047 -529214.29586649965 0 -529214.29586649965 111646.38421455026 0 0 0 0 11967789.143218994 -46982512.048778534 0 -46982512.048778534 -21638162.844535828 0 0 0 0 10556364.618915558 -72129058.789077759 0 -72129058.789077759 -4593030.756295681 0 0 0 0 -34285711.047996521 -41981940.444202423 0 -41981940.444202423 -18739349.994270325 0 0 0 0 9228965.260102272 -15469182.983911514 0 -15469182.983911514 -35721884.527526855 0 0 0 0 -21085797.700338751 -51659482.400986075 0 -51659482.400986075 -14846873.840332031 0 0 0 0 590154.64375109412 -1295432.6522667706 0 -1295432.6522667706 -2737872.9107315019 0 0 0 0 -3751471.9294395447 -48327464.529888153 0 -48327464.529888153 -12026051.197731018 0 0 0 0 3896471.1982747614 -17973890.863660138 0 -17973890.863660138 3183860.1746022962 0 0 0 0 -186351.41276550293 -63370867.037195206 0 -63370867.037195206 -17806922.524232984 0 0 0 0 -29634461.40234375 -35763148.971801758 0 -35763148.971801758 -34204129.653717041 0 0 0 0 -162494.91418457031 -3435469.5180053711 0 -3435469.5180053711 -4078236.3126525879 0 0 0 0 3424503.9157212116 -5294501.3877459094 0 -5294501.3877459094 -15648438.915681735 0 0 0 0 -6253969.0667374656 -5552437.9242468029 0 -5552437.9242468029 -1087421.8945820257 0 0 0 0 -12441951.226348877 -3623352.8640136719 0 -3623352.8640136719 -14226293.169372559 0 0 0 0 700919.7822350692 -13518957.4595493 0 -13518957.4595493 7796839.229130134 0 0 0 0 -3009761.0844655256 -13345224.699952383 0 -13345224.699952383 -7932194.6783983111 0 0 0 0 355812254.63601971 -40771747.928588867 0 -40771747.928588867 -1740125.3654632568 0 0 0 0 4349650.8479691893 -8721950.4825344421 0 -8721950.4825344421 -5164425.3672217801 0 0 0 0 -33926034.981686592 -263577899.99217987 0 -263577899.99217987 10754925.836054802 0 0 0 0 -273537935.96988106 129917557.42724609 0 129917557.42724609 67045593.062484741 0 0 0 0 28563339.106862068 42881374.801086426 0 42881374.801086426 -134647648.45380497 0 0 0 0 114945097.83843994 -38197839.210792542 0 -38197839.210792542 -121938450.41233826 0 0 0 0 9509171.990395546 -68425830.758987427 0 -68425830.758987427 32841609.318585634 0 0 0 0 -36987215.781464718 93377449.173335403 0 93377449.173335403 26369535.4375 0 0 0 0 -1105909.8179487204 -460756.12299734354 0 -460756.12299734354 914698.32399032265 0 0 0 0 -3715220.1791687012 -31605852.740562439 0 -31605852.740562439 -2189457.3898620605 0 0 0 0 -2612323.9654690335 -16251832.455572039 0 -16251832.455572039 -9871611.8039048165 0 0 0 0 -3973210.5062637329 -29858066.669067383 0 -29858066.669067383 -12469414.759613037 0 0 0 0 2128053.7429046631 -19181941.105239868 0 -19181941.105239868 -3943054.4498310089 0 0 0 0 -3009429.8828697205 -26169585.701797485 0 -26169585.701797485 -13280986.137298584 0 0 0 0 -4545912.3843383789 -28276776.328231812 0 -28276776.328231812 -20256601.748334885 0 0 0 0 -3807058.4749803543 -36076542.771446228 0 -36076542.771446228 10138897.17880249 0 0 0 0 -5730441.3264713287 -27705645.960479736 0 -27705645.960479736 -13576542.606910706 0 0 0 0 -1054356.7951402664 -40997601.567338943 0 -40997601.567338943 -15853129.805297852 0 0 0 0 -15405258.362801552 -49238946.240867615 0 -49238946.240867615 -16052675.31741333 0 0 0 0 -473496.69549465179 -17725152.333114624 0 -17725152.333114624 -40633461.12918663 0 0 0 0 16076127.103528023 -56146163.581268311 0 -56146163.581268311 -54832853.29019165 0 0 0 0 7314498.3827514648 -66714412.192573547 0 -66714412.192573547 -15172643.282440186 0 0 0 0 49908982.104753494 -101794529.76817322 0 -101794529.76817322 6711489.1252384186 0 0 0 0 -3435380.8081293106 -23087358.534511566 0 -23087358.534511566 -6454434.742401123 0 0 0 0 358464.17520691175 -1713080.6092256792 0 -1713080.6092256792 -1925536.0554688349 0 0 0 0 -5853689.4930553436 -8932491.0780334473 0 -8932491.0780334473 -15034107.154647827 0 0 0 0 -6448817.4131975174 -9328414.7328948975 0 -9328414.7328948975 5406551.3721542358 0 0 0 0 20182.047577848658 -7120990.1681516804 0 -7120990.1681516804 -1822984.2484886274 0 0 0 0 -4633901.949136734 -16292680.211082458 0 -16292680.211082458 13723551.438312769 0 0 0 0 -3772825.7895566006 -1517340.4986336604 0 -1517340.4986336604 3345162.2613999322 0 0 0 0 -28528158.439382553 4625291.7857131958 0 4625291.7857131958 13073879.600898743 0 0 0 0 12831207.97203958 -11721590.927504063 0 -11721590.927504063 -10833299.592010498 0 0 0 0 -1532059.1084444094 -10395177.758000895 0 -10395177.758000895 -8833399.3647875562 0 0 0 0 7068378.2790374756 -5929842.1904907227 0 -5929842.1904907227 -14211730.870109558 0 0 0 0 -96774.474638938904 -7577217.6140480042 0 -7577217.6140480042 2638100.4707183838 0 0 0 0 -1120308.4376974106 -4441528.3416442871 0 -4441528.3416442871 1826824.1177902222 0 0 0 0 -1090307.9172661789 -2741309.6878108382 0 -2741309.6878108382 765568.13533126563 0 0 0 0 -5806400.9134312756 -8513751.3905715328 0 -8513751.3905715328 -316857.12538824975 0 0 0 0 -4802657.4946212769 -21005311.53730011 0 -21005311.53730011 -14076824.554748535 0 0 0 0 6162313.8342971802 -27440142.830528259 0 -27440142.830528259 -22285573.125259399 0 0 0 0 -2745894.6441551931 -12798531.588716649 0 -12798531.588716649 -9964724.1501000673 0 0 0 0 16636808.855964661 -29382389.239448547 0 -29382389.239448547 -7020576.49559021 0 0 0 0 16219630.469249725 -19968275.75579834 0 -19968275.75579834 -17870712.666091919 0 0 0 0 13043693.899158478 -13481070.03276062 0 -13481070.03276062 -14140878.67937851 0 0 0 0 12861634.527975559 -10613592.54512167 0 -10613592.54512167 -22283258.365753174 0 0 0 0 12294476.577522278 -2928321.3283996582 0 -2928321.3283996582 -15170047.452575684 0 0 0 0 9868912.5986366272 2518407.9375915527 0 2518407.9375915527 -32580965.425744057 0 0 0 0 13657321.107625961 -14043464.920627594 0 -14043464.920627594 -30659636.206451416 0 0 0 0 -1386286.4939422607 16603710.112319946 0 16603710.112319946 -41814597.086429596 0 0 0 0 10913323.30411911 -14465539.653106689 0 -14465539.653106689 -23615918.425462723 0 0 0 0 7950197.9048156738 -27679967.675949097 0 -27679967.675949097 -66259937.980743408 0 0 0 0 3117162.436706543 -2162371.6478729248 0 -2162371.6478729248 -4733227.012840271 0 0 0 0 2361058.9278774261 4091429.0094718933 0 4091429.0094718933 -7319778.8136444092 0 0 0 0 5934746.9803771973 354025.69175720215 0 354025.69175720215 -8614681.2737121582 0 0 0 0 11539797.180046082 -3405710.7410354614 0 -3405710.7410354614 -12160125.013824463 0 0 0 0 14289340.544570923 -5532887.55909729 0 -5532887.55909729 -12556682.142425537 0 0 0 0 9463886.3628768921 -2706557.7328491211 0 -2706557.7328491211 -12382711.979187012 0 0 0 0 10472713.142763138 -5756578.199760437 0 -5756578.199760437 -6958485.8977355957 0 0 0 0 6413737.2307720184 -1518218.6169281006 0 -1518218.6169281006 -6615109.4790649414 0 0 0 0 9031721.9698867798 -4064757.2371520996 0 -4064757.2371520996 -4225954.8720703125 0 0 0 0 6190912.0102157593 -2121317.9607086182 0 -2121317.9607086182 -5319886.8841018677 0 0 0 0 4528183.3864164352 -2186218.9547901154 0 -2186218.9547901154 -4648432.8641662598 0 0 0 0 5567506.9497909546 1061147.6006240845 0 1061147.6006240845 2238023.2615966797 0 0 0 0 634162261.54164124 -1192032752.3892822 0 -1192032752.3892822 2227994309.4973755 0 0 0 0 1405274.3594446033 -4068700.7630243264 0 -4068700.7630243264 -1697257.7589483196 0 0 0 0 -5350454.0891535068 -3084353.3778271768 0 -3084353.3778271768 -1698371.7098677009 0 0 0 0 460443103.39765263 -266093304.25528526 0 -266093304.25528526 -362349170.20962524 0 0 0 0 4174117.7046606019 -82134.700194317847 0 -82134.700194317847 -2768077.5078369081 0 0 0 0 -1778966.8482170105 -4363592.3173217773 0 -4363592.3173217773 -1689788.2405662537 0 0 0 0 -948908.66664770618 -3304510.5927651823 0 -3304510.5927651823 -949361.53651455231 0 0 0 0 -4004230.3293533325 -6494989.6640319824 0 -6494989.6640319824 -2350959.470916748 0 0 0 0 800878.25194740295 -4946553.0699005127 0 -4946553.0699005127 -4765729.7023773193 0 0 0 0 -269012.9926265236 -113729.30833057314 0 -113729.30833057314 356135.6822546348 0 0 0 0 -2484151.5551323341 -4488077.4993262812 0 -4488077.4993262812 -5280138.1530168355 0 0 0 0 -1511748.291305542 -2891513.3104934692 0 -2891513.3104934692 208131.13583374023 0 0 0 0 12122907.510124207 1228355.6014900208 0 1228355.6014900208 -10005210.215515137 0 0 0 0 -216437.46024904214 -976519.43869543076 0 -976519.43869543076 -198767.34617731068 0 0 0 0 -2191937.5911445618 -5162356.5031433105 0 -5162356.5031433105 -2677297.7712717056 0 0 0 0 -893661.90369701385 -3888128.613697052 0 -3888128.613697052 1239.4852294921875 0 0 0 0 -2336306.8949253522 -4422562.4681576528 0 -4422562.4681576528 -65139.340786428191 0 0 0 0 -753984.45936584473 -3721643.9116821289 0 -3721643.9116821289 25901.428108215332 0 0 0 0 -3229801.0225505829 -5240867.7114143372 0 -5240867.7114143372 -2208854.2812805176 0 0 0 0 -3471079.7687708139 -4301589.8766755406 0 -4301589.8766755406 -2519947.3449371085 0 0 0 0 -751010.87595081329 -3711772.7456970215 0 -3711772.7456970215 -3584.7294769287109 0 0 0 0 -543713.1745714806 -3706987.1555216871 0 -3706987.1555216871 185143.45379564026 0 0 0 0 -3397774.2826099396 -4800508.0646286011 0 -4800508.0646286011 -666365.75782775879 0 0 0 0 -2178066.1394387484 -4728998.3998000622 0 -4728998.3998000622 -1541143.644317627 0 0 0 0 1163190.8633575439 -4452992.1430358887 0 -4452992.1430358887 -268834.32262420654 0 0 0 0 -1855538.7722854614 -3470261.5912780762 0 -3470261.5912780762 -157390.6051940918 0 0 0 0 -599928.22774498537 -831560.25209655613 0 -831560.25209655613 -1083795.1858293414 0 0 0 0 102828698.45490265 -298293720.18920898 0 -298293720.18920898 -598564.06270920055 0 0 0 0 -1647897.4933223724 -4357589.928894043 0 -4357589.928894043 -903747.44009399414 0 0 0 0 -4728847.9933402538 18948553.262233734 0 18948553.262233734 -18813907.716308594 0 0 0 0 -3325634.9748859406 -5848356.9870681763 0 -5848356.9870681763 85234.770965576172 0 0 0 0 -1935538.813745331 -2051063.0106944554 0 -2051063.0106944554 805524.00653724372 0 0 0 0 -7369513.9920759201 -9928478.6211929321 0 -9928478.6211929321 -18565.282936096191 0 0 0 0 -3307485.3568290835 -3207758.6608305462 0 -3207758.6608305462 1221379.580555439 0 0 0 0 850891.20750695001 -3132125.6746561602 0 -3132125.6746561602 1782657.0972344875 0 0 0 0 -3290786.9233589172 -3875229.4311294556 0 -3875229.4311294556 250984.79159545898 0 0 0 0 -620999.8180411756 -3869414.8027638458 0 -3869414.8027638458 3616890.6695798412 0 0 0 0 -1587360.5789775848 -1875742.3898468018 0 -1875742.3898468018 3138673.9070587158 0 0 0 0 786208326.72566319 -245231093.08195496 0 -245231093.08195496 -661098151.340271 0 0 0 0 -1194372.0048077647 -7373295.8544688448 0 -7373295.8544688448 5354722.3302906081 0 0 0 0 -3574496.1067738971 -3006100.1876373813 0 -3006100.1876373813 1852310.4775020033 0 0 0 0 451668.55128097534 -1146355.4819335938 0 -1146355.4819335938 3030602.1735534668 0 0 0 0 -4767243.9260454178 -5872323.9884185791 0 -5872323.9884185791 1244437.6665344238 0 0 0 0 -2326153.252040863 -4251237.9687957764 0 -4251237.9687957764 -173414.14807128906 0 0 0 0 -1990003.0381024592 -4384268.3039586693 0 -4384268.3039586693 733135.65675258636 0 0 0 0 -3739336.6215286255 -4617420.9094285965 0 -4617420.9094285965 -262259.59117126465 0 0 0 0 -114802.10178756714 -6175382.3302612305 0 -6175382.3302612305 4650479.6391277313 0 0 0 0 -32136840.363111496 -79380938.326530457 0 -79380938.326530457 21221476.142417908 0 0 0 0 -119848312.68798637 135042659.9214325 0 135042659.9214325 -36634577.994338989 0 0 0 0 -1282229.4875177611 -7445953.4186635986 0 -7445953.4186635986 1180687.7765970528 0 0 0 0 -2491028.7818610948 -377642.15319433995 0 -377642.15319433995 1894599.5198367313 0 0 0 0 203174588.50899458 76162348.225372314 0 76162348.225372314 -241427185.89956665 0 0 0 0 49260728.763007164 288620829.0688324 0 288620829.0688324 78373146.008239746 0 0 0 0 -243013538.63333035 -84576733.239547729 0 -84576733.239547729 492615690.97572327 0 0 0 0 -405330221.3910141 30139287.045944214 0 30139287.045944214 435349425.30158997 0 0 0 0 218149093.89313698 -151231560.38548279 0 -151231560.38548279 -31001803.903091431 0 0 0 0 336746.36951061618 -510757.72368562035 0 -510757.72368562035 -590481.52196650207 0 0 0 0 84166645.42801857 -111738283.70593262 0 -111738283.70593262 -31240980.755622864 0 0 0 0 235948684.59473944 -1300104.0780735016 0 -1300104.0780735016 -39014394.837921143 0 0 0 0 79201868.27791667 -30747844.830833435 0 -30747844.830833435 -11558559.035339355 0 0 0 0 14683525.44354248 -26238253.610313416 0 -26238253.610313416 -5238974.5732727051 0 0 0 0 -35769223.293225288 24232920.414527893 0 24232920.414527893 -8604171.4014892578 0 0 0 0 -8431255.7488994598 3654021.6341400146 0 3654021.6341400146 14509742.847640991 0 0 0 0 -26489664.810330302 -14763007.600479126 0 -14763007.600479126 25098313.707366943 0 0 0 0 -25089550.110776991 686645.2706155777 0 686645.2706155777 28935293.80557251 0 0 0 0 9638341.4926335812 54396983.24766922 0 54396983.24766922 3253263.2372436523 0 0 0 0 -305346225.97549391 -146952267.38130188 0 -146952267.38130188 157924751.59832764 0 0 0 0 -85170381.728526115 -70646003.95274353 0 -70646003.95274353 70211946.370002747 0 0 0 0 -12845103.434471695 2531965.7706910595 0 2531965.7706910595 8911143.9507433176 0 0 0 0 -31311872.503170013 -6452357.9022369385 0 -6452357.9022369385 -13334537.858913422 0 0 0 0 4511998.9696669132 -7766965.8298386689 0 -7766965.8298386689 -1125139.1838678867 0 0 0 0 -125546701.54069138 -203327053.00061035 0 -203327053.00061035 69282178.322143555 0 0 0 0 -5743321.4798198948 -8741874.8292007186 0 -8741874.8292007186 11488259.33201462 0 0 0 0 -7052185.5896139145 -2232502.4964599609 0 -2232502.4964599609 26358148.288635254 0 0 0 0 -17720128.276153564 -18433440.773498535 0 -18433440.773498535 14920448.333740234 0 0 0 0 -1227090.6508951583 404534.09005505964 0 404534.09005505964 1734118.4686648548 0 0 0 0 68468455.402574182 79809578.110964775 0 79809578.110964775 -25415784.405639648 0 0 0 0 -5326704.0811235486 -9253856.1847744994 0 -9253856.1847744994 11305601.979440421 0 0 0 0 -374842698.41892624 -301901783.36964417 0 -301901783.36964417 -98740101.423746109 0 0 0 0 -4954858.2519360483 -12815606.891868591 0 -12815606.891868591 16827976.485900879 0 0 0 0 -4327563.7821951844 -9725902.7540130615 0 -9725902.7540130615 24165940.971801758 0 0 0 0 -5858229.8814730346 5965361.6136674881 0 5965361.6136674881 28409261.183563232 0 0 0 0 -3210175.4343811274 -4815932.0479946136 0 -4815932.0479946136 7285220.9698486328 0 0 0 0 -850479.26021456718 876347.07275009155 0 876347.07275009155 2586551.1001281738 0 0 0 0 -12020734.549230769 -31347409.862405777 0 -31347409.862405777 -35539485.409790039 0 0 0 0 -1701924.9714355469 -4124228.3155212402 0 -4124228.3155212402 2451336.2794618607 0 0 0 0 -2775638.6919909278 -3362117.081084162 0 -3362117.081084162 3704996.5816264749 0 0 0 0 -3131670.4664649963 -2163319.6097106934 0 -2163319.6097106934 7866492.9573478699 0 0 0 0 -16521108.396902084 -19418575.828430176 0 -19418575.828430176 -13022311.964569092 0 0 0 0 -2524399.685681669 -1548973.7717967518 0 -1548973.7717967518 4390628.6881215507 0 0 0 0 -988923.94419288635 -4215867.5121154785 0 -4215867.5121154785 4874347.2737731934 0 0 0 0 -3818144.8775157928 -3071395.1731719971 0 -3071395.1731719971 4515814.6307296753 0 0 0 0 -2809465.6996650696 -219430.57211303711 0 -219430.57211303711 3023424.3644417524 0 0 0 0 -10693587.826705933 -22368184.522857666 0 -22368184.522857666 -19397908.117736816 0 0 0 0 87804.450797576457 -80786.609475761652 0 -80786.609475761652 69719.380210109055 0 0 0 0 -11783172.04336971 -18727599.594667435 0 -18727599.594667435 -15998689.880249023 0 0 0 0 -52213366.182474852 -36789335.421157837 0 -36789335.421157837 -9345699.8994293213 0 0 0 0 -31098133.147893906 -22558769.592498779 0 -22558769.592498779 -24280.408348083496 0 0 0 0 -16381449.598834991 -17785826.693328857 0 -17785826.693328857 -16014284.435806274 0 0 0 0 -53912899.134618461 -49076275.477348328 0 -49076275.477348328 -25331561.092468262 0 0 0 0 -114846463.77324915 -54427399.300708771 0 -54427399.300708771 -5518836.9902648926 0 0 0 0 -86240712.848874569 -39309754.318309784 0 -39309754.318309784 -7887.0522537231445 0 0 0 0 -71814338.474796772 -60507219.983612061 0 -60507219.983612061 -34426243.973190308 0 0 0 0 -91595165.219854355 -63890495.697143555 0 -63890495.697143555 -34948540.583404541 0 0 0 0 -37182472.138727665 -37055179.729774475 0 -37055179.729774475 -35371012.578102112 0 0 0 0 -28793833.452749729 -40353336.475265503 0 -40353336.475265503 -50006549.447525024 0 0 0 0 -45803499.328822136 -66338102.055328369 0 -66338102.055328369 -74438045.914001465 0 0 0 0 -1485752.4972339813 -3444059.8833143711 0 -3444059.8833143711 3249170.4711750634 0 0 0 0 -70092928.952526063 -50589930.861879349 0 -50589930.861879349 -23916981.33416748 0 0 0 0 -21540071.767589569 20134849.923912048 0 20134849.923912048 17678767.230270386 0 0 0 0 -105955162.11759377 -35257231.468509674 0 -35257231.468509674 7090235.8635101318 0 0 0 0 -99578414.933389664 -38997554.654724121 0 -38997554.654724121 44537.143960256981 0 0 0 0 -182741599.36062431 -76417012.580307007 0 -76417012.580307007 -3470184.0945053101 0 0 0 0 -103871144.86116791 -37918826.131586075 0 -37918826.131586075 4246426.9484100342 0 0 0 0 27497300.105674744 56421167.53012085 0 56421167.53012085 16912153.873256803 0 0 0 0 -159315447.71487427 -86820988.860786438 0 -86820988.860786438 19952971.325256348 0 0 0 0 -114499838.39017248 -17467479.018787384 0 -17467479.018787384 -21145582.92767334 0 0 0 0 -276453920.64118385 -82734134.737365723 0 -82734134.737365723 21704190.637748718 0 0 0 0 -228244121.28768563 -220345435.43797684 0 -220345435.43797684 -178865108.56860352 0 0 0 0 -1410311.8675100976 -696149.86520025134 0 -696149.86520025134 1432248.7404069602 0 0 0 0 -157938683.36341667 -99525738.411819458 0 -99525738.411819458 -120987151.420578 0 0 0 0 -159507988.87671471 4429762.9328613281 0 4429762.9328613281 50140572.636962891 0 0 0 0 -223966129.37441826 -108456883.57694244 0 -108456883.57694244 -5028925.2934875488 0 0 0 0 -174612639.70138931 -20776117.822067261 0 -20776117.822067261 33768161.253074646 0 0 0 0 26011035.045536041 -76330591.477638245 0 -76330591.477638245 -40675918.136006624 0 0 0 0 -56433548.406356812 -135195570.74243164 0 -135195570.74243164 -40378684.375348628 0 0 0 0 1476175.3920295285 -170536.24847050011 0 -170536.24847050011 -1629951.4196718931 0 0 0 0 -11071545.374018192 4005298.6201782227 0 4005298.6201782227 40414180.082229614 0 0 0 0 -2871833.2652514433 -677700.62488199025 0 -677700.62488199025 2902751.5699332077 0 0 0 0 3382406.5520143509 8047163.7321624756 0 8047163.7321624756 33487839.262907982 0 0 0 0 -76784779.252139091 -94475926.835975647 0 -94475926.835975647 -94238320.29914093 0 0 0 0 -3673314.0355927702 -1717268.8482399955 0 -1717268.8482399955 3847376.4629869759 0 0 0 0 -105206475.39290524 -81437180.698860168 0 -81437180.698860168 -53942244.642501831 0 0 0 0 -105134959.78554821 -81311345.655525208 0 -81311345.655525208 -70539383.402145386 0 0 0 0 -8830812.3271450996 18537823.883068085 0 18537823.883068085 60062090.103912354 0 0 0 0 -16645336.569916725 -7283611.2462463379 0 -7283611.2462463379 48957446.688423157 0 0 0 0 -7081061.0547790527 51174952.811187744 0 51174952.811187744 64426929.308822632 0 0 0 0 -13836453.840496063 7575660.5468292236 0 7575660.5468292236 18687612.461654663 0 0 0 0 -9294340.4064235687 -2296451.7372741699 0 -2296451.7372741699 19019033.979873657 0 0 0 0 -4829039.6549348831 -7265050.1943817139 0 -7265050.1943817139 10459415.233940125 0 0 0 0 -7677629.7949647903 -1490930.3778991699 0 -1490930.3778991699 19316113.651279449 0 0 0 0 -615420.57043409348 -2639592.8333587646 0 -2639592.8333587646 19471259.965942383 0 0 0 0 -9462790.8136386871 -3791506.1642913818 0 -3791506.1642913818 33132755.602756023 0 0 0 0 -50546066.270003319 -19033722.039031982 0 -19033722.039031982 27661931.268966675 0 0 0 0 -23646420.927970886 -77640691.245574951 0 -77640691.245574951 11015378.619018555 0 0 0 0 -16967929.37908268 10709592.185722351 0 10709592.185722351 43137101.547851562 0 0 0 0 641696.53312301636 -11612426.503707886 0 -11612426.503707886 -15826365.641799927 0 0 0 0 -31007376.850875854 -32437814.32043457 0 -32437814.32043457 -37107039.24609375 0 0 0 0 -510679.6869392395 27118152.148178101 0 27118152.148178101 10669349.793518066 0 0 0 0 -4055807.5192318447 -4004117.6096742153 0 -4004117.6096742153 -2328381.4793975502 0 0 0 0 -11270155.335336734 -4096017.4753954746 0 -4096017.4753954746 20657954.96010574 0 0 0 0 -26726592.074302673 -7478257.759552002 0 -7478257.759552002 26189725.005981445 0 0 0 0 -61460852.313949585 -40554153.055847168 0 -40554153.055847168 -16515817.979949951 0 0 0 0 5351665.5523796082 -17710052.030181885 0 -17710052.030181885 -38478933.390777588 0 0 0 0 -521604.18636533152 -2995526.8405273706 0 -2995526.8405273706 -2471268.6778308153 0 0 0 0 -36320124.551222324 16596397.798552513 0 16596397.798552513 42688761.394348145 0 0 0 0 -35754853.482002258 -53611889.142608643 0 -53611889.142608643 -30300085.473213196 0 0 0 0 -9545643.2326626629 -4507627.5524409115 0 -4507627.5524409115 19881158.249058507 0 0 0 0 -71167640.048241377 9827362.1862564087 0 9827362.1862564087 73658993.833862305 0 0 0 0 52898061.681253433 -2589381.2874145508 0 -2589381.2874145508 19007897.797439575 0 0 0 0 -43928078.07301712 -27008062.927261353 0 -27008062.927261353 75504245.4997015 0 0 0 0 -66645176.871725082 3207001.3001403809 0 3207001.3001403809 45490059.370727539 0 0 0 0 -144968600.2056675 -42211265.730606079 0 -42211265.730606079 48251242.362121582 0 0 0 0 -107359158.11351013 -23073944.307876587 0 -23073944.307876587 46948952.681583405 0 0 0 0 -125165912.20618439 9476216.2720031738 0 9476216.2720031738 48858608.029968262 0 0 0 0 -132873750.84538078 -29440846.541564941 0 -29440846.541564941 58653843.182952881 0 0 0 0 -122209906.69787979 -11514524.442169189 0 -11514524.442169189 65407339.553741455 0 0 0 0 -67043952.546732426 -2398395.2244720459 0 -2398395.2244720459 49816182.452972412 0 0 0 0 -84591301.482212067 -87514626.875671387 0 -87514626.875671387 29537084.202999115 0 0 0 0 -187332360.68281102 -111855629.19946861 0 -111855629.19946861 31253120.943969727 0 0 0 0 -119567799.21289062 -78494740.476760864 0 -78494740.476760864 42540604.771881104 0 0 0 0 -44463654.770430565 -88498778.321984291 0 -88498778.321984291 -1785423.4869384766 0 0 0 0 -48572157.00623703 -72133673.336555481 0 -72133673.336555481 19486116.137664795 0 0 0 0 -38769743.685112 -46531201.908821106 0 -46531201.908821106 16527800.60736084 0 0 0 0 -80153016.327627182 -63204619.429840088 0 -63204619.429840088 33585001.307739258 0 0 0 0 -69016915.305639267 -54855338.378662109 0 -54855338.378662109 31253671.155395508 0 0 0 0 -88072006.709833145 -8569880.9536895752 0 -8569880.9536895752 53519037.446853638 0 0 0 0 -86449015.12238121 -30404784.993850708 0 -30404784.993850708 45198094.365737915 0 0 0 0 -65171471.789077759 -27868656.448822021 0 -27868656.448822021 27442407.74017334 0 0 0 0 -77329230.926787376 -32392056.547653198 0 -32392056.547653198 32481344.188598633 0 0 0 0 -70461861.783107758 -21359539.886825562 0 -21359539.886825562 20966594.565429688 0 0 0 0 -85119208.700946808 -49087620.754745483 0 -49087620.754745483 -1015723.9464416504 0 0 0 0 -41493282.101490021 -17885548.691255569 0 -17885548.691255569 21258794.814483643 0 0 0 0 -209338.29564915225 402035.57391661406 0 402035.57391661406 1483995.6564713418 0 0 0 0 -11746862.24129007 -5998719.8972356841 0 -5998719.8972356841 17282976.672371924 0 0 0 0 -60251273.788255692 -121360833.02613068 0 -121360833.02613068 79508821.676544189 0 0 0 0 -67699592.307027817 -13435613.50970459 0 -13435613.50970459 26068698.70463562 0 0 0 0 -56622734.520133972 -28983964.200912476 0 -28983964.200912476 10971583.341262817 0 0 0 0 -51958181.439254761 -36127228.877639771 0 -36127228.877639771 19200382.176376343 0 0 0 0 -58175366.94685936 -33390031.950622559 0 -33390031.950622559 15803870.625915527 0 0 0 0 -53409309.730607033 -39354388.548858643 0 -39354388.548858643 13539980.161026001 0 0 0 0 -33472885.187616348 -43019546.297668457 0 -43019546.297668457 12193172.142658234 0 0 0 0 -26904784.795869827 -38959179.415710449 0 -38959179.415710449 3814789.4383544922 0 0 0 0 -31192736.23062706 -26010016.984695435 0 -26010016.984695435 11624347.965148926 0 0 0 0 -22051146.282094955 -37079702.058563232 0 -37079702.058563232 3916887.4625077248 0 0 0 0 -81675256.627741337 15604206.649785042 0 15604206.649785042 9180037.4805297852 0 0 0 0 -12233146.415296953 -9199481.57924762 0 -9199481.57924762 16236998.295621671 0 0 0 0 -37646067.589738846 -33546116.850250244 0 -33546116.850250244 11273003.162750244 0 0 0 0 -13489706.912540436 52007851.377441406 0 52007851.377441406 -15187490.775863647 0 0 0 0 -79934061.132827759 30672597.565414429 0 30672597.565414429 37949776.312408447 0 0 0 0 -49090380.350700378 -29496680.663574219 0 -29496680.663574219 9940166.7709655762 0 0 0 0 -64252535.211517334 18438870.515441895 0 18438870.515441895 -9994819.7110900879 0 0 0 0 -49347520.001308441 31847666.553688049 0 31847666.553688049 23263253.454040527 0 0 0 0 -48867286.332298279 29025114.28302002 0 29025114.28302002 -3913464.6162719727 0 0 0 0 2147168.251159668 -4692824.5948944092 0 -4692824.5948944092 28551125.461730957 0 0 0 0 -15487846.398101807 -29390931.391876221 0 -29390931.391876221 74032518.986240387 0 0 0 0 -64339318.363395691 30164147.667938232 0 30164147.667938232 13120300.962692261 0 0 0 0 16217240.664047241 -22235619.808609009 0 -22235619.808609009 15743349.872070312 0 0 0 0 61371166.598884583 -63002649.71105957 0 -63002649.71105957 50100069.892211914 0 0 0 0 56071622.535861969 566012.17971801758 0 566012.17971801758 -3116826.094329834 0 0 0 0 10197297.596801758 -66949621.764328003 0 -66949621.764328003 107116451.55126953 0 0 0 0 10112380.072479248 -63252275.785766602 0 -63252275.785766602 59094169.062438965 0 0 0 0 7893937.0364837646 -48162157.833175659 0 -48162157.833175659 67665034.379608154 0 0 0 0 -13976197.080936432 -65135740.494102478 0 -65135740.494102478 75711310.924636841 0 0 0 0 -65453773.756034851 -111006931.76091003 0 -111006931.76091003 13827924.418884277 0 0 0 0 -19348283.96257782 -79743981.727172852 0 -79743981.727172852 -129675844.90823364 0 0 0 0 -69280515.026580811 34017834.564941406 0 34017834.564941406 -43037199.53918457 0 0 0 0 -21475429.900650978 -94653100.246528625 0 -94653100.246528625 17755211.851287842 0 0 0 0 -25010479.608261108 -75592844.438537598 0 -75592844.438537598 69915411.530761719 0 0 0 0 -13269886.513755798 -6954927.2507324219 0 -6954927.2507324219 -32114570.409088135 0 0 0 0 6363596.3659248352 -56404966.139163971 0 -56404966.139163971 23305922.391113281 0 0 0 0 6772755.8905105591 1142312.7293548584 0 1142312.7293548584 19628959.543563843 0 0 0 0 -10329703.441230774 -27753527.01449585 0 -27753527.01449585 56052354.852142334 0 0 0 0 -32458257.957519531 18923659.56072998 0 18923659.56072998 14361565.697219849 0 0 0 0 -28962988.484960556 8617074.9744338989 0 8617074.9744338989 43467640.158843994 0 0 0 0 -122910484.98851776 17282909.897087097 0 17282909.897087097 28065158.276275635 0 0 0 0 -60618567.243362427 -6018591.5210571289 0 -6018591.5210571289 21787031.719573975 0 0 0 0 -43310986.937591553 5227186.1425323486 0 5227186.1425323486 26205855.132049561 0 0 0 0 -73086576.810272217 -25429470.646209717 0 -25429470.646209717 23310178.125732422 0 0 0 0 37938689.746143341 10873427.270401001 0 10873427.270401001 7716261.3166809082 0 0 0 0 -1551186.2481434001 -1065709.5888824798 0 -1065709.5888824798 -325899.44869083166 0 0 0 0 -34986923.443717957 -13320368.175865173 0 -13320368.175865173 -40965144.972238541 0 0 0 0 32569520.621932983 46750992.017150879 0 46750992.017150879 58823387.413696289 0 0 0 0 1078017.7113113403 381914.69451904297 0 381914.69451904297 117203293.80004311 0 0 0 0 11541494.110054016 -23551451.901931763 0 -23551451.901931763 110791.70518684387 0 0 0 0 23299639.11366272 18733484.263339996 0 18733484.263339996 -11466500.71484375 0 0 0 0 1180696.7655592114 -2528856.614378076 0 -2528856.614378076 -986336.7444571536 0 0 0 0 -11107526.098304749 -38287580.711761475 0 -38287580.711761475 20894644.026885986 0 0 0 0 24305044.136936188 334089.57967758179 0 334089.57967758179 -3796128.4950561523 0 0 0 0 3556082.123170495 -1442805.7952863593 0 -1442805.7952863593 -1555149.0833659619 0 0 0 0 54985992.383882523 -21456956.845357895 0 -21456956.845357895 -16920080.537490845 0 0 0 0 4262103.4954319 -44179172.726295471 0 -44179172.726295471 -4244183.2657356262 0 0 0 0 12524973.584029697 -8758165.0253055841 0 -8758165.0253055841 -9567557.2064944394 0 0 0 0 -7615375.8562022364 -18628633.074125648 0 -18628633.074125648 -16524387.520697765 0 0 0 0 -14112694.092955589 -33004878.322631836 0 -33004878.322631836 -8402217.4530792236 0 0 0 0 1234642.1664104462 -39339768.480621338 0 -39339768.480621338 -6505817.4242248535 0 0 0 0 3163388.19789505 -50742256.831733704 0 -50742256.831733704 955079.04544830322 0 0 0 0 -20307588.149206161 -47160292.238155365 0 -47160292.238155365 970865.46447753906 0 0 0 0 1706841.9415512085 -40581339.25944519 0 -40581339.25944519 -1447316.4785461426 0 0 0 0 46788672.540046692 -48345876.40763092 0 -48345876.40763092 -11304653.747444153 0 0 0 0 2477583.0568504333 -61491572.171852112 0 -61491572.171852112 4179465.9589996338 0 0 0 0 -34283514.11497879 -64000942.430483818 0 -64000942.430483818 10305901.668502808 0 0 0 0 31427104.874197006 -43156491.124084473 0 -43156491.124084473 -443780.85605239868 0 0 0 0 7030427.887169838 -71891830.974342346 0 -71891830.974342346 6527769.9324951172 0 0 0 0 464530.73217391968 -65513956.59853363 0 -65513956.59853363 -3765692.6797485352 0 0 0 0 84463589.521465302 -43950020.284988403 0 -43950020.284988403 -5223454.0499897003 0 0 0 0 150800770.08484268 -43206199.912654877 0 -43206199.912654877 -83782686.444213867 0 0 0 0 -5990964.204408383 -13414055.536326434 0 -13414055.536326434 -16440790.291085884 0 0 0 0 50219170.548566818 -56406489.370471954 0 -56406489.370471954 -1455584.9408416748 0 0 0 0 -11907869.285362244 75715722.277240753 0 75715722.277240753 -136541941.54885864 0 0 0 0 598130.52488339692 -559655.24912299775 0 -559655.24912299775 -110683.26601012051 0 0 0 0 -175087.83101272583 -94189849.970565796 0 -94189849.970565796 -196094346.18687439 0 0 0 0 27471485.337387085 -12069986.836181641 0 -12069986.836181641 5304259.0798950195 0 0 0 0 -33285339.817184448 -118474665.96900177 0 -118474665.96900177 21192672.965234756 0 0 0 0 -44277645.109981537 -47617115.154212952 0 -47617115.154212952 60326520.156082153 0 0 0 0 -3344132.0267524719 -9943938.4559135437 0 -9943938.4559135437 34245727.717437744 0 0 0 0 78017826.600120544 -94504284.579849243 0 -94504284.579849243 5574573.0154876709 0 0 0 0 1122467.4572764561 -899751.16489992663 0 -899751.16489992663 -1248973.960696578 0 0 0 0 101229107.52567863 -73779990.044914246 0 -73779990.044914246 19124270.437072754 0 0 0 0 117377719.35689545 -48929701.733123779 0 -48929701.733123779 -7470170.0928955078 0 0 0 0 -5623526.8171987124 -10832729.39854802 0 -10832729.39854802 -13818098.873398729 0 0 0 0 70825437.859600067 -69886848.542263031 0 -69886848.542263031 49714608.014190674 0 0 0 0 65734336.643826485 -55566027.594078064 0 -55566027.594078064 29174970.010437012 0 0 0 0 76942542.574386597 -65982713.871765137 0 -65982713.871765137 43484420.01449585 0 0 0 0 148042308.69697571 -98090489.930786133 0 -98090489.930786133 49001516.188552856 0 0 0 0 59002629.542152405 -66328185.207023621 0 -66328185.207023621 107478762.1741333 0 0 0 0 64116350.673870087 -62564264.208900452 0 -62564264.208900452 63801317.631408691 0 0 0 0 98899208.944953918 -64727951.911376953 0 -64727951.911376953 71278499.14755249 0 0 0 0 32727811.633760452 -37368000.887928009 0 -37368000.887928009 65817403.56817627 0 0 0 0 53508089.657875061 -52659038.52570343 0 -52659038.52570343 55945096.048828125 0 0 0 0 51503341.677215576 -53442025.691741943 0 -53442025.691741943 62442100.369430542 0 0 0 0 36758047.575714111 -53229117.597549438 0 -53229117.597549438 80060801.133026123 0 0 0 0 62994534.952018738 -52458003.553985596 0 -52458003.553985596 56373547.270324707 0 0 0 0 48031399.322219849 -66182514.265777588 0 -66182514.265777588 76766967.458679199 0 0 0 0 -15189974.702430874 -9964627.6694935784 0 -9964627.6694935784 -4338566.5588049851 0 0 0 0 49367756.770458221 -77401342.253227234 0 -77401342.253227234 80636767.516021729 0 0 0 0 59565752.518997192 -60012130.831207275 0 -60012130.831207275 63482448.391418457 0 0 0 0 49326630.145774841 -85006414.7605896 0 -85006414.7605896 69066358.86114502 0 0 0 0 -2560289.2183895111 -59046210.821743011 0 -59046210.821743011 121159080.80232239 0 0 0 0 30729267.630460739 -92342232.156841278 0 -92342232.156841278 93788040.22644043 0 0 0 0 159671920.98898315 -186621662.12039566 0 -186621662.12039566 155236963.96191406 0 0 0 0 176030296.5847168 -192212497.41888428 0 -192212497.41888428 151595111.19767761 0 0 0 0 -1181914.6366218152 -783214.90745016094 0 -783214.90745016094 771632.66254621744 0 0 0 0 55141165.322170258 -99377430.748764038 0 -99377430.748764038 157534953.3762207 0 0 0 0 37931523.645204544 -23622801.274673462 0 -23622801.274673462 12507117.316810608 0 0 0 0 22400049.282543182 -73134730.970039368 0 -73134730.970039368 -22763910.489990234 0 0 0 0 43983538.802558899 -52334628.582740784 0 -52334628.582740784 30309163.792327881 0 0 0 0 42269187.30796814 -58798884.670516968 0 -58798884.670516968 22096049.897064209 0 0 0 0 31385357.06438446 -28864425.379333496 0 -28864425.379333496 23317442.119477272 0 0 0 0 40858855.367897034 -41468962.196746826 0 -41468962.196746826 47106887.496276855 0 0 0 0 38088275.232568741 -43443256.561115265 0 -43443256.561115265 54892954.40536499 0 0 0 0 39771638.60833931 -36214764.427642822 0 -36214764.427642822 47238853.833618164 0 0 0 0 21512838.556112289 -29668833.814910889 0 -29668833.814910889 52578174.285765648 0 0 0 0 23064057.832885742 -24580875.799598694 0 -24580875.799598694 52265866.773849487 0 0 0 0 34975066.044390023 -63516551.197212934 0 -63516551.197212934 18011188.382598877 0 0 0 0 2537107.2543356661 -281508.56270346045 0 -281508.56270346045 -2768863.3187494576 0 0 0 0 21099258.073389053 -36100646.432525635 0 -36100646.432525635 50952972.73449707 0 0 0 0 41530725.816915512 -7743973.1503448486 0 -7743973.1503448486 9598741.3699817657 0 0 0 0 1565492.1971824411 -133024.58303581551 0 -133024.58303581551 -1643577.2546396106 0 0 0 0 29956886.650828362 -32396443.494531631 0 -32396443.494531631 -2864919.7923126221 0 0 0 0 -1965069.5725762844 -30855795.397503853 0 -30855795.397503853 -18272.801193237305 0 0 0 0 35570966.880046844 -79469948.446075439 0 -79469948.446075439 21609518.671279907 0 0 0 0 18494878.075305939 -66030213.02772522 0 -66030213.02772522 38640346.125617981 0 0 0 0 38488413.207357407 -69250359.045909882 0 -69250359.045909882 30128249.864761353 0 0 0 0 44198076.079238892 -59900281.118125916 0 -59900281.118125916 39710253.689239502 0 0 0 0 36825799.498931885 -69543829.776367188 0 -69543829.776367188 59928133.138717651 0 0 0 0 33073947.12052536 -70363271.795387268 0 -70363271.795387268 65533041.274780273 0 0 0 0 17068199.895851135 -54420689.113983154 0 -54420689.113983154 49235422.344360352 0 0 0 0 29632509.034542084 -22197180.039535522 0 -22197180.039535522 22746591.390380859 0 0 0 0 40669562.658119202 -41113320.724578857 0 -41113320.724578857 55534928.559727669 0 0 0 0 30516667.130657196 -46942293.372993469 0 -46942293.372993469 25654618.980300903 0 0 0 0 -22452172.448836803 -66655892.94421196 0 -66655892.94421196 21159435.100128174 0 0 0 0 -11393017.128582001 -12715654.916419983 0 -12715654.916419983 26179034.733762741 0 0 0 0 -34444458.949966431 -33693440.917327881 0 -33693440.917327881 -38732.446334838867 0 0 0 0 27034213.591346741 -70599546.844970703 0 -70599546.844970703 -15240957.351318359 0 0 0 0 28385648.239738464 -62587769.681007385 0 -62587769.681007385 14422464.74269104 0 0 0 0 40280604.823154449 -63505608.798213959 0 -63505608.798213959 -9883.7828826904297 0 0 0 0 23061201.643871307 -65641891.723438263 0 -65641891.723438263 75687424.359359741 0 0 0 0 20817277.391056061 -56258845.997413635 0 -56258845.997413635 36636698.547164917 0 0 0 0 -11666909.109083563 -8207783.6699857898 0 -8207783.6699857898 -4325397.0271686465 0 0 0 0 34999647.168704987 -51149736.119930267 0 -51149736.119930267 31494287.199295044 0 0 0 0 32265405.213085175 -40535303.489028931 0 -40535303.489028931 75145.896268727607 0 0 0 0 -5627799.1070159115 903046.61296428926 0 903046.61296428926 878365.60882971436 0 0 0 0 -67883645.530668736 23836336.937869072 0 23836336.937869072 68880925.988555908 0 0 0 0 -4312327.7244813144 -1575231.3670916408 0 -1575231.3670916408 465029.17507105693 0 0 0 0 -5843668.8475265503 -54083859.380775452 0 -54083859.380775452 -124067.46636962891 0 0 0 0 -18190860.580490112 -21075268.765617371 0 -21075268.765617371 39415425.543884277 0 0 0 0 -47168216.921386719 -83433127.494552612 0 -83433127.494552612 59400567.579620361 0 0 0 0 -717471.92123042047 -390866.28125875443 0 -390866.28125875443 -90625.647543743253 0 0 0 0 -3933924.8409194946 7348341.4142456055 0 7348341.4142456055 93700234.638595581 0 0 0 0 -216450873.05500793 6038067.1970825195 0 6038067.1970825195 49869244.015686035 0 0 0 0 -4086012.9296456557 -1331009.2321978286 0 -1331009.2321978286 4055640.3280016258 0 0 0 0 -22112643.569746971 7134004.2217121124 0 7134004.2217121124 -15748664.778930664 0 0 0 0 -8358655.8951605409 -6694536.3983779848 0 -6694536.3983779848 -1185755.6001022235 0 0 0 0 -12014864.021606445 -6213152.4656448364 0 -6213152.4656448364 3395989.5657424927 0 0 0 0 -16031824.335514069 -9133510.2452774048 0 -9133510.2452774048 8788831.9110870361 0 0 0 0 -14915027.742080688 2991207.6951599121 0 2991207.6951599121 8131344.8500671387 0 0 0 0 -2883638.5031646006 -1640364.2993716672 0 -1640364.2993716672 4890176.7975103632 0 0 0 0 -14863465.623603821 2763090.2565841675 0 2763090.2565841675 7101736.3997907639 0 0 0 0 -14239869.113731384 1495046.594745636 0 1495046.594745636 9607439.5705413818 0 0 0 0 9466395.6723403931 -14141926.961601257 0 -14141926.961601257 31882105.913613319 0 0 0 0 -15039294.626617432 1817975.589384079 0 1817975.589384079 25032997.525634766 0 0 0 0 -1718906.5954728797 -133748.93934477679 0 -133748.93934477679 1028421.6140352935 0 0 0 0 -84634513.519874573 -42681889.410835266 0 -42681889.410835266 63744450.472839355 0 0 0 0 13247611.357487202 -79433174.118163586 0 -79433174.118163586 64682898.000350952 0 0 0 0 -114082058.16249084 50444335.976280212 0 50444335.976280212 24108304.3163414 0 0 0 0 -34601201.874916077 -48424107.433822632 0 -48424107.433822632 58782905.868934631 0 0 0 0 13332727.561172485 -5626569.769733429 0 -5626569.769733429 -22674078.216766357 0 0 0 0 -8087256.0971069336 -14632475.005334854 0 -14632475.005334854 18988259.488525391 0 0 0 0 -44795328.447891235 -2853998.4824295044 0 -2853998.4824295044 40234085.007751465 0 0 0 0 -7122079.7909232229 -1030948.440735016 0 -1030948.440735016 4566650.4627760798 0 0 0 0 -290709149.09693146 291400478.85262299 0 291400478.85262299 -109606648.54405975 0 0 0 0 -224944929.29934692 -66037109.004470825 0 -66037109.004470825 258804017.44822693 0 0 0 0 254546070.65904808 -80805937.424283981 0 -80805937.424283981 102589160.04263306 0 0 0 0 1778217.1259508096 -1572618.3238001764 0 -1572618.3238001764 169460.66650136001 0 0 0 0 431431752.02402496 -463045915.29680634 0 -463045915.29680634 437275615.3658905 0 0 0 0 272406576.125 59628234.038551331 0 59628234.038551331 -401876959.33505249 0 0 0 0 776705802.46068954 -574300004.83344269 0 -574300004.83344269 -1630962.7082214355 0 0 0 0 346953663.37796402 -875563099.04760361 0 -875563099.04760361 352253546.1542511 0 0 0 0 829322369.95361328 -323773058.86659241 0 -323773058.86659241 -157133256.03005981 0 0 0 0 233262115.33403873 -171400515.57516098 0 -171400515.57516098 -63581516.658355713 0 0 0 0 240267648.21875 -357779553.1938324 0 -357779553.1938324 102392013.6363678 0 0 0 0 225818119.38640594 -282909290.76626587 0 -282909290.76626587 255017939.72592926 0 0 0 0 -479804350.72804832 171710489.00424767 0 171710489.00424767 13924953.291046143 0 0 0 0 -791909062.5414505 -402300494.64692688 0 -402300494.64692688 325234011.46141052 0 0 0 0 -1211821529.6041946 -554619979.49887085 0 -554619979.49887085 624506563.25764465 0 0 0 0 -1438186659.4064479 867175162.13221836 0 867175162.13221836 -260779631.79396057 0 0 0 0 -937846.25474875793 -1010401.3556408808 0 -1010401.3556408808 -273062.18584832922 0 0 0 0 10693667.897537231 -21126168.563171387 0 -21126168.563171387 96646.758909537661 0 0 0 0 9075422.1434631348 -19364491.768417358 0 -19364491.768417358 37979440.213775635 0 0 0 0 -353815953.55901337 128570767.33078766 0 128570767.33078766 -51120722.679588318 0 0 0 0 -367110369.55812836 37181526.20501709 0 37181526.20501709 174494074.48692322 0 0 0 0 -341397919.74331665 -88579214.38483429 0 -88579214.38483429 161357418.58317089 0 0 0 0 -308782588.45650864 -70107364.220821381 0 -70107364.220821381 50051931.859710693 0 0 0 0 -100864099.99464417 -111523687.83946991 0 -111523687.83946991 -114111508.3948822 0 0 0 0 -149012569.38549805 -169587698.96617889 0 -169587698.96617889 26241171.429092407 0 0 0 0 -1442454.3954908438 -253774.50889857858 0 -253774.50889857858 809318.07592812181 0 0 0 0 159678638.20892715 -422059049.51229858 0 -422059049.51229858 -1357452028.3864136 0 0 0 0 -117362976.81941223 -298231038.14842987 0 -298231038.14842987 -166347013.87960815 0 0 0 0 -369074775.32926273 -309692041.09619188 0 -309692041.09619188 1040789244.4673767 0 0 0 0 -380399476.13278198 -510895929.79071045 0 -510895929.79071045 241020809.25805664 0 0 0 0 -392382503.9107933 -100155933.94097137 0 -100155933.94097137 439868553.25772095 0 0 0 0 -213153941.74254227 -254439110.83049774 0 -254439110.83049774 304628741.38296509 0 0 0 0 43337515.236152649 -199186997.0453186 0 -199186997.0453186 284278231.4724884 0 0 0 0 414744567.98832417 -442872220.46237659 0 -442872220.46237659 435667957.10668945 0 0 0 0 321971962.80861664 66698451.877197266 0 66698451.877197266 483996681.01416016 0 0 0 0 -88338345.859138489 -1006580576.8679581 0 -1006580576.8679581 123706244.20666504 0 0 0 0 -90329871.957473755 -444693343.00367737 0 -444693343.00367737 -481005214.75288391 0 0 0 0 1335486.356333822 -1127161.3745707199 0 -1127161.3745707199 421707.17606659979 0 0 0 0 208626844.81321907 57609447.705741882 0 57609447.705741882 -552251947.32983398 0 0 0 0 59384798.31186676 17784371.881813049 0 17784371.881813049 -936778.8657989502 0 0 0 0 -67898391.523948669 5079495.617729187 0 5079495.617729187 213431381.18678284 0 0 0 0 -59657179.300506592 -69014793.907531738 0 -69014793.907531738 600119616.00198364 0 0 0 0 -54069795.518440247 -79399063.803611755 0 -79399063.803611755 377208985.41316223 0 0 0 0 -26168342.215629578 -256068069.59558868 0 -256068069.59558868 405696017.58901978 0 0 0 0 69371328.56570816 -248436532.61685562 0 -248436532.61685562 332364231.45455933 0 0 0 0 -140053876.62815976 -274012553.06090164 0 -274012553.06090164 -236020530.5438385 0 0 0 0 -147735822.01161194 -197035867.53855896 0 -197035867.53855896 -21826598.258895874 0 0 0 0 -164691964.70243406 -403646181.82720947 0 -403646181.82720947 -335097830.13458252 0 0 0 0 -152806802.77977562 -343247704.2827034 0 -343247704.2827034 -262068786.54034424 0 0 0 0 -231770608.82411957 -374014228.58287811 0 -374014228.58287811 -32276349.65953064 0 0 0 0 -167412253.9621048 -489701235.39183807 0 -489701235.39183807 -232729979.24385071 0 0 0 0 -191541.66319274902 -170901501.76668549 0 -170901501.76668549 -122883466.38210297 0 0 0 0 9114127.2801246643 -207164516.12864685 0 -207164516.12864685 16735643.21546936 0 0 0 0 185462139.86240387 -95163102.036010742 0 -95163102.036010742 -19781991.276031494 0 0 0 0 -117807498.68231583 -281635016.10644245 0 -281635016.10644245 328722425.4322052 0 0 0 0 149909595.83604431 -157855706.09299469 0 -157855706.09299469 -37054732.583068848 0 0 0 0 162231231.14505005 -119997099.83216095 0 -119997099.83216095 75857826.853141785 0 0 0 0 -3855937.4433791265 -1035844.1478062421 0 -1035844.1478062421 2420701.039303273 0 0 0 0 -478205.8492712928 -2306204.8795206696 0 -2306204.8795206696 2032364.8538866565 0 0 0 0 200648988.06602478 -72365893.991584778 0 -72365893.991584778 11202221.071899414 0 0 0 0 186218264.43997955 -95034290.824516296 0 -95034290.824516296 -23722971.893890381 0 0 0 0 597354824.38980865 -53650127.632194519 0 -53650127.632194519 -42339608.904481888 0 0 0 0 43981.410244015045 -1017767.5498152412 0 -1017767.5498152412 556705.23678215593 0 0 0 0 53284814.295890808 70449847.291353226 0 70449847.291353226 78123494.642578125 0 0 0 0 32749770.468570709 203504502.27787018 0 203504502.27787018 -139376614.34841156 0 0 0 0 -21340042.285068512 127399271.38967896 0 127399271.38967896 258109694.47890854 0 0 0 0 117365215.3282547 -58909414.19588089 0 -58909414.19588089 -12210904.13734436 0 0 0 0 231415921.28141785 -271645825.82477951 0 -271645825.82477951 170358408.16563416 0 0 0 0 -933493.38448619843 -57391457.292300224 0 -57391457.292300224 -123354156.89828491 0 0 0 0 -2980846.1065711975 -63884250.110397339 0 -63884250.110397339 132512829.97521973 0 0 0 0 -78634877.638004303 -97761948.446880341 0 -97761948.446880341 85771030.503089905 0 0 0 0 177113883.04696655 -29675539.045578003 0 -29675539.045578003 -150760847.64942169 0 0 0 0 -67006026.700866699 -120357887.55202484 0 -120357887.55202484 -174209207.09558868 0 0 0 0 -62692843.595500946 -130616161.50564957 0 -130616161.50564957 -153502549.60903931 0 0 0 0 -66961653.256864548 38145779.983388901 0 38145779.983388901 -25229935.392074585 0 0 0 0 -580237.25741783902 234369.02000968903 0 234369.02000968903 716924.81868927926 0 0 0 0 -43031262.512336731 -81168614.825691223 0 -81168614.825691223 -63245683.617332458 0 0 0 0 -69549135.387481689 -89317594.760047913 0 -89317594.760047913 -159985523.89717102 0 0 0 0 -121945527.86505127 -75493848.777732849 0 -75493848.777732849 -146166237.7948761 0 0 0 0 -123582138.11269379 58565502.058481216 0 58565502.058481216 10664213.883636475 0 0 0 0 -154055548.20066071 -139035994.77442169 0 -139035994.77442169 -10321244.07208252 0 0 0 0 -67448878.20223999 -45529014.464286804 0 -45529014.464286804 101077523.98535156 0 0 0 0 -67159463.465164185 31618520.819351196 0 31618520.819351196 38491291.142343521 0 0 0 0 -14583061.344528198 22806815.667789459 0 22806815.667789459 -21097007.260894775 0 0 0 0 -10832105.635765076 11532788.315704346 0 11532788.315704346 10947769.648790359 0 0 0 0 -1678914.4975670725 703507.80807630345 0 703507.80807630345 2426223.9766481742 0 0 0 0 -11636223.323856354 7882836.229221344 0 7882836.229221344 -1396039.085105896 0 0 0 0 -22953758.840492249 10063964.537666321 0 10063964.537666321 30896741.377098083 0 0 0 0 343693.45782470703 7392991.3416318893 0 7392991.3416318893 30048941.668457031 0 0 0 0 -109866942.97955322 -89531332.009590149 0 -89531332.009590149 70673624.464408875 0 0 0 0 -1318763.164768219 -7725456.2363643646 0 -7725456.2363643646 27879188.441177368 0 0 0 0 -89520615.556983948 -181423677.60229492 0 -181423677.60229492 -59306135.881755829 0 0 0 0 -93411984.857700348 -131462794.22581482 0 -131462794.22581482 209298007.25415802 0 0 0 0 -62526767.261341095 -57681321.105041504 0 -57681321.105041504 22451144.092559814 0 0 0 0 -45496883.30973053 -83105802.035625458 0 -83105802.035625458 -55572474.973365784 0 0 0 0 -87598286.737430573 -125706912.35234451 0 -125706912.35234451 -6729309.6455841064 0 0 0 0 -109877681.15156555 -125709215.04367065 0 -125709215.04367065 198389.1110534668 0 0 0 0 -47770548.208480835 -81544848.747383118 0 -81544848.747383118 -14040407.691879272 0 0 0 0 -75006566.472076416 -70635062.953918457 0 -70635062.953918457 -18734677.496551514 0 0 0 0 -22349772.661125183 18864259.593307495 0 18864259.593307495 5928599.1437587738 0 0 0 0 -142064134.10298157 -60190052.857334137 0 -60190052.857334137 -4881980.0736083984 0 0 0 0 25148435.113105774 -25500476.492229462 0 -25500476.492229462 -93011805.59740448 0 0 0 0 5769170.1141347513 -2499152.3506564163 0 -2499152.3506564163 -1002809.3039030782 0 0 0 0 168722267.19496918 -187909768.09240723 0 -187909768.09240723 318351419.76063538 0 0 0 0 168713.72200120613 -501853.61027135327 0 -501853.61027135327 626276.43882788718 0 0 0 0 -16936370.727912903 74734569.951828003 0 74734569.951828003 465763721.36644745 0 0 0 0 8736076.1766204834 -281181085.1645813 0 -281181085.1645813 -45398613.445587158 0 0 0 0 -60159497.627761841 -28280436.188293457 0 -28280436.188293457 513602608.08393097 0 0 0 0 -13911027.660276413 -31054379.380327225 0 -31054379.380327225 340893280.35450745 0 0 0 0 -19083843.537374496 -123933507.54625702 0 -123933507.54625702 -275475106.34250641 0 0 0 0 4500332.060750328 -1660848.8557008915 0 -1660848.8557008915 -309356.61573046213 0 0 0 0 86623274.435209274 11205089.563251495 0 11205089.563251495 238648665.69538116 0 0 0 0 -68631161.494098663 -41167463.76638031 0 -41167463.76638031 498130309.82684755 0 0 0 0 14367307.324119568 -84411135.34670639 0 -84411135.34670639 43239323.602111816 0 0 0 0 -45457965.846412659 -83213947.763687134 0 -83213947.763687134 219488001.49440956 0 0 0 0 291399.84342676401 -792359.92026711628 0 -792359.92026711628 359376.97474728525 0 0 0 0 42223425.045511723 25595843.422985554 0 25595843.422985554 -41492211.002937317 0 0 0 0 58017745.842193604 -3945988.467300415 0 -3945988.467300415 1695298.5262336731 0 0 0 0 155146486.30075073 43187288.14364624 0 43187288.14364624 -4154854.9055175781 0 0 0 0 14439.573514658958 -82100.550922892988 0 -82100.550922892988 48190.737864643335 0 0 0 0 -170351339.92363739 -104017542.34085464 0 -104017542.34085464 -13851353.617294312 0 0 0 0 -162936835.11435699 -155387251.37239838 0 -155387251.37239838 -96052195.757705688 0 0 0 0 -199785739.71258163 -131260906.44189072 0 -131260906.44189072 -82564497.466587067 0 0 0 0 410659.00319364667 -1267862.5288822316 0 -1267862.5288822316 1376912.2022638023 0 0 0 0 -82124187.359996796 -33883148.963434219 0 -33883148.963434219 -84301189.111175537 0 0 0 0 -16413833.825084686 -110132574.60634232 0 -110132574.60634232 -32940853.988174438 0 0 0 0 21558459.576622009 -116969986.63473511 0 -116969986.63473511 -146460195.87332916 0 0 0 0 -27015570.171615601 137485738.90161896 0 137485738.90161896 220175793.85673141 0 0 0 0 276359992.26249123 91133530.798977852 0 91133530.798977852 273886120.94242859 0 0 0 0 -50556812.334785461 -147288917.79788208 0 -147288917.79788208 295767524.15058136 0 0 0 0 101702029.87725067 -279587203.16194916 0 -279587203.16194916 266797265.93223572 0 0 0 0 266186385.77749634 -109064201.3995285 0 -109064201.3995285 -84070963.448410034 0 0 0 0 179735050.16431618 87972881.086143494 0 87972881.086143494 -501436638.01258087 0 0 0 0 1176165.9947745241 233413.32078299671 0 233413.32078299671 -3520.3765706270933 0 0 0 0 375472462.50141144 -324581403.61547852 0 -324581403.61547852 279742623.95503998 0 0 0 0 -141853266.02675247 -117025035.88166809 0 -117025035.88166809 984715164.85736084 0 0 0 0 163614904.87762451 48850036.341682434 0 48850036.341682434 369954829.22642517 0 0 0 0 3094071.8872151151 -567606.74627163261 0 -567606.74627163261 -75512.051636913791 0 0 0 0 316048243.63471222 -164801677.29904175 0 -164801677.29904175 -596965058.29718018 0 0 0 0 -113395668.4773941 -53011154.816177368 0 -53011154.816177368 657325591.53407097 0 0 0 0 533175.36691360921 -188596.45856970921 0 -188596.45856970921 263365.85164929181 0 0 0 0 91148953.165763855 63941240.009202957 0 63941240.009202957 -124569555.29946136 0 0 0 0 93736263.973922729 -172926117.97966766 0 -172926117.97966766 159454997.86967468 0 0 0 0 58120249.378959656 -105608903.50097656 0 -105608903.50097656 64128384.416564941 0 0 0 0 132430415.30690765 -146332230.53862762 0 -146332230.53862762 107171585.32003021 0 0 0 0 -156586345.82646942 -137188053.87557983 0 -137188053.87557983 316731416.12125969 0 0 0 0 235193938.42289925 174908732.78366852 0 174908732.78366852 -177716140.4664917 0 0 0 0 181874.13073487207 108097.06251579523 0 108097.06251579523 223958.32113250718 0 0 0 0 108686572.14365387 -294482037.44507599 0 -294482037.44507599 453013023.73633575 0 0 0 0 335301007.79611969 -174710502.4226532 0 -174710502.4226532 -2656231.0072937012 0 0 0 0 22512421.251754761 -5679593.5347061157 0 -5679593.5347061157 54703884.147846222 0 0 0 0 16391244.879993439 81499240.565265656 0 81499240.565265656 230221827.57215881 0 0 0 0 23227770.720478058 61403398.825996399 0 61403398.825996399 -101603895.11207581 0 0 0 0 44952166.552845001 -45639111.733699799 0 -45639111.733699799 -98288698.034667969 0 0 0 0 70207443.041155815 -48891104.844238281 0 -48891104.844238281 -117550606.9584198 0 0 0 0 158491376.20274353 -10267603.100467682 0 -10267603.100467682 -100827604.04394531 0 0 0 0 431608.6331808269 239641.02285480499 0 239641.02285480499 -111640.36886601336 0 0 0 0 -43974986.01550293 -36146961.460018158 0 -36146961.460018158 21926636.471006393 0 0 0 0 22618802.0989151 44406894.856719971 0 44406894.856719971 -5517488.0175552368 0 0 0 0 -31964943.111049652 -114680389.30391693 0 -114680389.30391693 144724625.57081604 0 0 0 0 307423.28901293874 115447.28753134608 0 115447.28753134608 -57408.636382824741 0 0 0 0 89623823.44102478 -215009085.43674469 0 -215009085.43674469 194487312.10289001 0 0 0 0 318841246.37477875 -216392573.14916992 0 -216392573.14916992 64183708.436626107 0 0 0 0 321277854.25579071 -326165661.69897461 0 -326165661.69897461 129168371.51342773 0 0 0 0 187503563.80480957 -101460899.94796753 0 -101460899.94796753 -159345117.36387634 0 0 0 0 231632659.13109589 40979447.323539734 0 40979447.323539734 86824821.286361694 0 0 0 0 179569421.43675995 -20139175.956558228 0 -20139175.956558228 -7311466.5933609009 0 0 0 0 63458907.122062683 -65805599.020553589 0 -65805599.020553589 43273727.029922485 0 0 0 0 17666292.778147697 -69232878.745228767 0 -69232878.745228767 -11748813.556091309 0 0 0 0 22767695.419582367 -14541664.560539246 0 -14541664.560539246 -63755173.059593201 0 0 0 0 -21701547.416394234 29320931.993871689 0 29320931.993871689 20181128.698638916 0 0 0 0 -61195250.857749939 -13097900.553657532 0 -13097900.553657532 30355968.628623962 0 0 0 0 1415677.3637695312 -25823264.071487427 0 -25823264.071487427 -971644.78508758545 0 0 0 0 -14543470.71459198 -16957132.014331818 0 -16957132.014331818 -4421353.5252075195 0 0 0 0 -15877642.400985718 -2983482.8556442261 0 -2983482.8556442261 -62695611.039512634 0 0 0 0 -9831925.341293335 -18210911.250907898 0 -18210911.250907898 -25264280.322525024 0 0 0 0 -32830475.201377869 -7887764.0557975769 0 -7887764.0557975769 -1004133.0031738281 0 0 0 0 6472599.8855457306 -628243.51278018951 0 -628243.51278018951 -508908.83331298828 0 0 0 0 -112983797.41146469 -60223345.6798172 0 -60223345.6798172 92240958.44443512 0 0 0 0 -90711968.224967957 -70012554.065486908 0 -70012554.065486908 44342689.07207489 0 0 0 0 -79765022.751243591 -7495707.2931976318 0 -7495707.2931976318 50629674.684059143 0 0 0 0 -34583904.202232361 -30314275.637561798 0 -30314275.637561798 47588796.669570923 0 0 0 0 -39725162.738985062 -71889197.952138901 0 -71889197.952138901 11175299.982788086 0 0 0 0 -104813508.42832184 -18853276.475769043 0 -18853276.475769043 -31791270.638477325 0 0 0 0 -93870502.732559204 -63564871.008163452 0 -63564871.008163452 -78335737.535934448 0 0 0 0 -92838151.495918274 -126460167.85243225 0 -126460167.85243225 -195300686.39125824 0 0 0 0 -96029709.97416687 -38169525.762969971 0 -38169525.762969971 -2088227.7937049866 0 0 0 0 -201278966.23705292 -93721028.600593567 0 -93721028.600593567 -20040665.815185547 0 0 0 0 1039329.9199247062 -857590.68012908846 0 -857590.68012908846 -23123.729372732341 0 0 0 0 -45882019.67931366 -44030009.692611694 0 -44030009.692611694 14293457.341585159 0 0 0 0 -92736683.446557999 -133299288.65507126 0 -133299288.65507126 -104731475.65814209 0 0 0 0 -90157964.844329834 -93852203.059143066 0 -93852203.059143066 -125995463.7898941 0 0 0 0 -133775720.62996674 -56978652.221290588 0 -56978652.221290588 46630680.423065186 0 0 0 0 -5686961.3776168823 27179981.935775757 0 27179981.935775757 24292056.487388611 0 0 0 0 365794156.82029724 -149003439.86303711 0 -149003439.86303711 45347127.77620697 0 0 0 0 195107664.02554321 70210792.84589386 0 70210792.84589386 -52885455.471206665 0 0 0 0 406632.42086789012 -340266.5654867813 0 -340266.5654867813 45842.679291471839 0 0 0 0 -107066794.71269226 -117104591.89292145 0 -117104591.89292145 222244804.03526306 0 0 0 0 74486787.383918762 -309506521.00279999 0 -309506521.00279999 245065899.61329746 0 0 0 0 -17737520.359771729 -145406005.21679688 0 -145406005.21679688 104200278.96694946 0 0 0 0 399870756.52898788 -163600440.26252747 0 -163600440.26252747 17371486.213546753 0 0 0 0 -91863503.825134277 -55307306.363983154 0 -55307306.363983154 44991528.647201538 0 0 0 0 -106190468.18725222 -20393363.792027533 0 -20393363.792027533 21752115.517456055 0 0 0 0 -115747782.90314484 -117424987.21155548 0 -117424987.21155548 191607288.8065033 0 0 0 0 -49451094.855131149 -144678483.17091846 0 -144678483.17091846 109184814.55519104 0 0 0 0 -32358768.175575256 -93524972.64000988 0 -93524972.64000988 77802341.850601196 0 0 0 0 86799851.201622009 -157185682.47460175 0 -157185682.47460175 24917727.938163757 0 0 0 0 70857617.028862 -131534728.30292511 0 -131534728.30292511 20678290.843845367 0 0 0 0 24667396.196865082 -105003742.47613907 0 -105003742.47613907 5975282.1583461761 0 0 0 0 28518086.091072083 -88943032.860801697 0 -88943032.860801697 23415306.388702393 0 0 0 0 -26480543.897583008 -80701727.766586304 0 -80701727.766586304 56244151.978729248 0 0 0 0 -30311610.795946121 -46238640.173769236 0 -46238640.173769236 22228210.535171509 0 0 0 0 -10955033.145339966 -24553158.720016479 0 -24553158.720016479 46515532.414451599 0 0 0 0 278330.28033447266 -68400425.011627197 0 -68400425.011627197 23815627.202510357 0 0 0 0 -7804464.0423278809 -50522012.178535461 0 -50522012.178535461 2051315.8292388916 0 0 0 0 -5548530.116985321 -47777531.021160126 0 -47777531.021160126 -14405779.401031494 0 0 0 0 22958921.270030022 -51225342.803153038 0 -51225342.803153038 -41523511.661239624 0 0 0 0 10470508.824581146 -4383210.2489776611 0 -4383210.2489776611 42069308.996696472 0 0 0 0 2252073.4606513977 -35023436.893482208 0 -35023436.893482208 -8453719.1375923157 0 0 0 0 -1084571.7137031555 3052516.6823692322 0 3052516.6823692322 80184903.612197876 0 0 0 0 35126357.848648071 -29027472.509513855 0 -29027472.509513855 52234625.714572906 0 0 0 0 -7854827.6734428406 -47778169.954692841 0 -47778169.954692841 157881654.71110535 0 0 0 0 196499.65893900022 -63638.092612653971 0 -63638.092612653971 100979.5647976473 0 0 0 0 -41031733.921064377 -63013279.247206688 0 -63013279.247206688 135797908.11995697 0 0 0 0 2220.243230253458 9072.2762405611575 0 9072.2762405611575 70489.571929724887 0 0 0 0 -76365745.240638733 -91276219.004577637 0 -91276219.004577637 143369983.25325012 0 0 0 0 623831.57313537598 -37651230.601478577 0 -37651230.601478577 128848321.79696655 0 0 0 0 42029128.142501831 -71025754.08291626 0 -71025754.08291626 92022512.90940094 0 0 0 0 44838999.503540039 -59666009.009635925 0 -59666009.009635925 101056459.28045654 0 0 0 0 16094388.587863922 26603003.834133148 0 26603003.834133148 64077645.955497742 0 0 0 0 -376104139.89407349 -43185109.995849609 0 -43185109.995849609 173671591.36755371 0 0 0 0 933898.55425863713 -184485.42139423266 0 -184485.42139423266 -29332.719896985218 0 0 0 0 -160771207.29150391 44551694.151290894 0 44551694.151290894 111143388.46722794 0 0 0 0 10943684.983681202 -167489135.85921979 0 -167489135.85921979 -31446125.326400757 0 0 0 0 -297337033.74429321 -128955341.69219971 0 -128955341.69219971 23417691.418029785 0 0 0 0 884982.0533828726 -214412.13035587594 0 -214412.13035587594 -602459.45695400983 0 0 0 0 -13004847.059906006 -68544083.041526794 0 -68544083.041526794 -48535079.56452179 0 0 0 0 -53685798.909729004 -60479536.200496674 0 -60479536.200496674 -18829781.049346924 0 0 0 0 3910739.0579346623 -2477753.4423990436 0 -2477753.4423990436 -2515296.5376993865 0 0 0 0 -150858285.18534851 -98486802.091804504 0 -98486802.091804504 -11568746.619110107 0 0 0 0 -55317823.990665913 -84438569.572171211 0 -84438569.572171211 -74532975.933273315 0 0 0 0 116918844.045681 -571507.91342926025 0 -571507.91342926025 -185161377.83744812 0 0 0 0 99963485.096160889 -13663867.581642151 0 -13663867.581642151 126533671.30995178 0 0 0 0 -131716925.02478409 -132741682.13145685 0 -132741682.13145685 -72534430.439346313 0 0 0 0 149310.47277832031 42798592.944572449 0 42798592.944572449 9483005.617805481 0 0 0 0 182894761.61784363 -39127062.076629639 0 -39127062.076629639 45393309.656509399 0 0 0 0 250537800.54283905 96681679.43466568 0 96681679.43466568 -113889035.88694 0 0 0 0 70737714.461901426 -112938317.27785158 0 -112938317.27785158 -107998133.66880798 0 0 0 0 41447807.509084702 -35482532.567991257 0 -35482532.567991257 -252091113.41278648 0 0 0 0 -204682519.18210411 -543027943.27956486 0 -543027943.27956486 -347696088.46494085 0 0 0 0 -82564867.73130846 -423055687.72870493 0 -423055687.72870493 -319871697.92355347 0 0 0 0 20754126.847253755 -29147848.084372275 0 -29147848.084372275 32251856.884047914 0 0 0 0 -411819941.86322546 -114997924.06477499 0 -114997924.06477499 265131270.01304626 0 0 0 0 386129663.21897125 -205262857.2417984 0 -205262857.2417984 -421264985.78671646 0 0 0 0 -52231936.978449412 -270453952.47559708 0 -270453952.47559708 -319590915.78652954 0 0 0 0 -388005364.66131592 -417134709.61477661 0 -417134709.61477661 -24905817.255020142 0 0 0 0 -135253987.04084778 -168805157.4039917 0 -168805157.4039917 -122911558.30599594 0 0 0 0 20184680.841186449 -29284441.041112613 0 -29284441.041112613 31801128.812945504 0 0 0 0 -207879489.58937836 -53417477.735473633 0 -53417477.735473633 218541788.82673645 0 0 0 0 -53494005.457328796 -58950919.787574768 0 -58950919.787574768 78174850.029716492 0 0 0 0 -44453422.524362564 -113860829.86602402 0 -113860829.86602402 402652858.15673828 0 0 0 0 21522692.754549026 95370968.66415596 0 95370968.66415596 91924835.770645142 0 0 0 0 -7731356.1730804443 29981573.399734497 0 29981573.399734497 134317712.49948883 0 0 0 0 29866753.712799072 75868893.391599655 0 75868893.391599655 122970013.67103577 0 0 0 0 -137996809.05956268 -33828542.460090637 0 -33828542.460090637 124224798.87452698 0 0 0 0 -125373647.32395554 -7941223.6822795868 0 -7941223.6822795868 38902924.640823364 0 0 0 0 250445859.83289337 118331700.46167755 0 118331700.46167755 -38590961.050476074 0 0 0 0 94658522.459579468 -1009601610.7518616 0 -1009601610.7518616 540214434.82860565 0 0 0 0 -637961444.78109741 -376488941.67697144 0 -376488941.67697144 472803257.76651001 0 0 0 0 -523284891.72000122 827794.5140838623 0 827794.5140838623 311407431.37020874 0 0 0 0 1121124280.8411255 -38978561.60067749 0 -38978561.60067749 309763490.72956848 0 0 0 0 912923.42535454035 -370416.00372548774 0 -370416.00372548774 -211853.85254462436 0 0 0 0 -38279760.952377319 -49248468.585990906 0 -49248468.585990906 644730679.73480225 0 0 0 0 135058462.21446228 247042691.82160187 0 247042691.82160187 468603455.89435196 0 0 0 0 1288779546.0634613 -351747457.01837158 0 -351747457.01837158 -90150842.431427002 0 0 0 0 -1619185.8568548039 -748728.11495330185 0 -748728.11495330185 1350762.3240007907 0 0 0 0 126910831.31332397 186762574.47146606 0 186762574.47146606 168316157.26342773 0 0 0 0 89123355.022659302 -102677231.26769257 0 -102677231.26769257 50093575.353773594 0 0 0 0 -11199674.568481445 -214829701.8767395 0 -214829701.8767395 231458237.5352478 0 0 0 0 504234337.23019409 -190326118.58441162 0 -190326118.58441162 52456033.093538284 0 0 0 0 92249594.503326416 -612447677.23500061 0 -612447677.23500061 435741083.90960693 0 0 0 0 -200796712.23713684 -190511848.29075623 0 -190511848.29075623 249450703.30059814 0 0 0 0 50484559.785247803 -97306996.510742188 0 -97306996.510742188 57300978.245819092 0 0 0 0 37716354.600296021 -102798334.8600235 0 -102798334.8600235 61038303.249938965 0 0 0 0 143792160.35519791 -149575114.83560181 0 -149575114.83560181 65656317.089706421 0 0 0 0 56065637.613101959 -115995579.366045 0 -115995579.366045 69535140.59576416 0 0 0 0 40979482.707305908 -20155379.815490723 0 -20155379.815490723 9571627.1818714142 0 0 0 0 128355747.7182312 -73517261.349254608 0 -73517261.349254608 26351948.327682495 0 0 0 0 -5226825.6249242947 -2430613.7325675711 0 -2430613.7325675711 3686157.8400740474 0 0 0 0 -11615638.018612685 -11462822.595069414 0 -11462822.595069414 247206.00705534965 0 0 0 0 -14454934.741294861 -14231865.057342529 0 -14231865.057342529 -596313.26627731323 0 0 0 0 -27480066.913208008 -21294556.901290894 0 -21294556.901290894 4396970.3099060059 0 0 0 0 -5808680.6226606369 -22048181.942121506 0 -22048181.942121506 -4617128.2586975098 0 0 0 0 -4576405.4010925293 -18027677.396087646 0 -18027677.396087646 871974.65649414062 0 0 0 0 -11177230.449440192 -10551813.993720198 0 -10551813.993720198 16942.465399034321 0 0 0 0 -4204601.7713012695 -19572205.328964233 0 -19572205.328964233 25655318.321224213 0 0 0 0 -54930598.195709229 -41137935.454711914 0 -41137935.454711914 86269077.870300293 0 0 0 0 -12716818.005302429 -43500058.921791077 0 -43500058.921791077 36565236.255706787 0 0 0 0 32418809.728759766 -110310101.71089935 0 -110310101.71089935 93335352.172088623 0 0 0 0 10425731.116256714 -93777445.062789917 0 -93777445.062789917 89836846.966247559 0 0 0 0 30398009.339607239 -69227103.071365356 0 -69227103.071365356 19876182.480651855 0 0 0 0 -41682629.792427063 72568471.071678162 0 72568471.071678162 106544348.10115528 0 0 0 0 -111299619.32355499 -81348.621883392334 0 -81348.621883392334 53693027.036727905 0 0 0 0 30932744.4347229 31050222.681041718 0 31050222.681041718 7432827.3904418945 0 0 0 0 -3001819.8710879274 59224.70761953108 0 59224.70761953108 2733577.0391048193 0 0 0 0 -14029568.706175704 1259026.4715674445 0 1259026.4715674445 12033996.626978964 0 0 0 0 -23009175.969215393 16622002.963638306 0 16622002.963638306 22522706.871250153 0 0 0 0 -30106328.511829376 10532241.799251556 0 10532241.799251556 23071746.802505493 0 0 0 0 -35447900.266578674 7664529.7552947998 0 7664529.7552947998 50955037.984754562 0 0 0 0 -31387901.364032745 -11201660.056648254 0 -11201660.056648254 23173805.818020523 0 0 0 0 -33629711.360359192 -11513316.00283432 0 -11513316.00283432 42113046.18006897 0 0 0 0 -16660171.591078043 917075.99067831412 0 917075.99067831412 14816115.856368989 0 0 0 0 -48419959.0277071 -23097741.579357147 0 -23097741.579357147 551292.71716308594 0 0 0 0 -52601385.162614822 -29014554.863582611 0 -29014554.863582611 6318722.5599517822 0 0 0 0 13557962.467617035 -28333962.77166748 0 -28333962.77166748 -24226022.845672607 0 0 0 0 -104604715.68745422 74602534.167785645 0 74602534.167785645 3786422.0023803711 0 0 0 0 -123773491.58409119 -53638973.075531006 0 -53638973.075531006 -53899647.050735474 0 0 0 0 -1007566.0050352458 -1007885.3435817659 0 -1007885.3435817659 438818.83639690652 0 0 0 0 23180069.827186584 -65299108.81993103 0 -65299108.81993103 -73024765.222290039 0 0 0 0 -16168433.802947998 -58611380.140213013 0 -58611380.140213013 -38758807.125915527 0 0 0 0 -10968955.90748024 -86120430.652320862 0 -86120430.652320862 -58604638.545227051 0 0 0 0 53557440.917549133 -39710540.219390869 0 -39710540.219390869 -60448973.207794189 0 0 0 0 -159904798.68199539 -41301816.194244385 0 -41301816.194244385 19160627.099411011 0 0 0 0 -529208.3415352013 49994.383906297386 0 49994.383906297386 1578015.5982877314 0 0 0 0 -88497638.458148956 -62386500.746940613 0 -62386500.746940613 -75717902.549682617 0 0 0 0 -966698.55614327639 -13460937.465137905 0 -13460937.465137905 7736421.2036178708 0 0 0 0 11996964.008631706 -32030199.955516815 0 -32030199.955516815 -9977535.5242919922 0 0 0 0 -27280962.040726423 -33484914.763662338 0 -33484914.763662338 28511875.144561768 0 0 0 0 -2231308.9317207336 -11986915.332130432 0 -11986915.332130432 1861041.2286224365 0 0 0 0 -1207592.8261260986 -5460296.7135467529 0 -5460296.7135467529 -124454.62307739258 0 0 0 0 -6252122.8619992882 -6922567.8953174427 0 -6922567.8953174427 -70681.0838156268 0 0 0 0 -4239494.3904724121 -3010210.2209320068 0 -3010210.2209320068 1351188.8436889648 0 0 0 0 -6389983.5657825787 -6190911.2331032753 0 -6190911.2331032753 -925129.55108340085 0 0 0 0 -20299845.112747192 -5422514.0457229614 0 -5422514.0457229614 -12623493.075134277 0 0 0 0 -2924159.4518922344 -9075947.0974895637 0 -9075947.0974895637 -2257574.537924163 0 0 0 0 -1051607.1224682443 -846899.97380254045 0 -846899.97380254045 -598951.01137062907 0 0 0 0 -18447517.194000244 -28427346.992378235 0 -28427346.992378235 10370438.46484375 0 0 0 0 2185476.251750946 -9510488.0156288147 0 -9510488.0156288147 2287228.4094848633 0 0 0 0 -285167.9047164917 -11619244.962142944 0 -11619244.962142944 -9408265.9094314575 0 0 0 0 6322593.6425628662 819870.39227294922 0 819870.39227294922 -802629.29153442383 0 0 0 0 4991218.454536438 -28408063.439025879 0 -28408063.439025879 -23535621.567260742 0 0 0 0 -1947585.7938232422 -9907599.005317688 0 -9907599.005317688 -3051641.3498840332 0 0 0 0 -26335034.804100037 -957217.58660888672 0 -957217.58660888672 -1094524.4889221191 0 0 0 0 -299975.98397707194 -1782025.4830904864 0 -1782025.4830904864 1259233.3326850934 0 0 0 0 -3588778.3533373252 -3802669.3538937196 0 -3802669.3538937196 1727689.4371280074 0 0 0 0 5399157.3439941406 -19892280.756530762 0 -19892280.756530762 -33690708.281845093 0 0 0 0 -34785336.807027817 28696426.078681946 0 28696426.078681946 -23388438.150039673 0 0 0 0 55629039.406613827 -9512310.393746376 0 -9512310.393746376 -45864644.842895508 0 0 0 0 28158044.401550293 2500110.3356018066 0 2500110.3356018066 -21265049.248718262 0 0 0 0 172920767.02499008 -117158700.99263 0 -117158700.99263 10842233.695220947 0 0 0 0 -10101157.959472656 2144902.2391052246 0 2144902.2391052246 3738404.5093383789 0 0 0 0 228355.80528177693 -636502.66202795878 0 -636502.66202795878 170639.52430640906 0 0 0 0 -9498934.3244164363 -12433255.601379819 0 -12433255.601379819 1739417.3328813473 0 0 0 0 -1989852.5070874691 -2834052.0298396684 0 -2834052.0298396684 2702537.835564509 0 0 0 0 -122378.21461486816 -2176648.6854133606 0 -2176648.6854133606 520331.01162719727 0 0 0 0 -6879961.5486618998 -7296194.0552302971 0 -7296194.0552302971 10880.039429917932 0 0 0 0 -5006182.4233380388 -8554707.6276139133 0 -8554707.6276139133 -2321405.9682739004 0 0 0 0 -4165033.9673919678 -6722616.812789917 0 -6722616.812789917 1330183.2006225586 0 0 0 0 230274.4853515625 -10576233.875335693 0 -10576233.875335693 -6357804.984588623 0 0 0 0 -2258810.7848358154 -6050394.0047607422 0 -6050394.0047607422 261924.63946533203 0 0 0 0 -441427.13604286313 -3971300.8701404985 0 -3971300.8701404985 1403430.6808012873 0 0 0 0 -2347782.8611917496 -6192375.1248111725 0 -6192375.1248111725 3117724.331741333 0 0 0 0 1182919.1233520508 -7534124.4967651367 0 -7534124.4967651367 6987716.9847488403 0 0 0 0 962612.83145523071 -3713375.9817352295 0 -3713375.9817352295 2432423.0513916016 0 0 0 0 -249591.29205322266 -8862501.9284667969 0 -8862501.9284667969 6886165.8107624054 0 0 0 0 -1067777.2470293045 -7340317.7817735672 0 -7340317.7817735672 1941646.3536529541 0 0 0 0 -9350595.1352801099 -16597456.775888488 0 -16597456.775888488 -1838684.0069868863 0 0 0 0 122209.98293112218 -7156955.7556086369 0 -7156955.7556086369 -4363048.2717162445 0 0 0 0 -7073.3949334211648 -38143.877661794424 0 -38143.877661794424 75950.809500314295 0 0 0 0 -18202129.87828064 -122043561.4916153 0 -122043561.4916153 -21796876.014057159 0 0 0 0 -1194328.8286221027 -6619915.8775624819 0 -6619915.8775624819 -3608476.0560146868 0 0 0 0 680848.61690139771 -4370336.400680542 0 -4370336.400680542 2431665.2626342773 0 0 0 0 -151586238.31533813 -57808010.090499878 0 -57808010.090499878 286272674.65591431 0 0 0 0 497132351.29576111 58720909.278869629 0 58720909.278869629 40254939.79737854 0 0 0 0 -377136.32312242687 -447554.05837517604 0 -447554.05837517604 -378.46980975568295 0 0 0 0 -12114676.872619629 -19175369.796356201 0 -19175369.796356201 9729768.415802002 0 0 0 0 -8739560.3161926046 -5190843.1816757843 0 -5190843.1816757843 187831.39961960167 0 0 0 0 -1744999.5871667042 -1697314.0512689771 0 -1697314.0512689771 2732716.4848116934 0 0 0 0 21208412.63407135 -94269750.806488037 0 -94269750.806488037 65201803.462524414 0 0 0 0 18749098.374206543 -156602200.36977386 0 -156602200.36977386 29480738.366714478 0 0 0 0 13583999.819656372 -126690801.43476868 0 -126690801.43476868 93996105.845367432 0 0 0 0 -67348996.690063477 -221267427.24208069 0 -221267427.24208069 95909592.978408813 0 0 0 0 2825052.4704589844 -12829471.080490112 0 -12829471.080490112 3553185.2656707764 0 0 0 0 1919637.084318161 252918.92565536499 0 252918.92565536499 19100486.082824707 0 0 0 0 -6630058.7021484375 -11266449.239044189 0 -11266449.239044189 11416156.526123047 0 0 0 0 339287.40856476128 -10087786.273806252 0 -10087786.273806252 -1390018.5074241674 0 0 0 0 -9573553.4370434992 -9993678.3835559823 0 -9993678.3835559823 8052136.5410093069 0 0 0 0 -458749.15676879883 -9537012.6877288818 0 -9537012.6877288818 5864760.5427856445 0 0 0 0 480011.06708145142 -13278131.011180878 0 -13278131.011180878 4690775.8534698486 0 0 0 0 -3485578.0198969655 -13690140.085813876 0 -13690140.085813876 -5056607.3211520873 0 0 0 0 6416001.6132418849 -4606816.0237484537 0 -4606816.0237484537 -2576121.4919712022 0 0 0 0 1071185.1620770022 -7132824.4826662801 0 -7132824.4826662801 -635484.92268545926 0 0 0 0 22582214.777999878 -60602006.751373291 0 -60602006.751373291 136419527.37872314 0 0 0 0 9332329.2803421021 10789107.37273407 0 10789107.37273407 53875284.152656555 0 0 0 0 15054050.135028839 -8570890.0815162659 0 -8570890.0815162659 -16299768.481246948 0 0 0 0 -41132205.510025024 135480162.88432312 0 135480162.88432312 196046162.5994873 0 0 0 0 -76723154.824684143 153133120.99699783 0 153133120.99699783 424864340.81411743 0 0 0 0 -134098477.80801392 -61460318.900924683 0 -61460318.900924683 584472541.31039429 0 0 0 0 -109259421.26405334 -86709313.300415039 0 -86709313.300415039 275950563.3711586 0 0 0 0 -795813.29068756104 -190804557.20755005 0 -190804557.20755005 143090240.36225891 0 0 0 0 -10410229.457122803 -325791275.03317261 0 -325791275.03317261 341008899.38077545 0 0 0 0 -32968250.266288757 -97618282.850509644 0 -97618282.850509644 112294613.8719635 0 0 0 0 -49975706.29447937 -108501925.84221268 0 -108501925.84221268 224099300.692276 0 0 0 0 13998984.949859619 -121533158.28414917 0 -121533158.28414917 123341890.64909363 0 0 0 0 7036645.6731414795 -147040178.19674683 0 -147040178.19674683 117576894.74869919 0 0 0 0 2677472.8710975647 -164495445.13494492 0 -164495445.13494492 74758433.016433716 0 0 0 0 18307896.92401123 -126581590.18464661 0 -126581590.18464661 76235174.259780407 0 0 0 0 5972841.7681808472 -185791102.55019379 0 -185791102.55019379 54041956.741928101 0 0 0 0 12495967.783103943 -102984353.19007111 0 -102984353.19007111 -41004255.250038147 0 0 0 0 31065916.063148022 -194697803.3478713 0 -194697803.3478713 42070615.360671997 0 0 0 0 24248881.995384216 -63156017.624885559 0 -63156017.624885559 -80342268.79499054 0 0 0 0 23218036.459083557 -46999200.432746887 0 -46999200.432746887 -16286833.659332275 0 0 0 0 24643163.650363922 -135337023.66653442 0 -135337023.66653442 34622229.444778442 0 0 0 0 25603445.971308708 -61277129.831221581 0 -61277129.831221581 69029738.452667236 0 0 0 0 30377790.521018982 -76595892.652336121 0 -76595892.652336121 96706120.973083496 0 0 0 0 21524422.156242371 -126568410.5773201 0 -126568410.5773201 69159085.290878296 0 0 0 0 43711171.365631104 -67368292.65423584 0 -67368292.65423584 89988509.674541473 0 0 0 0 53084145.346321106 -90402989.627651215 0 -90402989.627651215 115308228.54589844 0 0 0 0 14585031.794128418 -66331894.903915405 0 -66331894.903915405 100260805.43009186 0 0 0 0 15958734.893081665 -117569687.58743286 0 -117569687.58743286 138753190.5990448 0 0 0 0 65445334.421310425 -134730763.60194397 0 -134730763.60194397 127768462.13220215 0 0 0 0 63467702.527235031 -145985599.88802719 0 -145985599.88802719 97863541.875091553 0 0 0 0 42106734.447525024 -102345386.57990265 0 -102345386.57990265 102317295.99871826 0 0 0 0 92118029.945719004 -91705763.991286993 0 -91705763.991286993 153440912.40951538 0 0 0 0 99460684.847900391 -112855448.59176636 0 -112855448.59176636 104000495.26811218 0 0 0 0 93424096.56427002 -145192714.52398682 0 -145192714.52398682 103101719.73309326 0 0 0 0 25754710.350708008 -114511697.7105484 0 -114511697.7105484 103451171.66522217 0 0 0 0 -6803163.0612030029 -121817139.24549103 0 -121817139.24549103 159655920.84490967 0 0 0 0 -34923219.948074341 -10830559.394081116 0 -10830559.394081116 81566045.86138916 0 0 0 0 -37162418.568130493 14306365.925186157 0 14306365.925186157 16784337.904590607 0 0 0 0 248772713.16777039 -176284203.6227417 0 -176284203.6227417 178105405.09399414 0 0 0 0 208105808.46842957 -204005993.79667664 0 -204005993.79667664 167032441.25311279 0 0 0 0 -1988250.2375852969 -1366977.3983777734 0 -1366977.3983777734 1390865.1232842579 0 0 0 0 156229404.9912796 5254790.8159866333 0 5254790.8159866333 184772512.61077881 0 0 0 0 5467828.5260696411 -116161858.08322906 0 -116161858.08322906 151678203.72476196 0 0 0 0 262787.96195983887 -123984773.55870056 0 -123984773.55870056 168639453.97395325 0 0 0 0 -6301858.1154022217 -161970845.18103027 0 -161970845.18103027 96510472.330513954 0 0 0 0 5634947.245464325 -145202311.04824448 0 -145202311.04824448 117299108.53355408 0 0 0 0 28663377.735481262 -109180033.39819336 0 -109180033.39819336 106168110.21844482 0 0 0 0 24559616.050956726 -104694172.13534546 0 -104694172.13534546 114743813.42498779 0 0 0 0 54076266.426231384 -66925917.166904449 0 -66925917.166904449 158893080.94973755 0 0 0 0 -874996.75678253174 -478254241.57579994 0 -478254241.57579994 -220146480.66235352 0 0 0 0 -354271860.22694397 -249754875.49736023 0 -249754875.49736023 176917912.89842987 0 0 0 0 -849120.89405369386 -1555739.0685390681 0 -1555739.0685390681 602276.0325679481 0 0 0 0 -359358191.53407288 -317870136.50104141 0 -317870136.50104141 60189437.309700012 0 0 0 0 140722563.54692078 44391127.169231415 0 44391127.169231415 -94972321.504020691 0 0 0 0 -93883342.518218994 -64422824.966087341 0 -64422824.966087341 64264336.039733887 0 0 0 0 -751520989.3584137 -189792542.60874939 0 -189792542.60874939 18463665.52104187 0 0 0 0 -706706201.02455521 -191101685.62500572 0 -191101685.62500572 -39897452.072799683 0 0 0 0 -124351028.55989075 -77294569.126415253 0 -77294569.126415253 42765300.618402481 0 0 0 0 -3413905.0360488407 -3578758.6684034914 0 -3578758.6684034914 2231408.1612359956 0 0 0 0 99019106.433813095 12439941.348110199 0 12439941.348110199 -22368751.678207397 0 0 0 0 -554922381.5174408 -29436631.627147675 0 -29436631.627147675 -317800689.69291687 0 0 0 0 -7626662.1183390636 -7986516.8555054739 0 -7986516.8555054739 4327350.6532381251 0 0 0 0 176511858.55776978 64076938.298141479 0 64076938.298141479 -64404460.650466919 0 0 0 0 109138622.00340271 85751099.491546631 0 85751099.491546631 -5965383.7895507812 0 0 0 0 -1613246738.5733719 -423440591.80478287 0 -423440591.80478287 197970351.81671143 0 0 0 0 -1331581142.8872681 -1331490621.5677528 0 -1331490621.5677528 -548825055.15429306 0 0 0 0 -1161998310.4569016 -758987597.10233688 0 -758987597.10233688 -135300766.55543518 0 0 0 0 -438886681.08153534 -855904300.19569874 0 -855904300.19569874 -402001638.43940735 0 0 0 0 -1111019569.8896408 -1043899712.6295738 0 -1043899712.6295738 -1057742016.5188599 0 0 0 0 -1478845.8502914235 -2262442006.8100266 0 -2262442006.8100266 -1499005334.8367004 0 0 0 0 -1122749642.0502653 -1208159011.3984532 0 -1208159011.3984532 -1903250920.7519226 0 0 0 0 -2561993685.6963158 -2654140587.5681858 0 -2654140587.5681858 2147960.737537384 0 0 0 0 -2843782963.7676392 -1992370518.0863876 0 -1992370518.0863876 -60455538.771024704 0 0 0 0 -5023169845.4657974 -1875807259.2082291 0 -1875807259.2082291 -10543971.512336731 0 0 0 0 49495245.308019638 -7148975.5505647659 0 -7148975.5505647659 -22392307.772232056 0 0 0 0 -4807475.5949173253 -2058399.9171520993 0 -2058399.9171520993 -2817487.8600440323 0 0 0 0 -2719000567.3321991 -1794845282.5407028 0 -1794845282.5407028 -650950006.55038452 0 0 0 0 -4201329.9028955847 -4798803.916366823 0 -4798803.916366823 -8382024.6417015195 0 0 0 0 9538409.4398002625 -16117812.324304581 0 -16117812.324304581 -23062108.120361328 0 0 0 0 -13322100.899475098 -7506049.160118103 0 -7506049.160118103 -9352997.1871803403 0 0 0 0 -2450136640.1824646 -2212583272.5120621 0 -2212583272.5120621 -558317074.52112579 0 0 0 0 -2475894908.9749908 -1864727116.512413 0 -1864727116.512413 -1792777430.3922577 0 0 0 0 -2350145.2733067274 -2189268.1481807232 0 -2189268.1481807232 -574866.05069124349 0 0 0 0 -2371470902.5627127 557238163.40043068 0 557238163.40043068 271159194.59996033 0 0 0 0 -2615905595.8934937 -1613526242.7679596 0 -1613526242.7679596 -519948707.32056427 0 0 0 0 -11465401.885559082 -52435333.104095459 0 -52435333.104095459 60695751.028518677 0 0 0 0 -14627229.510427825 -13403768.418927379 0 -13403768.418927379 -4255842.7125903144 0 0 0 0 234737085.77304077 195535041.84911346 0 195535041.84911346 225160252.50204468 0 0 0 0 -1434575162.2566223 -72864383.320556641 0 -72864383.320556641 393399370.40826416 0 0 0 0 -16823669.907613724 -9992278.7054359056 0 -9992278.7054359056 2376739.0384747544 0 0 0 0 203348228.17988586 -645113315.88270569 0 -645113315.88270569 -175787094.31059265 0 0 0 0 383328922.31030273 -86283121.706573486 0 -86283121.706573486 -204209111.80044556 0 0 0 0 888998505.5970459 409251850.39277649 0 409251850.39277649 277667399.19052124 0 0 0 0 -488321.17646407336 -850112.7602936551 0 -850112.7602936551 -999202.61463602632 0 0 0 0 97388503.801025391 326969063.04332733 0 326969063.04332733 -13881433.040538788 0 0 0 0 -14397683.32043457 -12510818.246490479 0 -12510818.246490479 -13915442.058059692 0 0 0 0 -6260646.4906614199 -4940914.5663478747 0 -4940914.5663478747 -3735642.9708947837 0 0 0 0 -12433632.211486816 -11092359.433502197 0 -11092359.433502197 -16950223.900895908 0 0 0 0 -14391956.402679443 -31367743.953735352 0 -31367743.953735352 -15077241.034698486 0 0 0 0 -9541623.3036880493 -20432573.380054474 0 -20432573.380054474 2357436.3229064941 0 0 0 0 -12495408.431640625 -11446142.142883301 0 -11446142.142883301 -23716586.701385498 0 0 0 0 -6823596.3333969116 -13752264.074352264 0 -13752264.074352264 -14170855.593261719 0 0 0 0 -6047850.6653995216 -2397858.6934698671 0 -2397858.6934698671 156474.02345177531 0 0 0 0 -38302897.855110168 -43903775.408348083 0 -43903775.408348083 -9891081.2688598633 0 0 0 0 -46603482.373943329 -29603318.520362854 0 -29603318.520362854 -28504.617202758789 0 0 0 0 -25150284.079803467 -13784636.469665527 0 -13784636.469665527 -13428387.685663223 0 0 0 0 -3898753.9022598267 -36858772.695983887 0 -36858772.695983887 24924.602157592773 0 0 0 0 -4792569.0949554443 -48539059.978271484 0 -48539059.978271484 -837822.07987976074 0 0 0 0 -17723259.776092529 -51832648.052001953 0 -51832648.052001953 103531.2064743042 0 0 0 0 27382873.252845764 -12103553.673282623 0 -12103553.673282623 -13120684.194671631 0 0 0 0 -5610703.346757628 -1395763.1750378087 0 -1395763.1750378087 1370358.5893959254 0 0 0 0 -11075357.323104858 -19048639.311859131 0 -19048639.311859131 -14351637.784347534 0 0 0 0 -21405664.176101685 -43007360.364273071 0 -43007360.364273071 6600910.4729766846 0 0 0 0 -15204881.355386734 -18984897.075611115 0 -18984897.075611115 -10684885.683349609 0 0 0 0 -17292520.378938675 -24417267.597063065 0 -24417267.597063065 -5893774.5067443848 0 0 0 0 -13352781.049659729 -14231658.850036621 0 -14231658.850036621 -11328093.854095459 0 0 0 0 -15963823.836364746 -16197132.908157349 0 -16197132.908157349 -9560588.4276008606 0 0 0 0 4642022.4371948242 -161592899.83905792 0 -161592899.83905792 76371582.648295373 0 0 0 0 -17906777.003992662 -12316602.30989052 0 -12316602.30989052 1585679.170150924 0 0 0 0 -165371955.49641418 -35381784.362190247 0 -35381784.362190247 12069675.464508057 0 0 0 0 -134802240.08792114 47532661.161564827 0 47532661.161564827 -98423499.859344482 0 0 0 0 -18491966.269468635 -12720226.89229494 0 -12720226.89229494 1363100.6615875096 0 0 0 0 1009926209.3422852 -159301022.76013184 0 -159301022.76013184 -121750211.48361969 0 0 0 0 -98885587.071868896 -11628386.25819397 0 -11628386.25819397 -43580635.952140808 0 0 0 0 -22836807.934638977 -16113368.05241394 0 -16113368.05241394 122249.04930114746 0 0 0 0 175425819.73484296 243524936.06217325 0 243524936.06217325 16820877.844268799 0 0 0 0 42474.556937307119 -763516.46915736049 0 -763516.46915736049 529604.56435225904 0 0 0 0 -37660905.403091431 -49875059.805908203 0 -49875059.805908203 21316070.132705688 0 0 0 0 -2223826.6571824141 -1369467.8466107696 0 -1369467.8466107696 -1038365.7536629215 0 0 0 0 63178192.415252686 -106842132.72170639 0 -106842132.72170639 6831500.2777252197 0 0 0 0 -116780813.50675964 -196007279.08485031 0 -196007279.08485031 -28661273.859008789 0 0 0 0 24021723.139953613 23578105.465896606 0 23578105.465896606 -26877134.146392822 0 0 0 0 26871572.215057373 26801480.077178955 0 26801480.077178955 -87353316.626464844 0 0 0 0 178784464.60652924 85303955.760187626 0 85303955.760187626 -30383015.746520996 0 0 0 0 3614590.5992123038 -3917472.7201820388 0 -3917472.7201820388 -2036434.6108618006 0 0 0 0 188642943.61024475 -18233508.675994873 0 -18233508.675994873 -49218031.251373291 0 0 0 0 65586428.711494446 -63008549.141532898 0 -63008549.141532898 -45424912.151741028 0 0 0 0 -79187854.876003265 -108495386.70530224 0 -108495386.70530224 41952103.83555603 0 0 0 0 206203412.37228394 -119626163.00561523 0 -119626163.00561523 -60727715.481994629 0 0 0 0 920998.81951080635 -1335047.6059214287 0 -1335047.6059214287 -1050834.0618026033 0 0 0 0 -1031426283.42556 -122722179.77230835 0 -122722179.77230835 240735606.91227722 0 0 0 0 -300656110.79832458 77490051.554573059 0 77490051.554573059 -49755602.900283813 0 0 0 0 -167499692.28771973 -203585262.71038055 0 -203585262.71038055 -124752308.0234375 0 0 0 0 -121997828.80526733 -58253532.201400757 0 -58253532.201400757 -67535232.060020924 0 0 0 0 9066616.0888519287 -24693775.507400513 0 -24693775.507400513 -49522273.597355366 0 0 0 0 -270590959.48968506 -12213235.178480148 0 -12213235.178480148 29548256.338821411 0 0 0 0 2660660.3820665553 -5394608.7225485034 0 -5394608.7225485034 -2360385.4943888038 0 0 0 0 7198150.4271542057 -14531043.068768837 0 -14531043.068768837 9574635.2163394243 0 0 0 0 -253404690.98994446 -113795178.92578888 0 -113795178.92578888 11765574.224294662 0 0 0 0 -175243755.14173889 29109549.207969666 0 29109549.207969666 51101917.257255554 0 0 0 0 20172248.933326721 -58620953.694749832 0 -58620953.694749832 -28887832.032287598 0 0 0 0 41904250.736862183 -12666663.473083496 0 -12666663.473083496 13398995.357803345 0 0 0 0 106276774.76030731 -53236696.434684753 0 -53236696.434684753 -38241159.885192871 0 0 0 0 8664798.8588376381 -6210973.1656235121 0 -6210973.1656235121 -18529340.618792087 0 0 0 0 9679026.3747520447 44203231.589270592 0 44203231.589270592 -22623213.078338623 0 0 0 0 -13248422.056838989 -54224788.742523193 0 -54224788.742523193 -4736738.0139312744 0 0 0 0 5833342.8797096107 -13469846.669421986 0 -13469846.669421986 -11666589.272691168 0 0 0 0 -120940754.59091949 31592251.617385864 0 31592251.617385864 -159482700.52780151 0 0 0 0 -62801148.513092041 -128515508.76459122 0 -128515508.76459122 -114206198.61917114 0 0 0 0 62087520.033966064 -32047251.659118652 0 -32047251.659118652 -43252761.922027588 0 0 0 0 -279917479.31854248 131138148.05389404 0 131138148.05389404 6112556.8414611816 0 0 0 0 61897646.708374023 -13433055.994369507 0 -13433055.994369507 -158838810.51925659 0 0 0 0 60895200.41583252 -31321592.89012146 0 -31321592.89012146 -80515767.553527832 0 0 0 0 69361336.263519287 -52868461.779312134 0 -52868461.779312134 -14399272.828674316 0 0 0 0 95740614.567626953 37192609.75177002 0 37192609.75177002 13848236.073127747 0 0 0 0 -90547915.123046875 -128951256.96514893 0 -128951256.96514893 -128663401.59631348 0 0 0 0 -31733411.151199341 -26591182.46824646 0 -26591182.46824646 50021533.685035706 0 0 0 0 -6690261.9423849359 -2587956.5521266386 0 -2587956.5521266386 -1008194.6912442967 0 0 0 0 -214653645.88562775 -140685306.87011337 0 -140685306.87011337 -237693742.24371338 0 0 0 0 -215312508.05696106 -112565656.95574951 0 -112565656.95574951 -46846492.872528076 0 0 0 0 -40365968.948120117 -33829356.877670288 0 -33829356.877670288 51786055.182106018 0 0 0 0 -129638195.5116272 -120459848.12197876 0 -120459848.12197876 -22247500.344177246 0 0 0 0 -67858987.8644104 -26433196.480438232 0 -26433196.480438232 19199698.557434082 0 0 0 0 -210582665.43655396 -155470872.58045959 0 -155470872.58045959 -36309865.645706177 0 0 0 0 -269589985.63580322 -121876669.56809998 0 -121876669.56809998 19516315.37310791 0 0 0 0 -310251182.42788696 -137903888.24432373 0 -137903888.24432373 34637286.406088829 0 0 0 0 -308324999.3085022 -144412263.8427124 0 -144412263.8427124 -19203662.092407227 0 0 0 0 -268537559.47839355 -135965547.6207428 0 -135965547.6207428 -43628376.722869873 0 0 0 0 -340764605.31259155 -109285766.74726868 0 -109285766.74726868 110389464.42605591 0 0 0 0 -330531668.83126831 -216328731.76524353 0 -216328731.76524353 434959.62355041504 0 0 0 0 -302135455.34742737 -235455380.0337677 0 -235455380.0337677 -180063927.49517822 0 0 0 0 -317420016.19100952 -192465167.89639282 0 -192465167.89639282 -52477193.613212585 0 0 0 0 -316935726.53860474 -157254039.05474854 0 -157254039.05474854 -201111.66311645508 0 0 0 0 -367596249.22166443 -405161675.67444611 0 -405161675.67444611 -280354022.77343178 0 0 0 0 -430063014.28570557 12538745.234542847 0 12538745.234542847 122554053.95186043 0 0 0 0 -46509021.267089844 102370766.02521515 0 102370766.02521515 134277003.34500122 0 0 0 0 -978445.64310868084 -548359.02630905062 0 -548359.02630905062 -1392007.365733102 0 0 0 0 -523340300.9163208 -313861459.46253967 0 -313861459.46253967 -52941162.320343018 0 0 0 0 -606812459.22236633 230786492.97229004 0 230786492.97229004 14785753.091156006 0 0 0 0 -31404378.206573486 -43130039.505073547 0 -43130039.505073547 19337631.360107422 0 0 0 0 -45089675.506457925 -44205057.614954591 0 -44205057.614954591 35365053.607543945 0 0 0 0 125571199.37283325 -45469316.554000854 0 -45469316.554000854 -183986472.2700367 0 0 0 0 -30748510.973846436 -36696600.57674408 0 -36696600.57674408 28211986.59475708 0 0 0 0 2861739.8079873752 -1856233.622722392 0 -1856233.622722392 1062971.4892897084 0 0 0 0 65457985.017816544 128697206.37870598 0 128697206.37870598 -32611495.80670166 0 0 0 0 350371912.12557983 643264.5269317627 0 643264.5269317627 -2933916.4513397217 0 0 0 0 244574486.62539673 132717337.74962616 0 132717337.74962616 192464859.65512085 0 0 0 0 91621098.739074707 8766523.2165145874 0 8766523.2165145874 10724153.095565796 0 0 0 0 247473815.80471802 -30413744.950130463 0 -30413744.950130463 -8516414.3849334717 0 0 0 0 106256773.45623779 980811.13793945312 0 980811.13793945312 -8350172.8171844482 0 0 0 0 160511602.88348389 23145240.530960083 0 23145240.530960083 -3543845.248550415 0 0 0 0 3280549.2625565408 -20395587.553571053 0 -20395587.553571053 2148907.9976607487 0 0 0 0 11413903.217203451 -4327001.0360119082 0 -4327001.0360119082 1609032.4395309389 0 0 0 0 61196098.557723999 -12565343.06652832 0 -12565343.06652832 3277856.6580810547 0 0 0 0 22733022.956737518 -55295726.739315033 0 -55295726.739315033 -28832282.263305664 0 0 0 0 -27841984.563415527 -31235777.054092407 0 -31235777.054092407 33481414.515991211 0 0 0 0 -31540766.566772461 -11120335.38079834 0 -11120335.38079834 -32445022.503540039 0 0 0 0 -1920795.2799894214 -1191330.7011107206 0 -1191330.7011107206 946213.37004098296 0 0 0 0 -77462316.2394104 -16169675.278656006 0 -16169675.278656006 24890216.332519531 0 0 0 0 -93635116.42767334 -20294021.814544678 0 -20294021.814544678 37309631.162414551 0 0 0 0 24706016.113098145 4958252.1947021484 0 4958252.1947021484 20552236.563049316 0 0 0 0 -110594295.2487793 -9924701.7470092773 0 -9924701.7470092773 40658571.629150391 0 0 0 0 -90158085.31640625 67269695.247497559 0 67269695.247497559 33734982.142669678 0 0 0 0 -104651293.76839447 -38430045.653190613 0 -38430045.653190613 7774063.6680908203 0 0 0 0 53800482.61151123 68131281.103637695 0 68131281.103637695 19066818.024505615 0 0 0 0 615137.73110724986 -9999321.8310597539 0 -9999321.8310597539 -1055263.7076807171 0 0 0 0 125215070.81091309 30089461.530487061 0 30089461.530487061 -988953.50177001953 0 0 0 0 -5318493.5916061401 -5004678.7886428833 0 -5004678.7886428833 1201200.7518310547 0 0 0 0 13360.750827550888 -17819348.383753113 0 -17819348.383753113 -2144188.5553819388 0 0 0 0 31856491.333557129 46714261.589199066 0 46714261.589199066 33905477.430053711 0 0 0 0 -17652945.518731996 -6599951.6964986846 0 -6599951.6964986846 3894886.6138375178 0 0 0 0 15428830.447349746 -10501350.508987758 0 -10501350.508987758 -9677357.7386245877 0 0 0 0 5131267.4634655938 -10368444.00685253 0 -10368444.00685253 2140676.569223702 0 0 0 0 36344735.563873291 -28014645.009506226 0 -28014645.009506226 -38014958.175109863 0 0 0 0 5455947.4569854736 7211061.5449066162 0 7211061.5449066162 26376679.43447876 0 0 0 0 -165494662.51196289 32021085.513977051 0 32021085.513977051 18804003.176025391 0 0 0 0 -214413770.71430969 -52471224.512245178 0 -52471224.512245178 14949512.001098633 0 0 0 0 23592602.355407715 -1696829.8065185547 0 -1696829.8065185547 25754389.01953125 0 0 0 0 71682398.42388916 -3692348.261428833 0 -3692348.261428833 13457178.432518005 0 0 0 0 5069057.5178569555 -9817130.8565093353 0 -9817130.8565093353 1115270.5261578336 0 0 0 0 -24363024.884521484 -32832412.158599854 0 -32832412.158599854 -34991298.624389648 0 0 0 0 137928504.29324341 59800817.181762695 0 59800817.181762695 20744159.340515137 0 0 0 0 88007860.536064148 33098180.886508942 0 33098180.886508942 6896743.6531066895 0 0 0 0 96360545.142211914 8553545.9673919678 0 8553545.9673919678 9906515.7718200684 0 0 0 0 36494715.338356018 56242365.950969696 0 56242365.950969696 69977873.230987549 0 0 0 0 977518.12076122314 -43334.338327161968 0 -43334.338327161968 -625579.24024368078 0 0 0 0 93232893.842018127 38897066.450042725 0 38897066.450042725 45501057.403991699 0 0 0 0 -9723505.3026771545 -56906845.900146484 0 -56906845.900146484 -58796686.705566406 0 0 0 0 -11707894.410163879 -39199683.452217102 0 -39199683.452217102 -11540453.178863525 0 0 0 0 -21563723.329238892 -32226291.502487183 0 -32226291.502487183 -35331172.908866882 0 0 0 0 -1717940.7559416592 -9467116.0734597147 0 -9467116.0734597147 8628879.9669731706 0 0 0 0 29269458.002655029 -12470346.851608276 0 -12470346.851608276 -36450804.222179413 0 0 0 0 23603570.958312988 -58876762.122665405 0 -58876762.122665405 -21693824.38760376 0 0 0 0 -49852384.686035156 -51897846.550308228 0 -51897846.550308228 -41945183.057899475 0 0 0 0 5676604.1272676913 -4538604.9680203199 0 -4538604.9680203199 -7984232.4801876247 0 0 0 0 65098691.289779663 -49287224.84992981 0 -49287224.84992981 -41097006.373046875 0 0 0 0 -234124483.44508362 -32913859.393112183 0 -32913859.393112183 -41104821.849945068 0 0 0 0 78374358.859565735 -21230688.959960938 0 -21230688.959960938 -52661173.085083008 0 0 0 0 4891836.1757531948 -4499269.4114893042 0 -4499269.4114893042 -4412583.2994487286 0 0 0 0 28825527.070064545 -15712842.363752365 0 -15712842.363752365 60683428.183319092 0 0 0 0 -243426162.16275024 -69722176.964874268 0 -69722176.964874268 -234563496.18649292 0 0 0 0 -359634792.96697998 108042469.0663147 0 108042469.0663147 -286975362.04535675 0 0 0 0 -366932011.99327087 16065868.437240601 0 16065868.437240601 -155512230.66299438 0 0 0 0 -245389897.43826294 10220022.264709473 0 10220022.264709473 -314377128.48855591 0 0 0 0 -321831876.74975586 -56478458.899803162 0 -56478458.899803162 -74264420.540222168 0 0 0 0 -296733708.7767334 -89232655.862548828 0 -89232655.862548828 -73126062.329376221 0 0 0 0 -334327935.7038269 -80210369.357528687 0 -80210369.357528687 -38497531.256317139 0 0 0 0 -250729379.30167389 -88146680.054096222 0 -88146680.054096222 -115182342.31390381 0 0 0 0 -269438593.16415405 -102686193.03320312 0 -102686193.03320312 -60523147.559936523 0 0 0 0 -276173433.01309204 -53950718.677185059 0 -53950718.677185059 -24692682.250579834 0 0 0 0 -201691159.69580078 -59770127.239715576 0 -59770127.239715576 -24559191.546778202 0 0 0 0 -256322264.19848633 -89536843.157562256 0 -89536843.157562256 22715965.928344727 0 0 0 0 -301780672.88923645 -88875333.56803894 0 -88875333.56803894 -5518443.4284973145 0 0 0 0 -278809645.61065674 -130559079.35840607 0 -130559079.35840607 -1663832.5925292969 0 0 0 0 -244442112.99829102 -117346588.36166382 0 -117346588.36166382 6701481.0529174805 0 0 0 0 -265525029.76695251 -108746059.17102814 0 -108746059.17102814 23596453.558776855 0 0 0 0 -219727293.43667603 -123328638.87457275 0 -123328638.87457275 24667675.738525391 0 0 0 0 -275245567.51295471 -128867377.14578247 0 -128867377.14578247 34431546.525604248 0 0 0 0 -276928696.37109375 -125918502.28712463 0 -125918502.28712463 34590904.608032227 0 0 0 0 -253408235.98568726 -132466433.25756836 0 -132466433.25756836 18491196.434106827 0 0 0 0 -247539588.04040527 -115142528.35329437 0 -115142528.35329437 35460007.44354248 0 0 0 0 -161056403.2074585 -84913372.299346924 0 -84913372.299346924 4206757.669708252 0 0 0 0 -193362878.28289795 -71738098.060516357 0 -71738098.060516357 25032021.869934082 0 0 0 0 -87518308.697628021 1340006.0107908249 0 1340006.0107908249 -18535776.83795166 0 0 0 0 5926449.1038829982 -11379163.89090962 0 -11379163.89090962 -12912737.10302157 0 0 0 0 -215979174.16680908 -92980263.42993927 0 -92980263.42993927 10949972.822540283 0 0 0 0 -273969495.46185303 -71901408.049667358 0 -71901408.049667358 50956113.979522705 0 0 0 0 -253916731.92709351 -120181629.75125122 0 -120181629.75125122 27252473.823181152 0 0 0 0 -270096332.15945435 -111558591.22229004 0 -111558591.22229004 33751105.867848396 0 0 0 0 -274673621.11602783 -120076010.3039856 0 -120076010.3039856 17779280.71383667 0 0 0 0 -238753931.75759888 -150252825.93545151 0 -150252825.93545151 -6044759.1971435547 0 0 0 0 -269787297.87490845 -128424373.47854614 0 -128424373.47854614 24823610.387939453 0 0 0 0 -7068721.17773268 -6270827.4452841356 0 -6270827.4452841356 -4470432.0220170543 0 0 0 0 -49176115.371368408 -51030786.953643799 0 -51030786.953643799 -20431134.69792819 0 0 0 0 5217526.2539381459 -10343473.278205082 0 -10343473.278205082 -13904156.421432696 0 0 0 0 -366243298.11004639 -18793775.333374023 0 -18793775.333374023 -132551461.49676514 0 0 0 0 -343989777.51783752 -74462604.837371826 0 -74462604.837371826 -35487556.674926758 0 0 0 0 -293000923.89862061 -148238798.52709961 0 -148238798.52709961 7298147.4351959229 0 0 0 0 -37085029.191684723 -18561026.804252625 0 -18561026.804252625 -12520519.989273071 0 0 0 0 177045859.27856511 -738892428.21504235 0 -738892428.21504235 89360937.017791748 0 0 0 0 -331092614.09579468 -33198946.318054199 0 -33198946.318054199 -190915863.29321289 0 0 0 0 -20613630.962052554 -14096815.558052696 0 -14096815.558052696 1182737.2805260918 0 0 0 0 -22432267.445922852 -16424818.19442749 0 -16424818.19442749 -10624554.7744748 0 0 0 0 48883498.545799255 -55669098.447525024 0 -55669098.447525024 -287770675.57366943 0 0 0 0 1193055.1727769375 -1477009.7758607622 0 -1477009.7758607622 -1335661.5498572439 0 0 0 0 -1524966015.9441833 37085046.155715942 0 37085046.155715942 1274374117.8572693 0 0 0 0 -570887260.86950684 125780089.32200623 0 125780089.32200623 -188550164.27278137 0 0 0 0 -471558689.99156189 -407160351.33114624 0 -407160351.33114624 281613741.41296387 0 0 0 0 74913.77000041306 -796768.47890283167 0 -796768.47890283167 -315457.67902235343 0 0 0 0 -914294889.03094482 -1156052460.9325867 0 -1156052460.9325867 3344697883.7178597 0 0 0 0 -414649594.6312561 195892564.55809021 0 195892564.55809021 -1343965391.2483215 0 0 0 0 -7341990.5613943972 -5850909.1460432112 0 -5850909.1460432112 -899103.57932712138 0 0 0 0 -64407104.787139893 -38212795.992843628 0 -38212795.992843628 -2663979.664642334 0 0 0 0 -209696552.9815979 -456809610.02923584 0 -456809610.02923584 -234427705.59220886 0 0 0 0 -31792845.875473022 -248341804.25039673 0 -248341804.25039673 -461574039.25460815 0 0 0 0 -29706093.145126343 -53194635.145835876 0 -53194635.145835876 -12839583.283081055 0 0 0 0 -36106471.098854065 -24664698.655029297 0 -24664698.655029297 -3577787.5530548096 0 0 0 0 -6627275.4590492882 -6404854.0512274615 0 -6404854.0512274615 -2233497.582442224 0 0 0 0 -9337209.1439743042 -18176859.919158936 0 -18176859.919158936 -25338865.674377441 0 0 0 0 -68556073.964248657 -34126955.791648865 0 -34126955.791648865 4929918.1842193604 0 0 0 0 28456429.476543427 -21030446.780893326 0 -21030446.780893326 -45065170.241256714 0 0 0 0 -2421319.7901824005 -1134380.3342969678 0 -1134380.3342969678 -310072.18925705552 0 0 0 0 -2805409.1147594508 -717473.59461697191 0 -717473.59461697191 342905.05603213608 0 0 0 0 -134063916.08819771 -62621821.137182236 0 -62621821.137182236 43881670.198852539 0 0 0 0 -125086638.92800903 -33622973.390945435 0 -33622973.390945435 41934659.942138672 0 0 0 0 -92198321.937469482 -29338770.736923218 0 -29338770.736923218 37504944.195953369 0 0 0 0 -63445233.872756958 -65400312.939361572 0 -65400312.939361572 -256815.73407745361 0 0 0 0 -104114222.80256462 -69634408.729179382 0 -69634408.729179382 28658149.215545654 0 0 0 0 -27432840.423492432 -111008310.56051636 0 -111008310.56051636 44754181.188323975 0 0 0 0 -31988008.177108765 -43985583.487838745 0 -43985583.487838745 8024360.122718811 0 0 0 0 -33221322.607543945 -45649218.879692078 0 -45649218.879692078 12282313.559432983 0 0 0 0 145007654.36484146 -493342149.36813545 0 -493342149.36813545 -107083696.39355469 0 0 0 0 138499366.31357193 -517558730.61707115 0 -517558730.61707115 404154675.39663696 0 0 0 0 -541290399.71870422 -197214423.93054199 0 -197214423.93054199 730532.09898245672 0 0 0 0 -141873773.04070091 155842117.41062927 0 155842117.41062927 220050493.82910156 0 0 0 0 400962.09094405314 1261070.0587250069 0 1261070.0587250069 -1291042.0577792525 0 0 0 0 118080496.20995712 -77703245.577396393 0 -77703245.577396393 -345688895.15922546 0 0 0 0 -604828427.69821167 -272028961.8057785 0 -272028961.8057785 214860793.9328537 0 0 0 0 -188405658.26372528 117156901.36934662 0 117156901.36934662 99068647.895736694 0 0 0 0 165125522.76774597 150742087.70016479 0 150742087.70016479 -205426898.98726654 0 0 0 0 163948923.33113623 161708085.51293755 0 161708085.51293755 387803421.42980957 0 0 0 0 169640466.33229065 60185901.539550781 0 60185901.539550781 -53096724.683197021 0 0 0 0 79435021.52532959 55704984.917617798 0 55704984.917617798 -51482756.780033112 0 0 0 0 -170364212.14903259 -378934316.6145134 0 -378934316.6145134 -81276635.003295898 0 0 0 0 8797377.6246337891 -133015655.2505188 0 -133015655.2505188 -150566652.21463776 0 0 0 0 2046555.2863791483 1281991.2932924815 0 1281991.2932924815 -4275867.1967184544 0 0 0 0 -41337415.597370148 -81103806.509209633 0 -81103806.509209633 -201053417.98562622 0 0 0 0 75695510.73435688 46462353.040700912 0 46462353.040700912 -39472093.738098145 0 0 0 0 498614.15899658203 26986003.323822021 0 26986003.323822021 39527817.790977478 0 0 0 0 57428695.891555786 16544883.655914307 0 16544883.655914307 -87746962.44367981 0 0 0 0 59572262.37612915 13852659.075660706 0 13852659.075660706 -87755990.342407227 0 0 0 0 -2337991.981576845 -681921.91661012173 0 -681921.91661012173 1500392.9566324949 0 0 0 0 3796317.1815017052 -6971792.1124159694 0 -6971792.1124159694 5408580.8999015912 0 0 0 0 -69940000.530685425 -146081424.41876221 0 -146081424.41876221 -146374234.62498474 0 0 0 0 -86864068.143280029 -94357337.468704224 0 -94357337.468704224 -62232011.450042725 0 0 0 0 -103198463.81651306 21186322.315734863 0 21186322.315734863 4075012.6745223999 0 0 0 0 31017444.141426086 -49189153.248382568 0 -49189153.248382568 -149719338.34686279 0 0 0 0 54230368.823791504 -101837867.69543457 0 -101837867.69543457 -228637889.63378906 0 0 0 0 -14930242.619735718 -58138191.596115112 0 -58138191.596115112 -227152829.62948608 0 0 0 0 -155466680.64961243 -27779656.755905151 0 -27779656.755905151 -194349621.07394409 0 0 0 0 -25376347.676254272 -136698673.22561646 0 -136698673.22561646 -134467073.60165405 0 0 0 0 30967785.503234863 -29520435.993545532 0 -29520435.993545532 -117649382.7900238 0 0 0 0 1089567.8791195042 -860672.08937461674 0 -860672.08937461674 -151373.67007880658 0 0 0 0 -38377123.214263916 22518635.655441284 0 22518635.655441284 100606845.2326088 0 0 0 0 188319059.76273346 598829746.11109161 0 598829746.11109161 405035520.01885986 0 0 0 0 87372957.313751221 -76163470.513458252 0 -76163470.513458252 77373894.178268433 0 0 0 0 -73246571.856140137 51166028.919113159 0 51166028.919113159 34019562.995574951 0 0 0 0 129351198.08998871 -152784492.95600128 0 -152784492.95600128 154681525.97926331 0 0 0 0 285682092.19884491 -229050356.91829681 0 -229050356.91829681 120664962.82574463 0 0 0 0 398820499.52264404 -76565189.109176636 0 -76565189.109176636 -33484259.469299316 0 0 0 0 -215791012.00852299 -347034653.55322266 0 -347034653.55322266 -22354353.481140137 0 0 0 0 755005.84049215168 -3620268.3203955069 0 -3620268.3203955069 5246078.5432460085 0 0 0 0 -259770742.08827209 -52449813.499099731 0 -52449813.499099731 -86822043.216552734 0 0 0 0 -29559257.706858635 -341741242.69056892 0 -341741242.69056892 -68873266.558258057 0 0 0 0 108659139.4299469 -14588640.684906006 0 -14588640.684906006 -140364098.81707764 0 0 0 0 -184739581.1053009 -107557236.75840759 0 -107557236.75840759 -81571811.216522217 0 0 0 0 138659293.92051697 -186052815.6925354 0 -186052815.6925354 -72801763.852310181 0 0 0 0 -52359272.86580658 -202870297.67161369 0 -202870297.67161369 12177850.968902588 0 0 0 0 76361767.795013428 -1135282.4134063721 0 -1135282.4134063721 -6718607.3920593262 0 0 0 0 96741952.815490723 38584718.692489624 0 38584718.692489624 -39882982.609390259 0 0 0 0 301016196.81031799 -566888401.44699097 0 -566888401.44699097 512735968.45233917 0 0 0 0 298101830.83627319 50155828.534255981 0 50155828.534255981 -79270.823455810547 0 0 0 0 873114540.44630432 -144737145.51446533 0 -144737145.51446533 54825905.228569031 0 0 0 0 364446160.75630188 -340777358.56907654 0 -340777358.56907654 51522107.263771057 0 0 0 0 -130500108.38130188 -161549374.7986145 0 -161549374.7986145 46896089.784744263 0 0 0 0 -323929756.72923279 -424744227.9562912 0 -424744227.9562912 849202750.92253113 0 0 0 0 -94743130.869506836 -283464277.38253784 0 -283464277.38253784 447229945.90808105 0 0 0 0 -259218528.28899574 -32648827.599180222 0 -32648827.599180222 617600741.29953003 0 0 0 0 -719769693.87072754 -118770178.86523438 0 -118770178.86523438 636589228.49463844 0 0 0 0 141049061.37349701 -10909843.52481842 0 -10909843.52481842 -227997771.30723572 0 0 0 0 1510853.5480845943 -2383629.1047874391 0 -2383629.1047874391 326703.78485496901 0 0 0 0 516731077.91465759 -303215959.30439758 0 -303215959.30439758 -582293.40964641108 0 0 0 0 -8143581.8606719971 15558954.575454712 0 15558954.575454712 1052099.1845092773 0 0 0 0 1505084638.9984741 -129685835.58355713 0 -129685835.58355713 -324723532.46740341 0 0 0 0 -30798231.197715759 -34258517.752807617 0 -34258517.752807617 -81127389.856338501 0 0 0 0 3354084.7278879881 -3457127.0095776021 0 -3457127.0095776021 386296.96598680969 0 0 0 0 -70006428.086074829 -76314939.398872375 0 -76314939.398872375 -187950.93898773193 0 0 0 0 -319891.07781692594 -974852.53171432763 0 -974852.53171432763 2402123.0045039207 0 0 0 0 -335381732.15636063 341924192.3169384 0 341924192.3169384 688866521.97683716 0 0 0 0 468338.13773492491 -144838.50232121348 0 -144838.50232121348 428800.90767115355 0 0 0 0 1984825698.5742798 -48010459.624206543 0 -48010459.624206543 -315634720.84249878 0 0 0 0 1068582156.96138 -1239390515.2050476 0 -1239390515.2050476 1276169994.1087646 0 0 0 0 355146970.71353149 407578858.75898743 0 407578858.75898743 100055647.22247314 0 0 0 0 967647732.11960602 -439210717.33173752 0 -439210717.33173752 32203705.328414917 0 0 0 0 -12094354.765045166 77795721.618461609 0 77795721.618461609 407376797.49658203 0 0 0 0 -736830272.57133508 308662268.81834006 0 308662268.81834006 762677750.44473267 0 0 0 0 -607458235.80014038 -829842193.76184082 0 -829842193.76184082 741803833.24938965 0 0 0 0 408419113.7071228 -904778843.78702545 0 -904778843.78702545 385071218.27853394 0 0 0 0 -851134994.52855682 105104708.73490906 0 105104708.73490906 400020178.75680542 0 0 0 0 -55019727.591720581 -281994704.08821106 0 -281994704.08821106 453984866.08105469 0 0 0 0 -114688897.38160706 -348102157.35034943 0 -348102157.35034943 409603653.39147949 0 0 0 0 69289248.480728149 -390745506.83294678 0 -390745506.83294678 407366011.25321579 0 0 0 0 331927031.29367828 -125393055.49324417 0 -125393055.49324417 86850662.439682007 0 0 0 0 46383770.778335571 7682258.3403625488 0 7682258.3403625488 103526472.44124985 0 0 0 0 386823112.41589928 3341476.3430976868 0 3341476.3430976868 -469377422.59677124 0 0 0 0 440350963.01431274 -397350531.97799683 0 -397350531.97799683 -224207110.87628174 0 0 0 0 171917950.41159821 510346249.33341217 0 510346249.33341217 46401578.442428589 0 0 0 0 1611382.0829179282 -1151210.3437488973 0 -1151210.3437488973 -312627.18187966943 0 0 0 0 32081620.014133453 -25155221.590396881 0 -25155221.590396881 43791261.093078613 0 0 0 0 -170725344.34680176 -196904004.80730438 0 -196904004.80730438 935415199.71813965 0 0 0 0 436931345.81855011 593200588.73412323 0 593200588.73412323 -378158208.6350708 0 0 0 0 89387754.25692749 -94011275.060974121 0 -94011275.060974121 132013041.68840027 0 0 0 0 19716443.009017944 -74134129.749290466 0 -74134129.749290466 -41701507.562316895 0 0 0 0 3459411.4282121249 -3299296.2950225621 0 -3299296.2950225621 1415179.2833120078 0 0 0 0 14559908.146195889 16043313.978756428 0 16043313.978756428 -5629882.1987304688 0 0 0 0 -300687233.94257355 -344457938.27922058 0 -344457938.27922058 -247442499.36358643 0 0 0 0 -274033448.82479095 -223146760.79772186 0 -223146760.79772186 -228369963.49749374 0 0 0 0 3810206.3310069893 -3406777.3264662623 0 -3406777.3264662623 -3930108.0537675619 0 0 0 0 5218958.5806204714 -5269166.4468479976 0 -5269166.4468479976 2058627.8027632982 0 0 0 0 15251497.716278076 -5592111.2858047485 0 -5592111.2858047485 -34326763.171325684 0 0 0 0 -165149482.54681778 -104701391.84589386 0 -104701391.84589386 41431013.825561523 0 0 0 0 138023312.85705566 -134397528.17514038 0 -134397528.17514038 -196575731.27164078 0 0 0 0 217548634.86982727 -14509867.261444092 0 -14509867.261444092 247688866.56555176 0 0 0 0 163932320.85821533 104994883.22268677 0 104994883.22268677 72842587.990875244 0 0 0 0 1334946.977808401 -3919885.2044614479 0 -3919885.2044614479 1407439.7592720762 0 0 0 0 207036269.14805603 174070426.75787354 0 174070426.75787354 123154699.09759521 0 0 0 0 17377989.484035492 -25537735.116931915 0 -25537735.116931915 -11315313.057922363 0 0 0 0 -15788977.987884521 -13469991.708435059 0 -13469991.708435059 -15259325.26171875 0 0 0 0 321527861.68122101 87113007.572986603 0 87113007.572986603 33507932.67074585 0 0 0 0 8615792.2139188573 -2728513.3086746335 0 -2728513.3086746335 -5985695.7907029837 0 0 0 0 168053264.32466125 117567713.37394714 0 117567713.37394714 56106129.235778809 0 0 0 0 93842245.853851318 76599823.897979736 0 76599823.897979736 137841826.35428238 0 0 0 0 177703909.67933702 46314385.228652 0 46314385.228652 -24673338.51159668 0 0 0 0 136229358.04029655 68330099.496240616 0 68330099.496240616 -10408423.398529053 0 0 0 0 37522491.603408813 36495696.758346558 0 36495696.758346558 -26622822.058532715 0 0 0 0 150370074.399086 -52802665.961044312 0 -52802665.961044312 -6076669.0703735352 0 0 0 0 185206536.11212158 88704440.462081909 0 88704440.462081909 44589251.763755798 0 0 0 0 9698444.3689956665 -45217401.550590515 0 -45217401.550590515 -332697521.78970337 0 0 0 0 7071780.2618860416 -3735409.4760237858 0 -3735409.4760237858 -1874394.0281167775 0 0 0 0 51141951.541175842 22326200.269668579 0 22326200.269668579 10462018.640586853 0 0 0 0 75486745.226226807 -44120463.701675415 0 -44120463.701675415 -60286489.878837585 0 0 0 0 167228008.53923607 90204520.158029556 0 90204520.158029556 1807863.1365203857 0 0 0 0 113485510.41601562 79709177.229545593 0 79709177.229545593 1278433.0283432007 0 0 0 0 161179315.83626974 60418819.444160819 0 60418819.444160819 -10655779.114562988 0 0 0 0 -161730224.27621078 -301499035.6062088 0 -301499035.6062088 -281896317.22280884 0 0 0 0 210822520.04012299 40746283.070671082 0 40746283.070671082 24519503.803321838 0 0 0 0 5101144.1434449144 -2203839.6297246441 0 -2203839.6297246441 -1578577.6352524981 0 0 0 0 -200245077.73496056 -262060491.81896019 0 -262060491.81896019 -163898410.92677307 0 0 0 0 -299695414.3091774 -363217035.32919312 0 -363217035.32919312 -266776323.06158447 0 0 0 0 -405285722.03399658 -209728812.75666809 0 -209728812.75666809 -30157995.783071518 0 0 0 0 -205357982.75846481 -155460033.11782837 0 -155460033.11782837 -333062382.01974487 0 0 0 0 -228441256.85138702 -104410143.63254547 0 -104410143.63254547 -92700874.30291748 0 0 0 0 -60140622.860912323 -189098830.91171646 0 -189098830.91171646 -55319911.135787964 0 0 0 0 -307223325.03456879 -247861358.11000824 0 -247861358.11000824 -210474854.65919495 0 0 0 0 -200357478.77083969 -327249210.19406128 0 -327249210.19406128 -270033079.53057861 0 0 0 0 -566998894.69845581 -469851195.63102722 0 -469851195.63102722 -339262389.98016357 0 0 0 0 1399341.1091901287 -2011567.6715867314 0 -2011567.6715867314 -970990.43036992848 0 0 0 0 -123830152.92372131 -5783472.9348983765 0 -5783472.9348983765 173464485.47780228 0 0 0 0 -278363235.29107285 -117000723.13301468 0 -117000723.13301468 260086220.23321533 0 0 0 0 -233484022.7865715 -115807383.57010651 0 -115807383.57010651 -6380520.5366687775 0 0 0 0 -147425748.85242462 -190747104.38916016 0 -190747104.38916016 -168079569.83644962 0 0 0 0 -282358662.1909771 -200010010.26475143 0 -200010010.26475143 -15190184.585281372 0 0 0 0 -113492873.49446869 -186356263.2207489 0 -186356263.2207489 -349325736.25584412 0 0 0 0 -246185129.270401 -64960032.841125488 0 -64960032.841125488 -170844207.62104797 0 0 0 0 -169324907.13751221 -200393079.13583374 0 -200393079.13583374 -142761409.71748352 0 0 0 0 -166887687.12979126 -91913982.518844604 0 -91913982.518844604 -120268823.51556015 0 0 0 0 -203679013.21269226 -161490442.41048431 0 -161490442.41048431 -4420882.0615997314 0 0 0 0 -165695193.99891442 -201849159.3952238 0 -201849159.3952238 -31292270.456634521 0 0 0 0 -104991062.42429352 -54019837.642127991 0 -54019837.642127991 90217005.16910553 0 0 0 0 -42459295.45253849 -240511215.11999512 0 -240511215.11999512 48365637.180328369 0 0 0 0 -206873628.98852539 -153387473.21833801 0 -153387473.21833801 6631901.2811584473 0 0 0 0 -217107435.10340881 -72404486.84287262 0 -72404486.84287262 126998054.69391632 0 0 0 0 -163080019.57456207 -47875965.576141357 0 -47875965.576141357 117012334.8912487 0 0 0 0 -182107800.93575478 -75281986.170715332 0 -75281986.170715332 154384994.90107727 0 0 0 0 -83699207.422782898 -12932015.679821014 0 -12932015.679821014 152385347.00791931 0 0 0 0 -1393109.6892693555 -972998.73429285549 0 -972998.73429285549 294404.93674443662 0 0 0 0 -128957770.84742153 -54477800.455827832 0 -54477800.455827832 1425530.5186004639 0 0 0 0 78467639.128799438 -118581747.62760544 0 -118581747.62760544 86833814.969226837 0 0 0 0 -64128872.370574951 -13766349.111095428 0 -13766349.111095428 26371932.936584473 0 0 0 0 -2748972.1686325073 -15260540.134819031 0 -15260540.134819031 25414018.055578232 0 0 0 0 -216500895.19716644 120015249.85749817 0 120015249.85749817 39647185.051692963 0 0 0 0 -44816780.339256287 64434062.847259521 0 64434062.847259521 28746577.435974121 0 0 0 0 -241652464.7085495 -10531506.440971375 0 -10531506.440971375 158788344.26911926 0 0 0 0 -244396254.02452135 -26224011.218109131 0 -26224011.218109131 256745686.03317261 0 0 0 0 -326986050.17446136 52141066.515750885 0 52141066.515750885 207572815.97229004 0 0 0 0 -162005638.12883759 -140612224.69126129 0 -140612224.69126129 -13947704.43645668 0 0 0 0 -163997071.31576538 127650858.88694763 0 127650858.88694763 -95699077.899114609 0 0 0 0 -412981356.62176514 -29590882.887393951 0 -29590882.887393951 17161922.874710083 0 0 0 0 -251640953.74640465 -218709292.2183857 0 -218709292.2183857 -179898055.97416687 0 0 0 0 -721926.47727414966 -116207.60153979808 0 -116207.60153979808 -936975.65215373039 0 0 0 0 -86677750.507713318 -94031476.455940247 0 -94031476.455940247 -124251721.52606201 0 0 0 0 -113336684.68775558 -115399844.71433258 0 -115399844.71433258 -52108013.779144287 0 0 0 0 -105677523.74199677 17657971.726860046 0 17657971.726860046 -56535298.656589508 0 0 0 0 -117991375.30358887 -107942256.07684326 0 -107942256.07684326 -1690887.5805664062 0 0 0 0 -93768487.826957703 -100096116.23202515 0 -100096116.23202515 -63943263.268829346 0 0 0 0 -117417004.68942261 -100614389.56896973 0 -100614389.56896973 -3259212.3365478516 0 0 0 0 184361.42679543048 -151854.09029900283 0 -151854.09029900283 -252722.70536512136 0 0 0 0 -191766504.11175537 -18008066.33190155 0 -18008066.33190155 -74648112.050872803 0 0 0 0 -71758030.466094971 -18648057.541564941 0 -18648057.541564941 100836356.49144363 0 0 0 0 146411.835494183 199014.13841306791 0 199014.13841306791 -72792.955245221034 0 0 0 0 -29272969.833099365 18926497.715515137 0 18926497.715515137 38035313.568557739 0 0 0 0 -58901369.449165344 -13799109.964000702 0 -13799109.964000702 4260110.7234191895 0 0 0 0 223737.56167782098 -191867.53486987203 0 -191867.53486987203 -364261.73463231325 0 0 0 0 -97010450.623457909 -21489829.594673157 0 -21489829.594673157 8948457.7556610107 0 0 0 0 -86149231.08556366 12088647.862388611 0 12088647.862388611 -10035036.034126282 0 0 0 0 -117490966.53111267 -73503053.41947937 0 -73503053.41947937 9513728.6413421631 0 0 0 0 -76385950.233348846 -19435187.495258331 0 -19435187.495258331 1972144.2705612183 0 0 0 0 -52174345.37399292 -2682179.4020767212 0 -2682179.4020767212 -1608962.9201889038 0 0 0 0 -38337468.138420105 -15344224.865215302 0 -15344224.865215302 -10511540.861541748 0 0 0 0 -112672908.67956543 -43943496.145858765 0 -43943496.145858765 -89953932.542068481 0 0 0 0 -144636433.25253296 -78023489.205974579 0 -78023489.205974579 -22819651.229156494 0 0 0 0 -53637986.975219727 -119378937.94706726 0 -119378937.94706726 -82756661.435882568 0 0 0 0 -54104304.28780365 -72175308.353744507 0 -72175308.353744507 -31989193.292182922 0 0 0 0 -117729332.59147644 -63087579.704833984 0 -63087579.704833984 -22425103.365350723 0 0 0 0 -106509961.33633041 -73947810.400997162 0 -73947810.400997162 -60943263.60244751 0 0 0 0 -80695911.357345581 -42369440.790512085 0 -42369440.790512085 -26987519.749908447 0 0 0 0 -108871761.15777588 -69075472.780258179 0 -69075472.780258179 -33416692.83215332 0 0 0 0 -81654549.499343872 -64200157.549949646 0 -64200157.549949646 -64986388.107818604 0 0 0 0 -106129491.5765152 -77372139.672538757 0 -77372139.672538757 -25859368.9559021 0 0 0 0 -111133339.99723816 -85508406.271469116 0 -85508406.271469116 -37536302.628425598 0 0 0 0 -116405508.26391602 -82161745.112419128 0 -82161745.112419128 -29263157.661682129 0 0 0 0 -117977037.41699219 -69324968.322692871 0 -69324968.322692871 -27068017.124603271 0 0 0 0 -126604912.55104065 -25411061.137756348 0 -25411061.137756348 7796969.8185119629 0 0 0 0 -147904162.13497925 -85984870.864318848 0 -85984870.864318848 -31557967.9765625 0 0 0 0 -141146036.19470215 -74059085.296035767 0 -74059085.296035767 -11553684.932342529 0 0 0 0 -127860139.97698212 -94003821.524627686 0 -94003821.524627686 -40181912.318511963 0 0 0 0 -144093848.5320282 -114467976.28370667 0 -114467976.28370667 -96825998.795578003 0 0 0 0 40469492.076352239 19140215.913207054 0 19140215.913207054 -44164659.87322998 0 0 0 0 -289542698.37471008 -68185666.324172974 0 -68185666.324172974 -17457112.727294922 0 0 0 0 626697.93555989861 207377.12565031089 0 207377.12565031089 -86122.778031289577 0 0 0 0 -273297226.62767029 -104948305.76419067 0 -104948305.76419067 -32683268.129394531 0 0 0 0 8526199.4710145053 1205391.0719713075 0 1205391.0719713075 -1737284.3076364994 0 0 0 0 -285341040.44659424 -43004524.513092041 0 -43004524.513092041 69106038.369628906 0 0 0 0 323870.58868046105 12446.63113452401 0 12446.63113452401 -214047.95767177641 0 0 0 0 -2552913.0246220198 -768735.49993564561 0 -768735.49993564561 -1619664.0472082794 0 0 0 0 323005.69952571392 -584474.88618838787 0 -584474.88618838787 -1217425.0830993652 0 0 0 0 -96465610.572753906 -79028978.524169922 0 -79028978.524169922 -54661636.218414307 0 0 0 0 -77818192.799087524 -47110598.377586365 0 -47110598.377586365 -36572936.950805664 0 0 0 0 -13398200.664285228 -6181676.5128138773 0 -6181676.5128138773 -2455263.26183277 0 0 0 0 -98615921.396606445 -68644634.255828857 0 -68644634.255828857 -52802430.483108521 0 0 0 0 -112775130.73127747 -70435911.889694214 0 -70435911.889694214 -28771535.716049194 0 0 0 0 -107984785.77859497 -95387639.118759155 0 -95387639.118759155 -21953398.919834137 0 0 0 0 -110141633.18371391 -80971842.538137436 0 -80971842.538137436 -30595498.9503479 0 0 0 0 -107959647.77297211 -89610535.223083496 0 -89610535.223083496 -50684928.349639893 0 0 0 0 -93473666.947387695 -81787129.752746582 0 -81787129.752746582 -53226548.668548584 0 0 0 0 -93169350.75643158 -85132833.740509033 0 -85132833.740509033 -70013565.128276825 0 0 0 0 -110950472.38843918 -108929590.96278381 0 -108929590.96278381 -53970013.222412109 0 0 0 0 -54709486.205652237 -18138525.027088583 0 -18138525.027088583 4303307.3325500488 0 0 0 0 -5029517.9644434936 -2552908.544828929 0 -2552908.544828929 822954.85235907882 0 0 0 0 -3968748.7001575381 -1201872.9502473287 0 -1201872.9502473287 -1412590.9604623169 0 0 0 0 -9673919.3041912615 -16986819.895545542 0 -16986819.895545542 25767775.081420898 0 0 0 0 -9188907.9585744664 -20641046.543667678 0 -20641046.543667678 -5762906.0038343519 0 0 0 0 -27271932.185340881 -10767645.801261902 0 -10767645.801261902 2714978.1261062622 0 0 0 0 -35455568.64276123 -27222815.607017517 0 -27222815.607017517 3330581.7931475639 0 0 0 0 -36117619.444396973 -38103961.371959686 0 -38103961.371959686 126491.83881950378 0 0 0 0 -26967483.367027283 2924057.0399551392 0 2924057.0399551392 -22284133.016082764 0 0 0 0 3753453.13671875 -31675926.769615173 0 -31675926.769615173 -44111764.874313354 0 0 0 0 -179713389.57568359 -81791968.025604248 0 -81791968.025604248 36351954.617370605 0 0 0 0 -5105120.6508483887 29159817.246658325 0 29159817.246658325 16337677.342681885 0 0 0 0 78222504.179992676 3291218.3335189819 0 3291218.3335189819 -30267901.883171082 0 0 0 0 9212494.6013336182 -158759323.83395195 0 -158759323.83395195 13530498.512420654 0 0 0 0 5949438.4470100403 -21966433.487937927 0 -21966433.487937927 -10423279.68989563 0 0 0 0 -12592677.919296265 -20117606.615661621 0 -20117606.615661621 96659.504669189453 0 0 0 0 -16474480.399482727 -10096434.758270264 0 -10096434.758270264 -10234895.355773926 0 0 0 0 -28974808.646156311 -521107.62371826172 0 -521107.62371826172 -713024.86224365234 0 0 0 0 -16842931.356567383 -11961974.597839355 0 -11961974.597839355 -10947279.410545349 0 0 0 0 -1223821.2212537937 -270394.38148076832 0 -270394.38148076832 71879.310216858983 0 0 0 0 -44518942.186767578 -24065457.561164856 0 -24065457.561164856 -9649433.8549613953 0 0 0 0 -305164.4740242213 -9096366.9007237554 0 -9096366.9007237554 -4814360.5465948582 0 0 0 0 -3857283.7931132428 -11464524.456544437 0 -11464524.456544437 -5345042.5628496744 0 0 0 0 -5646996.0613021851 -2957899.3621292114 0 -2957899.3621292114 907727.93092346191 0 0 0 0 7561135.6593005359 -8783865.0297729336 0 -8783865.0297729336 -7880413.0424126238 0 0 0 0 16804295.969863892 -12718303.528289795 0 -12718303.528289795 4577826.0545043945 0 0 0 0 12778454.289321899 4401988.4374256134 0 4401988.4374256134 9543414.1161193848 0 0 0 0 1232929.7355499268 -19071898.967681885 0 -19071898.967681885 2566477.5060501099 0 0 0 0 33625434.636465073 17300024.042381287 0 17300024.042381287 11336518.529769897 0 0 0 0 640264.31262207031 -64174297.448318481 0 -64174297.448318481 -118364258.94433594 0 0 0 0 7454237.0671329498 9686075.6080799103 0 9686075.6080799103 -18179269.620574951 0 0 0 0 15175728.766887665 -19841394.184692383 0 -19841394.184692383 -52115403.243041992 0 0 0 0 -2632730.4988708496 -24040827.989974976 0 -24040827.989974976 -5675064.8358535767 0 0 0 0 23952702.118339539 -8598093.493347168 0 -8598093.493347168 2076623.2153930664 0 0 0 0 8761055.6174176 -12929730.480900843 0 -12929730.480900843 -11287334.17302148 0 0 0 0 -6313334.1996107623 -4754901.2614443451 0 -4754901.2614443451 1487976.7291804962 0 0 0 0 211865265.56916809 -8532975.0109405518 0 -8532975.0109405518 -13534516.137672424 0 0 0 0 179039782.86643982 -189086376.18638611 0 -189086376.18638611 68618743.32283783 0 0 0 0 394421115.49494171 -236976107.26245117 0 -236976107.26245117 860678.61563110352 0 0 0 0 188883949.6652832 285227390.80995941 0 285227390.80995941 -134760993.86788559 0 0 0 0 1995295.0072937012 215068713.29115295 0 215068713.29115295 -63733198.0105896 0 0 0 0 472603119.76924133 -3742495.5247955322 0 -3742495.5247955322 -297355912.04782104 0 0 0 0 36690624.745689392 -235897743.21638489 0 -235897743.21638489 -43522296.038650513 0 0 0 0 -34497262.267608643 -104395228.31913757 0 -104395228.31913757 -16537668.448982239 0 0 0 0 -13119175.757217407 -81495715.713638306 0 -81495715.713638306 -37172429.36668396 0 0 0 0 -43101843.931058884 -77541210.30207634 0 -77541210.30207634 -20363112.552307129 0 0 0 0 8498610.356338501 7374611.3109741211 0 7374611.3109741211 47389888.212738037 0 0 0 0 -41156550.412757874 -87790673.532371521 0 -87790673.532371521 115135724.26007843 0 0 0 0 -465070592.9402771 -450361492.66989899 0 -450361492.66989899 -200197772.38771057 0 0 0 0 -38358866.699989319 -197973399.54177856 0 -197973399.54177856 -108582423.46887207 0 0 0 0 -263105099.43281555 -271618114.38214111 0 -271618114.38214111 -43833899.613258362 0 0 0 0 -230147655.99697876 73651856.158226013 0 73651856.158226013 52096368.096580505 0 0 0 0 -153513428.65103149 441670134.81408691 0 441670134.81408691 -292517038.7694397 0 0 0 0 -823993887.68745422 51006586.366645813 0 51006586.366645813 55951425.395240784 0 0 0 0 -1778033247.6246185 224356386.58283234 0 224356386.58283234 407571689.13335419 0 0 0 0 -255288930.30307007 -434346019.20897675 0 -434346019.20897675 -815042778.59266281 0 0 0 0 -96085971.947189331 -29792208.609554291 0 -29792208.609554291 203331456.26178741 0 0 0 0 432634059.24752808 -276052832.5736084 0 -276052832.5736084 -408246311.07992554 0 0 0 0 -365970.573408328 -1349340.8938414343 0 -1349340.8938414343 -1135820.0136843994 0 0 0 0 36880737.499977112 -302511543.67934799 0 -302511543.67934799 -228870197.85949707 0 0 0 0 27021892.43081665 -326329353.96608734 0 -326329353.96608734 -254655800.52557373 0 0 0 0 342891873.40447998 -367710690.17556763 0 -367710690.17556763 -519238542.11898041 0 0 0 0 -454655012.32476807 -277108345.08180237 0 -277108345.08180237 -119973107.75604153 0 0 0 0 827916325.74099731 -14400130.602561951 0 -14400130.602561951 -623394502.43649292 0 0 0 0 -1930948.6978255389 -2193327.2189053223 0 -2193327.2189053223 694903.21609824151 0 0 0 0 552175257.43341064 -194167416.16440964 0 -194167416.16440964 -288199882.16129303 0 0 0 0 -648013677.7195282 -277670960.62953949 0 -277670960.62953949 716980552.93716431 0 0 0 0 -468857022.19630432 360414012.35507965 0 360414012.35507965 -236555877.3230896 0 0 0 0 -102411614.02407837 -186561912.62260437 0 -186561912.62260437 43143847.206466675 0 0 0 0 -96509349.688247681 121416103.87613297 0 121416103.87613297 87274272.452789307 0 0 0 0 -6623990.7144381795 -6287161.0188845694 0 -6287161.0188845694 2458212.1126133502 0 0 0 0 230314153.00914001 -63292871.169490814 0 -63292871.169490814 -91945109.638580322 0 0 0 0 -410337815.78529358 18441831.519737244 0 18441831.519737244 59312754.859420776 0 0 0 0 -892360800.07548904 197048274.83131218 0 197048274.83131218 106066860.42823792 0 0 0 0 -197418.95191602409 -4162312.4304319378 0 -4162312.4304319378 -5539527.1221899167 0 0 0 0 2342693.97996521 567339996.89706421 0 567339996.89706421 1814545586.3060303 0 0 0 0 -341221776.13037109 86716071.758590698 0 86716071.758590698 -134755992.72599792 0 0 0 0 -388955493.241745 -50523366.88193512 0 -50523366.88193512 -37772530.219169617 0 0 0 0 -339070515.59313202 14681521.946525574 0 14681521.946525574 47110319.7212677 0 0 0 0 -352483829.53883362 -41659340.034637451 0 -41659340.034637451 55524408.624752045 0 0 0 0 -375012713.32330513 49776700.52209568 0 49776700.52209568 55436808.739776611 0 0 0 0 -145114190.08390045 31011352.936782837 0 31011352.936782837 -2838091.0188293457 0 0 0 0 -383716067.5945816 10257867.11769104 0 10257867.11769104 55203882.190750122 0 0 0 0 -330950831.16120148 85989828.525146484 0 85989828.525146484 20693642.993713379 0 0 0 0 2497529.6429818571 -4001225.7327127764 0 -4001225.7327127764 76701.003376305103 0 0 0 0 38215393.460418701 9641183.8009757996 0 9641183.8009757996 22316126.502342224 0 0 0 0 -111664877.59052849 -98740805.6335783 0 -98740805.6335783 33464479.002227783 0 0 0 0 -97670014.003715515 5352244.4830703735 0 5352244.4830703735 47185702.781265259 0 0 0 0 -216678840.39057922 -108558140.98835754 0 -108558140.98835754 18457411.419460297 0 0 0 0 -8568515.940288879 -21191688.395986803 0 -21191688.395986803 -4558566.0863824859 0 0 0 0 -3605533.093296051 -31280106.276367188 0 -31280106.276367188 -16463501.04258728 0 0 0 0 -32352262.616485596 -30221093.6195755 0 -30221093.6195755 -15180881.385286331 0 0 0 0 -32495313.315895081 -20928337.625083923 0 -20928337.625083923 -16871639.118667603 0 0 0 0 -40114826.497001648 -7474915.1675186157 0 -7474915.1675186157 -15106303.287477493 0 0 0 0 -134697771.17762756 140941582.28829193 0 140941582.28829193 -146252640.86885071 0 0 0 0 27720584.380592346 -45158509.754081726 0 -45158509.754081726 -20263017.369132996 0 0 0 0 -4937516.0800512061 -19421641.981719613 0 -19421641.981719613 -522376.45460574329 0 0 0 0 540163043.5956955 -659944559.40763855 0 -659944559.40763855 677718839.30029297 0 0 0 0 502859745.60481262 93682019.975982666 0 93682019.975982666 -502920432.90727234 0 0 0 0 -34901299.671268463 -148567745.42929459 0 -148567745.42929459 -160741764.84342957 0 0 0 0 -29295417.940307617 -194757756.16525269 0 -194757756.16525269 134050760.37226868 0 0 0 0 -74319563.726455688 -360272508.27754211 0 -360272508.27754211 60986160.380725861 0 0 0 0 363451258.24701595 -432552496.00741959 0 -432552496.00741959 37916067.731872559 0 0 0 0 -214725725.87936401 -278217976.49822998 0 -278217976.49822998 21274915.774353027 0 0 0 0 2202309.7456615008 -715346.52749877423 0 -715346.52749877423 -898775.54351707548 0 0 0 0 274125013.68225098 392054196.29855347 0 392054196.29855347 214111522.72924805 0 0 0 0 251884784.58394623 312892007.84463501 0 312892007.84463501 84218244.902832031 0 0 0 0 -5471509.9652910233 -12402417.635298729 0 -12402417.635298729 305677488.50268555 0 0 0 0 419734803.20882416 373884790.12562561 0 373884790.12562561 -33337240.911193848 0 0 0 0 47701.712934592739 -19208116.941883884 0 -19208116.941883884 1565276.1823167503 0 0 0 0 353856957.87895203 125515214.40156555 0 125515214.40156555 -164709974.04174328 0 0 0 0 52122012.56571579 -34300676.399352074 0 -34300676.399352074 -76024614.289291382 0 0 0 0 -38763433.791534424 -42850736.438812256 0 -42850736.438812256 19327747.422010422 0 0 0 0 -43378834.514877319 -61541498.411102295 0 -61541498.411102295 -8115282.5477600098 0 0 0 0 -410848153.78030396 -197478838.04289246 0 -197478838.04289246 -56338027.968727112 0 0 0 0 -534897265.01129913 -56201206.126243591 0 -56201206.126243591 155039370.20983887 0 0 0 0 -574094726.14032745 -93263389.489898682 0 -93263389.489898682 175633641.19607544 0 0 0 0 -15801893.118927002 -127487199.56913757 0 -127487199.56913757 -162735987.74797058 0 0 0 0 -547004222.58781433 156637750.62810516 0 156637750.62810516 59529831.557727814 0 0 0 0 8755895.1524963379 -40469405.818565369 0 -40469405.818565369 -108203630.35392761 0 0 0 0 -787258.55403706431 -1618012.179755453 0 -1618012.179755453 1313292.8919528127 0 0 0 0 -6366186.4018859863 26064207.676513672 0 26064207.676513672 19233334.922790527 0 0 0 0 -42738658.542022705 -67483700.327461243 0 -67483700.327461243 -21021987.895294189 0 0 0 0 93599981.632263184 -5606148.5295791626 0 -5606148.5295791626 -10754653.061161041 0 0 0 0 -502349253.86477804 -198656753.21925688 0 -198656753.21925688 34903710.784240723 0 0 0 0 6605110.1968351174 -20177191.730919741 0 -20177191.730919741 -12064000.905086219 0 0 0 0 190899173.39819336 12698265.613357544 0 12698265.613357544 -199841861.81033325 0 0 0 0 -141855876.95854187 199390652.64633179 0 199390652.64633179 -229078925.61991882 0 0 0 0 -384019560.0168457 -262261319.75411987 0 -262261319.75411987 237550141.81433868 0 0 0 0 12096663.008293871 -1162984.6436468102 0 -1162984.6436468102 -19367977.588541716 0 0 0 0 43326819.944580078 -36859715.604175568 0 -36859715.604175568 11061757.44910574 0 0 0 0 73651162.112869263 -35884097.52737236 0 -35884097.52737236 -31813095.649612427 0 0 0 0 46780521.370849609 -12189631.60761261 0 -12189631.60761261 -25171711.385943174 0 0 0 0 -48661020.800308228 -55377221.088726044 0 -55377221.088726044 -7490896.6053161621 0 0 0 0 -52389327.04745245 -104858705.80087197 0 -104858705.80087197 -7987710.0269012451 0 0 0 0 3811992.8217631429 -9348672.5420341864 0 -9348672.5420341864 10778537.981834307 0 0 0 0 -113574498.26604462 -61127995.204402924 0 -61127995.204402924 26843724.843135834 0 0 0 0 -12197614.105266571 -98824436.027417183 0 -98824436.027417183 -15581284.5181427 0 0 0 0 84216454.392807007 -69615113.621749878 0 -69615113.621749878 -19922391.953147888 0 0 0 0 19542229.377914429 -41494189.382255554 0 -41494189.382255554 -7143104.9517381191 0 0 0 0 120885852.81639099 -67526876.097042084 0 -67526876.097042084 17860379.219490051 0 0 0 0 90383752.50163269 -38895045.669334412 0 -38895045.669334412 -1907912.2638702393 0 0 0 0 41060401.9477005 -150644379.24954796 0 -150644379.24954796 53863246.429992676 0 0 0 0 -124650943.2980957 -127940756.79693985 0 -127940756.79693985 69840525.334079742 0 0 0 0 284846001.87748337 31742451.405629158 0 31742451.405629158 48997133.009353638 0 0 0 0 136397463.36367798 -258537314.90790367 0 -258537314.90790367 6625219.4114151001 0 0 0 0 -151091386.60978699 -121370466.18009949 0 -121370466.18009949 57752887.877532959 0 0 0 0 29824286.250976562 -60665766.721313477 0 -60665766.721313477 -238399739.82901001 0 0 0 0 -12823258.536125183 -76082070.214859009 0 -76082070.214859009 3910962.7537841797 0 0 0 0 175891946.24491882 -17312477.674835205 0 -17312477.674835205 -25577727.071979523 0 0 0 0 1350519.8445582241 -7565044.7095221579 0 -7565044.7095221579 1136107.9612338468 0 0 0 0 4873227.8016673252 -12542135.96933867 0 -12542135.96933867 -22697350.190194186 0 0 0 0 -71635238.50478363 -136487832.80682373 0 -136487832.80682373 -23770392.155357361 0 0 0 0 -462286036.23647308 22655453.112638474 0 22655453.112638474 64826136.751907349 0 0 0 0 1295029.7689143382 -7872711.1821188517 0 -7872711.1821188517 -13510963.510283157 0 0 0 0 32826598.490585327 68421652.406890869 0 68421652.406890869 -108152904.34547043 0 0 0 0 55133329.449691772 36135898.392978668 0 36135898.392978668 -302754828.70503235 0 0 0 0 160493261.97410583 -187709872.50013733 0 -187709872.50013733 -682137536.02593994 0 0 0 0 280344867.78791809 -1004523461.3830414 0 -1004523461.3830414 -141182286.62400436 0 0 0 0 -308139747.32922363 -529077384.48218536 0 -529077384.48218536 682750969.66156387 0 0 0 0 169670105.38017273 -268269938.51599121 0 -268269938.51599121 13365073.670196533 0 0 0 0 -135276144.7439537 -46802784.727729797 0 -46802784.727729797 237833468.31761169 0 0 0 0 -1110824.7515296862 -5679.5095359683037 0 -5679.5095359683037 2225759.5713542476 0 0 0 0 -338754362.1521759 -301484465.97583008 0 -301484465.97583008 309601171.02808714 0 0 0 0 -62749510.321456909 -284268330.25525665 0 -284268330.25525665 310557963.19485474 0 0 0 0 -553431429.68621826 -59092558.272884369 0 -59092558.272884369 509557424.24908447 0 0 0 0 77112785.312820435 100428207.94594574 0 100428207.94594574 260180157.94287872 0 0 0 0 297242697.31352234 128097392.78395081 0 128097392.78395081 -140312200.83234406 0 0 0 0 36711531.667114258 2331788.4066238403 0 2331788.4066238403 22447625.128189087 0 0 0 0 2444871.2134855166 -2354530.5850127041 0 -2354530.5850127041 515679.80505176447 0 0 0 0 214871332.85339355 360015294.3011322 0 360015294.3011322 383120232.86133575 0 0 0 0 819358052.6401062 312127507.19811249 0 312127507.19811249 -361952289.98828125 0 0 0 0 462382748.53756714 405521295.22316742 0 405521295.22316742 197441673.89678955 0 0 0 0 353970226.59954834 9109775.4170379639 0 9109775.4170379639 -105567473.55287933 0 0 0 0 241214354.13528442 -127694875.45178223 0 -127694875.45178223 -239108885.81938934 0 0 0 0 247943079.49746847 52536716.789047956 0 52536716.789047956 -73048400.488983154 0 0 0 0 149604618.11795044 -112125254.8277626 0 -112125254.8277626 -171108503.13664246 0 0 0 0 153430791.20291996 31323192.498648405 0 31323192.498648405 -50521429.749465942 0 0 0 0 148504766.53096008 -41691995.75642395 0 -41691995.75642395 -160972431.74732971 0 0 0 0 88992431.78515625 -68555210.662033081 0 -68555210.662033081 -86861797.025619507 0 0 0 0 57976069.28918457 -42270468.658985138 0 -42270468.658985138 -94823396.903663635 0 0 0 0 93311580.617164612 -135653678.99399948 0 -135653678.99399948 -120872945.3119812 0 0 0 0 69476054.816223145 -91371663.924598694 0 -91371663.924598694 -112934717.7027092 0 0 0 0 -16795092.085998535 -250986995.87348747 0 -250986995.87348747 -226551649.07171631 0 0 0 0 6944532.4158172607 -16213677.566322327 0 -16213677.566322327 -18081028.293468475 0 0 0 0 25705453.047960281 -810766.9466586113 0 -810766.9466586113 -9919317.1552963257 0 0 0 0 64644707.701583862 -13733292.688644409 0 -13733292.688644409 -38510272.924697876 0 0 0 0 25415316.70552063 -5015920.766418457 0 -5015920.766418457 -25528239.307487488 0 0 0 0 18886005.806182861 10331386.507198334 0 10331386.507198334 8085828.6107406616 0 0 0 0 52401879.672855377 13131146.631139755 0 13131146.631139755 -17135138.505477905 0 0 0 0 63105332.282165527 38413087.748664856 0 38413087.748664856 25297663.343597412 0 0 0 0 6938566.4925613403 -2630320.4962558746 0 -2630320.4962558746 -4053352.3037567139 0 0 0 0 -204355868.86860657 117641296.07905388 0 117641296.07905388 -45225874.016372681 0 0 0 0 7106630.1170998439 -4827430.666817043 0 -4827430.666817043 -326124.13901463896 0 0 0 0 41052210.679725647 6431715.4547080994 0 6431715.4547080994 4534348.0245819092 0 0 0 0 -32009212.724029541 -183193760.09807587 0 -183193760.09807587 103788413.44475555 0 0 0 0 841168428.62811279 95117002.583312988 0 95117002.583312988 -546544832.20477295 0 0 0 0 645289498.93353271 14339614.61101532 0 14339614.61101532 -120286597.84896851 0 0 0 0 415645963.9826355 -327384975.07610893 0 -327384975.07610893 59617871.695411682 0 0 0 0 67733015.123901367 -58660630.084903717 0 -58660630.084903717 -57438520.223304749 0 0 0 0 30610811.53162384 -61434067.984060287 0 -61434067.984060287 79320716.661125183 0 0 0 0 -379411012.70887756 -549824890.74443817 0 -549824890.74443817 -280769413.84437561 0 0 0 0 -853442.52574349195 -559779.0659378767 0 -559779.0659378767 187057.88249703869 0 0 0 0 -52185618.064208984 8550298.730178833 0 8550298.730178833 99658988.843772888 0 0 0 0 -175299528.02568054 -1500354426.3075829 0 -1500354426.3075829 -400467469.37533951 0 0 0 0 -532992523.40200806 113875239.89951324 0 113875239.89951324 433036663.87563324 0 0 0 0 22206189.151763916 -34004196.281692505 0 -34004196.281692505 -65283392.674720764 0 0 0 0 -1360743.575108394 -24227.518700927496 0 -24227.518700927496 -1331334.1621066406 0 0 0 0 -31625251.487918854 95704222.938970566 0 95704222.938970566 34740464.464477539 0 0 0 0 -54884290.88885498 -51289738.723098755 0 -51289738.723098755 -38209385.368522644 0 0 0 0 50783762.849884033 3056550.9782447815 0 3056550.9782447815 -189465106.17622375 0 0 0 0 49000259.982940674 -10608346.594575882 0 -10608346.594575882 -123842370.73736572 0 0 0 0 -34341908.034790039 5266828.6769561768 0 5266828.6769561768 -125204249.7261734 0 0 0 0 9464156.3040235266 -7806172.8235422149 0 -7806172.8235422149 -2367264.2226556689 0 0 0 0 11617677.8019104 -7336983.7309379578 0 -7336983.7309379578 -6616224.845085144 0 0 0 0 653314.76110164914 -1625973.4158569872 0 -1625973.4158569872 -384843.31474494934 0 0 0 0 -1300840.2759399414 -30836833.754577637 0 -30836833.754577637 -34430063.323928833 0 0 0 0 4100834.3804662544 -9508267.8906914927 0 -9508267.8906914927 -7353034.9250736758 0 0 0 0 -7976060.112487793 -7044151.8707256317 0 -7044151.8707256317 -2637695.1744384766 0 0 0 0 -16515833.409851074 -15321320.710762024 0 -15321320.710762024 -10126745.883406162 0 0 0 0 13781553.681991577 -9251151.7028160095 0 -9251151.7028160095 -4760851.7897071838 0 0 0 0 21340035.936153412 -5844676.2688493729 0 -5844676.2688493729 -9743225.5442962646 0 0 0 0 2806377.6124572754 -14016864.926902771 0 -14016864.926902771 1013179.1573638916 0 0 0 0 8612218.0961761475 -8257371.7822532654 0 -8257371.7822532654 1068391.3841552734 0 0 0 0 7835554.3490600586 -11366385.180885315 0 -11366385.180885315 -7247568.5624389648 0 0 0 0 -1453716.070969753 -708126.85580990836 0 -708126.85580990836 1585768.8698759675 0 0 0 0 -23530505.643661499 -7695633.9595870972 0 -7695633.9595870972 3377679.6513214111 0 0 0 0 12256821.177886963 -15571089.155052185 0 -15571089.155052185 -9417604.0234584808 0 0 0 0 -16476046.066955566 -6146963.7585487366 0 -6146963.7585487366 2397838.5311660767 0 0 0 0 -1587276.036678046 -6423992.2218051702 0 -6423992.2218051702 -116404.48342127725 0 0 0 0 21431344.31842041 -17657194.312492371 0 -17657194.312492371 -32163559.831424713 0 0 0 0 -88811.525268554688 27572.125427246094 0 27572.125427246094 4372641.3395271301 0 0 0 0 41840654.086303711 -18756230.372711182 0 -18756230.372711182 -53356438.462905884 0 0 0 0 48116968.522583008 3806101.9826049805 0 3806101.9826049805 -24882408.035331726 0 0 0 0 4251139.468536377 -13400552.421363831 0 -13400552.421363831 -29400696.44934082 0 0 0 0 234790.2241961509 -1352724.1798012406 0 -1352724.1798012406 -5213796.1968112253 0 0 0 0 2448253.3393554688 -9573212.0672454834 0 -9573212.0672454834 9166044.2175178528 0 0 0 0 -10400308.780036926 6879580.9986419678 0 6879580.9986419678 -4483124.9200439453 0 0 0 0 2967.5221252441406 -12210532.554756165 0 -12210532.554756165 8456649.3706665039 0 0 0 0 12070545.714508057 -15298887.005859375 0 -15298887.005859375 5764590.4489440918 0 0 0 0 3058381.9043273926 -12414262.176445007 0 -12414262.176445007 10859580.49030304 0 0 0 0 -2839324.7593452632 -1415331.1644392908 0 -1415331.1644392908 3138726.8325615004 0 0 0 0 2894864.3762168884 -6374524.8269262314 0 -6374524.8269262314 16475181.308380127 0 0 0 0 2306640.6773453653 100144.60385614634 0 100144.60385614634 -8825120.0125099644 0 0 0 0 3229.9277038574219 -2608858.502784729 0 -2608858.502784729 -2969013.3765640259 0 0 0 0 -672374.37755584717 -31350346.340087891 0 -31350346.340087891 -1222692445.5020447 0 0 0 0 -2759596.7681191638 104498.77504906431 0 104498.77504906431 502353.57514694333 0 0 0 0 812779079.24325562 288389351.82055664 0 288389351.82055664 -1240703142.3274267 0 0 0 0 -1719094.9028862342 2926355.5011833087 0 2926355.5011833087 -5362827.1237114482 0 0 0 0 15718991.932891846 22711289.635688782 0 22711289.635688782 -2398355.8381071091 0 0 0 0 62901826.694885254 -2412500.622467041 0 -2412500.622467041 -49509868.211772919 0 0 0 0 56747696.631072998 13590625.301300049 0 13590625.301300049 -33163993.269699097 0 0 0 0 -144175.74209594727 -346926384.87826729 0 -346926384.87826729 195415118.25452042 0 0 0 0 156838553.07045746 -231821847.78880692 0 -231821847.78880692 -205193752.48096466 0 0 0 0 1056795.4175682217 -1835612.4049007148 0 -1835612.4049007148 2183973.2402727529 0 0 0 0 220589258.30207825 318746027.76270294 0 318746027.76270294 182710712.86345673 0 0 0 0 -115299400.02627945 -121056310.98403645 0 -121056310.98403645 -45475685.031135559 0 0 0 0 -335556290.81843567 -97321368.879112244 0 -97321368.879112244 156435515.85109711 0 0 0 0 2590548.2720214501 -5558501.0710055977 0 -5558501.0710055977 6969636.2013249248 0 0 0 0 -90175093.537796021 -3148545.7972564697 0 -3148545.7972564697 147961615.52731538 0 0 0 0 -138103363.54278183 -342984161.54665089 0 -342984161.54665089 -253920104.79306793 0 0 0 0 -319036131.82384539 -56855885.024663925 0 -56855885.024663925 408363025.12199402 0 0 0 0 -324576085.74272156 -345377612.88625336 0 -345377612.88625336 -103775266.67116356 0 0 0 0 73573803.191940308 -123326299.73045349 0 -123326299.73045349 -279429220.85408974 0 0 0 0 -86627827.459945679 -46603587.626785278 0 -46603587.626785278 138297922.8724823 0 0 0 0 -113192312.19923973 -264723693.3927722 0 -264723693.3927722 -75609435.873603821 0 0 0 0 -384586024.66195774 -383140293.04865408 0 -383140293.04865408 27118207.391014099 0 0 0 0 -245785558.27211761 -230882714.29174423 0 -230882714.29174423 -44377094.323486328 0 0 0 0 -185295843.69268799 -21918892.833932877 0 -21918892.833932877 132896066.68275452 0 0 0 0 -1255372.570846471 -2303194.0311431661 0 -2303194.0311431661 -982080.63189202547 0 0 0 0 421992650.55081177 -71815141.366016388 0 -71815141.366016388 -103198453.14488983 0 0 0 0 339352880.59326172 -411077873.70126724 0 -411077873.70126724 390492171.65657425 0 0 0 0 -83609188.336120605 110109393.76739502 0 110109393.76739502 50443869.051490784 0 0 0 0 200843026.21670532 107513583.6582756 0 107513583.6582756 -143568205.98889923 0 0 0 0 -26294661.697494507 -86748020.764627457 0 -86748020.764627457 -13292334.247055054 0 0 0 0 25366444.957885742 -5674957.5562896729 0 -5674957.5562896729 100469240.05690384 0 0 0 0 94839243.844772339 -118248598.99884033 0 -118248598.99884033 127352521.24446106 0 0 0 0 156302502.167099 -133105590.62836456 0 -133105590.62836456 87978660.755615234 0 0 0 0 106625085.98062134 -189302447.81492615 0 -189302447.81492615 154798757.8037262 0 0 0 0 227229272.15658569 -253016695.18397141 0 -253016695.18397141 140663185.72853851 0 0 0 0 249680464.23876953 -190505579.75820923 0 -190505579.75820923 144282270.83869362 0 0 0 0 297968488.89849854 -248721070.66381073 0 -248721070.66381073 112747908.34986115 0 0 0 0 441996.34147644043 -259864125.43640518 0 -259864125.43640518 730782790.47152519 0 0 0 0 208226056.74847412 -383308053.63262939 0 -383308053.63262939 281432352.06930637 0 0 0 0 23861136.234664917 -505219936.0504837 0 -505219936.0504837 1546509971.36129 0 0 0 0 179540020.44799805 -365830541.56426811 0 -365830541.56426811 447784249.1618576 0 0 0 0 132451931.04490662 -575016404.44756317 0 -575016404.44756317 1594928700.0227978 0 0 0 0 1065854698.4433136 -921533761.12469101 0 -921533761.12469101 869475942.11963272 0 0 0 0 268809090.92355347 -839836859.68983459 0 -839836859.68983459 1595345539.9511642 0 0 0 0 814156455.08978271 -603396898.51383972 0 -603396898.51383972 -69862823.15351963 0 0 0 0 151481712.60757446 41048067.490791321 0 41048067.490791321 -99940110.400054932 0 0 0 0 1096098549.7138138 1361836942.886714 0 1361836942.886714 1575807457.1587372 0 0 0 0 -1025428.096036125 -1996085.9803775325 0 -1996085.9803775325 4231639.0442957599 0 0 0 0 653685099.48879242 1064539899.459846 0 1064539899.459846 827114360.06999969 0 0 0 0 207148114.94219971 542688455.14596748 0 542688455.14596748 600469849.3947897 0 0 0 0 539480387.60751343 267830830.26987457 0 267830830.26987457 -95523586.602327347 0 0 0 0 739928063.90663528 684051577.05548096 0 684051577.05548096 345102753.15871429 0 0 0 0 -160091192.92802429 1082579959.9503469 0 1082579959.9503469 2095089031.3252239 0 0 0 0 24459775.27166748 734588288.55990601 0 734588288.55990601 994997273.02919388 0 0 0 0 248509269.87237549 596019723.40101337 0 596019723.40101337 583439813.80861282 0 0 0 0 -488029520.54922485 383478298.22985458 0 383478298.22985458 1332017374.7308445 0 0 0 0 -498418663.65539551 506465712.88310432 0 506465712.88310432 1301553551.1418447 0 0 0 0 -220161336.17910767 228960625.08896637 0 228960625.08896637 572524757.63744354 0 0 0 0 -6340884.9708557129 261984885.77237129 0 261984885.77237129 392475328.61445236 0 0 0 0 -76422415.287384033 433186605.77316475 0 433186605.77316475 862514132.53578472 0 0 0 0 32660113.277908325 230478949.12044716 0 230478949.12044716 417551224.80319977 0 0 0 0 -25871407.081054688 60478110.286817551 0 60478110.286817551 199106353.35155106 0 0 0 0 -78656860.014389038 3919999.7259969711 0 3919999.7259969711 238883395.16702271 0 0 0 0 -52066904.317260742 173829872.03697777 0 173829872.03697777 583309042.15227127 0 0 0 0 -144644386.9138031 -36413852.997092247 0 -36413852.997092247 33330244.827575684 0 0 0 0 -84442289.454727173 62311623.229917526 0 62311623.229917526 -97983465.201481104 0 0 0 0 -3815188.6763660852 -6525894.1778127104 0 -6525894.1778127104 11085783.390696568 0 0 0 0 -347703879.44683838 -7458082.9252328873 0 -7458082.9252328873 247147862.59731865 0 0 0 0 -10782559.14163208 -137303737.50332069 0 -137303737.50332069 106590772.360075 0 0 0 0 -166001340.62341309 -131751685.3019352 0 -131751685.3019352 -2275898.8673171997 0 0 0 0 -7192176.6156658679 -15409948.912982456 0 -15409948.912982456 14798381.443681467 0 0 0 0 -38945960.850036621 5102304.6650600433 0 5102304.6650600433 -24498198.762954712 0 0 0 0 -65380798.678192139 61426975.045331955 0 61426975.045331955 -29329525.234416962 0 0 0 0 -43351156.30670166 -112918410.64225006 0 -112918410.64225006 -67965315.050037146 0 0 0 0 -58645842.763256073 1698433.2626817226 0 1698433.2626817226 239127011.93425941 0 0 0 0 -89197059.138427734 72105969.969950676 0 72105969.969950676 209053331.72808838 0 0 0 0 -87178861.984008789 -106881589.46591759 0 -106881589.46591759 73890008.580911636 0 0 0 0 -15142657.313215688 -20580946.463036388 0 -20580946.463036388 4390625.7539162859 0 0 0 0 -19721902.493789673 -26351759.268188477 0 -26351759.268188477 -37711446.75214386 0 0 0 0 -9450912.1346054077 -83666911.718276501 0 -83666911.718276501 -134931950.01256847 0 0 0 0 -64555500.022537231 -17208968.03115654 0 -17208968.03115654 6281323.2866210938 0 0 0 0 -11827768.207249217 -3978356.0551240444 0 -3978356.0551240444 -2812069.3520095944 0 0 0 0 -3356391.5301727038 -8847328.6262815446 0 -8847328.6262815446 -6910556.6742583998 0 0 0 0 -42748211.654602051 -73431326.198616028 0 -73431326.198616028 -25209819.826843262 0 0 0 0 -8908021.3067904562 -16745452.553925429 0 -16745452.553925429 -108721.92350661382 0 0 0 0 -92392.227508544922 -7560507.3531723022 0 -7560507.3531723022 -8750012.6036987305 0 0 0 0 -3800394.2704198752 -14572606.555566259 0 -14572606.555566259 -6778721.6725819111 0 0 0 0 -9139572.5690499097 -10739374.380373864 0 -10739374.380373864 292675.42841272429 0 0 0 0 -3106280.4415283203 -7176073.8876571655 0 -7176073.8876571655 -3683926.5149383545 0 0 0 0 -9273082.1134237647 -11560597.868714377 0 -11560597.868714377 -2725858.1254229113 0 0 0 0 -3487757.2923164368 -5561155.6519603729 0 -5561155.6519603729 -3005232.6424560547 0 0 0 0 8841214.3645324707 -12420479.710983276 0 -12420479.710983276 -20490126.142281294 0 0 0 0 139547.63550367951 -4025366.6993221901 0 -4025366.6993221901 -9223423.4930259269 0 0 0 0 -12174799.713226318 -15722658.948699951 0 -15722658.948699951 -5356947.9780585766 0 0 0 0 -8798389.3489933014 -9561270.124879837 0 -9561270.124879837 -16572312.649658203 0 0 0 0 -4326461.0724653509 -5915512.3763595745 0 -5915512.3763595745 -2801305.2559040226 0 0 0 0 -1938230.881388247 -2646571.3809716441 0 -2646571.3809716441 -3804137.9555285014 0 0 0 0 -42904578.761627197 22408399.209346771 0 22408399.209346771 -60302314.39982605 0 0 0 0 -11036257.613220215 -26019638.056797028 0 -26019638.056797028 -17622699.331888199 0 0 0 0 -18917372.480899811 -10725700.074442863 0 -10725700.074442863 -3990158.9934616089 0 0 0 0 -38699031.136703491 6130820.6158313751 0 6130820.6158313751 44547514.94380188 0 0 0 0 2324628.642074585 47592364.821895599 0 47592364.821895599 -46811789.914123535 0 0 0 0 154161.16565704346 -59328763.619665146 0 -59328763.619665146 33522553.322059631 0 0 0 0 81826264.491073608 -194334583.14314651 0 -194334583.14314651 235370497.92269611 0 0 0 0 83206307.2865448 -34106718.697437286 0 -34106718.697437286 -38577004.453140259 0 0 0 0 -58451.114574432373 -710132.62014131993 0 -710132.62014131993 -1693323.2537712045 0 0 0 0 53281690.543243408 -159662983.43146515 0 -159662983.43146515 133951974.30612516 0 0 0 0 15690.792808622122 -249525.98410449922 0 -249525.98410449922 -7439457.911634814 0 0 0 0 30279004.663986206 -34480148.759342194 0 -34480148.759342194 17667924.696281433 0 0 0 0 3147492.6271514893 -5312390.833404541 0 -5312390.833404541 -10021898.793777466 0 0 0 0 5662277.8969268799 -11050462.557044983 0 -11050462.557044983 -46105074.216187239 0 0 0 0 -4064.7058410644531 -17795521.925580978 0 -17795521.925580978 -23640411.331436157 0 0 0 0 13879445.280960083 -9237734.2303524017 0 -9237734.2303524017 -21027576.673164368 0 0 0 0 5039040.991607666 -9636234.5411157608 0 -9636234.5411157608 -19898080.599266052 0 0 0 0 6422421.588684082 -13842734.10168457 0 -13842734.10168457 -22667839.065826416 0 0 0 0 7019551.7070465088 -9741001.4999022484 0 -9741001.4999022484 -12806861.860427856 0 0 0 0 37002.004364013672 -16084665.437099457 0 -16084665.437099457 -14415405.857681274 0 0 0 0 3738539.7311706543 -15058366.591444016 0 -15058366.591444016 -12966291.498710632 0 0 0 0 3329569.7306900024 -14293666.855737686 0 -14293666.855737686 -14013671.36026001 0 0 0 0 -2869.8798828125 -17854663.437728882 0 -17854663.437728882 -14472224.603923798 0 0 0 0 -36013.992202758789 -14306695.446971893 0 -14306695.446971893 -19064334.092285156 0 0 0 0 -1045909.0294342041 -17677633.855077744 0 -17677633.855077744 -12858093.723197937 0 0 0 0 1595628.168838501 -13652338.615135193 0 -13652338.615135193 -10831706.168617249 0 0 0 0 -1297847.810836792 -16795016.268745422 0 -16795016.268745422 -12858267.749174118 0 0 0 0 -1467900.7509765625 -24210382.637760162 0 -24210382.637760162 -11488824.63080883 0 0 0 0 -11238633.340232849 -15264949.681738853 0 -15264949.681738853 -10380387.335365295 0 0 0 0 6814.492876690394 -18626032.18487066 0 -18626032.18487066 -12257952.936431885 0 0 0 0 2103290.7046966553 -14864580.601764679 0 -14864580.601764679 -6815222.4788899422 0 0 0 0 12536797.958206177 -6217175.1118202209 0 -6217175.1118202209 -12122878.118507385 0 0 0 0 -13264580.443222046 -27863285.468126297 0 -27863285.468126297 -13084073.788101196 0 0 0 0 2851413.5687923674 -9645207.4848984033 0 -9645207.4848984033 -11167359.009632185 0 0 0 0 35904567.068130493 -2590187.1145896912 0 -2590187.1145896912 -17305190.355827332 0 0 0 0 -5636760.8955383301 -10039286.685825348 0 -10039286.685825348 -10348709.181401849 0 0 0 0 6476580.0090637207 -1043090.2574806213 0 -1043090.2574806213 1606333.4582138062 0 0 0 0 -4026349.5390319824 -34908399.446960449 0 -34908399.446960449 -16798221.278186798 0 0 0 0 -18560789.650653839 -23054880.298789501 0 -23054880.298789501 -26445683.932037354 0 0 0 0 -51506809.032669067 -75401886.797981262 0 -75401886.797981262 -73779084.052604675 0 0 0 0 72957592.440391541 25063347.738796234 0 25063347.738796234 -44099883.32119751 0 0 0 0 5570681.3671569824 -14219220.352901459 0 -14219220.352901459 -14570191.575370789 0 0 0 0 2075290.8736135317 -10105120.913344134 0 -10105120.913344134 -14983006.860690184 0 0 0 0 -94304698.510463715 48227059.944572449 0 48227059.944572449 8396401.9564361572 0 0 0 0 -16591391.37978363 -15832860.674674988 0 -15832860.674674988 -26262932.486354351 0 0 0 0 -1597358.3077934645 -7379020.797362119 0 -7379020.797362119 -2424579.2821622938 0 0 0 0 24324188.601730347 -94112632.519302368 0 -94112632.519302368 -72405453.534545898 0 0 0 0 -69256007.035675049 -32420078.675457001 0 -32420078.675457001 10409453.229811907 0 0 0 0 1649975.1930276947 -12553878.427811421 0 -12553878.427811421 -18941273.733590901 0 0 0 0 -3379518.6396666467 -5824301.4188349023 0 -5824301.4188349023 -10115709.770035837 0 0 0 0 -15917336.480809212 -19517733.635390759 0 -19517733.635390759 -57609631.879714966 0 0 0 0 -21449963.577072144 -53569410.906997681 0 -53569410.906997681 -94914045.492233276 0 0 0 0 -1298275.3534877151 -1810888.8876450025 0 -1810888.8876450025 -2732583.3772562705 0 0 0 0 -5753040.7342224121 -19076318.118888855 0 -19076318.118888855 -46626481.325039864 0 0 0 0 -25069115.694732666 -37524111.431175232 0 -37524111.431175232 -49342921.164824486 0 0 0 0 -18322544.452516556 -17461222.731307983 0 -17461222.731307983 -46623828.865562439 0 0 0 0 -10827720.17376709 -28975697.175483704 0 -28975697.175483704 -36920316.440273285 0 0 0 0 -7111976.6569747925 -62117617.065921783 0 -62117617.065921783 -77151592.599449158 0 0 0 0 -28058972.238260269 -68036004.146159172 0 -68036004.146159172 -85302735.070426941 0 0 0 0 -14573226.332994461 -51162716.361790657 0 -51162716.361790657 -84247097.752128601 0 0 0 0 -31530238.316314697 -31894993.238494873 0 -31894993.238494873 -37140412.259963989 0 0 0 0 -1231646.7879638672 -31484607.482673645 0 -31484607.482673645 -37542843.654567719 0 0 0 0 -35845929.325228691 -68424746.86601615 0 -68424746.86601615 -42739018.456230164 0 0 0 0 6141771.5980834961 -60441262.124488831 0 -60441262.124488831 -41530680.700233459 0 0 0 0 17479767.675952911 -46138126.981908798 0 -46138126.981908798 -59809212.70715332 0 0 0 0 14951760.099273682 -54750787.563774109 0 -54750787.563774109 -41124938.978065491 0 0 0 0 24398161.021846771 -25437104.231444359 0 -25437104.231444359 -27667668.754394531 0 0 0 0 -15944572.404541016 -44628959.763751984 0 -44628959.763751984 -33130527.645744324 0 0 0 0 -27299690.230804443 -116149481.21723938 0 -116149481.21723938 -47341841.860958099 0 0 0 0 29895536.270172119 -122496664.13447571 0 -122496664.13447571 -46649362.845443726 0 0 0 0 -49611339.008361816 -197369852.77006531 0 -197369852.77006531 -115783346.18222141 0 0 0 0 16311041.120315552 -98739831.675888062 0 -98739831.675888062 -77001240.552976608 0 0 0 0 14847461.634335071 -87119282.947049081 0 -87119282.947049081 -55425060.088912964 0 0 0 0 -19308709.839233398 -72735711.48526001 0 -72735711.48526001 -34939032.242501259 0 0 0 0 968842.62605285645 -89694689.88463974 0 -89694689.88463974 -32401806.470825195 0 0 0 0 -35641251.444587708 -72784424.099315643 0 -72784424.099315643 1152304.7554931641 0 0 0 0 -63002230.068305969 -100877361.45344543 0 -100877361.45344543 18723480.950744629 0 0 0 0 -23629571.318954468 -64304954.943443298 0 -64304954.943443298 6844111.0894165039 0 0 0 0 -28111812.24911499 -61308952.303665161 0 -61308952.303665161 4854148.702507019 0 0 0 0 -16146911.680007935 -32044818.103919983 0 -32044818.103919983 10327478.180847168 0 0 0 0 -7015015.6822662354 -59665654.589633942 0 -59665654.589633942 -21965807.137893677 0 0 0 0 -11394508.650360107 -21078968.262134552 0 -21078968.262134552 -15606842.891441345 0 0 0 0 -15241875.280273438 -41741547.190185547 0 -41741547.190185547 -36583990.18561554 0 0 0 0 -17415618.314100266 -37933038.99478817 0 -37933038.99478817 247542.014793396 0 0 0 0 -14216181.077781677 -18684189.092712402 0 -18684189.092712402 -2583190.5858840942 0 0 0 0 -113750059.29634857 104606381.32711363 0 104606381.32711363 -33055396.669494629 0 0 0 0 156928733.00273132 227492528.12046051 0 227492528.12046051 157491458.97546768 0 0 0 0 11364173.515197754 53593343.919762611 0 53593343.919762611 -28236005.088859558 0 0 0 0 351716491.82376099 -56666856.879966736 0 -56666856.879966736 -73563690.587059855 0 0 0 0 -111384247.4209137 73785757.948712349 0 73785757.948712349 -63078167.914009094 0 0 0 0 100106781.28913879 -112907950.46594167 0 -112907950.46594167 213697072.53054428 0 0 0 0 190524995.33921814 13282672.688596249 0 13282672.688596249 -529730921.68128681 0 0 0 0 -14598922.021720186 -20129227.729501199 0 -20129227.729501199 113978.14081049338 0 0 0 0 -18581523.509613037 -23368224.237533569 0 -23368224.237533569 -7442037.8083953857 0 0 0 0 -14473420.563104108 -20432661.871604461 0 -20432661.871604461 1525586.4250351798 0 0 0 0 12769452.422149658 -288556461.92907047 0 -288556461.92907047 -69746583.384819031 0 0 0 0 -25519224.924880981 -21081388.026695251 0 -21081388.026695251 -15498503.599205017 0 0 0 0 126608226.35845947 -47711085.3201437 0 -47711085.3201437 -450667802.96410698 0 0 0 0 -107752857.94100952 -146048669.98583603 0 -146048669.98583603 28106083.458063126 0 0 0 0 21184432.336395264 -105932656.70350456 0 -105932656.70350456 27477072.514821261 0 0 0 0 -109909504.36540222 -218125568.23424721 0 -218125568.23424721 417043122.56705856 0 0 0 0 85691996.608093262 -122152172.08776855 0 -122152172.08776855 -8248070.3091645241 0 0 0 0 -11052169.987258911 -234413115.98218822 0 -234413115.98218822 375016042.13957596 0 0 0 0 200093236.35992432 -304404394.99047565 0 -304404394.99047565 371685065.97192192 0 0 0 0 -162205540.21271133 -309151749.5076313 0 -309151749.5076313 993241810.22061539 0 0 0 0 -152770486.5979538 -231719009.3852092 0 -231719009.3852092 834193959.34720612 0 0 0 0 96798186.661895752 -485107981.79368591 0 -485107981.79368591 950437083.88734531 0 0 0 0 -142232504.52075195 -57708431.737006187 0 -57708431.737006187 478240199.68858719 0 0 0 0 -153590095.66400909 -18382633.17956686 0 -18382633.17956686 711749860.51749039 0 0 0 0 -408374065.88012695 -119412037.80570602 0 -119412037.80570602 1000476596.6323402 0 0 0 0 -237640069.61985397 238624228.0716691 0 238624228.0716691 909855470.36771011 0 0 0 0 -682609206.64774323 317651930.62764645 0 317651930.62764645 1618289797.5003681 0 0 0 0 -487989725.15081787 121380127.31611633 0 121380127.31611633 1085847821.9992542 0 0 0 0 -465375008.16134644 25105615.840676546 0 25105615.840676546 1460264849.467926 0 0 0 0 -831915938.87307739 132357454.80193138 0 132357454.80193138 1447616652.7156746 0 0 0 0 -470503112.50509644 -146793565.88487625 0 -146793565.88487625 1523551342.5579863 0 0 0 0 -307074485.22668457 -382464921.41811562 0 -382464921.41811562 1637677732.0261593 0 0 0 0 -667931794.91946411 -140226532.36553669 0 -140226532.36553669 1735058214.6459599 0 0 0 0 -462205849.48686028 -256297074.37951815 0 -256297074.37951815 2367356760.1115799 0 0 0 0 1465236524.8868256 -415291648.68868065 0 -415291648.68868065 269907691.08907318 0 0 0 0 -263294931.07437134 -674553060.47010899 0 -674553060.47010899 3006772834.4716015 0 0 0 0 701800882.55780029 -1395068329.5856056 0 -1395068329.5856056 2217314159.3415556 0 0 0 0 487840084.91918945 -924074200.10895729 0 -924074200.10895729 1251293350.8881245 0 0 0 0 180864948.67224121 244032307.11606789 0 244032307.11606789 98890431.138950348 0 0 0 0 199711121.13287354 -2002214753.2742472 0 -2002214753.2742472 -804365852.99892855 0 0 0 0 214463484.42605591 109220082.64580345 0 109220082.64580345 435497410.06507301 0 0 0 0 147575233.766716 -18264126.37319088 0 -18264126.37319088 210483571.3187027 0 0 0 0 759757897.98486328 -58792678.565875053 0 -58792678.565875053 183844650.62932301 0 0 0 0 331846387.80729675 -549954585.6160717 0 -549954585.6160717 767304644.02490044 0 0 0 0 77208479.412036896 -412348982.99034941 0 -412348982.99034941 926389405.52799416 0 0 0 0 -166066477.7605896 -76009212.13378191 0 -76009212.13378191 9011412.7958745956 0 0 0 0 -90605618.668640137 -31204813.34542942 0 -31204813.34542942 20303581.801830292 0 0 0 0 -63984310.329597473 165439782.42873526 0 165439782.42873526 277638808.83041954 0 0 0 0 -302655320.73631287 -4155823.9322242737 0 -4155823.9322242737 168029248.88549829 0 0 0 0 -216272662.38626099 -317736305.72650838 0 -317736305.72650838 -309949383.78447342 0 0 0 0 3843040.1205080301 -3874124.1648022132 0 -3874124.1648022132 522982.31658486568 0 0 0 0 -526566071.98284912 -168714365.70788193 0 -168714365.70788193 296994790.03491241 0 0 0 0 -68104865.880447388 -67582239.195407867 0 -67582239.195407867 4263768.2257583141 0 0 0 0 5083025.4565726221 -6462677.9095675861 0 -6462677.9095675861 92591.526411775354 0 0 0 0 -71730775.241519928 -56949285.028965235 0 -56949285.028965235 -25952140.805399895 0 0 0 0 387437165.80906677 -93355538.794975936 0 -93355538.794975936 54363252.054579914 0 0 0 0 -312354869.52694702 -328562875.19938087 0 -328562875.19938087 -299649553.80177116 0 0 0 0 -341302390.43087769 -315173032.78402972 0 -315173032.78402972 -259587406.58974475 0 0 0 0 -496384865.77041626 -337292782.28411746 0 -337292782.28411746 -186897545.60014084 0 0 0 0 -166854.57228334807 -2053283.3329169638 0 -2053283.3329169638 -589856.06205156771 0 0 0 0 -204706673.7984314 161936013.43992329 0 161936013.43992329 539912422.26192284 0 0 0 0 -407784.18465656787 -97636.307342646644 0 -97636.307342646644 806117.55069756682 0 0 0 0 -141307987.09864616 74832942.180717111 0 74832942.180717111 267517007.53308916 0 0 0 0 351494166.14452362 -154614966.64190865 0 -154614966.64190865 -252300001.48338032 0 0 0 0 -9444667.3279271778 -8701758.9723479748 0 -8701758.9723479748 4545893.8113695234 0 0 0 0 -582613139.56829834 -1380923311.8326695 0 -1380923311.8326695 -1461974687.1599503 0 0 0 0 -351087844.18011475 -766342102.1228075 0 -766342102.1228075 -1071787405.491045 0 0 0 0 -29052693.919128418 -38326551.886457443 0 -38326551.886457443 -18635998.915655136 0 0 0 0 -14333203.228683472 -27631381.396020889 0 -27631381.396020889 -21322415.836622238 0 0 0 0 -41504860.300460815 -16786853.891559601 0 -16786853.891559601 9156209.2183322906 0 0 0 0 -78336357.107421875 -46220650.313817978 0 -46220650.313817978 -6282945.0161828995 0 0 0 0 -18386758.686490074 -21363673.141786888 0 -21363673.141786888 7452409.3918561712 0 0 0 0 -78982687.861282349 -18494067.526838303 0 -18494067.526838303 11180946.310054302 0 0 0 0 -39022648.063827515 -27118255.068370819 0 -27118255.068370819 -23750401.596014023 0 0 0 0 452791060.27555847 250840983.20106602 0 250840983.20106602 127211664.42563343 0 0 0 0 -537407499.67668152 -345417396.58662581 0 -345417396.58662581 33468110.701570511 0 0 0 0 -1364398661.2090454 -893668955.14369202 0 -893668955.14369202 19152775.574253082 0 0 0 0 -425804010.55291748 21458421.350301743 0 21458421.350301743 313485217.47811508 0 0 0 0 -140716054.09472656 802548676.16974735 0 802548676.16974735 555294006.01006699 0 0 0 0 -1844983716.5342102 158823378.86069679 0 158823378.86069679 1448709416.5278034 0 0 0 0 -8534341.7518005371 -29480970.33993721 0 -29480970.33993721 120273305.2096386 0 0 0 0 -349428360.75845337 71704178.750021935 0 71704178.750021935 453977811.46971989 0 0 0 0 -313559813.41855621 -10742277.027291536 0 -10742277.027291536 259591708.19641876 0 0 0 0 -10281451.914776042 -925403.69357920438 0 -925403.69357920438 12488821.617744517 0 0 0 0 -43525720.549781799 -25551519.902229309 0 -25551519.902229309 482241664.93575287 0 0 0 0 12316049.479377747 -41819806.256886005 0 -41819806.256886005 98374370.998827934 0 0 0 0 -24944754.059665795 -21434555.613864332 0 -21434555.613864332 7891664.0458947495 0 0 0 0 -14365944.320551336 -22402559.301333565 0 -22402559.301333565 -9232577.2049636152 0 0 0 0 -9943342.1203308105 -23770465.040874481 0 -23770465.040874481 20833416.345718861 0 0 0 0 -16771259.829387963 -27015753.969633598 0 -27015753.969633598 -1429851.8748090498 0 0 0 0 2025476.8326568604 -31640731.002227783 0 -31640731.002227783 12769331.491370201 0 0 0 0 -60013606.029891968 -3003175.1130552292 0 -3003175.1130552292 -51440198.267461777 0 0 0 0 -40359648.470436238 -29169947.223181799 0 -29169947.223181799 20160797.927216996 0 0 0 0 -104262037.43540192 -1591196.9905781746 0 -1591196.9905781746 -4330840.7907600403 0 0 0 0 -81170372.896697998 -25481855.146878242 0 -25481855.146878242 20378828.166555494 0 0 0 0 -91039489.698822021 164649514.77114868 0 164649514.77114868 137623203.66917491 0 0 0 0 -98393221.575756073 52395134.98907876 0 52395134.98907876 -25148763.868501663 0 0 0 0 -15575271.919065163 -20960053.565026447 0 -20960053.565026447 -650494.59597376361 0 0 0 0 -9568048.9222717285 -23858096.672584534 0 -23858096.672584534 909355.75251626968 0 0 0 0 6254479.2069702148 111077483.78260326 0 111077483.78260326 -245688965.80736086 0 0 0 0 -6920293.8014678955 -18165875.89434433 0 -18165875.89434433 8395112.5730133057 0 0 0 0 -14791318.724990845 -35898851.516479492 0 -35898851.516479492 19518338.760936737 0 0 0 0 -2423971.3717575073 -41583354.629714966 0 -41583354.629714966 25610271.702270508 0 0 0 0 -11519496.987792969 -33241669.037029266 0 -33241669.037029266 27475263.155441284 0 0 0 0 5226488.2971038818 -34282450.179130554 0 -34282450.179130554 22242006.105018616 0 0 0 0 -9574519.3102722168 -27161554.350967407 0 -27161554.350967407 44168287.451805115 0 0 0 0 2962621.9533691406 -43970593.990768433 0 -43970593.990768433 31885706.756507874 0 0 0 0 -1262385.1591332369 -456424.29467270523 0 -456424.29467270523 -82501.468604236841 0 0 0 0 -16679573.812675476 -76297153.928825378 0 -76297153.928825378 11401921.506576538 0 0 0 0 -12574156.283882216 -17558278.012103744 0 -17558278.012103744 -2800965.0932500809 0 0 0 0 11278769.110061646 -22691510.462921143 0 -22691510.462921143 25285415.25 0 0 0 0 39991546.844650269 -26805081.831497192 0 -26805081.831497192 -1704140.1079559326 0 0 0 0 -27345919.213272095 -50082718.306137085 0 -50082718.306137085 52865494.704368591 0 0 0 0 -21709756.447357178 -53773614.954814911 0 -53773614.954814911 12838712.163803101 0 0 0 0 -55791010.937973022 -62700808.666374207 0 -62700808.666374207 19851293.973907471 0 0 0 0 30846776.604415894 -17992593.58744812 0 -17992593.58744812 62596138.133499146 0 0 0 0 -45069721.193807602 -17927871.938339233 0 -17927871.938339233 186671.84120178223 0 0 0 0 4565863.1110724062 -447897.76842910424 0 -447897.76842910424 -3653102.0428987369 0 0 0 0 -46408273.094985962 11080862.653068542 0 11080862.653068542 -23813387.94600296 0 0 0 0 5799877.6961899921 -12821118.772650488 0 -12821118.772650488 -8443650.6378990188 0 0 0 0 48336476.769317627 83521049.319724083 0 83521049.319724083 87952619.750442505 0 0 0 0 -72903959.923736572 49309857.388778687 0 49309857.388778687 153768151.97460175 0 0 0 0 6947321.4208602905 -57107847.830795288 0 -57107847.830795288 90355969.422149658 0 0 0 0 -104641862.88808823 -153797752.26491165 0 -153797752.26491165 43710229.844497681 0 0 0 0 -80377957.22076416 -106318758.150177 0 -106318758.150177 24129029.28049469 0 0 0 0 -141797705.52958679 -68862125.593276978 0 -68862125.593276978 98851522.73059845 0 0 0 0 -30661481.945827484 -40353187.290542603 0 -40353187.290542603 -38802630.4376297 0 0 0 0 29374829.63368988 -53322285.928253174 0 -53322285.928253174 -113987690.12234497 0 0 0 0 47426910.312011719 -123997965.80329895 0 -123997965.80329895 -80079054.454666138 0 0 0 0 -3671149.1429817001 -1337125.727848215 0 -1337125.727848215 -234887.26347292215 0 0 0 0 40660314.568582535 -97001459.623003006 0 -97001459.623003006 -185337327.59677124 0 0 0 0 8641115.5506773889 -12348130.773892041 0 -12348130.773892041 -10337846.701250695 0 0 0 0 30725132.925415039 -42380294.90113163 0 -42380294.90113163 -162385902.26719666 0 0 0 0 -87625027.583358765 86205197.153961182 0 86205197.153961182 -412115747.05212402 0 0 0 0 24597541.216957092 -12841598.650341034 0 -12841598.650341034 -84951401.620666504 0 0 0 0 -295277896.52666855 -78256715.673969269 0 -78256715.673969269 195171831.62112427 0 0 0 0 -44875198.213896751 37207636.662685394 0 37207636.662685394 -68530274.964385986 0 0 0 0 -14886988.765764236 -19803874.859750748 0 -19803874.859750748 -32957055.117782593 0 0 0 0 -13484330.603431702 -5849045.3570251465 0 -5849045.3570251465 14895172.954162598 0 0 0 0 -26423093.352802277 -30645972.954954147 0 -30645972.954954147 7353379.0954589844 0 0 0 0 -22211621.417755127 -37553670.336074829 0 -37553670.336074829 8315913.7603397369 0 0 0 0 -15923466.103973389 -34651745.484466553 0 -34651745.484466553 4602207.3036804199 0 0 0 0 -14198354.398273919 -8014106.6576251127 0 -8014106.6576251127 172693.82702755928 0 0 0 0 -96415886.588378906 -20709612.754203796 0 -20709612.754203796 33185187.032173157 0 0 0 0 -12235954.589487076 -49079779.711625099 0 -49079779.711625099 -73287115.038101196 0 0 0 0 18079899.358459473 -41815131.040328979 0 -41815131.040328979 24146770.961486816 0 0 0 0 -17385611.446842477 -16537788.660047324 0 -16537788.660047324 3083249.7445281222 0 0 0 0 13798699.532539368 -45798071.02661705 0 -45798071.02661705 23180865.185714722 0 0 0 0 -16912863.56533432 -44100360.920761108 0 -44100360.920761108 41810049.192779541 0 0 0 0 -1133391.4819689393 -1891751.2887233235 0 -1891751.2887233235 1065281.0779634211 0 0 0 0 -14281350.662265778 -58765670.287090302 0 -58765670.287090302 -49867697.898864746 0 0 0 0 -21188814.082710266 -32037966.502059937 0 -32037966.502059937 6131324.2810821533 0 0 0 0 -9160452.760876298 -9718906.5616772212 0 -9718906.5616772212 -9032343.8289087284 0 0 0 0 -40778655.924465179 -14279215.50806427 0 -14279215.50806427 38260869.224765778 0 0 0 0 -29258095.801776886 -36016137.438768387 0 -36016137.438768387 -2788825.0773468018 0 0 0 0 895046.78700637817 -88936657.17232132 0 -88936657.17232132 -135532542.85024834 0 0 0 0 -62692438.6301651 -6051353.8571548462 0 -6051353.8571548462 -1042974.8396987915 0 0 0 0 -3799187.2479773052 -2885985.0213699043 0 -2885985.0213699043 -4853096.7519539036 0 0 0 0 3650522.8707122803 -1235112.7108917236 0 -1235112.7108917236 -14516608.761688232 0 0 0 0 -42276943.667854309 6066854.0509872437 0 6066854.0509872437 -5603660.0315322876 0 0 0 0 -34276737.586620331 6280960.4553146362 0 6280960.4553146362 -6751359.8870544434 0 0 0 0 125645.75303876959 -99158.944980442524 0 -99158.944980442524 -208234.11185867339 0 0 0 0 -87249161.826313019 -45587173.82718277 0 -45587173.82718277 -26130012.520852089 0 0 0 0 -92651747.283763885 -67305915.788879395 0 -67305915.788879395 -28352565.735954285 0 0 0 0 -59889789.840179443 -24455270.370952606 0 -24455270.370952606 7565002.2666397095 0 0 0 0 -139581474.04829025 -35737613.777118683 0 -35737613.777118683 8354044.4269638062 0 0 0 0 -37065116.358901978 -21571486.789001465 0 -21571486.789001465 -7662591.3924484253 0 0 0 0 -36731717.031333923 -2592112.1461668015 0 -2592112.1461668015 -3769001.4022674561 0 0 0 0 -68649314.568763733 -14893672.89163208 0 -14893672.89163208 3238593.0094718933 0 0 0 0 -67741179.224128723 6497095.3273391724 0 6497095.3273391724 17299935.334716797 0 0 0 0 -54790792.970153809 -3200904.3427505493 0 -3200904.3427505493 -3612563.4187269211 0 0 0 0 -19479005.215621948 -87974775.498008728 0 -87974775.498008728 -15035468.03691864 0 0 0 0 -230638735.21175385 1807418.0734710693 0 1807418.0734710693 29467723.842475891 0 0 0 0 -206529755.16071701 -151225965.51456881 0 -151225965.51456881 -36281305.738632202 0 0 0 0 -248025552.03656673 155970438.54358864 0 155970438.54358864 124437648.75567627 0 0 0 0 -306784000.49337006 -109140740.23925781 0 -109140740.23925781 -76495604.23739624 0 0 0 0 -1110801.8000656068 -704567.27595950663 0 -704567.27595950663 -1463805.3917972222 0 0 0 0 -65908357.918533325 55973385.157123566 0 55973385.157123566 32634309.957473755 0 0 0 0 -82700712.566360474 -241046711.80362701 0 -241046711.80362701 -359444949.97725677 0 0 0 0 -1628767.3112640381 -62667903.521713257 0 -62667903.521713257 -251127583.35803986 0 0 0 0 -86166461.584526062 -124046671.78459167 0 -124046671.78459167 -3949032.1207122803 0 0 0 0 19306760.218147278 -24731798.379669189 0 -24731798.379669189 38869523.622211456 0 0 0 0 27029985.310277939 216203942.30552101 0 216203942.30552101 999849.17993164062 0 0 0 0 -4152328.5214895718 -6341839.5867688842 0 -6341839.5867688842 -11464257.619538926 0 0 0 0 105908477.02761078 -1890086.8377380371 0 -1890086.8377380371 -22652414.887832642 0 0 0 0 -4162134.9217350632 -6960863.8392534405 0 -6960863.8392534405 -8055567.1317545474 0 0 0 0 -21862116.987670898 62742075.684005737 0 62742075.684005737 -2775785.208770752 0 0 0 0 -25586094.594303347 -24015941.850161366 0 -24015941.850161366 10201358.232203223 0 0 0 0 -29909296.120613098 -53263459.378711879 0 -53263459.378711879 -2880531.8991625309 0 0 0 0 -21373029.338088989 -17440674.650840759 0 -17440674.650840759 -35004334.520027161 0 0 0 0 19674029.934562683 -35080513.647262573 0 -35080513.647262573 325339936.58349609 0 0 0 0 -9800474.1422864869 -17695051.859329224 0 -17695051.859329224 -32015645.56571202 0 0 0 0 -49680696.659866333 -59251692.691503525 0 -59251692.691503525 88115454.982341766 0 0 0 0 -14283246.545791626 -59401162.493222713 0 -59401162.493222713 -38709176.283269882 0 0 0 0 -15501467.37694931 -54202416.524723411 0 -54202416.524723411 -4613702.3734765053 0 0 0 0 -13387894.425201416 -57442957.628725052 0 -57442957.628725052 -60837584.24022007 0 0 0 0 -10865112.702056885 -85425511.797229767 0 -85425511.797229767 4685603.328584671 0 0 0 0 -14318341.647285461 -70092036.329962254 0 -70092036.329962254 948441.36811828613 0 0 0 0 -849789.77465820312 -91261761.388915062 0 -91261761.388915062 -57316105.006490707 0 0 0 0 -28391515.370361328 -118741716.48458576 0 -118741716.48458576 14304971.361577511 0 0 0 0 -28909884.418570321 -33265893.53948221 0 -33265893.53948221 -11484368.856210578 0 0 0 0 -36817810.43208313 -74674148.897892952 0 -74674148.897892952 117076850.95901847 0 0 0 0 -28242937.851135254 -67189769.892968655 0 -67189769.892968655 39470142.335230827 0 0 0 0 -88881917.833753586 -88740910.59418869 0 -88740910.59418869 130635911.66551971 0 0 0 0 1309393.897644043 -88427697.599124432 0 -88427697.599124432 4986395.1689725518 0 0 0 0 2425696.2984619141 -74783020.175048351 0 -74783020.175048351 2181537.6896395683 0 0 0 0 -646075.29705372453 -1644379.116872061 0 -1644379.116872061 -3517040.0817234325 0 0 0 0 -59080458.186065674 -133316163.71396828 0 -133316163.71396828 101043988.22708607 0 0 0 0 -10281167.389930725 -150853067.75885057 0 -150853067.75885057 -21382478.284399986 0 0 0 0 -31266736.018723637 -30968644.243624099 0 -30968644.243624099 -6385004.6456378354 0 0 0 0 -54614507.792602539 7493071.2292881012 0 7493071.2292881012 218653585.90933245 0 0 0 0 -127305351.09835815 -58991516.565616131 0 -58991516.565616131 281922404.06955719 0 0 0 0 -46624922.381046295 -53307074.646829605 0 -53307074.646829605 33458744.009147644 0 0 0 0 57906485.612281799 -158573211.9897213 0 -158573211.9897213 -469449104.07554722 0 0 0 0 -76487715.234039307 -325393680.75861931 0 -325393680.75861931 -53830878.623118401 0 0 0 0 -169943451.91210938 -283552293.20862007 0 -283552293.20862007 -61094641.642766953 0 0 0 0 -154524931.79159546 -194134106.82504654 0 -194134106.82504654 -381564772.32680511 0 0 0 0 -14573798.59085083 -88359497.098594666 0 -88359497.098594666 -73828491.040104866 0 0 0 0 -40888737.050750732 -87880435.201618195 0 -87880435.201618195 -72622205.801410198 0 0 0 0 -9531088.9441829473 -4054553.1179740094 0 -4054553.1179740094 710511.0416713634 0 0 0 0 11358726.844284058 -87312265.911955833 0 -87312265.911955833 -160980915.05710411 0 0 0 0 34256445.625267029 -5263353.6401529312 0 -5263353.6401529312 -206315524.7998848 0 0 0 0 -164012967.71229553 205278189.46645546 0 205278189.46645546 -413052613.20098972 0 0 0 0 -3282832.9119657204 -1290567.592408156 0 -1290567.592408156 94565.200877886964 0 0 0 0 -458783887.85418701 -74153822.088019371 0 -74153822.088019371 321541002.7730608 0 0 0 0 138277270.43566895 -190184087.07313919 0 -190184087.07313919 -1209175823.2803249 0 0 0 0 -185426899.21751404 47808884.230647914 0 47808884.230647914 55901012.934596375 0 0 0 0 71962705.03364563 8953672.7703291178 0 8953672.7703291178 -61750829.220971167 0 0 0 0 39408233.169403076 -77239230.936528444 0 -77239230.936528444 189732526.52761459 0 0 0 0 -309214.50762939453 8722140.8412802815 0 8722140.8412802815 98431395.952991664 0 0 0 0 -15382597.39337378 -7164339.9141493607 0 -7164339.9141493607 2397741.2894118256 0 0 0 0 -47371735.704879761 -41984262.27855742 0 -41984262.27855742 234466562.6214745 0 0 0 0 -7111413.5582427979 -29014136.862072945 0 -29014136.862072945 -57409948.419756889 0 0 0 0 1863487.7086791992 -73184819.971525192 0 -73184819.971525192 -61717419.962700844 0 0 0 0 -10549543.747406006 -22883904.268986702 0 -22883904.268986702 -64207587.373238564 0 0 0 0 -8627995.0091552734 5165853.0405282974 0 5165853.0405282974 -153898857.14519882 0 0 0 0 -41910942.044296265 -36190020.875035167 0 -36190020.875035167 69805563.395003259 0 0 0 0 -99173511.762573242 -29363097.55107832 0 -29363097.55107832 76999041.312681675 0 0 0 0 -37538709.669494629 -24048848.924790263 0 -24048848.924790263 57481990.251914144 0 0 0 0 -98409718.035064697 -110389774.89668751 0 -110389774.89668751 -17815609.74811697 0 0 0 0 -47674620.614707947 -108081238.41605759 0 -108081238.41605759 17494818.88973999 0 0 0 0 16891405.068489075 -36315973.248666078 0 -36315973.248666078 130462475.25172687 0 0 0 0 -86540383.385681152 -35040869.20968017 0 -35040869.20968017 131426068.75675583 0 0 0 0 28815323.482917786 58263944.911541224 0 58263944.911541224 196507648.00319195 0 0 0 0 20862250.050491333 31541211.68102169 0 31541211.68102169 115114896.04252195 0 0 0 0 72054072.121673584 57206108.268217087 0 57206108.268217087 16650825.104074121 0 0 0 0 -32614236.790557861 110709622.92125893 0 110709622.92125893 270588267.5594821 0 0 0 0 34321735.550460815 -107400421.18731499 0 -107400421.18731499 523080688.82694769 0 0 0 0 44548303.047785759 13269714.049873695 0 13269714.049873695 163775622.82995653 0 0 0 0 199645621.07397461 -160937279.27404594 0 -160937279.27404594 89419008.800256729 0 0 0 0 307823601.22901917 -248573970.07651806 0 -248573970.07651806 296674760.42897034 0 0 0 0 -49462804.347705841 10492682.256887481 0 10492682.256887481 182396480.63503742 0 0 0 0 8570857.7428741455 -52209968.432985306 0 -52209968.432985306 302711906.5587616 0 0 0 0 7885835.2343139648 -36943822.099415779 0 -36943822.099415779 74796189.047740936 0 0 0 0 -79769878.854202271 -88900747.957466125 0 -88900747.957466125 144477658.58854675 0 0 0 0 104295183.15679932 -187231282.13611794 0 -187231282.13611794 -140044468.93338966 0 0 0 0 117898074.0663681 -263474077.52034998 0 -263474077.52034998 233775935.37382889 0 0 0 0 -42781366.839752197 -414921128.72700024 0 -414921128.72700024 30501553.128726959 0 0 0 0 592512341.9133606 -687384771.29916906 0 -687384771.29916906 151587832.54106712 0 0 0 0 648152922.52438354 -612157062.16220379 0 -612157062.16220379 215928396.24876595 0 0 0 0 195964170.71990967 -231843767.1158638 0 -231843767.1158638 377548067.22616768 0 0 0 0 415904275.47650146 -254978999.20667171 0 -254978999.20667171 -248827102.15499878 0 0 0 0 -1599682.097055316 -289049.77229155228 0 -289049.77229155228 7339359.9083841583 0 0 0 0 709672726.70513916 -909666695.33926296 0 -909666695.33926296 317492119.06587219 0 0 0 0 -86178531.152992249 144425335.43511701 0 144425335.43511701 1269234935.199358 0 0 0 0 968423825.60903931 -724176634.92488003 0 -724176634.92488003 -83994249.525588989 0 0 0 0 110591275.01548767 -466468955.11789036 0 -466468955.11789036 1365734460.7206392 0 0 0 0 430119636.65769958 150184559.64036369 0 150184559.64036369 -1136189163.158905 0 0 0 0 1124882.0916664526 -479282.2023240095 0 -479282.2023240095 457247.53663391201 0 0 0 0 151861269.059021 -780522308.09578705 0 -780522308.09578705 3412839004.2385807 0 0 0 0 90245155.321418762 -317548720.06178856 0 -317548720.06178856 -552821322.37392616 0 0 0 0 1293327.0934307426 -1512793.7283980567 0 -1512793.7283980567 1492931.2663163105 0 0 0 0 4394225.9907440022 -1365172.231053886 0 -1365172.231053886 -88348.032448342536 0 0 0 0 1607270.6735839844 843314.10062026978 0 843314.10062026978 -2770237.1363368034 0 0 0 0 -107373162.61882019 -44352171.037138462 0 -44352171.037138462 -158936959.29866695 0 0 0 0 -61258518.057983398 -141665362.128622 0 -141665362.128622 -78751187.496846199 0 0 0 0 -76936756.812530518 -161736072.35175896 0 -161736072.35175896 -194848756.9305582 0 0 0 0 8148696.7411853001 -4877332.4798311945 0 -4877332.4798311945 2248763.1922881622 0 0 0 0 -99720289.647659302 -143254833.39642072 0 -143254833.39642072 -87643805.034009933 0 0 0 0 -80055191.063568115 -67169972.312173367 0 -67169972.312173367 -81921943.482656479 0 0 0 0 -123019611.39814568 -164611839.03256726 0 -164611839.03256726 -165257919.21501923 0 0 0 0 3393744.3334579468 -3585798.5787820816 0 -3585798.5787820816 -923458.78904342651 0 0 0 0 5407690.1659431458 -4334232.6306500435 0 -4334232.6306500435 -3070358.3850879669 0 0 0 0 945138.50548033416 -2406575.5752079999 0 -2406575.5752079999 1435478.3856579605 0 0 0 0 89770771.572755814 -305294457.83916903 0 -305294457.83916903 980595532.1384716 0 0 0 0 33537573.049163818 -232068241.70727921 0 -232068241.70727921 890523026.75017738 0 0 0 0 118124613.99032211 -237173810.85277796 0 -237173810.85277796 889491971.3500042 0 0 0 0 308668866.03303528 -131947590.5892477 0 -131947590.5892477 938800782.39560127 0 0 0 0 124960224.33466148 -426317509.56517673 0 -426317509.56517673 1251422291.9933891 0 0 0 0 106731674.9115448 -323307212.08926058 0 -323307212.08926058 696974894.08779907 0 0 0 0 -172669644.05921936 -401092682.32199287 0 -401092682.32199287 894073354.21908951 0 0 0 0 -180460468.87858582 -292682571.80678844 0 -292682571.80678844 723580767.23224258 0 0 0 0 455255081.54014587 -444243113.97544098 0 -444243113.97544098 298477875.56274033 0 0 0 0 455885205.99153137 -452239843.87162685 0 -452239843.87162685 119954568.16492558 0 0 0 0 -23071988.687465668 -265707052.45907897 0 -265707052.45907897 60923778.353843689 0 0 0 0 812533321.19152832 -90751374.02000618 0 -90751374.02000618 30772049.193767548 0 0 0 0 861313572.52181816 -511821233.50203383 0 -511821233.50203383 -46642568.248252869 0 0 0 0 1001798956.7975159 -822953945.39558697 0 -822953945.39558697 502358110.25777531 0 0 0 0 727733045.78769684 -582053162.31616354 0 -582053162.31616354 367517767.5579195 0 0 0 0 1004442372.3889072 5108560.1790460031 0 5108560.1790460031 1243975457.9640865 0 0 0 0 -508205.64772866666 -108631.81589412317 0 -108631.81589412317 3158154.172664321 0 0 0 0 1871042485.7745209 -1809235188.1093225 0 -1809235188.1093225 1119621369.7488155 0 0 0 0 80917007.660663605 298135410.6154232 0 298135410.6154232 208911085.95193291 0 0 0 0 965924249.00279236 -785671397.180439 0 -785671397.180439 -31601256.232328415 0 0 0 0 134859514.40504456 -528347837.5634346 0 -528347837.5634346 891849421.11771393 0 0 0 0 792530571.31329346 -1422481100.9617348 0 -1422481100.9617348 603833079.5621357 0 0 0 0 2446792555.8971176 -1531537042.1319158 0 -1531537042.1319158 570344694.83750033 0 0 0 0 1188859877.6334076 -994607481.5709095 0 -994607481.5709095 1026347760.7504692 0 0 0 0 -2809556936.0422821 -122963224.21390298 0 -122963224.21390298 1234565890.3730159 0 0 0 0 -345295.26187666599 -2600597.0837876648 0 -2600597.0837876648 3657779.1260251347 0 0 0 0 -790650.89534471044 -6005702.3606633134 0 -6005702.3606633134 7117582.420493247 0 0 0 0 -120083517.5785675 -231324919.74797153 0 -231324919.74797153 880752718.01011658 0 0 0 0 1537216059.4491119 -672184976.95978642 0 -672184976.95978642 -188454019.93792152 0 0 0 0 804555712.21301937 -34811164.263664365 0 -34811164.263664365 -234738851.67920113 0 0 0 0 52595693.584434509 -1247285530.8195009 0 -1247285530.8195009 -90612199.074032128 0 0 0 0 -2271805313.5540953 -349872101.72879374 0 -349872101.72879374 1011988682.6443577 0 0 0 0 62285480.187026978 -1285718313.120904 0 -1285718313.120904 -28420527.532833099 0 0 0 0 -432040.15585066681 -7437795.1914858408 0 -7437795.1914858408 4101484.1730946917 0 0 0 0 -316522518.657341 -59099387.571183205 0 -59099387.571183205 -5381229.4952087402 0 0 0 0 -238943274.16292572 12483040.157109261 0 12483040.157109261 169627403.2901783 0 0 0 0 -78907494.57623291 134528852.57025337 0 134528852.57025337 137973169.49158669 0 0 0 0 347414064.6759491 149910427.9199276 0 149910427.9199276 4972604.8370552063 0 0 0 0 -1954958.3275754973 -1986067.9902929745 0 -1986067.9902929745 1626953.2270471612 0 0 0 0 1755624837.0260239 -1077762423.9436939 0 -1077762423.9436939 654087003.54867935 0 0 0 0 78995693.785858154 -1112441859.5718288 0 -1112441859.5718288 -2135423735.155899 0 0 0 0 322390102.75033569 -1584994857.1957369 0 -1584994857.1957369 -21406650.302319497 0 0 0 0 -222208276.42523193 -1657543875.9265671 0 -1657543875.9265671 -23227760.395981453 0 0 0 0 1435710965.7180939 539317358.46571422 0 539317358.46571422 1365057027.8157167 0 0 0 0 -164123956.70029068 -2175034715.5514174 0 -2175034715.5514174 2330631389.0237427 0 0 0 0 -299391292.73684692 -310206727.15639126 0 -310206727.15639126 1083307643.4354293 0 0 0 0 -300737473.4405899 -433846323.89573097 0 -433846323.89573097 -261768776.79406548 0 0 0 0 -1063887171.0379181 609686877.60388637 0 609686877.60388637 253680615.67241645 0 0 0 0 1073607226.6259155 -235130231.3095901 0 -235130231.3095901 213524669.4031117 0 0 0 0 49299879.842460632 -65402390.129981756 0 -65402390.129981756 376957204.84593487 0 0 0 0 255987079.06387329 -249623835.24884987 0 -249623835.24884987 397726981.38997936 0 0 0 0 503351216.54789734 -321015640.53108215 0 -321015640.53108215 373531695.3800422 0 0 0 0 46318898.560707092 -444444517.58607435 0 -444444517.58607435 580390974.13501978 0 0 0 0 6796449.6990661621 -420959051.82494307 0 -420959051.82494307 583246053.96077538 0 0 0 0 -667456178.920784 -526765647.19081736 0 -526765647.19081736 835953720.0020268 0 0 0 0 -336080271.55834961 -635086072.12572527 0 -635086072.12572527 856103395.84595823 0 0 0 0 -308223134.43032837 -172372139.588099 0 -172372139.588099 566502140.11868715 0 0 0 0 -152093616.87020111 -262096424.8999818 0 -262096424.8999818 541962427.90947342 0 0 0 0 -421667724.96421814 -978315985.7566669 0 -978315985.7566669 1540333068.8928924 0 0 0 0 1287461846.8296204 -1981716725.5719137 0 -1981716725.5719137 1350145153.7027814 0 0 0 0 921480233.38037109 -1197563206.3154414 0 -1197563206.3154414 942055117.11428952 0 0 0 0 94935205.957778931 202078007.17122805 0 202078007.17122805 871828425.53480339 0 0 0 0 704380409.02887726 -920618407.78444099 0 -920618407.78444099 571983100.06935024 0 0 0 0 -1641889.3126033805 -475982.40402007848 0 -475982.40402007848 6452369.9294376578 0 0 0 0 398651109.24652863 -856021320.2961309 0 -856021320.2961309 410571016.28516531 0 0 0 0 -4748404.357711792 -411887460.97129673 0 -411887460.97129673 -31581576.748362541 0 0 0 0 -630382.8787512891 -316847.26967993751 0 -316847.26967993751 2325685.5407370739 0 0 0 0 1551671871.821804 -1748226200.5854604 0 -1748226200.5854604 784529203.10033655 0 0 0 0 -1146488578.2487411 303514853.89223444 0 303514853.89223444 396496656.78553033 0 0 0 0 279545673.50472355 -396744455.4800024 0 -396744455.4800024 846638708.0732398 0 0 0 0 834733662.68560791 -401805667.91209447 0 -401805667.91209447 607066530.35857201 0 0 0 0 -242217086.89161682 -162565270.85604596 0 -162565270.85604596 837174839.60250854 0 0 0 0 40220631.124671936 -93268446.948296934 0 -93268446.948296934 193077934.86969328 0 0 0 0 -196416851.79324341 164576060.24898118 0 164576060.24898118 329023269.26315367 0 0 0 0 -170852900.05147934 -315246488.51695764 0 -315246488.51695764 -487569545.32388031 0 0 0 0 -124437457.74139404 27142281.504093409 0 27142281.504093409 105369884.75580716 0 0 0 0 -173283667.84987557 -1286983059.230726 0 -1286983059.230726 1310951021.2240708 0 0 0 0 -63825651.745702744 83725610.17068848 0 83725610.17068848 287785185.80483246 0 0 0 0 -184049833.44496155 -284581273.59700251 0 -284581273.59700251 1132881392.4300699 0 0 0 0 -583952734.86199951 -551927245.24845374 0 -551927245.24845374 1019289209.3299102 0 0 0 0 -121987482.88171387 -318846804.89786673 0 -318846804.89786673 1018182119.7933269 0 0 0 0 111556572.66236877 -240759169.22638679 0 -240759169.22638679 1069516515.2926998 0 0 0 0 160330447.11754608 -41602214.724878848 0 -41602214.724878848 1682182652.6682782 0 0 0 0 280335722.55607605 -508002451.5035491 0 -508002451.5035491 656165105.1329031 0 0 0 0 -149021588.41989136 -539253513.25354552 0 -539253513.25354552 1288378989.8944888 0 0 0 0 243879085.40112305 -614427146.00241232 0 -614427146.00241232 670229375.67365026 0 0 0 0 -174657163.52926636 -722421851.2212553 0 -722421851.2212553 639898574.14011192 0 0 0 0 -238561096.33657837 -309966206.82530624 0 -309966206.82530624 708013100.4996562 0 0 0 0 -588790578.06559753 292780894.88122129 0 292780894.88122129 -15914520.741889238 0 0 0 0 822465652.44613647 -535971086.88559318 0 -535971086.88559318 260898647.6004498 0 0 0 0 372200727.32572937 -273621316.40089655 0 -273621316.40089655 402124062.94016933 0 0 0 0 524216776.78456116 -995428107.54337311 0 -995428107.54337311 1491067728.7155018 0 0 0 0 -175504166.88093567 -569121856.31152058 0 -569121856.31152058 3581217243.2709751 0 0 0 0 921846610.25978088 -1636566236.8788757 0 -1636566236.8788757 1557076184.1508527 0 0 0 0 1487382.7259464562 -1300250.6875595804 0 -1300250.6875595804 335031.689915066 0 0 0 0 760757942.98625565 -805407304.91976273 0 -805407304.91976273 -968304225.02438259 0 0 0 0 843578.44871028513 -2148784.841090586 0 -2148784.841090586 2842587.5324131399 0 0 0 0 96148724.56970787 -2283987586.9362769 0 -2283987586.9362769 749566140.39013767 0 0 0 0 -468510723.23175812 618730939.14857984 0 618730939.14857984 1505841611.3765583 0 0 0 0 -452145466.61325073 489513918.41917896 0 489513918.41917896 2506064502.830606 0 0 0 0 -449108223.50640869 90584384.898384094 0 90584384.898384094 164932334.55114037 0 0 0 0 -862794500.1401825 34171789.903764725 0 34171789.903764725 1596198204.3187752 0 0 0 0 1532768.4777023941 -4311998.4273759536 0 -4311998.4273759536 5669430.4126178855 0 0 0 0 -1158452766.2916107 -1129890473.5625057 0 -1129890473.5625057 140148881.02542931 0 0 0 0 -1062792611.1522484 -648714495.93687081 0 -648714495.93687081 249261963.39546156 0 0 0 0 -243976982.37312317 -364869760.93306637 0 -364869760.93306637 195371676.68426698 0 0 0 0 -510122806.59621429 16984706.378974438 0 16984706.378974438 991041401.87309933 0 0 0 0 -430605416.52784729 -818613207.86927438 0 -818613207.86927438 1793561957.1586812 0 0 0 0 136215294.55836487 -439605711.39103103 0 -439605711.39103103 916996567.91372371 0 0 0 0 -410682259.00539398 31052874.732661784 0 31052874.732661784 588501467.92518044 0 0 0 0 397448408.42817688 -209849992.9254117 0 -209849992.9254117 171980884.96385527 0 0 0 0 505136998.21868896 -334539652.8903439 0 -334539652.8903439 382015088.89389992 0 0 0 0 336072407.8759613 -302662757.5829649 0 -302662757.5829649 379864506.07758355 0 0 0 0 119906520.49620438 -354707964.71862292 0 -354707964.71862292 531541482.77301216 0 0 0 0 340501655.3134613 -537890655.87360668 0 -537890655.87360668 672592270.74113584 0 0 0 0 599912546.34360504 -853173605.91296482 0 -853173605.91296482 828870310.39767027 0 0 0 0 456724540.79147339 -661356029.01280189 0 -661356029.01280189 577456298.25723243 0 0 0 0 162626245.46452713 -962138982.65657914 0 -962138982.65657914 1205405966.307322 0 0 0 0 -155040161.29847717 -845657961.94615901 0 -845657961.94615901 1283156651.6033182 0 0 0 0 1736491598.9780188 -1266131716.1470907 0 -1266131716.1470907 722060367.93281889 0 0 0 0 361291485.20888519 -1538840996.4207397 0 -1538840996.4207397 2170804493.5189128 0 0 0 0 -211607860.50839233 215511975.01639509 0 215511975.01639509 2259469597.4185791 0 0 0 0 54915459.761901855 -229429761.60624814 0 -229429761.60624814 237686579.89340925 0 0 0 0 -6476917.2313887179 -4720677.1834357344 0 -4720677.1834357344 5118751.6817036709 0 0 0 0 866718.00003224611 -3694400.7039271854 0 -3694400.7039271854 3166374.9033926455 0 0 0 0 80216056.583068848 -410143638.390558 0 -410143638.390558 -227576304.25293657 0 0 0 0 -3750325.50853616 -2635529.4232913703 0 -2635529.4232913703 2255251.4426718918 0 0 0 0 -216895077.47225189 -187948440.58923292 0 -187948440.58923292 941264622.71722126 0 0 0 0 -195970125.49664307 -1016158267.7009182 0 -1016158267.7009182 1240855675.0583353 0 0 0 0 -133588578.84101868 -931844956.71781111 0 -931844956.71781111 863229539.18396556 0 0 0 0 -408770425.88490295 -575648230.16834164 0 -575648230.16834164 956072361.4157567 0 0 0 0 -320435726.26533508 -1057377898.8559766 0 -1057377898.8559766 1240551244.6433554 0 0 0 0 -208600437.7229805 -1412450938.9157324 0 -1412450938.9157324 2367688488.5971413 0 0 0 0 574609085.83878326 -512659581.67881107 0 -512659581.67881107 942157058.39345121 0 0 0 0 474883937.23028564 -1480955674.3694811 0 -1480955674.3694811 1232867232.8643904 0 0 0 0 -105982672.34190369 -996642202.18793106 0 -996642202.18793106 613380557.34613037 0 0 0 0 23458561.157527924 -759155925.51673043 0 -759155925.51673043 518091360.05724239 0 0 0 0 -107303671.0322876 -156662743.86991191 0 -156662743.86991191 -223935477.14610529 0 0 0 0 84143115.486358643 -987063032.20864296 0 -987063032.20864296 244200321.26595211 0 0 0 0 -46166194.099489212 -356873574.35018462 0 -356873574.35018462 -50966151.17517662 0 0 0 0 -138292787.0297699 -802685983.01980543 0 -802685983.01980543 -495413466.32256556 0 0 0 0 -251910481.45207977 -72607676.000323296 0 -72607676.000323296 -933518767.83985233 0 0 0 0 181863161.96652222 -481244005.44811678 0 -481244005.44811678 -1081965042.5713964 0 0 0 0 -1847650.8306263238 -1404612.824852617 0 -1404612.824852617 711679.73029020894 0 0 0 0 -475139173.52545166 -241787697.48772311 0 -241787697.48772311 -877084565.19133306 0 0 0 0 -487975447.10249329 -916863352.11754632 0 -916863352.11754632 -1190056932.746706 0 0 0 0 232049097.79641724 -431398537.37451553 0 -431398537.37451553 -2370597759.5595355 0 0 0 0 -523117.60856194794 -215794.76304880832 0 -215794.76304880832 25548.116345535418 0 0 0 0 -464852599.05700684 -113685595.17849031 0 -113685595.17849031 561268398.25866091 0 0 0 0 -61854943.398711205 -186809411.3561359 0 -186809411.3561359 -835675298.12008572 0 0 0 0 -426854035.71253967 -621773937.34044147 0 -621773937.34044147 67899800.661824226 0 0 0 0 153792.50684356689 -541972707.23144937 0 -541972707.23144937 -687524720.08891964 0 0 0 0 53560979.501037598 -202313368.36237526 0 -202313368.36237526 295031507.41785431 0 0 0 0 -542960.68517303467 -773378446.07842875 0 -773378446.07842875 947276933.57814455 0 0 0 0 100895437.34039307 -400529265.440938 0 -400529265.440938 1344739901.69664 0 0 0 0 563550.53796386719 -729622155.35749912 0 -729622155.35749912 1547024450.1634231 0 0 0 0 159526460.44645691 -606148701.95686626 0 -606148701.95686626 1625680231.3814049 0 0 0 0 -77675937.198545456 -733170909.34386158 0 -733170909.34386158 1795284751.9830837 0 0 0 0 496597732.5989151 -1218629947.187129 0 -1218629947.187129 1380485343.0938625 0 0 0 0 490038968.36760712 -1377143265.2809634 0 -1377143265.2809634 -990403584.36011887 0 0 0 0 -565727960.53527451 -18778000.706345797 0 -18778000.706345797 2968154173.5422525 0 0 0 0 852880.58101150393 -2118659.8016372882 0 -2118659.8016372882 2754984.3974696072 0 0 0 0 474496823.12078857 -1084962459.3081017 0 -1084962459.3081017 1725016079.3316348 0 0 0 0 1450307148.757782 -734336052.06976891 0 -734336052.06976891 529900333.56134605 0 0 0 0 -1184829653.3195961 -238970650.75614136 0 -238970650.75614136 1316610921.688921 0 0 0 0 -111295684.89554596 -235281287.13225627 0 -235281287.13225627 1894349482.6570568 0 0 0 0 -362365681.99880981 255467526.96437931 0 255467526.96437931 949213038.35926723 0 0 0 0 -174930950.69615936 -136412770.24502802 0 -136412770.24502802 3827226830.2733345 0 0 0 0 20713811.728355408 -890255993.80459785 0 -890255993.80459785 3170138376.9447575 0 0 0 0 1070249751.6199646 398955108.82835007 0 398955108.82835007 2437053751.8966222 0 0 0 0 -368833.84247589111 -310186554.16745472 0 -310186554.16745472 2384653252.8072691 0 0 0 0 68760631.734802246 -796900678.90283585 0 -796900678.90283585 1806628032.8781376 0 0 0 0 497114326.67087555 -345667242.5019393 0 -345667242.5019393 1670392313.947649 0 0 0 0 -18722215.241729736 -33807172.086784363 0 -33807172.086784363 -92570275.201491475 0 0 0 0 -19771110.020675659 -24984664.583248138 0 -24984664.583248138 -78336415.437820435 0 0 0 0 16688088.072509766 -28527453.876373291 0 -28527453.876373291 -78255129.950402558 0 0 0 0 -52269604.462493896 -19542536.427501678 0 -19542536.427501678 -61747652.033226013 0 0 0 0 -53775020.046352386 -26570208.358816147 0 -26570208.358816147 -94054303.146697998 0 0 0 0 -72519747.600021362 -3360616.94713974 0 -3360616.94713974 -84557444.284477234 0 0 0 0 -47186205.194549561 -14437936.653944016 0 -14437936.653944016 -87312333.663551331 0 0 0 0 -41951263.135742188 -10825024.464691162 0 -10825024.464691162 -90177239.753501892 0 0 0 0 -19065763.419817448 -3953080.5588693321 0 -3953080.5588693321 -88158810.497833252 0 0 0 0 -62437276.624511719 -12560796.316749573 0 -12560796.316749573 -86275488.056316376 0 0 0 0 -126907381.49842644 -24767773.563179016 0 -24767773.563179016 96173634.408672333 0 0 0 0 -36928525.375748977 -30690431.128692918 0 -30690431.128692918 9405165.1058220379 0 0 0 0 -41596254.409988403 -14116290.716598511 0 -14116290.716598511 -87639653.489953995 0 0 0 0 -93450543.592622697 -26364550.76235199 0 -26364550.76235199 60117370.411712646 0 0 0 0 -135065601.12264583 35885144.545566559 0 35885144.545566559 36066723.503189087 0 0 0 0 -177643144.23801041 -6148178.7677612305 0 -6148178.7677612305 89417691.080259323 0 0 0 0 -233820669.7176857 -29771295.491638184 0 -29771295.491638184 92174009.76305151 0 0 0 0 -213844550.7604146 -53641177.188659668 0 -53641177.188659668 36682043.219894409 0 0 0 0 -224379798.41259956 -59778667.335769653 0 -59778667.335769653 57155370.095031738 0 0 0 0 48863203.141004324 -39907866.037817955 0 -39907866.037817955 7272166.9379272461 0 0 0 0 -148604089.18313599 -155695160.5241394 0 -155695160.5241394 -20064558.968811035 0 0 0 0 -75692179.368301392 -20112903.0753479 0 -20112903.0753479 64425700.784532547 0 0 0 0 31382885.593379974 -103800200.04367828 0 -103800200.04367828 -7498405.0155334473 0 0 0 0 -47957846.977966309 -37420947.522720337 0 -37420947.522720337 -92657412.398187995 0 0 0 0 -32694341.148590088 -12818202.366966248 0 -12818202.366966248 -90107246.404369354 0 0 0 0 -31371116.111390341 -31672963.53095407 0 -31672963.53095407 15386543.06888772 0 0 0 0 3076530.5986671448 -44131330.797025681 0 -44131330.797025681 -130799925.4843483 0 0 0 0 7156807.6055086516 -31832429.464977041 0 -31832429.464977041 1336912.8790160567 0 0 0 0 -40031079.257307053 -93707699.403850555 0 -93707699.403850555 28835867.36333847 0 0 0 0 -7930448.613243103 -45945148.262760162 0 -45945148.262760162 9693688.0754623413 0 0 0 0 -7196850.7083703056 -30073735.301107083 0 -30073735.301107083 12539904.847358106 0 0 0 0 -7970630.5945790298 -21715239.838350132 0 -21715239.838350132 -2910522.0101926778 0 0 0 0 -1231589.0025863647 -147379295.32476759 0 -147379295.32476759 -172715285.61052322 0 0 0 0 9320629.5866241455 -17183831.146091461 0 -17183831.146091461 -89396248.055030823 0 0 0 0 13977560.39213562 -32178349.436302185 0 -32178349.436302185 -123456777.90501785 0 0 0 0 -10553966.020103455 -36812323.829576492 0 -36812323.829576492 -51012657.466499329 0 0 0 0 76084666.809955597 -9393677.0353984833 0 -9393677.0353984833 -45513118.670536041 0 0 0 0 210391078.63716316 -160722805.1953311 0 -160722805.1953311 -55798619.470413208 0 0 0 0 -86672048.092315674 -79093963.798370361 0 -79093963.798370361 -60895065.647281647 0 0 0 0 -95727548.661453247 -149786992.46513176 0 -149786992.46513176 265138905.26512909 0 0 0 0 6386710.3161468506 -89238721.22253418 0 -89238721.22253418 220138888.97976112 0 0 0 0 116276300.15919876 90194211.080904007 0 90194211.080904007 139331594.96855164 0 0 0 0 17407910.232711792 -64179764.166633606 0 -64179764.166633606 55597716.477718353 0 0 0 0 -39032834.771011353 -24675167.246948242 0 -24675167.246948242 109378563.31121635 0 0 0 0 -19574145.042537689 12574238.033723831 0 12574238.033723831 -35283547.064559937 0 0 0 0 -72447867.447380066 -19718520.565818787 0 -19718520.565818787 5009637.9372901917 0 0 0 0 -25520160.894317627 -17527420.533201218 0 -17527420.533201218 269825.01901245117 0 0 0 0 -71712314.605308533 -12106521.492334366 0 -12106521.492334366 37783048.633991241 0 0 0 0 -72980034.609466553 -20826479.116752625 0 -20826479.116752625 -9453461.5699939728 0 0 0 0 -202854921.63576508 -166317063.04837036 0 -166317063.04837036 -87549293.870773315 0 0 0 0 -42258443.515190125 -19301397.305458069 0 -19301397.305458069 -56211148.303027153 0 0 0 0 -77831368.152420044 -4606835.6303806305 0 -4606835.6303806305 -18055281.60754776 0 0 0 0 -13376789.61733098 -6718972.8764059972 0 -6718972.8764059972 -2900177.5089892112 0 0 0 0 -80843610.115959167 -1986204.5208244324 0 -1986204.5208244324 -2537575.0494346619 0 0 0 0 -62667872.825340271 -6547551.8421859741 0 -6547551.8421859741 -22812705.202545166 0 0 0 0 -26681029.248487134 -32949799.956182249 0 -32949799.956182249 -18002060.828648251 0 0 0 0 94877844.30683136 -349579564.58233452 0 -349579564.58233452 -217212789.33456421 0 0 0 0 -154596615.79517365 61514168.329013824 0 61514168.329013824 110801152.95472336 0 0 0 0 -231161278.23758316 102270376.25926304 0 102270376.25926304 152199284.50745773 0 0 0 0 -10466056.341606352 -2727443.0726109855 0 -2727443.0726109855 5606953.649191333 0 0 0 0 50468836.335063934 -47417286.554724455 0 -47417286.554724455 18163738.886710167 0 0 0 0 80293079.802650452 -73513072.928130627 0 -73513072.928130627 1293214.0705420971 0 0 0 0 112631092.1223526 -12342879.288345337 0 -12342879.288345337 -18796111.412776947 0 0 0 0 13848602.478713989 -48019761.213521957 0 -48019761.213521957 18288517.540333748 0 0 0 0 -11585342.835594177 39832124.402009964 0 39832124.402009964 -5639387.8494882584 0 0 0 0 -21555374.184410095 -97926236.112495422 0 -97926236.112495422 -29808295.117605209 0 0 0 0 -29210836.543207042 -35882838.023447722 0 -35882838.023447722 -16084545.544061072 0 0 0 0 -38333102.55040741 -78360023.660508156 0 -78360023.660508156 -11663954.988510132 0 0 0 0 16633218.556158781 -76184498.550294787 0 -76184498.550294787 -40693348.888965607 0 0 0 0 -252916833.36275482 197585630.41892815 0 197585630.41892815 -196736020.58860207 0 0 0 0 -719909.40353233367 -21845516.332858965 0 -21845516.332858965 -6013399.147332808 0 0 0 0 17345788.873779297 -96557479.015397072 0 -96557479.015397072 -67232198.186423302 0 0 0 0 -61450981.160560608 -41593760.521615028 0 -41593760.521615028 -2414073.2449741364 0 0 0 0 -82469688.585426331 -14168061.859580994 0 -14168061.859580994 6348640.0497741699 0 0 0 0 -713960641.31626892 122430155.50084877 0 122430155.50084877 237923198.64761972 0 0 0 0 -594943563.4688797 -662172916.63994408 0 -662172916.63994408 921569606.59136868 0 0 0 0 -63156772.653072357 -17512924.272841454 0 -17512924.272841454 -10383704.505813599 0 0 0 0 -57911342.657806396 -36837843.022640228 0 -36837843.022640228 -46088324.21762085 0 0 0 0 -80032615.514987946 -15780047.416729927 0 -15780047.416729927 -83224598.940475464 0 0 0 0 -3391893.474679485 -5067754.3256388539 0 -5067754.3256388539 -5512898.6662972048 0 0 0 0 -72762361.526412964 5735478.8598470688 0 5735478.8598470688 -56768983.836174011 0 0 0 0 -113731791.10069275 -14656711.468532562 0 -14656711.468532562 -24004525.167199135 0 0 0 0 -31797218.007932164 -12791719.708125269 0 -12791719.708125269 8943459.3975734822 0 0 0 0 -44386875.905578613 -36751287.721767426 0 -36751287.721767426 -33706760.640995026 0 0 0 0 -95991834.937728882 -29453757.853305817 0 -29453757.853305817 19686098.277801514 0 0 0 0 -25404353.670019709 -22291325.152839847 0 -22291325.152839847 -174910.7470710054 0 0 0 0 -13410180.434205055 -15928487.347897768 0 -15928487.347897768 8660267.2608041763 0 0 0 0 -22879806.528684262 -25635383.340349615 0 -25635383.340349615 4726433.0717823217 0 0 0 0 -15356600.878517151 -4937873.4290156364 0 -4937873.4290156364 7460039.2262527347 0 0 0 0 -13011394.788768768 -12509220.918322742 0 -12509220.918322742 15370328.276532374 0 0 0 0 -16460204.835641861 -18700680.590367138 0 -18700680.590367138 15299073.603710592 0 0 0 0 -18631593.36592865 -14361260.271744251 0 -14361260.271744251 22650232.708367825 0 0 0 0 -10463326.596868105 -6575912.932127988 0 -6575912.932127988 5362051.0231063534 0 0 0 0 -27134153.928846695 -45987917.070118234 0 -45987917.070118234 -8821599.7835552301 0 0 0 0 -16045924.814403534 -20342788.894557655 0 -20342788.894557655 10058789.753435016 0 0 0 0 70881530.93453145 15707300.159313202 0 15707300.159313202 61813490.389892578 0 0 0 0 -28491227.46185036 -12754244.189474681 0 -12754244.189474681 20501098.727546934 0 0 0 0 -26792157.082225654 -8210969.6131239105 0 -8210969.6131239105 10788677.159542078 0 0 0 0 -54261871.222839355 -22880273.611978531 0 -22880273.611978531 5984017.1114959717 0 0 0 0 -9738231.9103393555 -6641931.2614135742 0 -6641931.2614135742 9059612.1692028046 0 0 0 0 -29342803.763422295 -23000096.731701158 0 -23000096.731701158 4624816.2001094976 0 0 0 0 -20453181.32006073 -47794828.22933197 0 -47794828.22933197 65382694.748596191 0 0 0 0 -8881141.3677735403 -35422041.31811142 0 -35422041.31811142 16731118.970001221 0 0 0 0 -41981714.627855301 -58740868.272239685 0 -58740868.272239685 86925959.054428101 0 0 0 0 -8345302.2874946594 -32128301.273857117 0 -32128301.273857117 33284405.658752441 0 0 0 0 -17856883.919396974 -8135523.1511614118 0 -8135523.1511614118 15781470.956559271 0 0 0 0 -26451847.189714432 25108089.639614105 0 25108089.639614105 91033125.916285276 0 0 0 0 -41666571.422140613 -42248300.465297848 0 -42248300.465297848 24441919.374862671 0 0 0 0 -28125380.47129862 -14362328.431832019 0 -14362328.431832019 11159278.022449356 0 0 0 0 -7687589.733354982 -19878335.242116835 0 -19878335.242116835 4733525.7617063615 0 0 0 0 -122575304.76889038 43306652.835800171 0 43306652.835800171 59955755.552139282 0 0 0 0 -5416441.3155272678 -3484247.3584322818 0 -3484247.3584322818 5069883.8178265914 0 0 0 0 -72394359.136161804 18709446.54110527 0 18709446.54110527 46196308.303279877 0 0 0 0 -28376654.834107399 -29239930.991354942 0 -29239930.991354942 60176723.00674057 0 0 0 0 12971374.266565323 6051602.2623558044 0 6051602.2623558044 -23772105.25818634 0 0 0 0 -116458475.9405508 59981131.787006378 0 59981131.787006378 21188088.587341309 0 0 0 0 -116619914.15106487 -22051180.386539459 0 -22051180.386539459 19201253.046329498 0 0 0 0 -184455744.90299511 -152767189.35586166 0 -152767189.35586166 45037088.889572144 0 0 0 0 -36420337.718222022 -273328692.31614876 0 -273328692.31614876 -8371327.7992019653 0 0 0 0 113244808.53057072 -72090229.822144032 0 -72090229.822144032 49957681.942443848 0 0 0 0 -71506075.595019341 -15822248.866006851 0 -15822248.866006851 93829320.767906189 0 0 0 0 -155241335.25742054 -2970956.1702423096 0 -2970956.1702423096 92393725.195014954 0 0 0 0 68269663.07850647 -105799475.27651596 0 -105799475.27651596 -110239174.62263489 0 0 0 0 -37537741.557502747 -336667046.90336418 0 -336667046.90336418 -6492913.0620193481 0 0 0 0 -83510915.978401184 -318386374.04064941 0 -318386374.04064941 399995470.54977798 0 0 0 0 42004247.192520142 -201099491.65777588 0 -201099491.65777588 24191445.245016098 0 0 0 0 -66438365.051879883 -78400826.904968262 0 -78400826.904968262 22752871.251859665 0 0 0 0 -128052767.03798676 -42000853.335250854 0 -42000853.335250854 5820981.6128606796 0 0 0 0 -107861903.07047272 -111287355.92840958 0 -111287355.92840958 111615431.51804352 0 0 0 0 -292708015.8188858 -21550934.963559151 0 -21550934.963559151 68478645.509883881 0 0 0 0 -26439026.54624939 -59216275.64323616 0 -59216275.64323616 -83921556.410417318 0 0 0 0 -42400045.792133331 -105536840.11214542 0 -105536840.11214542 -78932206.13054657 0 0 0 0 -1026130.5938184429 -13165788.19127607 0 -13165788.19127607 -259139.585522376 0 0 0 0 56584907.346511841 -161113480.66136551 0 -161113480.66136551 -176491039.10870361 0 0 0 0 66598074.84274292 -42496114.470981598 0 -42496114.470981598 -271765069.42956734 0 0 0 0 67172290.329399109 -94050382.263329268 0 -94050382.263329268 -134424854.63729095 0 0 0 0 428189269.87185669 -332118863.84444427 0 -332118863.84444427 292325427.81796646 0 0 0 0 12298023.414696209 -586602.63309712894 0 -586602.63309712894 -2288639.5507231606 0 0 0 0 244345402.82364082 -307535469.24676514 0 -307535469.24676514 294335663.3506279 0 0 0 0 -28994426.348362923 112163235.52380848 0 112163235.52380848 662210186.56619263 0 0 0 0 5288939.0951566696 -987802.99686527252 0 -987802.99686527252 11455413.154602051 0 0 0 0 -146410334.98286152 -101244154.54621887 0 -101244154.54621887 382371799.5524025 0 0 0 0 922349.68674262427 -720604.16873646388 0 -720604.16873646388 -516658.12944108248 0 0 0 0 2205830.0482208515 -2330232.0155506749 0 -2330232.0155506749 1738221.1915007569 0 0 0 0 109731732.64075851 -62558313.219381332 0 -62558313.219381332 -320415601.6635046 0 0 0 0 257124487.67683983 -397166918.4258194 0 -397166918.4258194 152287620.758461 0 0 0 0 266011038.35890579 -37272920.111492157 0 -37272920.111492157 -119198638.00181603 0 0 0 0 289110534.63126028 146200301.77332473 0 146200301.77332473 212398708.98898697 0 0 0 0 149295238.26360321 -209630846.5734272 0 -209630846.5734272 597893820.82012558 0 0 0 0 -404269702.57993853 -276323999.99798656 0 -276323999.99798656 216034.76200485229 0 0 0 0 -214147758.86397266 -73177635.940309525 0 -73177635.940309525 -123170641.96360016 0 0 0 0 -238135821.90698814 16599599.175033569 0 16599599.175033569 -447374694.05070925 0 0 0 0 -366803069.36934543 58658217.334676266 0 58658217.334676266 -104910766.16955566 0 0 0 0 -359611290.99107647 21248765.622720718 0 21248765.622720718 29669222.737281799 0 0 0 0 -14558411.716775894 54996959.69729805 0 54996959.69729805 -60099281.123737335 0 0 0 0 -143958904.19453335 29451390.293250084 0 29451390.293250084 13255632.458469391 0 0 0 0 889920.48429713584 -1234075.7279059626 0 -1234075.7279059626 247168.03754431102 0 0 0 0 -290228645.89559174 30756793.748008728 0 30756793.748008728 276141007.24692154 0 0 0 0 -395456115.31262779 -567923230.85709858 0 -567923230.85709858 94599846.904182434 0 0 0 0 -101626686.13643169 -615455344.37050247 0 -615455344.37050247 -378347794.61785126 0 0 0 0 18860232.193832889 -28096499.106149703 0 -28096499.106149703 31469880.279721197 0 0 0 0 -64297460.21762085 -221791997.81023407 0 -221791997.81023407 -113871513.27754211 0 0 0 0 -7746755.991355896 58374644.439141273 0 58374644.439141273 37277221.622817993 0 0 0 0 249217849.00165558 49272886.343322754 0 49272886.343322754 -157620853.1665802 0 0 0 0 -77862764.981212616 -42676860.8073349 0 -42676860.8073349 -17875548.023330688 0 0 0 0 -58877101.104734421 -83365559.828180313 0 -83365559.828180313 -18068092.712799072 0 0 0 0 -44567138.125770569 -64126969.153240204 0 -64126969.153240204 -2183393.962387085 0 0 0 0 -22579255.80487442 -63417825.369216919 0 -63417825.369216919 -18247337.052200317 0 0 0 0 14500902.451055331 -26413726.457873631 0 -26413726.457873631 29323633.801285803 0 0 0 0 -40956150.253040314 -61842384.444629669 0 -61842384.444629669 -8233664.2252502441 0 0 0 0 78343795.98764801 -105943221.85129929 0 -105943221.85129929 -92742529.593334198 0 0 0 0 -319945648.44015789 -283523915.63346863 0 -283523915.63346863 -108128287.21209717 0 0 0 0 12675917.217348324 -14230225.016215507 0 -14230225.016215507 -8340461.2663979828 0 0 0 0 108903955.17278224 -240435633.90303057 0 -240435633.90303057 -20541702.58568573 0 0 0 0 -451069614.89003539 -22969529.257270813 0 -22969529.257270813 29101463.477199554 0 0 0 0 -2906936.9132788596 -1133704.1875335546 0 -1133704.1875335546 2184544.0887939781 0 0 0 0 14137566.41023216 -11458415.721120046 0 -11458415.721120046 -5290948.1515622325 0 0 0 0 -294588015.19092035 -92237812.653932571 0 -92237812.653932571 -21823449.116737366 0 0 0 0 -451312142.42491555 -250745199.30971909 0 -250745199.30971909 -108966755.22930908 0 0 0 0 -17722783.054672241 -51516856.892124176 0 -51516856.892124176 3597657.097366333 0 0 0 0 9659051.7905582469 -28848606.303580616 0 -28848606.303580616 15424227.169910155 0 0 0 0 42276442.683522224 -94502557.387968063 0 -94502557.387968063 -57351986.4477005 0 0 0 0 226513147.29234266 4224363.846701622 0 4224363.846701622 -97570131.042610168 0 0 0 0 -332177019.52249718 -129494291.10407257 0 -129494291.10407257 68178581.353309631 0 0 0 0 3773382.9252526849 -2147386.4655229868 0 -2147386.4655229868 -1011852.1869093888 0 0 0 0 -307888253.8067441 -52712435.007037163 0 -52712435.007037163 82700982.281692505 0 0 0 0 -48208106.061726034 4552450.4026184082 0 4552450.4026184082 19684301.047050476 0 0 0 0 -299626116.93745995 48355454.095039368 0 48355454.095039368 62455011.201141357 0 0 0 0 -260453536.56858778 -89309570.369293213 0 -89309570.369293213 -39708148.901233673 0 0 0 0 -5780458.7133178711 -49488747.614456177 0 -49488747.614456177 -335719.09188079834 0 0 0 0 -4597930.8573913574 -52079486.58000946 0 -52079486.58000946 266185.04114151001 0 0 0 0 -21073989.304626465 -63374872.615406036 0 -63374872.615406036 -7368605.4873428345 0 0 0 0 -2346921.7288331985 -66097825.810882568 0 -66097825.810882568 -14978710.785003662 0 0 0 0 -2764976.1384773254 -63123510.554908752 0 -63123510.554908752 -13333885.14264679 0 0 0 0 -21539550.668771267 -71966807.969565153 0 -71966807.969565153 -16352983.206542969 0 0 0 0 1837897.7922134399 -60866077.75062561 0 -60866077.75062561 -30835564.293632507 0 0 0 0 362042.8113861084 -62480212.316223145 0 -62480212.316223145 -11701941.506202698 0 0 0 0 2744878.2510223389 -59319585.333868027 0 -59319585.333868027 -10778204.985809326 0 0 0 0 17988564.860271454 -67669056.654636383 0 -67669056.654636383 -22145565.16633606 0 0 0 0 6480632.4920120239 -71098325.781944275 0 -71098325.781944275 -12903193.265989304 0 0 0 0 15508238.124786377 -55863759.747825623 0 -55863759.747825623 -47350147.010089874 0 0 0 0 42254963.660614014 -92802120.588447571 0 -92802120.588447571 -16929127.059173584 0 0 0 0 -1108572.9823799133 -71814518.249423981 0 -71814518.249423981 16332959.169525146 0 0 0 0 -35964.24224132672 -253521.57074192166 0 -253521.57074192166 -394606.67069141567 0 0 0 0 39827263.176635742 -57244966.953491211 0 -57244966.953491211 -85959640.489173889 0 0 0 0 14542743.266845703 -106982950.51651382 0 -106982950.51651382 9024351.2217407227 0 0 0 0 -24718370.5922966 -54088894.507761002 0 -54088894.507761002 -70761390.86530304 0 0 0 0 -9811380.4337005615 -22618310.101799011 0 -22618310.101799011 -57136399.142719269 0 0 0 0 14269386.674627304 -49090822.961650848 0 -49090822.961650848 -35174022.514259338 0 0 0 0 -11158091.042556763 -26890195.756931305 0 -26890195.756931305 -22278502.105804443 0 0 0 0 5529650.1552124023 -48179513.341312408 0 -48179513.341312408 -14207159.831115246 0 0 0 0 9237571.0278701782 -62992631.463989258 0 -62992631.463989258 -23989101.405166626 0 0 0 0 -147709.39168739319 -54994854.287418365 0 -54994854.287418365 -22328650.821685791 0 0 0 0 3213297.8192214966 -40387826.620239258 0 -40387826.620239258 -38693850.631595612 0 0 0 0 143027942.1889801 32239961.203132629 0 32239961.203132629 -73602687.617351532 0 0 0 0 -12173609.645289898 -40083636.71182251 0 -40083636.71182251 -18988143.744186401 0 0 0 0 -34415898.917633057 -36492080.82182312 0 -36492080.82182312 -32025506.585338593 0 0 0 0 -6550003.2222633362 -45151296.584007263 0 -45151296.584007263 -59376229.418369293 0 0 0 0 -11137839.316532135 -49094801.334957123 0 -49094801.334957123 -26248419.14818573 0 0 0 0 -15205343.617801666 -23289445.553321838 0 -23289445.553321838 -52272845.367362976 0 0 0 0 -11050831.475769043 -493762.00714874268 0 -493762.00714874268 -13492420.758934021 0 0 0 0 -13122585.506694794 -41409043.707168579 0 -41409043.707168579 -50417071.483715057 0 0 0 0 -632917.93078036606 -579693.60388371348 0 -579693.60388371348 -795199.03316105902 0 0 0 0 -316363.9137311317 -833677.15591181442 0 -833677.15591181442 -1308824.8185471743 0 0 0 0 -29428568.369152069 -27317667.400623322 0 -27317667.400623322 -40838805.369968414 0 0 0 0 -8287731.6755867004 -29399320.497261047 0 -29399320.497261047 -41270653.557455063 0 0 0 0 -35442779.423439026 -27387092.095680237 0 -27387092.095680237 -44487253.848724365 0 0 0 0 -7349907.6275787354 -35692430.652839661 0 -35692430.652839661 -42066799.634963989 0 0 0 0 -22938430.929840088 -55779350.090100765 0 -55779350.090100765 -78453104.997436523 0 0 0 0 -993637.38614144549 -1739499.1419072673 0 -1739499.1419072673 -2865245.1016860306 0 0 0 0 -2504393.3981058449 -2269573.9322166592 0 -2269573.9322166592 -2683437.2270079926 0 0 0 0 -10225955.71151042 -5612117.0939953327 0 -5612117.0939953327 -38729925.725631714 0 0 0 0 -2260476.3417475 -3461898.6869716384 0 -3461898.6869716384 -5968288.6562616527 0 0 0 0 -22518713.258187294 -57183340.972846031 0 -57183340.972846031 -67241806.104812622 0 0 0 0 -7755402.8729095459 -14433890.404083252 0 -14433890.404083252 -57343580.188894272 0 0 0 0 -19183913.621330261 -51216840.734985352 0 -51216840.734985352 -38389323.237472534 0 0 0 0 -24331326.742393494 -26560871.476081848 0 -26560871.476081848 -49724450.047805786 0 0 0 0 69908413.671546936 -143273344.52059555 0 -143273344.52059555 -197418695.54453278 0 0 0 0 -20018165.649848938 -44812050.182855129 0 -44812050.182855129 -23672571.866826057 0 0 0 0 -27425405.474441528 -41293421.40675354 0 -41293421.40675354 -41742683.56880188 0 0 0 0 -11922706.657676697 -39210325.073046923 0 -39210325.073046923 -32509376.816032887 0 0 0 0 -37086727.553127289 -31217695.48979187 0 -31217695.48979187 -4685557.9568634033 0 0 0 0 -21889663.382465355 -27377075.769563254 0 -27377075.769563254 4871609.7453861851 0 0 0 0 -11048101.192001343 -32392854.098249435 0 -32392854.098249435 -22617611.545358658 0 0 0 0 -17123965.292222023 -21748180.268984735 0 -21748180.268984735 -34459012.191506863 0 0 0 0 -30551692.058176041 -24005020.807798386 0 -24005020.807798386 -1748795.4471206665 0 0 0 0 -18231716.290074162 -27951226.935255323 0 -27951226.935255323 2943425.9961918453 0 0 0 0 -15027707.231506348 -34019244.677646637 0 -34019244.677646637 -20608763.527259827 0 0 0 0 -15516880.588134766 -31354232.242799759 0 -31354232.242799759 -5831781.8704042435 0 0 0 0 -3737988.1697387695 -23101312.947632074 0 -23101312.947632074 -17677422.064997673 0 0 0 0 -15044361.66680336 -24188704.268537045 0 -24188704.268537045 19214779.861745834 0 0 0 0 -3228772.7171783447 -21536314.179661751 0 -21536314.179661751 -15644.404232978821 0 0 0 0 -8244622.2966842651 -34607510.981249809 0 -34607510.981249809 10718923.805640221 0 0 0 0 -12171823.375976562 -26899834.894773483 0 -26899834.894773483 26957769.712902069 0 0 0 0 -22182404.854637146 -33519831.616165638 0 -33519831.616165638 -12407867.632455826 0 0 0 0 -3161184.3264160156 -26522448.618089676 0 -26522448.618089676 -10881422.91317606 0 0 0 0 -11840834.415924072 -30045834.64263916 0 -30045834.64263916 1135629.8896102905 0 0 0 0 -12729043.485420227 -35331892.419929981 0 -35331892.419929981 -252434.39065551758 0 0 0 0 -2762434.899887085 -24861920.59885788 0 -24861920.59885788 3651550.0235900879 0 0 0 0 -5336742.3414764404 -31843108.682143688 0 -31843108.682143688 71709.227188110352 0 0 0 0 -13769608.211654663 -34826607.739868164 0 -34826607.739868164 4150441.0545291901 0 0 0 0 -20254130.274807319 -11968422.294190057 0 -11968422.294190057 5855105.3502539052 0 0 0 0 -6545816.2564544678 -34361424.515532494 0 -34361424.515532494 -22018879.584294081 0 0 0 0 -7739671.9739837646 -24717151.841826439 0 -24717151.841826439 -5120624.1079692841 0 0 0 0 -12714726.735176086 -25840801.875328064 0 -25840801.875328064 -22089806.324870229 0 0 0 0 -13653641.493362427 -24264202.599088907 0 -24264202.599088907 -21783702.496738195 0 0 0 0 -9994846.5612335205 -24987893.692751169 0 -24987893.692751169 -35929772.411286831 0 0 0 0 -2969543.833694458 -38184246.34703064 0 -38184246.34703064 -13143709.366047859 0 0 0 0 -10418304.271244049 -22328390.713815093 0 -22328390.713815093 -31255792.691680908 0 0 0 0 -10897621.270025916 -28373537.182336345 0 -28373537.182336345 5941447.7488299748 0 0 0 0 -5094049.6283874512 -37385253.229633331 0 -37385253.229633331 -7310703.2505187988 0 0 0 0 -15549780.071235657 -30193717.494838715 0 -30193717.494838715 -13271869.626098633 0 0 0 0 -14565231.991253253 -28058974.974882327 0 -28058974.974882327 3247243.9441158767 0 0 0 0 -13876039.431167603 -18535375.600197792 0 -18535375.600197792 -31665501.10318993 0 0 0 0 -14086646.747840881 -27822526.003053665 0 -27822526.003053665 -16150424.403874397 0 0 0 0 -15544344.634681702 -19929295.127328396 0 -19929295.127328396 -19409234.260505676 0 0 0 0 -8876539.4329605103 -19764144.648993492 0 -19764144.648993492 -12626882.814685345 0 0 0 0 -12469699.324279785 -17991416.893304825 0 -17991416.893304825 9205304.2351932526 0 0 0 0 -15564542.438858032 -26445883.845517159 0 -26445883.845517159 2082671.1778736115 0 0 0 0 -8325826.8844968975 -15690012.539340245 0 -15690012.539340245 17263947.973499667 0 0 0 0 -172618744.11717224 -145963222.19529152 0 -145963222.19529152 -31860456.042098999 0 0 0 0 -15564495.579811096 -28617232.777607441 0 -28617232.777607441 -7689238.078874588 0 0 0 0 -13498239.905830383 -22154652.400493145 0 -22154652.400493145 -3302048.7243328094 0 0 0 0 -135344027.00276947 -292363610.66457748 0 -292363610.66457748 -97026197.262306213 0 0 0 0 -9377790.7765420005 -17020383.641679339 0 -17020383.641679339 12108842.359741326 0 0 0 0 -190405813.10355377 -71678842.405176163 0 -71678842.405176163 119738279.7635498 0 0 0 0 -110484545.02869415 -66731034.736940384 0 -66731034.736940384 -53147083.267900467 0 0 0 0 -63667893.720600128 -42983897.91228199 0 -42983897.91228199 8374312.7047424316 0 0 0 0 -91692448.561500549 -13865596.061756134 0 -13865596.061756134 47821785.040771484 0 0 0 0 -49452414.023712158 -28947875.704193115 0 -28947875.704193115 58958841.729782104 0 0 0 0 -51516957.974754333 2316350.2614974976 0 2316350.2614974976 -5754196.0272102356 0 0 0 0 -1080201.9005650841 -621296.50091596693 0 -621296.50091596693 2643015.7758535817 0 0 0 0 -95561820.954818726 -29531356.606548309 0 -29531356.606548309 33699265.997379303 0 0 0 0 -98769305.504829407 -10810973.645148754 0 -10810973.645148754 -32680258.01927948 0 0 0 0 -172855758.58470154 -103997280.95179749 0 -103997280.95179749 8295801.2940839529 0 0 0 0 -161149717.67144775 -14429373.958576202 0 -14429373.958576202 17606909.392044067 0 0 0 0 -111187646.12425995 -38111525.53109169 0 -38111525.53109169 74018887.170192719 0 0 0 0 -138070396.27017784 -54956280.08462137 0 -54956280.08462137 137276666.36455536 0 0 0 0 -137542566.59509277 -47190130.045749664 0 -47190130.045749664 24053729.178359985 0 0 0 0 -8478668.3476715088 -23598243.847854614 0 -23598243.847854614 11232991.911473751 0 0 0 0 582600.72421059757 -1682639.9329625741 0 -1682639.9329625741 3028148.2480218988 0 0 0 0 -7830565.5977722555 -16792658.789985463 0 -16792658.789985463 17702901.725413509 0 0 0 0 -108884620.79089355 -9141659.0033760071 0 -9141659.0033760071 30595374.734191895 0 0 0 0 -12648745.283124924 -29089126.471831799 0 -29089126.471831799 21640233.240772247 0 0 0 0 -42150959.039897919 -36938653.479242325 0 -36938653.479242325 66182427.338741302 0 0 0 0 -4799727.8414368927 -6892380.6467240257 0 -6892380.6467240257 8700212.1076997239 0 0 0 0 -3105057.5256471187 -13657176.62598566 0 -13657176.62598566 6026726.3735798616 0 0 0 0 3590809.98828125 -8220897.2889328003 0 -8220897.2889328003 26258570.424690247 0 0 0 0 -25658308.364861488 10687402.582370877 0 10687402.582370877 14597552.144172668 0 0 0 0 -101394121.7894516 -120744994.7271843 0 -120744994.7271843 -80072890.353481293 0 0 0 0 -239342027.33978271 47958217.436904907 0 47958217.436904907 128693835.20737267 0 0 0 0 148373075.30760193 69020012.163639069 0 69020012.163639069 -5376007.9513835907 0 0 0 0 -1086718.1774637625 -1632775.8844900662 0 -1632775.8844900662 2140321.9620373547 0 0 0 0 -31658081.757415771 -49660176.878623962 0 -49660176.878623962 -20593903.911529541 0 0 0 0 -134127181.88447571 -82600506.313346863 0 -82600506.313346863 16327217.267044067 0 0 0 0 -123938554.43396378 -73181415.204454422 0 -73181415.204454422 23869791.92150116 0 0 0 0 -80060136.678920746 18408613.135637283 0 18408613.135637283 28024228.090019226 0 0 0 0 -145139640.34701538 -67038739.979785919 0 -67038739.979785919 26125492.370983124 0 0 0 0 14485737.484100342 -11091025.612516403 0 -11091025.612516403 10472336.065509796 0 0 0 0 4664042.6729946174 -5551985.2843764462 0 -5551985.2843764462 2105759.7608029023 0 0 0 0 19276018.486764908 -26367665.640661716 0 -26367665.640661716 20607315.063606262 0 0 0 0 24892094.535751343 -10705752.138217926 0 -10705752.138217926 -1415373.5186271667 0 0 0 0 27618333.313339233 -262630294.73475266 0 -262630294.73475266 61806960.350130081 0 0 0 0 -35364222.31451416 -59560245.729393959 0 -59560245.729393959 88451480.168628693 0 0 0 0 1443885.5845515728 -2530856.6500529516 0 -2530856.6500529516 688589.22075371724 0 0 0 0 169266268.30682373 43669757.052482605 0 43669757.052482605 -238318010.31100845 0 0 0 0 -145554164.81141102 -123880742.08070955 0 -123880742.08070955 -35639337.496559143 0 0 0 0 -240276168.4445343 -135848063.61754227 0 -135848063.61754227 -23345404.303146362 0 0 0 0 154811642.78492737 60550862.775337219 0 60550862.775337219 -74532973.879882812 0 0 0 0 -196492782.66993713 -17077820.775310516 0 -17077820.775310516 21933685.454730988 0 0 0 0 1847479.8048014641 -1724937.527027946 0 -1724937.527027946 97042.085815727711 0 0 0 0 218498446.44160461 -130696369.99210358 0 -130696369.99210358 -195547109.23460388 0 0 0 0 -192449816.03057861 -399545567.97681427 0 -399545567.97681427 -293462899.97505951 0 0 0 0 -410972313.45178223 131017248.54945374 0 131017248.54945374 -218318448.36440325 0 0 0 0 -125282977.91223145 -180816023.25544357 0 -180816023.25544357 -238995297.63853455 0 0 0 0 -1860041.3964353353 -1571574.501028277 0 -1571574.501028277 3768839.0171227306 0 0 0 0 45433593.642669678 -71015865.743320465 0 -71015865.743320465 -195832161.29242706 0 0 0 0 44866554.712173462 11527380.003744125 0 11527380.003744125 -76730236.712202072 0 0 0 0 -17225835.960357666 -4288179.3712205887 0 -4288179.3712205887 5729827.5790748596 0 0 0 0 -92429035.540363312 -75186863.512425423 0 -75186863.512425423 -31747541.525985718 0 0 0 0 -3663323.2113342285 8817016.4491653442 0 8817016.4491653442 -9547391.3460426331 0 0 0 0 -11886411.512893677 9716151.9285697937 0 9716151.9285697937 148067.31303024292 0 0 0 0 -8558567.7744903564 5039940.0254573822 0 5039940.0254573822 6400608.8626098633 0 0 0 0 -11309155.498565674 -12407248.50655365 0 -12407248.50655365 -13469743.037442684 0 0 0 0 -51962771.902450562 -54493312.224113464 0 -54493312.224113464 -6232898.4908676147 0 0 0 0 -93608389.91217804 -84769181.57453537 0 -84769181.57453537 30919581.937950134 0 0 0 0 -126348724.09589386 -93481199.718206406 0 -93481199.718206406 17528185.94317627 0 0 0 0 -95831091.255126953 -77141477.717483521 0 -77141477.717483521 7471784.0917022228 0 0 0 0 -89101624.424804688 -69308899.732784271 0 -69308899.732784271 13872615.260597229 0 0 0 0 -95532251.316390991 -54002494.965072632 0 -54002494.965072632 51685929.352600098 0 0 0 0 19477579.013549805 -67671000.072339296 0 -67671000.072339296 -22519184.334569931 0 0 0 0 -44336909.96307373 -62353733.537883759 0 -62353733.537883759 -17620722.692730904 0 0 0 0 -22066178.193050385 -122238688.18118429 0 -122238688.18118429 -69864922.875124931 0 0 0 0 -58665837.318283081 -69070504.528751731 0 -69070504.528751731 101104146.65265083 0 0 0 0 18446418.731079102 -79453723.576280355 0 -79453723.576280355 98103940.562181473 0 0 0 0 -42290726.769729614 -73597750.172958374 0 -73597750.172958374 226194566.97283781 0 0 0 0 -48725542.182617188 -28069206.965767384 0 -28069206.965767384 60183789.825966075 0 0 0 0 18516886.250843048 -208513702.6370452 0 -208513702.6370452 112003847.59897709 0 0 0 0 76734918.581512451 -55718374.019278646 0 -55718374.019278646 59680547.950660229 0 0 0 0 8967288.5182342529 -104351945.11967707 0 -104351945.11967707 -45287420.420450687 0 0 0 0 -57955364.598373413 -82382241.303670883 0 -82382241.303670883 -46460715.297375202 0 0 0 0 3839246.9417074621 -2658411.3620486483 0 -2658411.3620486483 1048239.8264162657 0 0 0 0 62291929.332763672 -45996577.751399517 0 -45996577.751399517 15286298.618015766 0 0 0 0 9658574.545715332 12144712.954237461 0 12144712.954237461 -22713.262216091156 0 0 0 0 118738623.40514755 -72737313.442011297 0 -72737313.442011297 -4715140.3025836945 0 0 0 0 91003213.10925293 -189042.95197868347 0 -189042.95197868347 -39248184.968132496 0 0 0 0 -1454021.672524251 -16763571.582225064 0 -16763571.582225064 -4085793.6379827661 0 0 0 0 5820295.8233947754 -20424997.306800842 0 -20424997.306800842 23146687.40306282 0 0 0 0 -17461569.995547876 -8367941.4411094077 0 -8367941.4411094077 11635222.440742107 0 0 0 0 -105614128.78914642 -195596181.27397591 0 -195596181.27397591 126823871.20825434 0 0 0 0 -5372524.7358252704 -14245161.35282959 0 -14245161.35282959 4490072.9068106487 0 0 0 0 -411025.55120849609 -11812284.544312477 0 -11812284.544312477 12512215.118971825 0 0 0 0 -282860.22686767578 -12240921.05007267 0 -12240921.05007267 10437289.040465355 0 0 0 0 -9571085.3823069632 -14567241.791390669 0 -14567241.791390669 7667957.4867243022 0 0 0 0 -428847.4468536377 -13095787.760996819 0 -13095787.760996819 11826892.21609354 0 0 0 0 -393160.24575805664 -13016305.12018013 0 -13016305.12018013 10893839.864373207 0 0 0 0 193908.525366202 -10095999.52643273 0 -10095999.52643273 5279026.5191290909 0 0 0 0 12217427.399196625 -23672518.944564104 0 -23672518.944564104 15595958.900966644 0 0 0 0 -3374631.3747558594 -11293302.506309509 0 -11293302.506309509 -368407.584815979 0 0 0 0 5419035.1263454705 -8431553.9872018173 0 -8431553.9872018173 2204665.5403039069 0 0 0 0 -49756794.095336914 20247370.910614014 0 20247370.910614014 371244602.48532677 0 0 0 0 87436964.677719116 -445533814.95620918 0 -445533814.95620918 -394361653.24875259 0 0 0 0 -550271425.40207672 351514275.49762535 0 351514275.49762535 199510112.26834106 0 0 0 0 333744326.42546082 190673216.06318665 0 190673216.06318665 -416634200.73968887 0 0 0 0 409389116.81518555 -12705959.984584808 0 -12705959.984584808 -107672960.86793137 0 0 0 0 290230.39111328125 -4764548.4504432678 0 -4764548.4504432678 1416760.3498821259 0 0 0 0 2348385.6278184503 -7390379.2130685225 0 -7390379.2130685225 4394642.5470157713 0 0 0 0 109456092.08721924 25221164.484336853 0 25221164.484336853 139073354.92852783 0 0 0 0 -60907.280292510986 -5750958.409255743 0 -5750958.409255743 2350584.2940292358 0 0 0 0 10617862.700483911 -6025633.4976222515 0 -6025633.4976222515 1232930.9161264002 0 0 0 0 -469067.05535888672 -6186171.4889373779 0 -6186171.4889373779 766232.95886230469 0 0 0 0 3025165.1983911395 -14329686.919988126 0 -14329686.919988126 6133309.1956722811 0 0 0 0 -1834133.3934806436 -11958451.302500965 0 -11958451.302500965 5305002.650367599 0 0 0 0 15552471.990908232 -9136335.6186535917 0 -9136335.6186535917 582386.96401386708 0 0 0 0 -893837.56764221191 -10860018.927405357 0 -10860018.927405357 -816466.834815979 0 0 0 0 -3112254.2928771973 -11051140.674024582 0 -11051140.674024582 -782853.00559806824 0 0 0 0 16990477.484216034 -15131750.82848957 0 -15131750.82848957 4189761.2746336171 0 0 0 0 -8446984.8473968506 -6566030.8649578094 0 -6566030.8649578094 150818.00106906891 0 0 0 0 3049547.5693899691 -7642636.5972448848 0 -7642636.5972448848 3889474.4912540875 0 0 0 0 10838953.129565284 -9332478.4227665756 0 -9332478.4227665756 2101058.9498869884 0 0 0 0 3283449.8699798584 -7385028.8869326115 0 -7385028.8869326115 1980228.441444397 0 0 0 0 -4970275.8285217285 -66356096.608106136 0 -66356096.608106136 -43932748.886034966 0 0 0 0 2683545.1178283691 -6838398.5957660675 0 -6838398.5957660675 928164.58345842361 0 0 0 0 -700408.63805440068 -4559068.0479655098 0 -4559068.0479655098 2385532.0684979325 0 0 0 0 4729215.5511779785 -5565777.0292196274 0 -5565777.0292196274 -131306.93868637085 0 0 0 0 1009869.952747494 -2733794.5267826673 0 -2733794.5267826673 572039.0793168766 0 0 0 0 11464540.916442871 -66402566.454902649 0 -66402566.454902649 -111909177.50514555 0 0 0 0 11433585.282165527 -102380896.70233631 0 -102380896.70233631 -280306813.09396744 0 0 0 0 -55096726.952819824 -491576860.60284805 0 -491576860.60284805 858320626.12976599 0 0 0 0 -63227642.66267395 -564645615.62144947 0 -564645615.62144947 670725477.37525177 0 0 0 0 2186033.2776870728 -325046983.19966984 0 -325046983.19966984 626152800.20774841 0 0 0 0 142870406.99667358 -303955145.88258743 0 -303955145.88258743 613008773.59226608 0 0 0 0 1007267.1221138835 -4256892.3493907517 0 -4256892.3493907517 1532929.8509412338 0 0 0 0 114020892.81257629 -410993088.91200256 0 -410993088.91200256 692202735.64796448 0 0 0 0 149463781.32598877 -383998562.29113197 0 -383998562.29113197 376171135.39016628 0 0 0 0 -259816636.06468201 -173033970.10151291 0 -173033970.10151291 520064483.82910919 0 0 0 0 -697807.38485349715 -134985.18693894893 0 -134985.18693894893 529498.73146240041 0 0 0 0 40593531.649520874 -293183604.98004341 0 -293183604.98004341 310997980.76796722 0 0 0 0 590129807.47665405 -519525058.94585419 0 -519525058.94585419 354397352.1204834 0 0 0 0 138109866.03704834 -733151818.80581188 0 -733151818.80581188 579735642.26314545 0 0 0 0 617594143.084198 -967196904.18898201 0 -967196904.18898201 644190458.5435605 0 0 0 0 220677749.8294487 -102838628.07816839 0 -102838628.07816839 371436565.42813683 0 0 0 0 70718303.088867188 -198613843.27196264 0 -198613843.27196264 312513402.54930401 0 0 0 0 169081764.34902191 2983018.5576877594 0 2983018.5576877594 -38551047.325696945 0 0 0 0 -3338111.1360124573 -5451913.5484812781 0 -5451913.5484812781 3989195.6344312006 0 0 0 0 338694707.20718384 -179957288.76055717 0 -179957288.76055717 45610777.583900452 0 0 0 0 -719803519.42256165 -570501579.40940094 0 -570501579.40940094 541326341.45341492 0 0 0 0 -13069037.055915833 -20951240.538719177 0 -20951240.538719177 5825881.027739048 0 0 0 0 161716.68721472472 -7178562.4069373775 0 -7178562.4069373775 1631449.8351235851 0 0 0 0 -7253669.9516601562 -26710914.20112133 0 -26710914.20112133 -10919553.86139679 0 0 0 0 -3318054.5065013021 -6405589.1701511219 0 -6405589.1701511219 6110804.5546622984 0 0 0 0 -2857964.2911829576 -5894060.2822588608 0 -5894060.2822588608 4769899.1241973601 0 0 0 0 -102716010.18697357 6108311.6808710098 0 6108311.6808710098 45362724.696285248 0 0 0 0 696387917.88776016 -808333848.7189312 0 -808333848.7189312 427775906.01396179 0 0 0 0 809067613.41307068 -739233796.02382755 0 -739233796.02382755 453892174.32104826 0 0 0 0 758265275.86868286 -436778701.82917213 0 -436778701.82917213 -249637610.95016384 0 0 0 0 803425412.0266571 -169118269.82180595 0 -169118269.82180595 322792650.66060066 0 0 0 0 659370925.22499084 -844453254.59355783 0 -844453254.59355783 730914035.9327774 0 0 0 0 -191791742.53529358 -975303375.85652447 0 -975303375.85652447 1002216153.2757187 0 0 0 0 448901.73914561793 -1266229.0143280551 0 -1266229.0143280551 1454856.3523855973 0 0 0 0 -1087323936.6381836 -605721379.95843506 0 -605721379.95843506 868913332.70953178 0 0 0 0 997613773.17743683 -919663904.85259295 0 -919663904.85259295 100507152.78055382 0 0 0 0 -11913771.668609619 -430278317.27540302 0 -430278317.27540302 -446116457.76254463 0 0 0 0 -661936087.91075134 59882846.857916832 0 59882846.857916832 166875006.70170116 0 0 0 0 -549015270.55809021 -388071853.95590782 0 -388071853.95590782 836658528.8670845 0 0 0 0 -159132484.27659416 -404492920.10089028 0 -404492920.10089028 560576587.60550308 0 0 0 0 62390744.980606079 -116167543.46984291 0 -116167543.46984291 115524144.7533474 0 0 0 0 87442979.078216553 -20274662.692308426 0 -20274662.692308426 5332611.9000511169 0 0 0 0 -729532.61896573007 -1124597.3812706834 0 -1124597.3812706834 1066834.3654365903 0 0 0 0 -3471621.1877734438 -627696.29742413759 0 -627696.29742413759 414681.04065007716 0 0 0 0 -3602279.5945587158 -1411722.8159332275 0 -1411722.8159332275 5200893.9803733826 0 0 0 0 -3082902.3827362061 -1539825.2255916595 0 -1539825.2255916595 3840283.473777771 0 0 0 0 -3762126.5180530548 -644149.95907020569 0 -644149.95907020569 4488348.5192489624 0 0 0 0 -3595394.2204971313 -194173.69800758362 0 -194173.69800758362 1778737.4118423462 0 0 0 0 -4432141.7409092486 598445.52828403283 0 598445.52828403283 1326932.2876214231 0 0 0 0 -3966336.3357086182 286789.6552696228 0 286789.6552696228 3317098.7511615753 0 0 0 0 -2225258.0121765137 -264812.31202316284 0 -264812.31202316284 3043837.8650588989 0 0 0 0 -4471449.5692329705 -25227.528384317644 0 -25227.528384317644 1601241.2034173156 0 0 0 0 -2219203.7228393555 -542909.22007751465 0 -542909.22007751465 4439506.3802108765 0 0 0 0 -1095874.4116668701 -2350743.5583877563 0 -2350743.5583877563 5850316.8900985718 0 0 0 0 -4384250.9844360352 697974.47686767578 0 697974.47686767578 6939619.8831176758 0 0 0 0 -128110.08724910766 8255.5421841405332 0 8255.5421841405332 41421.787626434118 0 0 0 0 -249884051.74746704 -5593704.1777076721 0 -5593704.1777076721 111980963.43546867 0 0 0 0 -1970249.5823783875 -3339792.475985527 0 -3339792.475985527 7175546.130657196 0 0 0 0 -2106374.0627288818 -2823351.5629205704 0 -2823351.5629205704 7175575.5839538574 0 0 0 0 -4098288.8892341554 121198.77715236694 0 121198.77715236694 743095.44792173058 0 0 0 0 -2158283.925487861 -4121183.4727582843 0 -4121183.4727582843 2009360.1914999308 0 0 0 0 -129310560.34332275 -126654901.90501404 0 -126654901.90501404 12281442.956283569 0 0 0 0 -44289477.923675537 -102904491.15594482 0 -102904491.15594482 -195478987.72337341 0 0 0 0 133128858.2339592 -93032666.496768951 0 -93032666.496768951 46674287.435840607 0 0 0 0 275188830.52880859 -396449855.89346313 0 -396449855.89346313 556684897.94527435 0 0 0 0 -10378.246018983424 -292034.31358930375 0 -292034.31358930375 110194.80478572566 0 0 0 0 -104428253.84744263 -167247463.75981903 0 -167247463.75981903 -157243432.23113441 0 0 0 0 147618830.20780182 170483745.90652657 0 170483745.90652657 562131610.39012909 0 0 0 0 -290592894.20385742 -97874148.189331055 0 -97874148.189331055 403167859.13417053 0 0 0 0 228779367.19906616 -48063742.210445404 0 -48063742.210445404 -505874891.28832436 0 0 0 0 51428795.495727539 -133486575.22543335 0 -133486575.22543335 309129531.11602783 0 0 0 0 -294831.14380970597 -1811617.8304185178 0 -1811617.8304185178 665397.52007620037 0 0 0 0 -1692337.6754980236 -1589463.1941433493 0 -1589463.1941433493 88991.685111950152 0 0 0 0 72829062.195526123 50133988.409366608 0 50133988.409366608 -228753758.22290802 0 0 0 0 395124535.54779434 702316909.10365772 0 702316909.10365772 -74460788.791564941 0 0 0 0 -443120258.83363342 -82525305.646808624 0 -82525305.646808624 88272126.673080444 0 0 0 0 -44070793.571456909 -87868614.91840744 0 -87868614.91840744 -75225223.718536377 0 0 0 0 -84817527.977363586 -28861270.31826973 0 -28861270.31826973 21542211.402421951 0 0 0 0 -165195404.81344604 -73109182.748209 0 -73109182.748209 60191535.385017395 0 0 0 0 -56634445.435272217 8480837.4101028442 0 8480837.4101028442 65636560.623069763 0 0 0 0 -76211412.952018738 -39931540.475790024 0 -39931540.475790024 88232557.674468994 0 0 0 0 -83972508.34866333 -16046914.659492493 0 -16046914.659492493 65820264.795704365 0 0 0 0 22292294.918121338 -125199146.4954834 0 -125199146.4954834 137207086.25653076 0 0 0 0 -30564062.846939087 -24018359.70208931 0 -24018359.70208931 75557644.066970825 0 0 0 0 -7561752.0613937378 -87305639.990490437 0 -87305639.990490437 104614970.49703217 0 0 0 0 -58863801.402282715 -24713920.520561218 0 -24713920.520561218 100321570.4283092 0 0 0 0 -47397175.015075684 -37776595.057950974 0 -37776595.057950974 65266869.573997498 0 0 0 0 -54342498.278663635 47276685.859294891 0 47276685.859294891 78518841.468255997 0 0 0 0 -57129403.282489777 3141993.3852338791 0 3141993.3852338791 -37892924.289791107 0 0 0 0 -104927898.29264832 -53981135.014941216 0 -53981135.014941216 -151796742.36413097 0 0 0 0 -11426444.734340668 -83201737.26662755 0 -83201737.26662755 -142741446.18153 0 0 0 0 -27710250.088102341 -94470233.177074671 0 -94470233.177074671 241476472.04875946 0 0 0 0 129913063.33349609 106576809.460289 0 106576809.460289 74472108.261592865 0 0 0 0 -23169264.946727753 -144266548.1982851 0 -144266548.1982851 -45108809.012130737 0 0 0 0 43089815.705965042 -199015511.83624935 0 -199015511.83624935 557780.1470375061 0 0 0 0 -99890414.797889709 38650268.980306625 0 38650268.980306625 332510892.50918198 0 0 0 0 -225475105.37348175 -451801891.16774368 0 -451801891.16774368 -419267922.69919443 0 0 0 0 -293805287.58631897 -311025377.71133041 0 -311025377.71133041 -242576413.74365807 0 0 0 0 -99995135.957259655 -255396383.76508641 0 -255396383.76508641 -438087010.16946793 0 0 0 0 -121733448.7713623 -71604310.536430359 0 -71604310.536430359 -93026395.317523956 0 0 0 0 -13455138.398239136 -102245.74569702148 0 -102245.74569702148 12313052.271828651 0 0 0 0 -11537136.405426025 -9565146.2799720764 0 -9565146.2799720764 9029925.4065895081 0 0 0 0 -1391047.8823394775 5031427.0396575928 0 5031427.0396575928 8100658.2524013519 0 0 0 0 -351708062.72343445 -136462351.02056503 0 -136462351.02056503 -371175532.33440399 0 0 0 0 -2635670.1306842193 -1323966.7354315333 0 -1323966.7354315333 2517749.9282668978 0 0 0 0 -476395378.08654785 -378419540.54463959 0 -378419540.54463959 -295968068.98350525 0 0 0 0 -231665058.2008667 -281374606.15697098 0 -281374606.15697098 -360826196.13572693 0 0 0 0 -418520568.41873169 -431683219.69789886 0 -431683219.69789886 -481526237.96257782 0 0 0 0 -172110.1742131263 -99765.095009675249 0 -99765.095009675249 146486.53777236724 0 0 0 0 -578698024.68310928 -4025344.8112277985 0 -4025344.8112277985 -434092919.11824036 0 0 0 0 91633271.114425659 -143506462.65411377 0 -143506462.65411377 -48588861.550134659 0 0 0 0 -276472560.6257019 -576944611.19717407 0 -576944611.19717407 -112985249.08802032 0 0 0 0 -236470531.41712952 -68847473.081523895 0 -68847473.081523895 -61401244.128116608 0 0 0 0 -392397742.14173508 -401213830.33016014 0 -401213830.33016014 -169142904.26003265 0 0 0 0 -33659613.316711426 -39997674.192562103 0 -39997674.192562103 -68284151.482032776 0 0 0 0 -43053813.84462738 -53609262.952888489 0 -53609262.952888489 -77342101.54593277 0 0 0 0 -31927361.376609802 -50200223.655849457 0 -50200223.655849457 -83532417.701972961 0 0 0 0 -41780690.860168457 -49629947.950424194 0 -49629947.950424194 -71177164.709861755 0 0 0 0 -20647476.681922913 -15807159.043624878 0 -15807159.043624878 -118000.32797050476 0 0 0 0 -5532979.2554073334 -10978063.126196861 0 -10978063.126196861 -5068653.3719825745 0 0 0 0 -5134612.3550720215 -2968159.9192810059 0 -2968159.9192810059 -2829484.049823761 0 0 0 0 -9168116.3130340576 -2822308.9850540161 0 -2822308.9850540161 8431109.3200492859 0 0 0 0 24987000.915817261 -28601640.974254608 0 -28601640.974254608 18680139.388174057 0 0 0 0 -7967174.9991760254 -1066596.4866390228 0 -1066596.4866390228 3220294.2863960266 0 0 0 0 -2923783.6186460778 -2640722.9616604131 0 -2640722.9616604131 2009575.004741678 0 0 0 0 -5560657.7389678955 -6758710.3838157654 0 -6758710.3838157654 3878362.7262115479 0 0 0 0 -471166.96680041775 -163846.61533472687 0 -163846.61533472687 190121.95872636139 0 0 0 0 2548985.833167389 -2479027.7398862913 0 -2479027.7398862913 550041.71613427997 0 0 0 0 -9447541.0312156677 -9338036.1645741463 0 -9338036.1645741463 -390758.89096069336 0 0 0 0 -21812506.839080811 -40180093.308708191 0 -40180093.308708191 -70701413.829986572 0 0 0 0 -4260967.951627031 -3085610.8844170468 0 -3085610.8844170468 2251441.5010423246 0 0 0 0 -85305402.842559814 2650866.0804443359 0 2650866.0804443359 179149229.91885376 0 0 0 0 -78909878.725692749 -92672700.553871155 0 -92672700.553871155 95513676.015853882 0 0 0 0 -127061339.39859009 -110386268.21389771 0 -110386268.21389771 126457083.97560883 0 0 0 0 -113797600.04718018 -105691095.46458435 0 -105691095.46458435 293129634.75358582 0 0 0 0 -107302800.23843384 25109188.229469299 0 25109188.229469299 159202144.41448975 0 0 0 0 -68516865.430389404 -171546671.50380516 0 -171546671.50380516 -106405445.72119141 0 0 0 0 -140886195.46687317 -167542378.49131966 0 -167542378.49131966 -8709350.6198806763 0 0 0 0 -125099515.35850525 -136140543.49350357 0 -136140543.49350357 -86460319.636535645 0 0 0 0 41961101.629714966 -50956811.833580017 0 -50956811.833580017 -44672067.406730652 0 0 0 0 -235644086.14097595 -266386760.52587509 0 -266386760.52587509 -212987148.14767456 0 0 0 0 -217977788.4168396 -283455004.30989456 0 -283455004.30989456 -208272596.20561218 0 0 0 0 -119435130.91625977 -224058471.64375687 0 -224058471.64375687 -176667838.08261108 0 0 0 0 -182839196.7565918 -202576122.57920074 0 -202576122.57920074 -183870916.89328766 0 0 0 0 -120719483.52909088 -159911163.26457787 0 -159911163.26457787 -364642607.10811615 0 0 0 0 -124095821.1374054 -249386391.07008743 0 -249386391.07008743 -202294355.73205185 0 0 0 0 -318839477.32987976 -413770723.19580841 0 -413770723.19580841 -256223993.41873169 0 0 0 0 -62825649.569610596 -427217550.06162071 0 -427217550.06162071 -549545820.11763477 0 0 0 0 -130655919.43025208 -193983430.99581528 0 -193983430.99581528 -82461083.037189484 0 0 0 0 -55926642.254989624 -250716537.94193268 0 -250716537.94193268 -298119436.36051941 0 0 0 0 -68664909.850708008 -384692197.11460876 0 -384692197.11460876 -325359091.32481384 0 0 0 0 -186607500.20037842 -410130193.67035675 0 -410130193.67035675 -153530440.91690969 0 0 0 0 -83748797.816158295 -207545091.34651184 0 -207545091.34651184 -128769792.01091003 0 0 0 0 -71193086.84487915 -272263344.71225357 0 -272263344.71225357 -39192387.261081696 0 0 0 0 -717355.91755741648 557140.23681262508 0 557140.23681262508 42164.653956372291 0 0 0 0 77999933.858856201 -153897858.36629105 0 -153897858.36629105 39677449.235107422 0 0 0 0 -3238242.6274785995 -456530.27704954147 0 -456530.27704954147 2120951.4211120605 0 0 0 0 -5133505.3417371139 -1587847.0589470523 0 -1587847.0589470523 2468179.5914552137 0 0 0 0 -241658.70872912556 344032.46829247475 0 344032.46829247475 168982.69233846292 0 0 0 0 99547580.691421509 1682627.3463096619 0 1682627.3463096619 3688726.594329834 0 0 0 0 -89565214.783607483 -131245367.03218269 0 -131245367.03218269 211773240.22484589 0 0 0 0 -280943953.3936882 -254975196.33622599 0 -254975196.33622599 -177836340.70513916 0 0 0 0 -395450059.52511597 -172678651.60527802 0 -172678651.60527802 -72072421.41624248 0 0 0 0 -253706232.65136719 -203204224.37571335 0 -203204224.37571335 -102717113.23085022 0 0 0 0 -395437302.82880402 -302027414.70960331 0 -302027414.70960331 -161507294.90238953 0 0 0 0 -259946165.2743187 -133778697.49723721 0 -133778697.49723721 -72855885.964588165 0 0 0 0 -3126930.4140685424 -359488.46711908933 0 -359488.46711908933 1652221.9348778259 0 0 0 0 94947.234008789062 -1053075.1552505493 0 -1053075.1552505493 -510037.65316009521 0 0 0 0 -2205227.3847351074 1902843.7301292419 0 1902843.7301292419 6077614.8619270325 0 0 0 0 1737888.8187561035 1090188.8813858032 0 1090188.8813858032 -775315.72382545471 0 0 0 0 -4540344.7154692542 996032.66281567514 0 996032.66281567514 1259481.2469388619 0 0 0 0 -4147950.4973373413 -96282.969076156616 0 -96282.969076156616 2951600.6174201965 0 0 0 0 -4044133.3241043091 -471020.74415588379 0 -471020.74415588379 3970514.6672363281 0 0 0 0 1314434.6446685791 2987595.284286499 0 2987595.284286499 -2737028.629360199 0 0 0 0 -15492879.695426941 31987.817893028259 0 31987.817893028259 13307538.016647339 0 0 0 0 -1719642.4711084589 593634.98287565261 0 593634.98287565261 -15840.915228329599 0 0 0 0 -507521.83718847204 253706.52463316545 0 253706.52463316545 -22713.649206347764 0 0 0 0 4862155.2240524292 -22390016.579463959 0 -22390016.579463959 30877523.80431366 0 0 0 0 21332019.543701172 -27273199.681667328 0 -27273199.681667328 11618474.739204407 0 0 0 0 18849285.148391724 -11986097.234329224 0 -11986097.234329224 1655274.074886322 0 0 0 0 -4768585.6613922119 -43983569.916648865 0 -43983569.916648865 42313016.280532837 0 0 0 0 13995706.898799896 -37941333.813677788 0 -37941333.813677788 41282074.364486694 0 0 0 0 5779810.4155426025 -18865828.711128235 0 -18865828.711128235 26922971.597740173 0 0 0 0 12139446.767028809 -31933428.933692932 0 -31933428.933692932 50845978.917030334 0 0 0 0 -3791592.6822442338 -1359472.9903269913 0 -1359472.9903269913 1374323.0937561244 0 0 0 0 1694718.6580429077 -1386980.8326759338 0 -1386980.8326759338 19099105.867832184 0 0 0 0 9549213.5956268311 -10175738.425922394 0 -10175738.425922394 10739626.997344971 0 0 0 0 -1376793.2138061523 3772829.0233345032 0 3772829.0233345032 6562392.0559911728 0 0 0 0 4429019.3136291504 4202680.1231842041 0 4202680.1231842041 1173250.4795303345 0 0 0 0 -2537622.6590511352 -1073705.7279465264 0 -1073705.7279465264 818780.8996292185 0 0 0 0 -3690833.7890014648 -8222834.0005664825 0 -8222834.0005664825 13676056.421211243 0 0 0 0 -13425212.015060425 11327428.858261108 0 11327428.858261108 17834314.184501648 0 0 0 0 -5616758.0679016113 2363711.9595336914 0 2363711.9595336914 -4871106.3098602295 0 0 0 0 2136823.8741455078 -40757879.688713074 0 -40757879.688713074 139263655.05125618 0 0 0 0 -1452062.6482950151 -533383.17601365969 0 -533383.17601365969 922856.00362140313 0 0 0 0 -22193848.13885498 41984068.193450928 0 41984068.193450928 -16756755.499504089 0 0 0 0 12609761.989212036 -77208856.537563324 0 -77208856.537563324 110480250.03867435 0 0 0 0 -10543373.890762329 -42581709.148084641 0 -42581709.148084641 164788562.21537018 0 0 0 0 109168287.58660889 233344.89935684204 0 233344.89935684204 145591111.87507248 0 0 0 0 31525610.016288757 -58757625.256141663 0 -58757625.256141663 97913382.379234314 0 0 0 0 -2220517.8623962402 -36521592.239715576 0 -36521592.239715576 135718745.35825348 0 0 0 0 -6867489.8711929321 -15362867.133206367 0 -15362867.133206367 77730779.309516907 0 0 0 0 1671527.1456756592 -64632089.113452911 0 -64632089.113452911 106837018.95309448 0 0 0 0 21683768.425575256 -83497459.359945297 0 -83497459.359945297 43068838.420436859 0 0 0 0 11243399.279411316 -85897594.64112854 0 -85897594.64112854 72885111.520816803 0 0 0 0 49413523.205329895 -94126069.947216034 0 -94126069.947216034 42282748.920246124 0 0 0 0 -4545205.2571487427 -111273601.32352638 0 -111273601.32352638 64156216.404895782 0 0 0 0 -10140478.431612015 -66767845.654374123 0 -66767845.654374123 44444642.886238098 0 0 0 0 -17115551.872436523 -75141497.566911697 0 -75141497.566911697 34558975.183586121 0 0 0 0 9160397.624294281 -108912381.12868786 0 -108912381.12868786 85669007.984413147 0 0 0 0 85704396.06464386 -152210839.63220215 0 -152210839.63220215 111875804.78833389 0 0 0 0 -9999014.4753341675 69678412.491979599 0 69678412.491979599 152360845.62876606 0 0 0 0 150611321.24403381 -27041886.897306442 0 -27041886.897306442 -23524961.901069641 0 0 0 0 160469236.82905388 -92198325.502704382 0 -92198325.502704382 5643771.8620834351 0 0 0 0 -459775.14603732899 -80104.894788362086 0 -80104.894788362086 1087235.9334108308 0 0 0 0 -13382647.488311768 54011987.243106842 0 54011987.243106842 -17479635.649364233 0 0 0 0 52117839.96641922 -6833579.1965808868 0 -6833579.1965808868 35982387.699363708 0 0 0 0 37799421.631435394 -40629930.050737381 0 -40629930.050737381 22886579.159690857 0 0 0 0 33252197.41153717 -42829076.307849884 0 -42829076.307849884 32767370.576553345 0 0 0 0 33480316.060455322 -69989251.313398361 0 -69989251.313398361 58478413.517370224 0 0 0 0 -104705326.22376251 -78440375.488588333 0 -78440375.488588333 32670531.564588547 0 0 0 0 -85535919.712604523 -122384440.64562273 0 -122384440.64562273 -40200655.477825165 0 0 0 0 -212786403.65726471 -96593429.981279373 0 -96593429.981279373 56346056.483345032 0 0 0 0 49659530.504737854 -43272406.900436401 0 -43272406.900436401 -6000612.9879703522 0 0 0 0 43748590.164611816 -84544130.249145508 0 -84544130.249145508 39983400.579174042 0 0 0 0 -99115760.657714844 -70071082.357757568 0 -70071082.357757568 40549194.221141815 0 0 0 0 211828856.12744141 -131271812.12955666 0 -131271812.12955666 -15697394.564598083 0 0 0 0 147151145.96422195 36112859.029932976 0 36112859.029932976 -138868.20757293701 0 0 0 0 -283313594.75229645 -132711358.93929577 0 -132711358.93929577 68507435.060394287 0 0 0 0 -116711588.98786163 -30325340.159050465 0 -30325340.159050465 63392294.169876099 0 0 0 0 -225294152.71539307 -62061230.765731812 0 -62061230.765731812 -21421436.220031738 0 0 0 0 -6565412.4677875675 -2125540.1664163284 0 -2125540.1664163284 -802003.51466188207 0 0 0 0 -168762047.11357498 -110731181.69489574 0 -110731181.69489574 2644533.2513618469 0 0 0 0 -132902927.90141106 -27737752.331493378 0 -27737752.331493378 26472742.512214661 0 0 0 0 -53914270.85067749 -9444350.6965026855 0 -9444350.6965026855 -18260813.659261703 0 0 0 0 -1970784.5800194461 -486172.50976608321 0 -486172.50976608321 -99961.657191060483 0 0 0 0 -23147136.201251984 -58461225.978359699 0 -58461225.978359699 148505845.83252716 0 0 0 0 -34952100.621826172 -104495331.74867439 0 -104495331.74867439 35091969.419983864 0 0 0 0 -262845607.27746582 -28166248.172628403 0 -28166248.172628403 107731609.67048645 0 0 0 0 -280230786.46144676 -236851269.6461935 0 -236851269.6461935 -109592323.41372681 0 0 0 0 -324070227.58698654 -147879735.96632195 0 -147879735.96632195 247807671.4759903 0 0 0 0 -219862738.64454651 -20366988.852203369 0 -20366988.852203369 364260291.21315765 0 0 0 0 -110324767.47462463 78521111.152702332 0 78521111.152702332 386322000.49664879 0 0 0 0 38584385.782745361 -31562842.403785706 0 -31562842.403785706 150246013.63982153 0 0 0 0 -99143286.275695801 -382361147.67539978 0 -382361147.67539978 -733262675.66306305 0 0 0 0 -1004026.2769771069 -564402.62045258749 0 -564402.62045258749 312501.73362557497 0 0 0 0 -224035542.73977661 -345857839.10796356 0 -345857839.10796356 -696938474.21814728 0 0 0 0 -165606591.4112587 -252959508.47097492 0 -252959508.47097492 -326505382.73061371 0 0 0 0 -135264149.69152832 -254577120.43218231 0 -254577120.43218231 -717158937.75354958 0 0 0 0 -315057940.92758179 -126668817.65467453 0 -126668817.65467453 -384602320.88844299 0 0 0 0 -399201948.96941757 -276657335.46226025 0 -276657335.46226025 -190281915.53440094 0 0 0 0 -148488175.72103119 20054502.887798309 0 20054502.887798309 -129778022.37443542 0 0 0 0 -178248570.09202576 -449397463.0187912 0 -449397463.0187912 -612063171.62783051 0 0 0 0 -59477769.49407196 -78558614.262283325 0 -78558614.262283325 -38003237.224105835 0 0 0 0 60680495.184066772 -1106038.6178512573 0 -1106038.6178512573 -122330576.65501976 0 0 0 0 -39068272.786941528 -78996738.66683197 0 -78996738.66683197 -258046517.21902466 0 0 0 0 -43129401.314043999 -70324737.889355659 0 -70324737.889355659 -81554395.980537415 0 0 0 0 51562152.968032837 -44197306.44393158 0 -44197306.44393158 -101826488.38475609 0 0 0 0 60216255.141807556 -63374019.439428329 0 -63374019.439428329 -64738781.106483459 0 0 0 0 75642537.217803955 -39087631.117679596 0 -39087631.117679596 -33492112.283489227 0 0 0 0 92106003.799362183 -12928714.77702713 0 -12928714.77702713 -86595671.003335953 0 0 0 0 97962856.915584564 -19027995.155906677 0 -19027995.155906677 -29896975.251174927 0 0 0 0 48660545.319564819 -4760159.3682155609 0 -4760159.3682155609 -32488660.315719604 0 0 0 0 93147136.77986145 68442071.926561356 0 68442071.926561356 26253575.828930855 0 0 0 0 57347904.904998779 4755687.3626804352 0 4755687.3626804352 220708455.58661652 0 0 0 0 -69700721.873031616 -96258763.773986816 0 -96258763.773986816 265214359.83763123 0 0 0 0 111224805.64704132 -22297042.48956871 0 -22297042.48956871 -26010091.883028507 0 0 0 0 32368.502518408 -782900.20906042587 0 -782900.20906042587 217519.98874033708 0 0 0 0 -6127600.7436676025 -49810559.302268982 0 -49810559.302268982 -101381554.5034008 0 0 0 0 30899239.790719986 -86593744.503013372 0 -86593744.503013372 -72044082.254348755 0 0 0 0 18734610.936203003 -146909074.95141602 0 -146909074.95141602 44857161.423221588 0 0 0 0 -9460235.0999145508 -92459201.86743927 0 -92459201.86743927 84331464.776557922 0 0 0 0 -4529648.3608703613 -44688258.701820374 0 -44688258.701820374 36817270.972126007 0 0 0 0 -38924854.14655304 -66102022.949390411 0 -66102022.949390411 238489536.47549057 0 0 0 0 -119937457.84819031 -120324215.08970642 0 -120324215.08970642 87349150.744674683 0 0 0 0 -9953796.8699493408 -208692622.44700241 0 -208692622.44700241 -101443771.52102661 0 0 0 0 -206478953.65917969 -291733870.42887115 0 -291733870.42887115 -197124417.168293 0 0 0 0 -218971389.16240311 -174820359.42886066 0 -174820359.42886066 -99361872.046417236 0 0 0 0 -90086783.282867432 -148009598.64046478 0 -148009598.64046478 -338515500.70647383 0 0 0 0 -143935536.58999634 -157353406.41396332 0 -157353406.41396332 109062717.3010025 0 0 0 0 -75307395.987625122 32889650.194545746 0 32889650.194545746 114213795.24398804 0 0 0 0 -195494550.90509796 -183794082.0124321 0 -183794082.0124321 -8681344.1850738525 0 0 0 0 -12254239.133255005 4629107.110080719 0 4629107.110080719 -114228774.21783257 0 0 0 0 -34523978.970703125 159940077.41544342 0 159940077.41544342 493725332.18434906 0 0 0 0 -49560902.899497509 -90463538.850370169 0 -90463538.850370169 236629015.48997498 0 0 0 0 233512.41376822442 -2552674.3134166347 0 -2552674.3134166347 591762.32839002367 0 0 0 0 -2614355.7027893066 -11107842.395606995 0 -11107842.395606995 460442318.15280652 0 0 0 0 -100958112.1494751 45530382.111671448 0 45530382.111671448 462258072.22037125 0 0 0 0 -31477954.102233887 -32039044.081321716 0 -32039044.081321716 -28445755.099575043 0 0 0 0 166480268.79742432 -71149428.263832092 0 -71149428.263832092 194843945.0315094 0 0 0 0 26899953.474975586 23920924.88835144 0 23920924.88835144 179570722.0344696 0 0 0 0 -60029.013014975935 -136447.00205180421 0 -136447.00205180421 7614.4507210236043 0 0 0 0 130032553.34077454 223321631.3398056 0 223321631.3398056 509409290.75735474 0 0 0 0 16705209.34777832 -62444615.247756958 0 -62444615.247756958 156567858.81436157 0 0 0 0 -6006552.0028991699 -159084111.8502655 0 -159084111.8502655 454317271.96666145 0 0 0 0 -57355964.861114502 -5503259.7165679932 0 -5503259.7165679932 181558337.21934128 0 0 0 0 48885324.196136475 -226776737.37806702 0 -226776737.37806702 153502265.92886353 0 0 0 0 -23631829.72401619 -49571985.953968525 0 -49571985.953968525 -51166453.510612488 0 0 0 0 -15420861.575180054 -42471011.472946167 0 -42471011.472946167 -80641913.076843262 0 0 0 0 -24744367.374908447 -48180136.575141907 0 -48180136.575141907 -76436556.306035995 0 0 0 0 -12628141.755523682 -52969046.026565552 0 -52969046.026565552 -106159047.65067673 0 0 0 0 -19909406.168655396 -27163323.085571289 0 -27163323.085571289 -45490678.615097046 0 0 0 0 -4327741.2641487122 -40678773.848818779 0 -40678773.848818779 -82437467.284294128 0 0 0 0 -29777409.987976074 -46787989.586015701 0 -46787989.586015701 -77160296.315513611 0 0 0 0 -42511993.876586914 -75390282.282527924 0 -75390282.282527924 -79541099.209377289 0 0 0 0 -34772493.943855286 -73354585.491592407 0 -73354585.491592407 -98381543.329444885 0 0 0 0 -27215494.391136169 -62350047.429136276 0 -62350047.429136276 -84076385.253089905 0 0 0 0 -36339382.356765747 -55996910.822784424 0 -55996910.822784424 -81946984.633058548 0 0 0 0 -20903661.411888123 -50822965.02388382 0 -50822965.02388382 -85952085.878868103 0 0 0 0 20999510.743286133 -84902658.057025909 0 -84902658.057025909 -161711684.64283752 0 0 0 0 17583003.752349854 -63304339.765670776 0 -63304339.765670776 -169388341.8598175 0 0 0 0 15634274.698913574 -31843671.581588745 0 -31843671.581588745 -150001391.79055023 0 0 0 0 -23865957.835830688 -55187032.60074234 0 -55187032.60074234 -48962000.484268188 0 0 0 0 -13058811.825073242 -100470631.32215118 0 -100470631.32215118 -2095694.2830886841 0 0 0 0 29478819.805038452 -78398329.317138672 0 -78398329.317138672 -87144663.065307617 0 0 0 0 12617357.890266418 -46074712.527067184 0 -46074712.527067184 -50157939.557388306 0 0 0 0 -35540637.034790039 -31713807.358291626 0 -31713807.358291626 -77998035.346349716 0 0 0 0 -14523254.770866394 -47221159.04846859 0 -47221159.04846859 -146591196.90067291 0 0 0 0 652523.73223876953 -96582929.452987671 0 -96582929.452987671 -128889005.16545868 0 0 0 0 4085915.2139683943 -1947590.9961675089 0 -1947590.9961675089 -2709270.4395552538 0 0 0 0 -108648911.29274631 -137678670.01748896 0 -137678670.01748896 -56741390.035125732 0 0 0 0 -68959155.311431885 -115179324.96582985 0 -115179324.96582985 -128197701.00997066 0 0 0 0 10526739.896370634 -16746993.03315879 0 -16746993.03315879 12650027.023549005 0 0 0 0 38379975.483261108 2694485.6096763611 0 2694485.6096763611 -64815466.11825943 0 0 0 0 13043336.09903717 -199228959.51924133 0 -199228959.51924133 -195533068.84758282 0 0 0 0 -94785807.083058357 -230671586.056633 0 -230671586.056633 -199190386.32280731 0 0 0 0 13304473.156251356 -18918386.062643889 0 -18918386.062643889 11044223.878905831 0 0 0 0 -27970867.099266052 -146797910.59679413 0 -146797910.59679413 -273123892.36050415 0 0 0 0 -106572125.32537961 -156395292.96842957 0 -156395292.96842957 -64816868.388259888 0 0 0 0 17064363.458236694 -63970681.221138 0 -63970681.221138 -213225867.4755497 0 0 0 0 10052541.397899628 -214878092.98805618 0 -214878092.98805618 -37937758.426036835 0 0 0 0 -115887959.63880968 -170549464.4551537 0 -170549464.4551537 -1923699.1622543335 0 0 0 0 -101521166.12228966 -82859035.787931442 0 -82859035.787931442 -64719325.047561646 0 0 0 0 -130167564.2256546 -125352090.60997772 0 -125352090.60997772 -46174814.148265839 0 0 0 0 -126713744.30990219 -114363977.21331406 0 -114363977.21331406 -67882238.001091003 0 0 0 0 -163396619.51139355 -169481295.13895321 0 -169481295.13895321 -111573876.39057922 0 0 0 0 -182162710.89058781 -99913545.182591438 0 -99913545.182591438 -30370488.580780029 0 0 0 0 -95421580.813159943 -72733580.999466896 0 -72733580.999466896 -65164283.863872528 0 0 0 0 -78830364.024829865 -109469803.50370407 0 -109469803.50370407 -252908222.97637939 0 0 0 0 -37033988.744472504 -50527462.99202919 0 -50527462.99202919 -95194161.994773865 0 0 0 0 -46317815.109924316 -57806897.834609985 0 -57806897.834609985 -85156196.991993904 0 0 0 0 -70365087.105377197 66699267.794883728 0 66699267.794883728 -91116019.751483917 0 0 0 0 7212163.7532386128 -9303781.1838563886 0 -9303781.1838563886 11472707.551113807 0 0 0 0 -42297173.383934021 -64417402.696649551 0 -64417402.696649551 -75466084.583795547 0 0 0 0 -2647318.581537202 -4233827.8398349639 0 -4233827.8398349639 5885839.3553964887 0 0 0 0 -243858588.22307587 -207197376.78900909 0 -207197376.78900909 -122002293.15932083 0 0 0 0 323186149.54143524 -5044124.3765182495 0 -5044124.3765182495 -341503083.22162247 0 0 0 0 1055377895.7548218 -98238337.520778656 0 -98238337.520778656 -330861414.11954021 0 0 0 0 -230171691.51805115 -52938151.774599075 0 -52938151.774599075 -258121588.83805847 0 0 0 0 481611264.91933441 -378685580.90343571 0 -378685580.90343571 -184681264.81581116 0 0 0 0 1524657482.5893307 815454595.2953248 0 815454595.2953248 -632568600.77922821 0 0 0 0 -515641395.06092834 -88812797.970632553 0 -88812797.970632553 162094342.67503357 0 0 0 0 -466000323.09785461 -191532669.28905869 0 -191532669.28905869 289906259.55021048 0 0 0 0 426990219.37470245 -695367868.96413803 0 -695367868.96413803 231440477.91994476 0 0 0 0 3794833.4338065125 -6005559.5241107121 0 -6005559.5241107121 11033639.521713704 0 0 0 0 471871783.58410645 -677415371.63097763 0 -677415371.63097763 1283156296.7340927 0 0 0 0 -236378597.59920502 -204199216.98676872 0 -204199216.98676872 -174367218.68904877 0 0 0 0 -255826056.14733124 -218244799.38869095 0 -218244799.38869095 -156873925.67472458 0 0 0 0 -308562608.0206604 -322647568.79939461 0 -322647568.79939461 -288413498.92027283 0 0 0 0 -220850401.93535042 -436320424.47514439 0 -436320424.47514439 -432607346.72512817 0 0 0 0 -455233703.30349731 -487380904.40453339 0 -487380904.40453339 -379277111.71440125 0 0 0 0 -611284722.94154358 -416400629.34061813 0 -416400629.34061813 -197807859.15964508 0 0 0 0 -523950967.98696899 -367194691.25707245 0 -367194691.25707245 -218768021.69659805 0 0 0 0 1601239293.7904739 495143727.84612846 0 495143727.84612846 -37430599.039680481 0 0 0 0 476444.11699494161 -1017445.0653742142 0 -1017445.0653742142 2461617.6383981518 0 0 0 0 2150094.4402919021 -3556019.3601633776 0 -3556019.3601633776 7334499.8925935179 0 0 0 0 -618234814.94241667 -484793679.87746477 0 -484793679.87746477 -328048759.68629456 0 0 0 0 14911323.134493828 -296437078.92870426 0 -296437078.92870426 -605656101.16448975 0 0 0 0 -10831448.432750702 -228983265.37188339 0 -228983265.37188339 -398516154.84698105 0 0 0 0 -121100389.11060333 -252844466.43400955 0 -252844466.43400955 -335610933.26012611 0 0 0 0 -107339826.87494278 -217789365.22054291 0 -217789365.22054291 -259014300.54704285 0 0 0 0 -243528891.90739703 -337036654.18311405 0 -337036654.18311405 -343346826.94128418 0 0 0 0 37225307.087356567 -379812695.23031044 0 -379812695.23031044 -515210845.44215012 0 0 0 0 -73907762.887741566 -339779343.13806486 0 -339779343.13806486 -529472550.71596527 0 0 0 0 -77837361.711151123 -336975914.81934357 0 -336975914.81934357 -367614384.69575882 0 0 0 0 12466892.396474838 -326576460.25762367 0 -326576460.25762367 -627635069.13310242 0 0 0 0 155055803.0725193 -473190789.36143684 0 -473190789.36143684 -568914375.35525894 0 0 0 0 182441992.20575333 -533291196.19289064 0 -533291196.19289064 -211778514.96001434 0 0 0 0 40900309.59438324 -419687260.4962635 0 -419687260.4962635 -301399507.36450958 0 0 0 0 76032921.957519531 -484563273.52312088 0 -484563273.52312088 -464704419.2432394 0 0 0 0 -141340031.3705616 -627133060.66570568 0 -627133060.66570568 -232233991.865242 0 0 0 0 -77173280.42940712 -485720664.50034332 0 -485720664.50034332 -459522065.13855362 0 0 0 0 -167371150.09185791 -404755277.14884949 0 -404755277.14884949 -448093171.47755051 0 0 0 0 -269498684.58745956 -533371230.03806686 0 -533371230.03806686 -455405177.22323608 0 0 0 0 -475928388.42642975 -441627488.48687363 0 -441627488.48687363 -368141629.18253517 0 0 0 0 -452948023.8145752 -480578903.2389679 0 -480578903.2389679 -376206034.30644226 0 0 0 0 -511166050.02251816 -518991876.2168293 0 -518991876.2168293 -439745338.06355286 0 0 0 0 -615057617.34777832 -385079012.1446228 0 -385079012.1446228 -458339882.11549377 0 0 0 0 -804321157.47012329 -294907570.9154892 0 -294907570.9154892 -432947010.89277649 0 0 0 0 -749010645.23171997 -457487294.23999023 0 -457487294.23999023 -373890841.94730759 0 0 0 0 -453604111.57406616 -530916391.47065353 0 -530916391.47065353 -427676539.18608093 0 0 0 0 -1287261797.2400208 -492533051.8309021 0 -492533051.8309021 -176764526.44109344 0 0 0 0 -1269773530.9294901 -964916333.03793311 0 -964916333.03793311 -88112173.22063446 0 0 0 0 -770950915.96122742 -692367666.5131073 0 -692367666.5131073 -185973080.53347778 0 0 0 0 -789274501.79437828 -558848552.27203369 0 -558848552.27203369 -256697083.90286255 0 0 0 0 -469226141.10417175 -612528711.39987183 0 -612528711.39987183 -268416447.01152802 0 0 0 0 -728630899.68736267 -722629214.49608994 0 -722629214.49608994 -239167773.69152069 0 0 0 0 -700548413.08444214 -744450988.04344177 0 -744450988.04344177 -188771359.8925705 0 0 0 0 -410795754.94967651 -695347827.11227417 0 -695347827.11227417 -197064033.44617367 0 0 0 0 -778891342.56010449 -1092761508.3211756 0 -1092761508.3211756 -216753326.35243225 0 0 0 0 -288343420.69717407 -509280796.03903866 0 -509280796.03903866 -87476811.538959503 0 0 0 0 -212651280.88803101 -507889048.23607254 0 -507889048.23607254 -395609727.84186172 0 0 0 0 -504395364.2234993 -578470318.59095955 0 -578470318.59095955 -210854704.3353653 0 0 0 0 -238054823.9694519 -548642235.50292206 0 -548642235.50292206 -238780989.3880043 0 0 0 0 -315304742.34320068 -527792055.94340706 0 -527792055.94340706 -30835070.184358597 0 0 0 0 -40001043.24656868 -415765389.84418774 0 -415765389.84418774 -133436734.20988846 0 0 0 0 -252589920.76365662 -516708729.91482544 0 -516708729.91482544 -175170130.79407835 0 0 0 0 -254421556.97416639 -540345002.35771775 0 -540345002.35771775 -476815712.55743408 0 0 0 0 -499803410.38454056 -876745569.46179485 0 -876745569.46179485 -372452107.52037811 0 0 0 0 -457143505.77957916 -674282729.43379021 0 -674282729.43379021 -163977258.27846527 0 0 0 0 -160953100.54958725 -291077058.55509281 0 -291077058.55509281 399945158.4220314 0 0 0 0 -120326015.54388046 -282536640.93947124 0 -282536640.93947124 -202730064.10662603 0 0 0 0 15544498.705379486 -557017269.39211845 0 -557017269.39211845 664955639.11717987 0 0 0 0 60095513.137699127 60759989.725522041 0 60759989.725522041 381336876.09953117 0 0 0 0 676651613.29375076 -412454006.62695694 0 -412454006.62695694 -183662204.71384048 0 0 0 0 7280797.4761734009 -455567752.76772499 0 -455567752.76772499 -105673946.19386673 0 0 0 0 -27151176.976383209 -208482812.73739529 0 -208482812.73739529 -60747435.431289673 0 0 0 0 -6920581.9762744904 -376981081.35118198 0 -376981081.35118198 -97370635.191020966 0 0 0 0 55567433.024124146 -359606509.90441895 0 -359606509.90441895 -156329995.32767296 0 0 0 0 58550406.229827881 -333960944.8204689 0 -333960944.8204689 -166332240.29654789 0 0 0 0 58119464.616546631 -287015574.65737534 0 -287015574.65737534 -129669494.71598434 0 0 0 0 -57997476.898956299 -298339774.06309891 0 -298339774.06309891 -127370189.85492611 0 0 0 0 -54745611.908620834 -218072517.01905048 0 -218072517.01905048 -108440611.24184418 0 0 0 0 -20240400.580444336 -317197316.77131462 0 -317197316.77131462 -119193523.48628235 0 0 0 0 -175522504.71891785 -313423462.92072296 0 -313423462.92072296 -81190239.052368164 0 0 0 0 -44926420.552337646 -378401456.80890846 0 -378401456.80890846 -96829865.353382111 0 0 0 0 -138906662.0815506 -240693227.42677021 0 -240693227.42677021 -117193688.5667038 0 0 0 0 -247325685.26649475 -313561408.49278641 0 -313561408.49278641 -186080834.76882172 0 0 0 0 -305519983.09082031 -195084140.8258152 0 -195084140.8258152 -141922735.7108078 0 0 0 0 -276961618.64031982 -247099428.65959167 0 -247099428.65959167 -96171617.977901459 0 0 0 0 -264427716.07202148 -297588204.19163895 0 -297588204.19163895 -74886439.368673325 0 0 0 0 233214761.26959109 -105634562.27230519 0 -105634562.27230519 -50049445.817893982 0 0 0 0 -86923414.828323364 -370333043.03913307 0 -370333043.03913307 -66720656.514810562 0 0 0 0 960301222.93575287 -118097028.53578758 0 -118097028.53578758 -363597905.83090782 0 0 0 0 216039507.77600098 -476260455.91381264 0 -476260455.91381264 -144843203.74885273 0 0 0 0 -14466257.573886871 -329746577.54296875 0 -329746577.54296875 -109660599.38251114 0 0 0 0 -1201466973.760582 -397969347.09875202 0 -397969347.09875202 -321773391.63599205 0 0 0 0 -974373.83275998756 -208553.95103388652 0 -208553.95103388652 3340199.9690326825 0 0 0 0 -583859082.15707397 -282666051.08488274 0 -282666051.08488274 -520007481.10729218 0 0 0 0 -334232005.7302475 -254343747.366045 0 -254343747.366045 -476143383.2560215 0 0 0 0 -473984246.00546265 -500986404.58660698 0 -500986404.58660698 -335256753.92425346 0 0 0 0 -1145767846.5850601 -634022993.43447495 0 -634022993.43447495 -221142355.781353 0 0 0 0 -844898663.3876915 35528210.142774582 0 35528210.142774582 151564813.00744629 0 0 0 0 38509458.637786865 -745080474.0583725 0 -745080474.0583725 -353873697.79264832 0 0 0 0 -386270.70813536644 -2099131.6401789654 0 -2099131.6401789654 7267221.0194956921 0 0 0 0 -229370550.26313591 -341433059.72663724 0 -341433059.72663724 -137866078.19406509 0 0 0 0 -226279100.85457611 -311757719.61486435 0 -311757719.61486435 -56578642.63325119 0 0 0 0 -86492438.898666382 -262822138.43689537 0 -262822138.43689537 -165239532.01789665 0 0 0 0 -272895173.59908676 -185895420.2331152 0 -185895420.2331152 -255382383.12169266 0 0 0 0 -196771126.8015976 -337572849.55561256 0 -337572849.55561256 -72313865.103370667 0 0 0 0 3019999694.4504089 -452350837.73763466 0 -452350837.73763466 -1212209679.6623001 0 0 0 0 1644592212.4437714 1461594315.3948975 0 1461594315.3948975 451115884.4546814 0 0 0 0 -196642598.8608551 -1079496706.0045013 0 -1079496706.0045013 -239639755.41320801 0 0 0 0 628799487.1740036 134883430.68861008 0 134883430.68861008 625999505.88540649 0 0 0 0 396259.65361152589 -868966.67849344201 0 -868966.67849344201 2722280.8671327457 0 0 0 0 -645230499.20798683 -371404592.4778986 0 -371404592.4778986 -15962440.113563538 0 0 0 0 918879.46220592037 -2835349.349396795 0 -2835349.349396795 6486392.640754275 0 0 0 0 -560537526.38864899 -147555666.42096329 0 -147555666.42096329 -29972002.023273468 0 0 0 0 -169793989.21295166 -309359104.2658844 0 -309359104.2658844 -15622284.093208313 0 0 0 0 -266538893.45385742 -191157375.86248016 0 -191157375.86248016 -118293535.68337917 0 0 0 0 -384200391.17074585 -306146398.25761414 0 -306146398.25761414 3497134.2076721191 0 0 0 0 -337521681.41474915 -193787259.99812698 0 -193787259.99812698 -16755145.374924183 0 0 0 0 -311402443.28553772 -244705352.48811913 0 -244705352.48811913 77585607.286895752 0 0 0 0 -187270446.40228271 -185924448.11072922 0 -185924448.11072922 17423946.650547028 0 0 0 0 -74517368.334655762 -254433624.641922 0 -254433624.641922 31610800.474754333 0 0 0 0 -173352927.97962952 -237954968.67310715 0 -237954968.67310715 141534278.94171906 0 0 0 0 117659601.61886597 -309513255.55569839 0 -309513255.55569839 14480344.583360672 0 0 0 0 -74506112.313186646 -276857930.17408371 0 -276857930.17408371 247125897.44931793 0 0 0 0 43480534.632141113 -364084441.43803978 0 -364084441.43803978 31898294.621559143 0 0 0 0 -163670139.71725082 -281625658.49416685 0 -281625658.49416685 73025926.259086609 0 0 0 0 -38948434.884464264 -349989956.18952274 0 -349989956.18952274 -74937278.022373199 0 0 0 0 3142826.7589187622 -286247265.13681507 0 -286247265.13681507 -113518308.79545784 0 0 0 0 253441491.88250732 -293213541.44325066 0 -293213541.44325066 -114002024.46701431 0 0 0 0 -11786035.807342529 -252648988.28876877 0 -252648988.28876877 -120125474.99776077 0 0 0 0 47800847.805450439 -310932410.84683418 0 -310932410.84683418 80683505.018547058 0 0 0 0 109621409.98696899 -258166924.16974258 0 -258166924.16974258 64885166.550869942 0 0 0 0 206535229.92100525 -376260342.28043556 0 -376260342.28043556 204631762.51160812 0 0 0 0 169383170.68454361 -251857098.87817574 0 -251857098.87817574 474487106.68443298 0 0 0 0 277457882.88645935 -254102683.72503281 0 -254102683.72503281 505149388.2064743 0 0 0 0 619504007.32719421 -23465887.232402802 0 -23465887.232402802 415989768.48865509 0 0 0 0 46984240.432540894 -68607303.087913513 0 -68607303.087913513 594570905.69136429 0 0 0 0 33464556.467102051 -118072781.82919312 0 -118072781.82919312 454417105.62724304 0 0 0 0 -60739974.906204224 -127752444.87219238 0 -127752444.87219238 199771785.42151546 0 0 0 0 -18526086.282520294 -219213766.18050861 0 -219213766.18050861 375794774.37772369 0 0 0 0 -198953511.13528442 -165577681.04972649 0 -165577681.04972649 203707865.14852524 0 0 0 0 -68830997.172729492 -161522348.52541733 0 -161522348.52541733 119465597.70686245 0 0 0 0 -82333258.201675415 -7769432.9405670166 0 -7769432.9405670166 148957694.90202332 0 0 0 0 -85592724.767326355 -35972214.723276138 0 -35972214.723276138 265254243.65298462 0 0 0 0 10268084.105621338 37689215.561050415 0 37689215.561050415 305734310.96263409 0 0 0 0 83638206.840377808 115549457.86853027 0 115549457.86853027 144184995.74855804 0 0 0 0 -30957378.915245056 55672983.904895782 0 55672983.904895782 115575144.88908005 0 0 0 0 -4929875.8635823354 -2629593.7845557248 0 -2629593.7845557248 2064212.212125211 0 0 0 0 89489424.323791504 162459342.29138947 0 162459342.29138947 403802279.64848137 0 0 0 0 -31802723.315689087 -58470706.822090149 0 -58470706.822090149 -56863436.280910492 0 0 0 0 194035749.98740387 -50090137.583953857 0 -50090137.583953857 11445123.367675781 0 0 0 0 404114.55961826444 -3201468.3884314988 0 -3201468.3884314988 1289561.5267280852 0 0 0 0 -907664.85636904836 -241330.09995638579 0 -241330.09995638579 1306500.1254001912 0 0 0 0 -511995304.01652527 -60167660.196657181 0 -60167660.196657181 35712158.541046143 0 0 0 0 -532407014.82066345 -103153032.89382076 0 -103153032.89382076 158118394.67694092 0 0 0 0 -454027721.06315613 -100690151.08590317 0 -100690151.08590317 -137497649.70685387 0 0 0 0 -414775951.73219299 -275263926.26955032 0 -275263926.26955032 -200043120.54560852 0 0 0 0 -532512272.51919556 -109373118.71085358 0 -109373118.71085358 98929680.840175629 0 0 0 0 -440557308.98435974 -170948180.82186508 0 -170948180.82186508 64212617.502555847 0 0 0 0 -202159681.04751587 -94529503.012336731 0 -94529503.012336731 55712597.56007576 0 0 0 0 -344496911.47293091 -190810726.59533119 0 -190810726.59533119 94267604.178451538 0 0 0 0 -453939384.66915131 -261409765.66302299 0 -261409765.66302299 33270262.217971802 0 0 0 0 -373500913.68593597 -132386468.21208763 0 -132386468.21208763 -22692042.680450439 0 0 0 0 -209709816.31945801 -122381383.48257446 0 -122381383.48257446 45946803.845263481 0 0 0 0 -202616561.29385376 -104222780.3407135 0 -104222780.3407135 94817676.68977356 0 0 0 0 -2518067.2500610352 54466433.026256561 0 54466433.026256561 63427344.447417736 0 0 0 0 -122822500.05065918 -160953095.42730331 0 -160953095.42730331 -46408910.139585495 0 0 0 0 -441990569.60125732 -235241598.0507679 0 -235241598.0507679 63687866.364112854 0 0 0 0 -456359332.45896149 -375680254.2648735 0 -375680254.2648735 -176089718.58137894 0 0 0 0 -520513311.18608093 -134728301.11084366 0 -134728301.11084366 125556905.54717636 0 0 0 0 -548437981.70691681 -161339190.91147041 0 -161339190.91147041 168945777.49565887 0 0 0 0 -772541790.21862793 -113419432.40829468 0 -113419432.40829468 312743764.80189514 0 0 0 0 -760890159.55010986 -275397507.76579285 0 -275397507.76579285 165982733.52886915 0 0 0 0 -528268969.24813843 -56668684.159805298 0 -56668684.159805298 180413738.94800186 0 0 0 0 -592412447.41278076 -117205851.11422539 0 -117205851.11422539 161614636.15183258 0 0 0 0 -1700048.634185642 -1030461.6663025543 0 -1030461.6663025543 699644.45395172015 0 0 0 0 -348663.2318601571 -1025989.8294908237 0 -1025989.8294908237 1337943.8191344868 0 0 0 0 -1095266106.3337402 60926452.801082611 0 60926452.801082611 311363599.44689178 0 0 0 0 950640157.32531738 -273947295.08554077 0 -273947295.08554077 273988523.10513783 0 0 0 0 14815641.169387817 -96489748.957504272 0 -96489748.957504272 -99606263.97833252 0 0 0 0 87119368.582565308 -170717796.38168907 0 -170717796.38168907 -56190967.366584778 0 0 0 0 -204445507.66802979 -64134787.987169266 0 -64134787.987169266 84204197.492385864 0 0 0 0 -78708524.916355133 -257045936.87557411 0 -257045936.87557411 379744749.13887787 0 0 0 0 31523719.760101318 -155112449.25867462 0 -155112449.25867462 -59192813.071546555 0 0 0 0 -80782020.694770813 -130137683.90842247 0 -130137683.90842247 -64709445.204727173 0 0 0 0 2712757.8140624389 -3028112.4889449161 0 -3028112.4889449161 1772698.9903143644 0 0 0 0 -9633192.8363494873 -62987174.990585327 0 -62987174.990585327 -108403603.48711777 0 0 0 0 -24980850.486221313 -114908099.49964523 0 -114908099.49964523 -70641627.101593971 0 0 0 0 -37077040.531768799 -57330591.964984894 0 -57330591.964984894 -89127529.491840363 0 0 0 0 -16572971.470970154 -11835672.834737778 0 -11835672.834737778 398286.44337463379 0 0 0 0 -27402026.598953247 -12401853.942810059 0 -12401853.942810059 18021709.392173767 0 0 0 0 -21424007.866584778 -25620410.404521942 0 -25620410.404521942 -2926311.8226318359 0 0 0 0 2350367.5829270221 -3511319.553154286 0 -3511319.553154286 3070434.6853953712 0 0 0 0 -163155400.27383423 19031557.49874115 0 19031557.49874115 2509164.295794487 0 0 0 0 -14371831.781322479 -3488615.276845932 0 -3488615.276845932 1913556.3109283447 0 0 0 0 -6978084.9896392822 -7248973.1173057556 0 -7248973.1173057556 -6441894.8319129944 0 0 0 0 -6179968.5875854492 -10371855.28767395 0 -10371855.28767395 1175334.3923912048 0 0 0 0 -2038637.2407989502 13512083.176964998 0 13512083.176964998 23715225.71251297 0 0 0 0 -1420126.9830869362 -1100426.5316416472 0 -1100426.5316416472 1961519.0062604323 0 0 0 0 16383233.37563324 16033235.631896973 0 16033235.631896973 22539913.513290405 0 0 0 0 -64087338.106155396 -26713273.996898651 0 -26713273.996898651 52045576.756887436 0 0 0 0 -202670238.14196014 -342799003.99871445 0 -342799003.99871445 -233981422.89339828 0 0 0 0 11274000.194237709 43314680.312800765 0 43314680.312800765 200427048.0274353 0 0 0 0 -539236.68380610645 -436290.52927643992 0 -436290.52927643992 818014.8871965073 0 0 0 0 -71759839.02053833 -141976605.82073212 0 -141976605.82073212 -268982507.43840981 0 0 0 0 -100035838.68922424 -37530319.904949188 0 -37530319.904949188 -40734584.062113523 0 0 0 0 -211275749.84871674 -79759106.501903534 0 -79759106.501903534 -41251995.638050079 0 0 0 0 -1907989.1070836298 -4951635.1749808565 0 -4951635.1749808565 3148475.1777387504 0 0 0 0 -134993483.41428375 -203778692.64884949 0 -203778692.64884949 41301388.51002121 0 0 0 0 -217061750.13799286 -82490332.7218647 0 -82490332.7218647 -50093511.287590027 0 0 0 0 -647587081.59794617 -38994871.165668488 0 -38994871.165668488 218052558.45751286 0 0 0 0 -553729.77165836096 -2740066.0883889906 0 -2740066.0883889906 2671036.3117375243 0 0 0 0 2291083191.660141 -978118082.11142445 0 -978118082.11142445 -123473417.59679031 0 0 0 0 1948903868.8322334 -284861887.69204855 0 -284861887.69204855 167696046.43502808 0 0 0 0 567946.201923443 -126555.89171520993 0 -126555.89171520993 3279263.2743191104 0 0 0 0 2098488017.7020111 -397146546.02974129 0 -397146546.02974129 -155297775.56541824 0 0 0 0 -762733588.68322754 446661415.87699509 0 446661415.87699509 87401194.679485321 0 0 0 0 -1164914554.6990204 336185439.83857346 0 336185439.83857346 248299864.48334885 0 0 0 0 -403581136.49588013 -64459434.936798096 0 -64459434.936798096 121172555.09436417 0 0 0 0 -307155560.07627869 63643908.833156586 0 63643908.833156586 268566704.34724998 0 0 0 0 -218324700.69717407 -242308980.69331026 0 -242308980.69331026 434486064.31465149 0 0 0 0 228652558.12081909 -479833925.09247971 0 -479833925.09247971 305676058.51609039 0 0 0 0 -23002329.611480713 -217042130.74041748 0 -217042130.74041748 254036302.56382751 0 0 0 0 -27774889.989013672 -319246755.79028702 0 -319246755.79028702 548501412.57152557 0 0 0 0 684082329.79571533 -105425559.42540359 0 -105425559.42540359 443094510.29324341 0 0 0 0 312612983.16746521 -445286212.50263977 0 -445286212.50263977 395274713.65096283 0 0 0 0 222992835.86979675 -276861260.65211487 0 -276861260.65211487 584618209.0866642 0 0 0 0 206221523.50564575 -436181369.91236496 0 -436181369.91236496 420241294.5577774 0 0 0 0 236696.49724144489 -1176193.0165233007 0 -1176193.0165233007 473510.14023440564 0 0 0 0 46931644.999038696 -391873484.71070671 0 -391873484.71070671 774602550.36320877 0 0 0 0 80332426.466400146 -100034130.96649933 0 -100034130.96649933 -220102670.80257034 0 0 0 0 75448805.246810913 -509288361.43238831 0 -509288361.43238831 660748391.44620895 0 0 0 0 26596015.720550537 -334463480.46556854 0 -334463480.46556854 620681211.9029007 0 0 0 0 149248265.83261108 -306467656.00301361 0 -306467656.00301361 224178648.24051023 0 0 0 0 -215991772.87365577 -335973018.67423397 0 -335973018.67423397 623054411.68029785 0 0 0 0 138376349.93688965 -166594712.98489761 0 -166594712.98489761 124009345.30656433 0 0 0 0 -487790775.6235733 -518365948.67051649 0 -518365948.67051649 -182387958.43878555 0 0 0 0 1004688.7413197681 -2468053.4357921965 0 -2468053.4357921965 2307302.1567114182 0 0 0 0 -755976149.44649506 -807499879.64317751 0 -807499879.64317751 -107285293.18067169 0 0 0 0 -267374493.40530014 -176680308.65696383 0 -176680308.65696383 89395789.863752365 0 0 0 0 -161920321.76333618 -200833427.86265564 0 -200833427.86265564 -291420981.00278711 0 0 0 0 396229050.92152405 -202141131.01527977 0 -202141131.01527977 -307058802.0637722 0 0 0 0 380352149.76636505 -679771018.46713734 0 -679771018.46713734 484613678.19926071 0 0 0 0 1315643790.7695312 -492226243.29285431 0 -492226243.29285431 -163865189.7832489 0 0 0 0 1673793181.6402435 -1123899540.9212317 0 -1123899540.9212317 298398260.60261536 0 0 0 0 1454727428.4909668 -214902935.1205492 0 -214902935.1205492 133468184.10653567 0 0 0 0 1206673919.5725403 -719968045.90315676 0 -719968045.90315676 -477788457.71555328 0 0 0 0 793733818.69778442 -66069613.592559338 0 -66069613.592559338 -78374579.171928406 0 0 0 0 1180557188.491745 -809496148.87203979 0 -809496148.87203979 226175929.81317329 0 0 0 0 2946469.8234289079 -430871.78140340373 0 -430871.78140340373 -2052160.7499441095 0 0 0 0 -44734331.82963562 -83753314.013219833 0 -83753314.013219833 214153983.90814972 0 0 0 0 -3848255.2727203369 -29248415.418987274 0 -29248415.418987274 -51069039.130895615 0 0 0 0 -73970180.096351862 -229760548.76779279 0 -229760548.76779279 -320584372.06451035 0 0 0 0 939485.4107957473 169339.63769426569 0 169339.63769426569 -642759.0323333405 0 0 0 0 354545805.61265564 -169609996.02280045 0 -169609996.02280045 141942466.1330452 0 0 0 0 -123047528.02896118 -364387918.30400753 0 -364387918.30400753 -236414975.05970764 0 0 0 0 22800250.524520874 -155047597.60835814 0 -155047597.60835814 -557588738.98503494 0 0 0 0 -27261731.478744507 -2112326.8917722702 0 -2112326.8917722702 -72321537.678731918 0 0 0 0 3980333.1587868333 -3317695.0133938231 0 -3317695.0133938231 -2315601.3968739696 0 0 0 0 488074181.42298889 -557644703.13685799 0 -557644703.13685799 611072358.24023819 0 0 0 0 -442885019.66247559 -353753861.21595478 0 -353753861.21595478 -374310058.41716385 0 0 0 0 -716565378.76280212 -419982965.55679321 0 -419982965.55679321 -296840259.34134102 0 0 0 0 852732403.53912735 -771395479.69561815 0 -771395479.69561815 86146877.422729492 0 0 0 0 889489470.7003212 -695029001.61894464 0 -695029001.61894464 215956389.8145752 0 0 0 0 624927340.06695557 -788745033.08687592 0 -788745033.08687592 729525608.88560486 0 0 0 0 211316492.48071289 -383978706.08304119 0 -383978706.08304119 336944384.81735039 0 0 0 0 344700070.51926041 -151816317.8643508 0 -151816317.8643508 55254469.036716461 0 0 0 0 5769809.0020633265 -4443810.7091716565 0 -4443810.7091716565 -3825761.1648625033 0 0 0 0 183351008.40444183 -171941070.9016819 0 -171941070.9016819 219654193.29496574 0 0 0 0 4608760.3955513164 -2910007.8808399178 0 -2910007.8808399178 -7156840.1061016656 0 0 0 0 -62082829.291466713 -71479700.762093365 0 -71479700.762093365 -70975499.654445648 0 0 0 0 270498015.37339783 -349058789.90671158 0 -349058789.90671158 360838026.65176678 0 0 0 0 10307535.420022689 -777878.37229954824 0 -777878.37229954824 -3704225.0433116276 0 0 0 0 534748731.26806641 -125961885.52709484 0 -125961885.52709484 -5651252.6054859161 0 0 0 0 9891263.1359481812 -231457790.29430199 0 -231457790.29430199 210736843.1261673 0 0 0 0 603518213.48136902 133504551.10689545 0 133504551.10689545 -28341122.429116249 0 0 0 0 -116354290.46096683 60032105.807141125 0 60032105.807141125 69205442.961200714 0 0 0 0 610886495.45553589 -86042905.483057976 0 -86042905.483057976 -132623864.68215179 0 0 0 0 2515512.8378706714 -2477112.6597239524 0 -2477112.6597239524 -4488955.6863166299 0 0 0 0 794159034.06063604 -356036432.1003775 0 -356036432.1003775 125856012.75419044 0 0 0 0 830275483.0954361 -655000473.22038555 0 -655000473.22038555 188897758.85612679 0 0 0 0 695421346.07036591 -221785648.56358719 0 -221785648.56358719 -21858235.400080681 0 0 0 0 1224454196.7189102 -351905264.5464859 0 -351905264.5464859 64220941.127390862 0 0 0 0 1228690257.1860886 -679187102.7472477 0 -679187102.7472477 100651450.29885101 0 0 0 0 975175242.38102722 -589843033.34918976 0 -589843033.34918976 93640480.345441818 0 0 0 0 -1187708469.9779053 -2660494.7822151184 0 -2660494.7822151184 -160913020.75747538 0 0 0 0 -693032784.57292175 -54600011.597335815 0 -54600011.597335815 -207500610.36838055 0 0 0 0 68200734.139533997 -94289169.79857254 0 -94289169.79857254 -69859193.297195435 0 0 0 0 -150687805.73168945 -104934092.93749428 0 -104934092.93749428 -63888530.948436737 0 0 0 0 -171429278.92883301 10987642.474412918 0 10987642.474412918 306135178.5152185 0 0 0 0 337929854.33167267 -214887890.52825165 0 -214887890.52825165 -16382618.730960846 0 0 0 0 -869438.37473700941 107660.93597798236 0 107660.93597798236 1717902.1901902724 0 0 0 0 -216127793.08757019 195393156.48067951 0 195393156.48067951 -100641988.58560944 0 0 0 0 -381421378.11587524 58033191.901794434 0 58033191.901794434 366054969.61058712 0 0 0 0 -412099937.01316071 -65656456.020822525 0 -65656456.020822525 -98297939.746284485 0 0 0 0 -208053607.49903107 192081955.59526825 0 192081955.59526825 -239617756.14096069 0 0 0 0 -715315784.34194946 236027833.50601196 0 236027833.50601196 159707459.03259969 0 0 0 0 -785605452.56594086 65820805.96216011 0 65820805.96216011 -234628667.37446976 0 0 0 0 -811689450.41275024 524660627.76560259 0 524660627.76560259 -260631042.61637878 0 0 0 0 588629249.91513062 677744283.61192036 0 677744283.61192036 67459489.41746521 0 0 0 0 2254076645.3322906 -1615518003.659183 0 -1615518003.659183 1058148304.3331232 0 0 0 0 3912305.6556728259 -214551.39023523033 0 -214551.39023523033 -1087166.5416126852 0 0 0 0 3687459148.9186859 -20384664.399007797 0 -20384664.399007797 -481388783.11786079 0 0 0 0 605644775.69020081 114483989.39564419 0 114483989.39564419 114091334.91146612 0 0 0 0 2537369457.6533661 -10007255.514172554 0 -10007255.514172554 -75914580.575143814 0 0 0 0 -1319696903.5414352 405220515.06027508 0 405220515.06027508 -92791782.543338776 0 0 0 0 1696394856.9391632 -946953535.41433144 0 -946953535.41433144 509869599.95390701 0 0 0 0 2173976615.8463287 -1735117473.6489019 0 -1735117473.6489019 1472754900.6397858 0 0 0 0 467621.74741406739 457194.06478999555 0 457194.06478999555 1899087.3035462573 0 0 0 0 1214596008.0961266 -653993025.70926332 0 -653993025.70926332 886756757.95820618 0 0 0 0 49648779.329147339 794759327.32167244 0 794759327.32167244 -539544359.47693586 0 0 0 0 1456019875.2012043 5767726.721019268 0 5767726.721019268 -215665999.40195656 0 0 0 0 1211084051.8622761 -388536031.11888754 0 -388536031.11888754 -206880872.5601635 0 0 0 0 612542812.97727966 -66263342.894948006 0 -66263342.894948006 -206385836.19035435 0 0 0 0 1222253431.4991913 -332855607.21175861 0 -332855607.21175861 -577286312.99080431 0 0 0 0 -224404926.36842626 -276687816.1546452 0 -276687816.1546452 -51303567.532752991 0 0 0 0 -136442.58971006796 -528176.82037971914 0 -528176.82037971914 1754150.5696148239 0 0 0 0 -223338124.48253632 -100942323.46617603 0 -100942323.46617603 -115151490.67325592 0 0 0 0 -217169144.33122253 -106066246.8392849 0 -106066246.8392849 -120505511.46542549 0 0 0 0 -226916787.80942535 -118168761.01514721 0 -118168761.01514721 -98366941.824558258 0 0 0 0 -213454626.51223755 -95090334.307029724 0 -95090334.307029724 -119165696.55049133 0 0 0 0 -200084691.53979492 -102327380.32846069 0 -102327380.32846069 -122252567.00740814 0 0 0 0 -990635.0465638116 -483537.23521000892 0 -483537.23521000892 3393388.3587711956 0 0 0 0 -183146511.23927307 -107367297.60912323 0 -107367297.60912323 -122699092.55381441 0 0 0 0 -173661506.55809021 -145929359.37831497 0 -145929359.37831497 -86366391.106220245 0 0 0 0 -752950604.31036377 -917651423.47921753 0 -917651423.47921753 1129012750.6357498 0 0 0 0 -146146450.50415039 -177075891.30302811 0 -177075891.30302811 -111092269.76435995 0 0 0 0 47679848.654876709 -190851969.07707596 0 -190851969.07707596 -110130759.3362236 0 0 0 0 -122733125.76739502 -157152361.55921364 0 -157152361.55921364 -111485930.91888809 0 0 0 0 -207758060.13833618 -129261580.28837204 0 -129261580.28837204 -119107201.78390503 0 0 0 0 -203058396.60336304 -202219416.69278526 0 -202219416.69278526 -102681630.11245489 0 0 0 0 -162588766.03642273 -167511991.05031395 0 -167511991.05031395 -117651599.13051605 0 0 0 0 -254594932.10461426 -165441824.51292038 0 -165441824.51292038 -113663174.16192722 0 0 0 0 -201870059.41298389 -127603790.63415015 0 -127603790.63415015 -119919800.30596161 0 0 0 0 -243906724.06434631 -148979198.90116692 0 -148979198.90116692 -144659603.80768681 0 0 0 0 -214793655.71670532 -115159713.82947159 0 -115159713.82947159 -131411097.08994293 0 0 0 0 -228047551.15561676 -159521559.95856476 0 -159521559.95856476 -140649378.44300842 0 0 0 0 -327217864.33026123 -184421639.11156845 0 -184421639.11156845 -146786259.57565975 0 0 0 0 -389792721.41960144 -222226984.31500626 0 -222226984.31500626 -233995454.0942421 0 0 0 0 -288542484.59559631 -161680734.90730858 0 -161680734.90730858 -354521709.48182678 0 0 0 0 -319261052.9055481 -180891650.05523682 0 -180891650.05523682 -203930962.84997153 0 0 0 0 -245367071.75065613 -126603646.35219669 0 -126603646.35219669 -200486985.30759811 0 0 0 0 -300083481.62785339 -129531130.03192806 0 -129531130.03192806 -413479668.48168182 0 0 0 0 -185456711.80943298 -191641949.0605402 0 -191641949.0605402 -380344438.68593216 0 0 0 0 -444482768.01383972 -236737204.75688934 0 -236737204.75688934 -354217640.89349961 0 0 0 0 -373937348.17819214 -189191768.47933102 0 -189191768.47933102 -634478414.1111927 0 0 0 0 -144009549.05543518 -349641302.42155552 0 -349641302.42155552 -565949959.20991516 0 0 0 0 -127899815.95145416 -264172225.65108013 0 -264172225.65108013 -386943533.95592117 0 0 0 0 564981739.18896294 -278826912.92984009 0 -278826912.92984009 -790814994.56523132 0 0 0 0 96090185.551040649 -277090483.32408047 0 -277090483.32408047 -407960607.22536087 0 0 0 0 -158937365.48456955 -274469404.28517199 0 -274469404.28517199 -125819117.5674057 0 0 0 0 244551094.80786133 -697077843.85115528 0 -697077843.85115528 125857051.83356905 0 0 0 0 478986552.55965424 -104862570.5705843 0 -104862570.5705843 -58084973.604935408 0 0 0 0 1047074385.6789246 -383458828.25954485 0 -383458828.25954485 -738852461.17220116 0 0 0 0 553727191.89044189 -244442185.79885006 0 -244442185.79885006 -771199904.84038925 0 0 0 0 500221980.54230499 -184262062.95537186 0 -184262062.95537186 -701549343.17173386 0 0 0 0 772150397.77694702 -281850766.75352859 0 -281850766.75352859 -809369794.88200808 0 0 0 0 813644757.17522049 -221990660.94133615 0 -221990660.94133615 -727615944.18185234 0 0 0 0 678813628.14202118 -274646608.24876595 0 -274646608.24876595 -586967862.04509544 0 0 0 0 725957104.43774414 -230717879.2038002 0 -230717879.2038002 -703166601.57993877 0 0 0 0 -1481386.6693878174 -97308250.882343769 0 -97308250.882343769 -238075511.30762672 0 0 0 0 -73411215.084121704 -213266894.35532093 0 -213266894.35532093 -316970684.66070843 0 0 0 0 -867097373.99266052 -627091349.89082336 0 -627091349.89082336 -519331861.35070229 0 0 0 0 -1153586197.289032 -150385991.0584259 0 -150385991.0584259 -620447116.05771828 0 0 0 0 17393699.401912689 -227538825.31455326 0 -227538825.31455326 -961917750.42990875 0 0 0 0 116333640.92665863 -391307696.38628674 0 -391307696.38628674 -749412002.06619453 0 0 0 0 1439411940.1637573 -633390238.87773895 0 -633390238.87773895 8025074.1375246048 0 0 0 0 1172126639.0484467 -718998920.69890165 0 -718998920.69890165 128331283.55677986 0 0 0 0 1162100343.321434 -672339974.99929142 0 -672339974.99929142 185482404.88600922 0 0 0 0 1403302107.7397232 -494550676.32455826 0 -494550676.32455826 103941557.23710203 0 0 0 0 629246.24962329539 -370238.57439307123 0 -370238.57439307123 -1208197.7571138944 0 0 0 0 1623092862.40168 -558551956.49431515 0 -558551956.49431515 60246141.703094482 0 0 0 0 1521214.2725371083 -1526442.5024489798 0 -1526442.5024489798 -2966814.4156404734 0 0 0 0 -192740072.35552216 -47628979.005152702 0 -47628979.005152702 5357756.5644040108 0 0 0 0 -648906602.17666626 -627657663.24044895 0 -627657663.24044895 -442776925.53386211 0 0 0 0 459560164.66044617 -176386468.45754707 0 -176386468.45754707 -259131125.8409481 0 0 0 0 1022831035.6690655 -655602670.97653127 0 -655602670.97653127 -994775367.00608635 0 0 0 0 1047618024.4165192 -423859163.8403616 0 -423859163.8403616 -614309624.74271774 0 0 0 0 1068192826.4062653 -1040336951.8680134 0 -1040336951.8680134 -558399532.16991806 0 0 0 0 2632609931.6046739 -453761218.41511202 0 -453761218.41511202 -498195840.28711891 0 0 0 0 1642851865.0102921 -931289514.49416637 0 -931289514.49416637 -726758786.48730183 0 0 0 0 1517086970.5177917 -852943310.46740246 0 -852943310.46740246 -480276367.52745438 0 0 0 0 1523093735.9885864 -902254419.04709148 0 -902254419.04709148 -606196348.6346302 0 0 0 0 1259594770.9991455 -859443335.07461548 0 -859443335.07461548 -561734038.94573212 0 0 0 0 1629683292.6299901 -682692616.54207551 0 -682692616.54207551 -485241333.82765198 0 0 0 0 1144583549.8204346 -843201628.61655998 0 -843201628.61655998 -138772806.49079704 0 0 0 0 32691572.391874313 -23374786.0638237 0 -23374786.0638237 32291940.355186462 0 0 0 0 2806262.3722677752 -2739798.1909537241 0 -2739798.1909537241 1965125.5016716374 0 0 0 0 50148318.151260376 -73423792.877846479 0 -73423792.877846479 30437588.59919548 0 0 0 0 1560226036.181654 -174204340.02994156 0 -174204340.02994156 -23199050.096324921 0 0 0 0 1407636307.9680939 -669561794.1739769 0 -669561794.1739769 -274594894.90790367 0 0 0 0 1469877745.157093 -845967447.16551685 0 -845967447.16551685 -252760456.66915512 0 0 0 0 1307685328.1521606 -891462274.0773592 0 -891462274.0773592 312506443.19834709 0 0 0 0 1410043737.679245 -974099471.83601284 0 -974099471.83601284 -247114402.96699625 0 0 0 0 1151354786.9535522 -962823105.47455835 0 -962823105.47455835 281617728.75323963 0 0 0 0 1382425930.9963074 -917989087.24123335 0 -917989087.24123335 38093362.727432251 0 0 0 0 1667755485.9545288 -1175082202.5350561 0 -1175082202.5350561 87582476.989244938 0 0 0 0 1368981536.9295883 -1104455094.5948639 0 -1104455094.5948639 -278207240.08144569 0 0 0 0 1363431745.4071426 -778569391.91901875 0 -778569391.91901875 -484600649.01273775 0 0 0 0 1369036435.5784674 -641792811.44052637 0 -641792811.44052637 -257350104.85895729 0 0 0 0 1995298322.5271149 -991145012.58533859 0 -991145012.58533859 -137873793.29060984 0 0 0 0 1592229102.0323153 -924567023.49552548 0 -924567023.49552548 177871513.44400597 0 0 0 0 3836901108.9673996 -1483244929.3741703 0 -1483244929.3741703 316829866.32622242 0 0 0 0 9165035.6439444944 -1456931.4292100552 0 -1456931.4292100552 -2557919.1545341518 0 0 0 0 963413349.47010803 -1676640904.5390821 0 -1676640904.5390821 2376600686.3823814 0 0 0 0 1222887118.9523087 -1153649138.7261207 0 -1153649138.7261207 789011632.67783928 0 0 0 0 11270250.494735643 -2558389.4717451259 0 -2558389.4717451259 -5333847.3272792697 0 0 0 0 10035398.185333252 -3509911.7069597244 0 -3509911.7069597244 -606436.3784866333 0 0 0 0 10634091.135305114 -7908329.958052922 0 -7908329.958052922 -4160967.2962874994 0 0 0 0 18532317.515880585 -11971493.345996857 0 -11971493.345996857 -15749340.809989929 0 0 0 0 450004223.04610443 -363381728.4491024 0 -363381728.4491024 646858436.10276806 0 0 0 0 12341603.968643188 -12644452.929754257 0 -12644452.929754257 -12567245.462245941 0 0 0 0 14940592.841018677 -9196088.0639133453 0 -9196088.0639133453 -9361411.3241539001 0 0 0 0 17435956.001613617 -16357408.082464218 0 -16357408.082464218 -5603084.7512969971 0 0 0 0 11282907.908900984 -4340945.7383262366 0 -4340945.7383262366 -9644697.8762895651 0 0 0 0 -926231905.86178589 -113406406.2957201 0 -113406406.2957201 237947094.87205791 0 0 0 0 -745521122.47285461 -120071536.91880751 0 -120071536.91880751 -39129182.793531418 0 0 0 0 -213632716.64655113 69063330.102933168 0 69063330.102933168 24236107.760990143 0 0 0 0 -17030730.893592834 -168334912.75244379 0 -168334912.75244379 -237257966.19687653 0 0 0 0 1364855997.8113325 -154528346.21718252 0 -154528346.21718252 -571855747.01789474 0 0 0 0 1016529795.2460175 -301227133.92036438 0 -301227133.92036438 -310265154.82452774 0 0 0 0 2151058642.8922882 -12767239.146698952 0 -12767239.146698952 -248103200.00267124 0 0 0 0 1021928411.0873871 11168342.830324173 0 11168342.830324173 -87241809.817058682 0 0 0 0 618142262.3390274 264184093.01994514 0 264184093.01994514 -73953014.079051971 0 0 0 0 1038070849.414917 99018596.786124229 0 99018596.786124229 238708407.32622337 0 0 0 0 2213722758.0068665 -17310441.334096909 0 -17310441.334096909 176566336.11915684 0 0 0 0 3003254710.9062614 919291100.03609061 0 919291100.03609061 1256322492.3959045 0 0 0 0 1617649488.4111633 -698320913.35846519 0 -698320913.35846519 3441267596.2260361 0 0 0 0 647732345.64731503 18563128.992608786 0 18563128.992608786 111079595.15171432 0 0 0 0 1601987894.9215851 -446139407.76497078 0 -446139407.76497078 380357704.90024376 0 0 0 0 646496695.21681976 69396414.324249268 0 69396414.324249268 1563057510.3576946 0 0 0 0 -333875416.80291748 -253753302.81062698 0 -253753302.81062698 760624422.77201843 0 0 0 0 -522399177.21095276 208581674.53153229 0 208581674.53153229 -356490078.44484329 0 0 0 0 -313768688.39332581 174029172.36975002 0 174029172.36975002 684979128.43413353 0 0 0 0 -346997296.13805199 -198503642.05207962 0 -198503642.05207962 -162379898.91772652 0 0 0 0 -2675956.9542441871 -9936159.0665618554 0 -9936159.0665618554 10700796.44729495 0 0 0 0 -1200406675.0263138 -385141095.61466694 0 -385141095.61466694 337146293.17497253 0 0 0 0 -1445612973.7102661 -899845986.78154373 0 -899845986.78154373 -477339608.63600159 0 0 0 0 -25378417.056037903 -17269565.573708534 0 -17269565.573708534 20568513.292896271 0 0 0 0 -21892393.338157654 -16343580.960192919 0 -16343580.960192919 17449462.937904358 0 0 0 0 -23918169.769508362 -7257483.1787109375 0 -7257483.1787109375 35994280.803207397 0 0 0 0 -22958430.07220459 -12931861.448171616 0 -12931861.448171616 24661490.866533279 0 0 0 0 -26022571.975479126 -13381428.616802216 0 -13381428.616802216 21798189.231292725 0 0 0 0 -32351722.354949951 -15470782.895689011 0 -15470782.895689011 28240478.140329361 0 0 0 0 -25675271.546920776 -23654819.509685516 0 -23654819.509685516 7401412.4674873352 0 0 0 0 -50278720.663738251 -64031536.143695831 0 -64031536.143695831 15116486.93019104 0 0 0 0 -6205816.7781600952 -24743552.17742157 0 -24743552.17742157 4532031.9917125702 0 0 0 0 -905283.14591759443 -10142711.677981079 0 -10142711.677981079 12569653.558546025 0 0 0 0 21139187.929122925 -15629948.545696259 0 -15629948.545696259 -4096966.8055992126 0 0 0 0 1043803.593876306 -2108627.7884232178 0 -2108627.7884232178 1514971.2910450175 0 0 0 0 -92291213.133922577 -1906314.006029129 0 -1906314.006029129 21126557.808547974 0 0 0 0 -47048733.323154449 -78730459.474716187 0 -78730459.474716187 51205080.888750076 0 0 0 0 -239003.43466720916 -13072394.482009042 0 -13072394.482009042 12094924.308648996 0 0 0 0 32168890.238235474 9937237.5705051422 0 9937237.5705051422 -15688318.024725914 0 0 0 0 8356499.6596156284 -21200293.367097244 0 -21200293.367097244 -11918455.492032062 0 0 0 0 11641161.311950684 -59633750.574155807 0 -59633750.574155807 84695742.838846326 0 0 0 0 62905094.823562622 -39834485.200372696 0 -39834485.200372696 -15572089.165557861 0 0 0 0 52080404.782684326 -14622038.109790802 0 -14622038.109790802 -15902111.433013916 0 0 0 0 59181838.953472137 -42059242.192933083 0 -42059242.192933083 368867.57855224609 0 0 0 0 27280183.216941833 -43033041.9167099 0 -43033041.9167099 -3133729.6854934692 0 0 0 0 67281592.175415039 -39085690.576919556 0 -39085690.576919556 -20644645.714672089 0 0 0 0 75555224.020774841 -20405445.585327148 0 -20405445.585327148 -7641904.4403829575 0 0 0 0 -2233889.4155687764 -1583253.3983697668 0 -1583253.3983697668 -752470.11521560699 0 0 0 0 -23895829.789852142 -40060477.373350143 0 -40060477.373350143 -4547547.5371704102 0 0 0 0 19330644.447110903 -31909697.643225789 0 -31909697.643225789 2835367.7902036011 0 0 0 0 -60744564.056312561 37287747.145420074 0 37287747.145420074 -10055132.744613647 0 0 0 0 120655484.45114517 -346581644.94406891 0 -346581644.94406891 -232679678.61632729 0 0 0 0 119994972.92320251 -172592160.69599152 0 -172592160.69599152 422482.79819011688 0 0 0 0 -216593523.90251684 -285492237.02339172 0 -285492237.02339172 40352539.561584473 0 0 0 0 13107570.071845876 -38445476.224853531 0 -38445476.224853531 21922810.515303567 0 0 0 0 163696713.78600311 -75877680.111274719 0 -75877680.111274719 -300835890.22036743 0 0 0 0 -211730502.32040143 -135125816.64134216 0 -135125816.64134216 109905376.49316406 0 0 0 0 -27310409.912181854 -13867332.822954178 0 -13867332.822954178 28646848.406230927 0 0 0 0 -49692829.129264832 -8591472.9474143982 0 -8591472.9474143982 57845966.271141052 0 0 0 0 615373.87721824273 -9676847.0475879423 0 -9676847.0475879423 8194415.3180136532 0 0 0 0 -19564109.113175415 -12098725.095328934 0 -12098725.095328934 25688103.209092323 0 0 0 0 -12148929.383172989 -14884210.427942276 0 -14884210.427942276 24142764.42565155 0 0 0 0 -22366208.725463867 -4198533.6073226929 0 -4198533.6073226929 35557371.278795242 0 0 0 0 -12554648.996771611 -17255906.71251753 0 -17255906.71251753 39290780.077660419 0 0 0 0 -184929081.24996185 -165296976.20318604 0 -165296976.20318604 339744951.64746094 0 0 0 0 146873002.56951904 -230823096.77673244 0 -230823096.77673244 115759369.75250244 0 0 0 0 152546682.17671651 -357822197.56471634 0 -357822197.56471634 222726068.0791626 0 0 0 0 -284813956.18010998 -12801306.182220459 0 -12801306.182220459 64863745.324062347 0 0 0 0 -281267472.71641827 134231073.00468445 0 134231073.00468445 -17077160.216156006 0 0 0 0 -243119511.88415813 55687377.539352417 0 55687377.539352417 137666643.07072449 0 0 0 0 -484017437.81375313 370855099.02316284 0 370855099.02316284 325825778.12790489 0 0 0 0 -221459744.96184444 -167250243.37430573 0 -167250243.37430573 441033955.67791748 0 0 0 0 -555631614.79493141 210096998.95970154 0 210096998.95970154 521748563.49084473 0 0 0 0 -8967754.2496452332 -572045450.36265564 0 -572045450.36265564 854227675.44311523 0 0 0 0 2313260.3737487793 -495799413.3036499 0 -495799413.3036499 773818980.86984253 0 0 0 0 -839032767.64006042 169645469.00689697 0 169645469.00689697 1334741827.1422424 0 0 0 0 -405157000.64871216 210992870.17315674 0 210992870.17315674 319133276.26922607 0 0 0 0 820346213.64889145 -795642229.6315918 0 -795642229.6315918 611533903.01782227 0 0 0 0 -31469902.497772217 142406815.81863403 0 142406815.81863403 725960650.02924347 0 0 0 0 865745232.34048176 -178078330.08377552 0 -178078330.08377552 5205346.1237792969 0 0 0 0 2620790.7831744277 -7381776.5215542335 0 -7381776.5215542335 -1447661.0997736827 0 0 0 0 -55691259.183502197 2019265277.6633301 0 2019265277.6633301 1045585529.9985962 0 0 0 0 -529578595.41470146 -431418623.45301819 0 -431418623.45301819 2250652396.4776611 0 0 0 0 179570728.66473389 -1008604503.1339111 0 -1008604503.1339111 1595885587.9617615 0 0 0 0 513379071.20919037 -342105855.67312622 0 -342105855.67312622 147780026.79119873 0 0 0 0 -46089506.224700928 43426161.754089355 0 43426161.754089355 148734549.4154892 0 0 0 0 -259904420.02748108 -572485820.33358765 0 -572485820.33358765 1235542166.5062103 0 0 0 0 -156555791.75720978 -402654983.64778137 0 -402654983.64778137 107306826.20550537 0 0 0 0 -254226.74931716919 -134370875.35536194 0 -134370875.35536194 89679083.477981567 0 0 0 0 -69056514.317764282 -195121305.80133057 0 -195121305.80133057 65686326.309417725 0 0 0 0 -87706884.145065308 -233819391.64350891 0 -233819391.64350891 438016412.5091095 0 0 0 0 4206943.597234726 -61105549.507598877 0 -61105549.507598877 5968048.3354797363 0 0 0 0 431410.87710857391 -41987589.532068729 0 -41987589.532068729 18953637.921646118 0 0 0 0 -38411125.785989761 -69871941.070213318 0 -69871941.070213318 5711861.6605453491 0 0 0 0 3924798.5185921192 -61835112.244527817 0 -61835112.244527817 -4830739.0905609131 0 0 0 0 6948616.4322696086 -22214367.654312588 0 -22214367.654312588 -4643603.4378951713 0 0 0 0 -25050134.10187912 -48865715.07144165 0 -48865715.07144165 -27753989.392440796 0 0 0 0 1582188.3488277188 -1208888.9632909745 0 -1208888.9632909745 -6221855.9993959591 0 0 0 0 182931961.64527321 -143214378.51254272 0 -143214378.51254272 -72067163.227844238 0 0 0 0 292586299.59811211 27135963.673423767 0 27135963.673423767 -84720523.311004639 0 0 0 0 502186321.00008774 -154172814.51300049 0 -154172814.51300049 -97403047.767944336 0 0 0 0 468599370.24301672 62356905.842884064 0 62356905.842884064 -90724426.901519775 0 0 0 0 -65680151.721412659 -122590149.40560532 0 -122590149.40560532 33906495.71837616 0 0 0 0 48822452.698354006 -64777161.328164577 0 -64777161.328164577 -3054149.3059692383 0 0 0 0 -62434779.512610912 -79217911.45390439 0 -79217911.45390439 10095567.518280029 0 0 0 0 -27184776.796972837 -50639486.033213675 0 -50639486.033213675 -4284884.4927045926 0 0 0 0 39145656.330812693 -148871578.07247734 0 -148871578.07247734 37705177.214263916 0 0 0 0 -12674587.816358693 -47800889.885773689 0 -47800889.885773689 -5941785.5013736114 0 0 0 0 -84530560.272491455 -115897205.69002151 0 -115897205.69002151 -26154064.199371338 0 0 0 0 -45515255.852867126 -52785249.336772919 0 -52785249.336772919 17051304.203829765 0 0 0 0 -102378835.63498688 -65584047.542709351 0 -65584047.542709351 -25220467.317825317 0 0 0 0 -30408086.521846771 -75404575.056312561 0 -75404575.056312561 -16818722.353652954 0 0 0 0 -54297046.309844971 -115156339.73762894 0 -115156339.73762894 -35266930.841934204 0 0 0 0 25527060.310678005 -111055346.75632024 0 -111055346.75632024 483378.63551330566 0 0 0 0 27497660.324371338 -93945203.898349762 0 -93945203.898349762 -41081530.292747498 0 0 0 0 17980170.975940704 -59951819.436056137 0 -59951819.436056137 -7750265.3614196777 0 0 0 0 191431911.12657166 75436649.198814392 0 75436649.198814392 -192391410.02778769 0 0 0 0 6257135.2702593636 -1858901.9972696942 0 -1858901.9972696942 -10918104.484680148 0 0 0 0 31479266.725774318 -41992712.967433333 0 -41992712.967433333 9551769.8411558755 0 0 0 0 23822816.183273315 -57967739.076469421 0 -57967739.076469421 -45252286.425262451 0 0 0 0 -108136443.42146301 -145984836.18553162 0 -145984836.18553162 -82629031.63973999 0 0 0 0 3361353.7353439331 -96100312.353006363 0 -96100312.353006363 -60874052.627471924 0 0 0 0 -17703201.236699432 -24674947.720989633 0 -24674947.720989633 33931293.308710843 0 0 0 0 -17253325.007369995 -43487954.407693863 0 -43487954.407693863 3414024.5169677734 0 0 0 0 -27123541.816497803 -88929492.549125671 0 -88929492.549125671 -95059903.856731117 0 0 0 0 -21411461.53767395 -36883949.112703323 0 -36883949.112703323 643855.81851005554 0 0 0 0 -129814423.62182236 -46758954.171764374 0 -46758954.171764374 -94646296.078704834 0 0 0 0 1199287.5895352475 -30401936.008684903 0 -30401936.008684903 19745566.03016755 0 0 0 0 5172378.6933135986 -42158185.079681396 0 -42158185.079681396 -11537492.425872803 0 0 0 0 2923255.0297322217 -18481463.415715378 0 -18481463.415715378 -5627507.6348036975 0 0 0 0 -42595107.440803528 -41513970.658966064 0 -41513970.658966064 -40434903.775939941 0 0 0 0 21204627.834152222 -18176560.854913712 0 -18176560.854913712 -51920810.743083954 0 0 0 0 16784289.724338222 -22561907.865175009 0 -22561907.865175009 -28985111.394189321 0 0 0 0 7948574.6632385254 -16879728.66847229 0 -16879728.66847229 -13465470.911239624 0 0 0 0 22813825.291329466 -38204383.529330164 0 -38204383.529330164 5798676.2251261063 0 0 0 0 11979316.383295206 -36728868.821943432 0 -36728868.821943432 13534337.824868463 0 0 0 0 6591417.8834756184 -9437270.744547341 0 -9437270.744547341 -11118148.974356471 0 0 0 0 19779933.563980103 -41647629.3204422 0 -41647629.3204422 -125116980.85119629 0 0 0 0 -30073653.599830627 -67346383.819719315 0 -67346383.819719315 -119037924.18707275 0 0 0 0 -1024543.7274322361 -1100831.0556741878 0 -1100831.0556741878 2420748.4686890002 0 0 0 0 5811738.0357971191 -101655929.87826824 0 -101655929.87826824 -102973305.22774124 0 0 0 0 -106677961.99353027 -86617018.978696823 0 -86617018.978696823 20075957.06880188 0 0 0 0 17355450.890605927 -15094529.160652161 0 -15094529.160652161 -19504687.034606934 0 0 0 0 20546935.712783437 -12995894.401423389 0 -12995894.401423389 -40030754.51286421 0 0 0 0 19139883.71240405 -16338644.606463211 0 -16338644.606463211 -15996181.73397842 0 0 0 0 5310808.6170128603 -19009896.142640013 0 -19009896.142640013 4048755.3198289154 0 0 0 0 45296491.099582672 -35166161.60155201 0 -35166161.60155201 -82978977.765376091 0 0 0 0 38017217.348285675 -11125240.939878464 0 -11125240.939878464 -38363287.129310608 0 0 0 0 9072133.3607184887 -15982022.755213201 0 -15982022.755213201 74736706.930440903 0 0 0 0 -4624997.4156856537 -126614419.73130083 0 -126614419.73130083 -19354847.327690125 0 0 0 0 -108026246.7689209 -99109716.18951416 0 -99109716.18951416 -6685152.5713996887 0 0 0 0 21503669.20110321 -5661877.3742820919 0 -5661877.3742820919 44851947.01641953 0 0 0 0 -21372622.608058929 -6450244.096372366 0 -6450244.096372366 71912098.961565018 0 0 0 0 63248341.258907318 65484619.83454895 0 65484619.83454895 -289495085.92061615 0 0 0 0 -83225870.651512146 -122966683.88095856 0 -122966683.88095856 71453787.616199493 0 0 0 0 34654662.422603607 99352761.145803452 0 99352761.145803452 -27758403.245865345 0 0 0 0 -109890550.39732575 -133228417.22804999 0 -133228417.22804999 17588391.996009827 0 0 0 0 -1067724.3939739205 -8112674.885754372 0 -8112674.885754372 9584605.6253445521 0 0 0 0 -39060827.294525146 24607870.970420361 0 24607870.970420361 114064977.75460529 0 0 0 0 43257381.046131134 106287269.17562473 0 106287269.17562473 54853678.844431281 0 0 0 0 -35197234.629211426 59317124.896055937 0 59317124.896055937 -34625311.929524422 0 0 0 0 -109832025.30453491 -20066021.602492779 0 -20066021.602492779 21768065.419347167 0 0 0 0 -32179064.476501465 33128058.242147326 0 33128058.242147326 34012774.858993351 0 0 0 0 176850318.75826836 -12377428.502820492 0 -12377428.502820492 -296372761.12760162 0 0 0 0 38157393.40102417 -35104890.184024215 0 -35104890.184024215 15062605.83238836 0 0 0 0 -83335189.82713747 -346049650.44424653 0 -346049650.44424653 -212669527.8456974 0 0 0 0 51978118.491607666 -87689969.568640232 0 -87689969.568640232 -50569564.717445374 0 0 0 0 144505170.76504135 33882227.100774765 0 33882227.100774765 4947422.5760364532 0 0 0 0 690688.55991368089 -1444085.8588378904 0 -1444085.8588378904 -2015756.0634563956 0 0 0 0 -212836368.52919674 -335482535.87126398 0 -335482535.87126398 365082464.17289925 0 0 0 0 249906483.96115112 100342221.16204929 0 100342221.16204929 -145171325.5662899 0 0 0 0 232659275.18283844 50123774.296784401 0 50123774.296784401 -229150149.71438503 0 0 0 0 136595638.76707649 -36453601.060841143 0 -36453601.060841143 -168880510.93436813 0 0 0 0 229831522.52919674 -111542748.60971332 0 -111542748.60971332 -140735191.20607376 0 0 0 0 283601828.64350128 48875476.971487045 0 48875476.971487045 -252177582.15694809 0 0 0 0 370217181.34700394 1945830.2049293518 0 1945830.2049293518 -63232168.201910019 0 0 0 0 234047983.19892311 -3004259.5090847015 0 -3004259.5090847015 208762909.09636307 0 0 0 0 -2256963.8730846643 -2922416.6756955059 0 -2922416.6756955059 7578998.4760723105 0 0 0 0 305913158.90379715 -113723266.80278969 0 -113723266.80278969 -71572083.929140091 0 0 0 0 198416613.61101151 345038339.85917759 0 345038339.85917759 -371918203.41595745 0 0 0 0 49501662.405608654 -19823733.922983646 0 -19823733.922983646 -21682454.820941925 0 0 0 0 -1597161.3273095619 -371908.77075607888 0 -371908.77075607888 3460234.9617781192 0 0 0 0 818138905.19902802 145680609.81008148 0 145680609.81008148 121020299.1325779 0 0 0 0 -94920773.177284241 4119916.5465855598 0 4119916.5465855598 -161777882.17505258 0 0 0 0 -51680337.694831848 -69866701.955516338 0 -69866701.955516338 -42574129.177903175 0 0 0 0 121626166.44468689 85313749.013015747 0 85313749.013015747 -52390492.347185135 0 0 0 0 87639266.709625244 -40922823.638957977 0 -40922823.638957977 -18634904.397779465 0 0 0 0 -23686682.838263512 37419808.294645667 0 37419808.294645667 -51605578.041038513 0 0 0 0 -14240405.581016541 -79491237.961727142 0 -79491237.961727142 -122755655.81374359 0 0 0 0 -5287838.4888305664 12807627.448533058 0 12807627.448533058 26325525.175370216 0 0 0 0 -237136656.57511902 -258950418.07993698 0 -258950418.07993698 -57707216.594615936 0 0 0 0 -236383073.41257769 -377081012.28743529 0 -377081012.28743529 -322482571.40526009 0 0 0 0 -45024222.863372803 -50277102.500844955 0 -50277102.500844955 -143824107.33195496 0 0 0 0 -171148638.52303314 -158016147.51704979 0 -158016147.51704979 -159961649.55654907 0 0 0 0 -175233902.03109741 -97554829.370875359 0 -97554829.370875359 -316799474.03990746 0 0 0 0 -539744951.82401276 -442104463.48799706 0 -442104463.48799706 -332259024.13615036 0 0 0 0 -262652307.61663818 -236545703.60798073 0 -236545703.60798073 -519232975.03483105 0 0 0 0 -335993598.00192261 -201522135.9236927 0 -201522135.9236927 -254754796.53119087 0 0 0 0 -176810327.64044189 -58141059.168633461 0 -58141059.168633461 -260439501.82713374 0 0 0 0 -165130046.788414 -221624659.37862968 0 -221624659.37862968 -389379734.67630386 0 0 0 0 -404754911.85913086 -294453924.50961018 0 -294453924.50961018 -337161693.35396767 0 0 0 0 -279049209.64442444 -168598441.24357605 0 -168598441.24357605 -186550306.27006149 0 0 0 0 -217206860.24568176 -59424330.333707809 0 -59424330.333707809 -110381573.12814236 0 0 0 0 -178386509.82147598 -109657094.89472198 0 -109657094.89472198 -116449329.6521244 0 0 0 0 140201721.17002869 -96351631.867011547 0 -96351631.867011547 -488014506.46564841 0 0 0 0 -72433533.640457153 -25331315.814811707 0 -25331315.814811707 -83265385.874755859 0 0 0 0 -111099236.22003174 -117583992.28592539 0 -117583992.28592539 -281321505.40592194 0 0 0 0 -155426097.26895142 -205926219.07357979 0 -205926219.07357979 -306815536.18590069 0 0 0 0 -185248551.99679565 -454248195.5152359 0 -454248195.5152359 -628352386.83038902 0 0 0 0 65686465.352783203 -187092800.33140182 0 -187092800.33140182 -547299245.64429474 0 0 0 0 541992361.9069519 -231369778.19222832 0 -231369778.19222832 -902598358.7408886 0 0 0 0 26332108.975578308 -254171891.44689131 0 -254171891.44689131 -564551300.35559845 0 0 0 0 86940747.380310059 -699770312.13720322 0 -699770312.13720322 -1279948086.8303528 0 0 0 0 299928404.52178955 -1097639571.2343102 0 -1097639571.2343102 -933337754.8128376 0 0 0 0 -234370815.60919952 -1060375158.8514786 0 -1060375158.8514786 -890521502.79670715 0 0 0 0 -1393515953.327589 -1196721819.8798246 0 -1196721819.8798246 -506822101.78073883 0 0 0 0 -776911114.31809998 -577287535.68893051 0 -577287535.68893051 -466147592.43836784 0 0 0 0 -164970537.93721008 -431326014.51358604 0 -431326014.51358604 -603216709.12541962 0 0 0 0 -470592183.4884491 -559408519.53799105 0 -559408519.53799105 -666765963.14887619 0 0 0 0 572116657.13185883 -868711211.68648338 0 -868711211.68648338 -372480023.03327942 0 0 0 0 -733470471.85357666 -976951032.51177692 0 -976951032.51177692 173081629.21755981 0 0 0 0 -198319605.17025757 -380107655.20375824 0 -380107655.20375824 -703593299.59094238 0 0 0 0 -483968665.98294067 -541456804.06423759 0 -541456804.06423759 -783261480.67042732 0 0 0 0 -1497528382.9781189 82611086.664253235 0 82611086.664253235 -124154097.9024725 0 0 0 0 280852172.60377502 -1462732906.8004589 0 -1462732906.8004589 -1994141373.4938698 0 0 0 0 -374718223.04129028 -309251092.57430458 0 -309251092.57430458 -361170766.90288162 0 0 0 0 -261323528.38671875 -198613063.55801201 0 -198613063.55801201 -232700114.42137909 0 0 0 0 -81005672.533615112 -372089976.7658577 0 -372089976.7658577 -204294242.68969727 0 0 0 0 -296054369.35192871 -193339578.7762146 0 -193339578.7762146 -252749360.19658661 0 0 0 0 -367860555.9107666 -412180138.12469482 0 -412180138.12469482 -157868885.97910309 0 0 0 0 -493766321.93740845 -486496022.62911034 0 -486496022.62911034 -730238222.98666668 0 0 0 0 -413805402.18383789 -428714824.75442505 0 -428714824.75442505 -627848836.85790634 0 0 0 0 -322244488.0750351 -195189201.05939102 0 -195189201.05939102 -318013060.52166748 0 0 0 0 -418908375.51016235 -290387334.8361187 0 -290387334.8361187 -822894810.38421631 0 0 0 0 -359336699.51501083 -184416048.58259034 0 -184416048.58259034 -573143982.47292328 0 0 0 0 -381660311.77889633 -357961416.72728491 0 -357961416.72728491 -547228298.96025848 0 0 0 0 -324968339.50700378 -183033444.97279549 0 -183033444.97279549 -407043891.24024582 0 0 0 0 -752404930.29922485 -810551457.01643896 0 -810551457.01643896 -533416532.61813927 0 0 0 0 -381948009.96044922 -317804675.78542328 0 -317804675.78542328 -600148669.20282364 0 0 0 0 -807547437.91586304 -683659475.37158203 0 -683659475.37158203 -743445091.91463089 0 0 0 0 -331181355.91490173 -534578174.04226685 0 -534578174.04226685 -1327491960.0025024 0 0 0 0 -974463080.1858902 -1092984273.5585985 0 -1092984273.5585985 -892631680.93043947 0 0 0 0 766763.71236982942 402425.87605645508 0 402425.87605645508 -2745725.3475501304 0 0 0 0 -1079145671.4402924 -1525450022.2675629 0 -1525450022.2675629 -1532047984.0959711 0 0 0 0 881727312.74227905 232937191.04247665 0 232937191.04247665 -800385532.22493935 0 0 0 0 609934140.04644775 -325946729.37158394 0 -325946729.37158394 -1863174679.6069527 0 0 0 0 -418210903.22361755 -224850859.98734856 0 -224850859.98734856 -2071549054.7138138 0 0 0 0 235674879.53153992 133379981.2211175 0 133379981.2211175 53502380.128783226 0 0 0 0 4805458.6418336779 -2198397.7297080904 0 -2198397.7297080904 -9530315.7778555304 0 0 0 0 92684787.340888977 -197197820.58967829 0 -197197820.58967829 81163641.560332298 0 0 0 0 300440645.92157745 -94944251.596931696 0 -94944251.596931696 5833885.8805217743 0 0 0 0 -59569774.108322144 -262084261.42747021 0 -262084261.42747021 -860102689.23618412 0 0 0 0 -893916976.29232979 -758020721.89392924 0 -758020721.89392924 -493776219.02928162 0 0 0 0 2002261.8770314232 -2468869.4651100934 0 -2468869.4651100934 -1471227.5637629181 0 0 0 0 -1054832642.7778835 40259111.653038621 0 40259111.653038621 25035404.140026093 0 0 0 0 -558238260.30879974 84625994.101942539 0 84625994.101942539 -46139497.800458908 0 0 0 0 84766392.618061066 -104451406.69763887 0 -104451406.69763887 31987536.931363106 0 0 0 0 11505996.650038987 -14900427.749650577 0 -14900427.749650577 -14418795.67293459 0 0 0 0 -6311698.6302566528 -51225990.330507398 0 -51225990.330507398 65349885.90170908 0 0 0 0 47095812.735694885 -154676604.41475224 0 -154676604.41475224 41022455.044141293 0 0 0 0 -36040993.196121216 -53479206.376609802 0 -53479206.376609802 84263576.741632462 0 0 0 0 -6906254.9586906433 -27315451.366735697 0 -27315451.366735697 76113638.233161926 0 0 0 0 -103878786.21401978 -17851168.546736181 0 -17851168.546736181 76007424.641474247 0 0 0 0 -64361769.091201782 -86156146.725057065 0 -86156146.725057065 47277149.344436646 0 0 0 0 -117103217.24536896 22769144.68671158 0 22769144.68671158 -61524019.885235056 0 0 0 0 -151862839.19091415 -111895220.30152893 0 -111895220.30152893 -80113866.544148445 0 0 0 0 -126782295.26751709 -29735853.801616669 0 -29735853.801616669 19530567.529488564 0 0 0 0 -67454540.232437134 -175133857.81701326 0 -175133857.81701326 -57019856.021674395 0 0 0 0 31921892.177215576 -77222559.961119771 0 -77222559.961119771 33053166.069447994 0 0 0 0 183434234.16381073 -1258419680.5474136 0 -1258419680.5474136 -84801845.842880249 0 0 0 0 -17218107.818695068 -1053075407.2112465 0 -1053075407.2112465 471601047.85145187 0 0 0 0 2138177.9364852905 -1510736961.2260475 0 -1510736961.2260475 767787415.58698177 0 0 0 0 113026574.05380249 -970941594.0746212 0 -970941594.0746212 233561497.59633255 0 0 0 0 -213155319.9945755 -1364198673.6326818 0 -1364198673.6326818 -27147521.030662537 0 0 0 0 328404114.46768188 -1273762812.193943 0 -1273762812.193943 -884950329.23712158 0 0 0 0 -1382939.1016082764 -1320097992.819315 0 -1320097992.819315 -1343980787.5331421 0 0 0 0 396043096.23394775 -967359172.15870094 0 -967359172.15870094 -126650296.08303213 0 0 0 0 193917513.83620453 -799408260.2057724 0 -799408260.2057724 -179322791.55752563 0 0 0 0 -159946195.80220032 -832672449.25105858 0 -832672449.25105858 154761059.90843773 0 0 0 0 186950144.02581787 -767687359.43704033 0 -767687359.43704033 124393457.49075699 0 0 0 0 -180696406.93360138 -651897934.66246486 0 -651897934.66246486 301396139.8634758 0 0 0 0 -405473074.21061707 -673981862.01658249 0 -673981862.01658249 409588055.32584 0 0 0 0 -30005895.171264648 -959540277.44035912 0 -959540277.44035912 268084542.07963181 0 0 0 0 -256631720.12173462 -91526713.594247818 0 -91526713.594247818 1165817278.0233498 0 0 0 0 -236671715.49961853 -989687477.4317379 0 -989687477.4317379 987270349.37578583 0 0 0 0 -315691763.55529785 -377311658.81118774 0 -377311658.81118774 324558307.60058022 0 0 0 0 -729132104.72827911 -964585985.13497257 0 -964585985.13497257 395814698.73248291 0 0 0 0 -296692565.70690155 -1018455260.1361756 0 -1018455260.1361756 -862992288.69636536 0 0 0 0 -185023200.94644165 -235756762.42233276 0 -235756762.42233276 267191370.97098541 0 0 0 0 -533991032.43737793 -485377216.55642509 0 -485377216.55642509 346719586.20772552 0 0 0 0 -130860140.76229858 12860093.770328522 0 12860093.770328522 635863561.05760491 0 0 0 0 -387343625.76546478 -379199357.07166672 0 -379199357.07166672 613922232.6006546 0 0 0 0 -152913126.38436127 -44240273.251399994 0 -44240273.251399994 747990161.87195206 0 0 0 0 -143554314.5919342 -27505570.144109726 0 -27505570.144109726 764558559.71700859 0 0 0 0 -101908888.5176239 -1070401244.1345177 0 -1070401244.1345177 479802827.41464233 0 0 0 0 -276065737.38233948 -1104365436.6233199 0 -1104365436.6233199 2135992676.2331581 0 0 0 0 47672.52554188342 -15623694.303518979 0 -15623694.303518979 3408180.2962055206 0 0 0 0 146836861.90089417 752466126.83007431 0 752466126.83007431 2795170192.546607 0 0 0 0 1320899.4595609307 -1453533.929168079 0 -1453533.929168079 854070.33287870698 0 0 0 0 -24750459.999099731 -44286491.031200886 0 -44286491.031200886 -25291002.447332859 0 0 0 0 111691044.25271606 313079815.85095787 0 313079815.85095787 665552628.69539261 0 0 0 0 3339023.0932790637 -4454844.9622661322 0 -4454844.9622661322 2544791.3329439787 0 0 0 0 -26069496.74374032 19724640.022119798 0 19724640.022119798 20774562.630199432 0 0 0 0 17357769.838973999 -10709337.250431061 0 -10709337.250431061 -10373285.131493568 0 0 0 0 -289100.70579528809 -32651005.293033123 0 -32651005.293033123 -50170287.227543831 0 0 0 0 -71495668.410125732 -126812368.7378788 0 -126812368.7378788 -169728403.90867519 0 0 0 0 -106341135.19395447 20975751.010594368 0 20975751.010594368 -1586480.3209896088 0 0 0 0 36399841.10748291 28938410.571076632 0 28938410.571076632 -63328898.162916183 0 0 0 0 -289524073.23990822 -93345542.803806901 0 -93345542.803806901 68530266.321034908 0 0 0 0 -1072362.5986231044 -803373.58232906088 0 -803373.58232906088 1125225.7384197777 0 0 0 0 -19953288.235229492 150618664.06488049 0 150618664.06488049 45258548.972561479 0 0 0 0 -1215346555.1103516 -1054668626.4490736 0 -1054668626.4490736 -113626716.59335679 0 0 0 0 -341627043.81018066 -380286677.44011444 0 -380286677.44011444 -195331186.29817086 0 0 0 0 -142894.24672698975 -266626681.81537676 0 -266626681.81537676 -1043339862.5380464 0 0 0 0 -71076855.313079834 -420301898.70212579 0 -420301898.70212579 -376297796.16330987 0 0 0 0 -3331929.795715332 -82594651.826798946 0 -82594651.826798946 212007522.38779551 0 0 0 0 4417110.0565490723 1834211.7550057769 0 1834211.7550057769 50251990.019143343 0 0 0 0 155545158.56390381 -81424680.931302905 0 -81424680.931302905 -34495281.687972188 0 0 0 0 -3072659.1427001953 201488733.81851286 0 201488733.81851286 158514836.41476816 0 0 0 0 43167483.407592773 39773983.90000248 0 39773983.90000248 -104899612.69288468 0 0 0 0 63820992.842235565 -40335574.948762536 0 -40335574.948762536 1133080.9308404922 0 0 0 0 -1449009.574759014 -3110016.9202320464 0 -3110016.9202320464 1996626.7302645678 0 0 0 0 18955076.196100235 -75486273.304194391 0 -75486273.304194391 -49482436.51302886 0 0 0 0 17420976.267715454 312128.57211363316 0 312128.57211363316 -9829178.6096534729 0 0 0 0 2091638.0095084459 -164540.14249604568 0 -164540.14249604568 -2575224.6710456014 0 0 0 0 4439299.0985450745 -6911343.8081735373 0 -6911343.8081735373 106867731.02459717 0 0 0 0 4525625.0457210392 -6401433.8580238782 0 -6401433.8580238782 -3393417.88770492 0 0 0 0 10075563.562011719 -90554021.330610275 0 -90554021.330610275 209112930.99997902 0 0 0 0 28189261.724334717 18508799.159082413 0 18508799.159082413 -7232700.4535095692 0 0 0 0 5622565.3345689774 14259974.705306292 0 14259974.705306292 202314683.36029053 0 0 0 0 5846333.5288792998 -7904978.1960960999 0 -7904978.1960960999 2331071.3200671878 0 0 0 0 -31538843.671096802 53794506.649282455 0 53794506.649282455 207102987.80211687 0 0 0 0 -139277308.66034698 -102173890.3483963 0 -102173890.3483963 214420503.79847717 0 0 0 0 -88372079.551589966 2883027.5651092529 0 2883027.5651092529 395981722.93221664 0 0 0 0 -287581927.05886841 -177397347.70020676 0 -177397347.70020676 420523450.9889183 0 0 0 0 -191235309.37042236 -248586982.12569809 0 -248586982.12569809 244812291.18083096 0 0 0 0 -100707412.40420532 -146216173.63012314 0 -146216173.63012314 262872328.09961843 0 0 0 0 229529716.88739014 -260589548.42774391 0 -260589548.42774391 46297797.475149155 0 0 0 0 275982493.81498718 -205210597.00264359 0 -205210597.00264359 111146198.88806915 0 0 0 0 1865376.8497343808 -802546.6686838977 0 -802546.6686838977 -1677925.227947155 0 0 0 0 -129656222.081604 -269808305.51028442 0 -269808305.51028442 157872183.42578506 0 0 0 0 -1710177157.879837 -325658158.38188934 0 -325658158.38188934 578348.81412506104 0 0 0 0 -721315996.40357971 -21172251.889028549 0 -21172251.889028549 -501907714.36265993 0 0 0 0 -168705576.36129761 -880785648.48064423 0 -880785648.48064423 -586129240.55252123 0 0 0 0 119489.0357786566 -1568040.7666772008 0 -1568040.7666772008 288891.14784364402 0 0 0 0 6225396.9861450195 26771957.819223404 0 26771957.819223404 -427976019.47496796 0 0 0 0 -904457400.88250732 -719829724.03585434 0 -719829724.03585434 -692318249.61902618 0 0 0 0 -889982884.59855652 -326061473.45073032 0 -326061473.45073032 -32913956.032234192 0 0 0 0 3048689.6643810272 -18784959.492216408 0 -18784959.492216408 -4954221.7226333618 0 0 0 0 4160927.0658892691 -10163125.620361201 0 -10163125.620361201 6632983.5997931613 0 0 0 0 10379959.675567627 -122339511.32646942 0 -122339511.32646942 95372699.932806969 0 0 0 0 5543571.6679567099 -5666527.5912383087 0 -5666527.5912383087 -3788602.458983745 0 0 0 0 3929916.9474277496 -14230546.187933981 0 -14230546.187933981 -1609857.9594578743 0 0 0 0 10355885.123657227 -10493498.655076981 0 -10493498.655076981 -3302903.8868573308 0 0 0 0 11641148.756973267 -13295154.510031223 0 -13295154.510031223 -9355088.9111387134 0 0 0 0 14197757.136112213 -11177012.083011866 0 -11177012.083011866 -7631558.6713061333 0 0 0 0 -9805840.9416351318 -31332917.53608346 0 -31332917.53608346 3792711.6539238095 0 0 0 0 12413621.246917725 -14494385.329045475 0 -14494385.329045475 -7603129.2808405757 0 0 0 0 7588074.3580474854 -15843981.935717046 0 -15843981.935717046 -7973808.4695973396 0 0 0 0 1318307.7733383179 -13052370.449919105 0 -13052370.449919105 2908291.2804889083 0 0 0 0 16319152.877855301 -43815296.280221656 0 -43815296.280221656 4864694.0630904436 0 0 0 0 -7178286.3042449951 -22669819.32873702 0 -22669819.32873702 72834244.717670828 0 0 0 0 -751314501.34519958 -715749849.19673491 0 -715749849.19673491 -599587843.08090591 0 0 0 0 -578207333.10861206 -830458722.20800018 0 -830458722.20800018 -560581329.51542664 0 0 0 0 4340370.6798896864 -9629013.9475054219 0 -9629013.9475054219 4766184.3665265953 0 0 0 0 -16952367.168655396 -17611194.056923807 0 -17611194.056923807 22324895.140143573 0 0 0 0 4455518.6880635694 -9710029.8111998029 0 -9710029.8111998029 6281617.8576587047 0 0 0 0 -1075491018.3000031 -818561806.53855324 0 -818561806.53855324 -253363388.51616669 0 0 0 0 -1005363777.5119743 -599364331.13215208 0 -599364331.13215208 -52046163.326641083 0 0 0 0 -610927829.61184692 -629072055.73403454 0 -629072055.73403454 112197532.72865677 0 0 0 0 -745678028.69245911 -428873594.00065994 0 -428873594.00065994 -185175351.13395882 0 0 0 0 -1011114290.2399292 -536808542.04670906 0 -536808542.04670906 -260029115.31817853 0 0 0 0 -829732441.45034409 -711097217.18771124 0 -711097217.18771124 -124915833.71747589 0 0 0 0 -579994779.1235199 -374029034.40539837 0 -374029034.40539837 -327555050.30865097 0 0 0 0 -704319169.91665649 -349020490.34240532 0 -349020490.34240532 -75952014.708643198 0 0 0 0 -480593409.45063591 -51295849.271095276 0 -51295849.271095276 122794459.81752777 0 0 0 0 -397339275.24699402 -148262215.36006927 0 -148262215.36006927 234715498.49742657 0 0 0 0 -649581002.04812622 -62923312.94951725 0 -62923312.94951725 239347842.81472015 0 0 0 0 -438324482.28225708 -774191504.3576107 0 -774191504.3576107 -689748873.23491287 0 0 0 0 -462429879.28668594 334877114.38193846 0 334877114.38193846 976621294.03638077 0 0 0 0 -1189855.0376187712 -321329.21871872013 0 -321329.21871872013 240208.84530930407 0 0 0 0 -75195507.016998291 10062545.479500771 0 10062545.479500771 95298644.735496521 0 0 0 0 -774481696.6385498 -149224455.18308258 0 -149224455.18308258 173875968.57342148 0 0 0 0 -1485650400.8775635 -769280409.82781887 0 -769280409.82781887 79523727.595676422 0 0 0 0 -387362191.62712097 -485547469.84729767 0 -485547469.84729767 148066084.66193008 0 0 0 0 -398356209.026474 -698650612.7136631 0 -698650612.7136631 87391272.4968853 0 0 0 0 -138038073.90900612 -528109015.80987406 0 -528109015.80987406 -125225709.19858551 0 0 0 0 -456901772.97442627 -734219058.65455627 0 -734219058.65455627 65866261.421947479 0 0 0 0 -292015992.50741577 -508629419.7495594 0 -508629419.7495594 -34080256.405425072 0 0 0 0 -509452854.86363983 -600424419.0326438 0 -600424419.0326438 326868264.43966675 0 0 0 0 -2180967.0769602358 -869725.77113839379 0 -869725.77113839379 577845.09627168905 0 0 0 0 -396309992.52958679 -259879829.76195812 0 -259879829.76195812 705727441.346138 0 0 0 0 -216322165.97120667 -334629471.8156395 0 -334629471.8156395 391082183.60876799 0 0 0 0 -194886031.00863647 -228998201.65884876 0 -228998201.65884876 1252695494.3446393 0 0 0 0 -989495.29777908325 -547254.19190765219 0 -547254.19190765219 302235.53711592779 0 0 0 0 -68388554.556768417 -459478501.06052327 0 -459478501.06052327 49824192.198085785 0 0 0 0 -375887417.34152222 -769111367.45144653 0 -769111367.45144653 -104574441.25652218 0 0 0 0 -518430234.99457932 -512995500.03041816 0 -512995500.03041816 -236052166.67864227 0 0 0 0 -550436915.9462738 -616646181.95269203 0 -616646181.95269203 -36644519.441415787 0 0 0 0 -840863941.93896484 -601706147.20934486 0 -601706147.20934486 -259830476.17258644 0 0 0 0 -162571850.93156433 -491785728.18288016 0 -491785728.18288016 -418831508.50671005 0 0 0 0 -165412892.1071167 -350076597.35452557 0 -350076597.35452557 -401632811.70082664 0 0 0 0 -575951224.69385529 -266132243.06912899 0 -266132243.06912899 -204828596.09952354 0 0 0 0 -391909896.38978577 -567269208.45412731 0 -567269208.45412731 -218057987.47045517 0 0 0 0 -382725904.5743866 -503538698.56991959 0 -503538698.56991959 -497064852.08491993 0 0 0 0 -490850712.56111145 -619939777.52861404 0 -619939777.52861404 -562076606.65246105 0 0 0 0 -105166477.48149872 -604103723.91890144 0 -604103723.91890144 -617355921.88339233 0 0 0 0 -40237113.067272186 -459775572.11483335 0 -459775572.11483335 -494022350.15908813 0 0 0 0 -250638582.039711 -537725399.14436054 0 -537725399.14436054 -392857934.98743439 0 0 0 0 115145178.23239136 -645011584.80661774 0 -645011584.80661774 -65509652.230621338 0 0 0 0 -164140251.68851471 -377952258.22091675 0 -377952258.22091675 -233170646.79911804 0 0 0 0 172595612.26558113 -1045343501.3553177 0 -1045343501.3553177 213456722.02463913 0 0 0 0 246091941.86859322 -538697634.51093316 0 -538697634.51093316 5391036.2919654846 0 0 0 0 213489522.54016113 -692806674.24347305 0 -692806674.24347305 178174114.17360687 0 0 0 0 367037704.68273926 -264800882.30077553 0 -264800882.30077553 24757473.887786865 0 0 0 0 -215077956.54251862 -263935343.97444487 0 -263935343.97444487 62479010.35102272 0 0 0 0 -168524519.68919373 -320775763.95330238 0 -320775763.95330238 -236609592.75849676 0 0 0 0 -225636531.18538666 52511474.443437099 0 52511474.443437099 362019346.25701904 0 0 0 0 68647328.977069855 -380173783.78193045 0 -380173783.78193045 255317648.56297684 0 0 0 0 -18933482.065505981 -471306814.53954947 0 -471306814.53954947 1245714890.4047928 0 0 0 0 736714275.07981873 -59929833.149124146 0 -59929833.149124146 346254323.30311012 0 0 0 0 -30741391.054367065 -577078831.4778862 0 -577078831.4778862 394515912.09499836 0 0 0 0 -652148943.904953 -917415001.57212162 0 -917415001.57212162 389922462.67585802 0 0 0 0 -370178539.13057327 -256035112.76939416 0 -256035112.76939416 181472834.88206673 0 0 0 0 874834237.69232178 -429479434.60109329 0 -429479434.60109329 676636316.58358574 0 0 0 0 600642587.21965027 -1544045615.9082174 0 -1544045615.9082174 1227450350.192997 0 0 0 0 161334168.20732117 -1071520079.948637 0 -1071520079.948637 723028107.38547897 0 0 0 0 551240554.62352562 -1794884477.0533776 0 -1794884477.0533776 134028018.80750656 0 0 0 0 186528693.68340683 -1013096467.4312632 0 -1013096467.4312632 -417392557.81104279 0 0 0 0 -21662161.644287109 -1930020215.7141404 0 -1930020215.7141404 -247529572.63781929 0 0 0 0 -2466541.0365123004 -4612365.2485352866 0 -4612365.2485352866 550260.24299582001 0 0 0 0 246951398.67832947 54504636.712612152 0 54504636.712612152 -124002942.11004829 0 0 0 0 19225288.636154175 -74760078.571385384 0 -74760078.571385384 -66398478.214174271 0 0 0 0 669367.80213528126 -361433.10816184059 0 -361433.10816184059 -230446.42888821848 0 0 0 0 646279348.3296566 -923829505.59387398 0 -923829505.59387398 84958547.108348846 0 0 0 0 2325177200.9651489 -1183656853.6833858 0 -1183656853.6833858 87183021.259450912 0 0 0 0 2075970796.5725098 -802729087.87658119 0 -802729087.87658119 670760775.8285923 0 0 0 0 3601274688.9753976 -1495961535.8893275 0 -1495961535.8893275 194621175.24429321 0 0 0 0 -771667.7778885928 -1758832.7781335711 0 -1758832.7781335711 3146824.7482660115 0 0 0 0 1212631578.0397339 -1498393753.9685087 0 -1498393753.9685087 3104678177.8232327 0 0 0 0 45063992.675087452 226294534.58140492 0 226294534.58140492 1070238264.6542206 0 0 0 0 69822801.300033569 -959248731.21348572 0 -959248731.21348572 1603594080.1098957 0 0 0 0 1049988230.525589 -1436271009.3566079 0 -1436271009.3566079 805680103.44106293 0 0 0 0 1787840636.2309113 -353303979.514884 0 -353303979.514884 570932217.7634697 0 0 0 0 811727866.05671692 -787710751.48043919 0 -787710751.48043919 394737221.87087059 0 0 0 0 675895574.00209236 -563319068.13337898 0 -563319068.13337898 205765939.65540695 0 0 0 0 590721679.21300602 -1206714907.196816 0 -1206714907.196816 364183754.90223312 0 0 0 0 349584779.43280029 -1079723277.9293022 0 -1079723277.9293022 279749441.49244308 0 0 0 0 446990573.79771423 -1203254515.3514252 0 -1203254515.3514252 377388921.88560295 0 0 0 0 541259869.51994324 -1032812652.9517803 0 -1032812652.9517803 -75069520.628487587 0 0 0 0 211525767.92641449 -858550613.78794622 0 -858550613.78794622 584816083.21638489 0 0 0 0 106827277.0267067 -599594673.65158272 0 -599594673.65158272 104948484.11706924 0 0 0 0 352067495.56915283 -1048752596.3780193 0 -1048752596.3780193 596287635.43805504 0 0 0 0 137764421.85957336 -636827837.27952957 0 -636827837.27952957 463238274.48345757 0 0 0 0 -681753.24021097273 -3033037.2591072246 0 -3033037.2591072246 -506215.58031069394 0 0 0 0 585963407.3012085 -407363219.24834728 0 -407363219.24834728 170527002.33953667 0 0 0 0 586359033.53095245 -417303230.17456698 0 -417303230.17456698 101519168.42954445 0 0 0 0 522972196.67897224 -247847541.10245013 0 -247847541.10245013 1936353.6868171692 0 0 0 0 81731411.618457794 -123821652.3435607 0 -123821652.3435607 42344563.339984894 0 0 0 0 618338071.77023315 -481489046.29312229 0 -481489046.29312229 -243546520.68283463 0 0 0 0 600059324.68888855 -514043778.86259174 0 -514043778.86259174 -4340362.6121873856 0 0 0 0 -182277363.78325653 -178880021.02688503 0 -178880021.02688503 -1952679.4571018219 0 0 0 0 754573110.53443909 -721864358.09055328 0 -721864358.09055328 -217114949.22731781 0 0 0 0 -785333483.00667 -712781266.60338259 0 -712781266.60338259 -682447342.04281616 0 0 0 0 612945.45831959322 -1243324.7391845696 0 -1243324.7391845696 793675.85182506032 0 0 0 0 1223991424.2319946 -449802366.44540405 0 -449802366.44540405 -1364360348.284256 0 0 0 0 -144733.43301427364 -1149622.9239754267 0 -1149622.9239754267 -362712.88182445616 0 0 0 0 527719805.5446167 -1131271115.3353186 0 -1131271115.3353186 1000002820.0588675 0 0 0 0 991228479.26672363 -788516807.02698517 0 -788516807.02698517 -2746204639.101656 0 0 0 0 1092630084.4481812 -1692612790.2544346 0 -1692612790.2544346 689485471.83744431 0 0 0 0 722650338.25097656 -1114011214.251255 0 -1114011214.251255 -2216645061.6627731 0 0 0 0 598098681.68183899 -1752094833.774025 0 -1752094833.774025 2404865028.915906 0 0 0 0 1488135674.9862671 222672441.12533951 0 222672441.12533951 -2293821723.7062135 0 0 0 0 -610619813.98641968 65420445.714214325 0 65420445.714214325 -1164507594.03232 0 0 0 0 1596393.3771741316 -1461227.472388573 0 -1461227.472388573 -869640.41405037232 0 0 0 0 806763501.30178833 -815554405.21004868 0 -815554405.21004868 228844253.30800438 0 0 0 0 1036037313.6406555 -1324018193.3924961 0 -1324018193.3924961 831463892.37744522 0 0 0 0 494248844.04522133 -622539838.91898966 0 -622539838.91898966 1270815430.807785 0 0 0 0 985030854.0614624 -916550030.66612244 0 -916550030.66612244 237436843.76104689 0 0 0 0 918987545.05193138 -892034182.05681825 0 -892034182.05681825 426555662.1760788 0 0 0 0 518717127.57872772 -1224747858.571166 0 -1224747858.571166 150721219.93844604 0 0 0 0 187135653.43630981 -1005074792.4050236 0 -1005074792.4050236 332895947.36451626 0 0 0 0 281431037.90016174 -1210547923.7411671 0 -1210547923.7411671 428497678.37172699 0 0 0 0 340184146.8759613 -1002084566.3750515 0 -1002084566.3750515 220802516.55194092 0 0 0 0 -372844852.37081146 -886140155.77185345 0 -886140155.77185345 82424140.743854523 0 0 0 0 279016360.97088623 -908404301.66434097 0 -908404301.66434097 21350332.876064301 0 0 0 0 813544481.88061523 -826374306.42004108 0 -826374306.42004108 -92564742.074985027 0 0 0 0 324763801.59358215 -1309195732.0722313 0 -1309195732.0722313 -569377553.89595985 0 0 0 0 -1827723749.40242 -1497964466.9467945 0 -1497964466.9467945 -530658882.5646497 0 0 0 0 1184378.3421695903 -1077996.8467963003 0 -1077996.8467963003 -516365.3262929935 0 0 0 0 1858049331.4859543 -942444319.21052742 0 -942444319.21052742 -59808771.976119041 0 0 0 0 1340250237.3284073 -541592748.31989622 0 -541592748.31989622 198835114.99215126 0 0 0 0 1238291407.5071869 -772085854.3813982 0 -772085854.3813982 84926348.535926819 0 0 0 0 1134783764.0545864 -1000858650.6674738 0 -1000858650.6674738 -64480584.64809227 0 0 0 0 902827156.35141754 -1025428298.93084 0 -1025428298.93084 95212292.643924713 0 0 0 0 1266015320.8029251 -121636202.57588863 0 -121636202.57588863 44626438.213760376 0 0 0 0 1103144715.213768 -767215702.32765865 0 -767215702.32765865 93832227.858282089 0 0 0 0 1145420305.5607777 -632916590.13082504 0 -632916590.13082504 261426372.62954712 0 0 0 0 2913698088.6921768 384545662.98439646 0 384545662.98439646 91811165.891120911 0 0 0 0 -346900635.98614502 -767956734.5345273 0 -767956734.5345273 -918028874.63030815 0 0 0 0 -1247704104.2726669 -1068976145.7669477 0 -1068976145.7669477 -703144332.96066284 0 0 0 0 3764721.7989482209 -2995305.739776548 0 -2995305.739776548 -2793082.3026158493 0 0 0 0 1183832559.7481651 456853722.76373482 0 456853722.76373482 329359735.05778694 0 0 0 0 960952390.72877502 31771835.997361183 0 31771835.997361183 101935534.43394315 0 0 0 0 585702403.26943398 178778316.12014329 0 178778316.12014329 464254248.19310951 0 0 0 0 711838826.28910255 -236487612.69238424 0 -236487612.69238424 -437717578.27132034 0 0 0 0 419658692.44819641 -432163946.07362366 0 -432163946.07362366 -128660355.80362892 0 0 0 0 723801808.20074463 -321674765.76393175 0 -321674765.76393175 -920428773.83923149 0 0 0 0 776971372.71835327 -52814745.193457603 0 -52814745.193457603 -1414879851.5090485 0 0 0 0 591116256.90851593 291617563.91003418 0 291617563.91003418 -1710643084.2695389 0 0 0 0 624761545.81733704 -305567110.1548481 0 -305567110.1548481 -470229949.6417923 0 0 0 0 770790646.66175842 5538291.352355957 0 5538291.352355957 -758572216.15692329 0 0 0 0 571490787.12840271 -62126421.46099472 0 -62126421.46099472 -780908052.44967651 0 0 0 0 698466634.54766846 -117014859.31533051 0 -117014859.31533051 -1109018139.5604935 0 0 0 0 468821549.15820312 -281053723.05105686 0 -281053723.05105686 -892851996.88340378 0 0 0 0 441863940.17367554 -43354792.291496277 0 -43354792.291496277 -720314142.19309235 0 0 0 0 -69983231.907897949 -443953521.79884148 0 -443953521.79884148 -382154844.49413681 0 0 0 0 817312695.82679749 -401799554.68327713 0 -401799554.68327713 -404401836.42739487 0 0 0 0 436406068.66906738 -327428771.94467163 0 -327428771.94467163 -1002432.1632156372 0 0 0 0 575750655.34344482 -896502715.20894623 0 -896502715.20894623 -251591276.83600807 0 0 0 0 1178963258.0573606 -645408518.74877489 0 -645408518.74877489 -148431288.52764511 0 0 0 0 1264164871.7940578 -784313203.33943796 0 -784313203.33943796 -729287053.6006546 0 0 0 0 244608729.08522034 -1261149625.4081306 0 -1261149625.4081306 -893854578.3846035 0 0 0 0 -368967350.33139038 -196409986.39603233 0 -196409986.39603233 -575244886.70922661 0 0 0 0 -111651716.03276062 -418819447.49547768 0 -418819447.49547768 -1368157707.4004145 0 0 0 0 3236062.2307314277 -595798.74427216873 0 -595798.74427216873 -2411072.797231352 0 0 0 0 -728654461.12101746 -582689552.19081306 0 -582689552.19081306 -137207598.62495422 0 0 0 0 1224626.523576729 -1117879.5741749927 0 -1117879.5741749927 -953426.47187994979 0 0 0 0 84914145.329162598 -679606341.80168152 0 -679606341.80168152 -1618642479.2253513 0 0 0 0 50154244.852729797 108969481.1663332 0 108969481.1663332 -1256090396.4971237 0 0 0 0 316653749.4045105 -206482465.17802715 0 -206482465.17802715 -668850837.21986008 0 0 0 0 -45401592.592338562 -326381504.11034799 0 -326381504.11034799 -594659143.50593185 0 0 0 0 -11066096.77394104 -112721880.41058254 0 -112721880.41058254 -92533928.56606102 0 0 0 0 11767887.004264832 -13525430.366100311 0 -13525430.366100311 -1005787.6538162231 0 0 0 0 6432980.1578920037 -10110476.270621082 0 -10110476.270621082 1970203.9313215725 0 0 0 0 -73154285.485916138 20825069.677959442 0 20825069.677959442 -120833188.66285673 0 0 0 0 10368916.470738292 -2716140.900740739 0 -2716140.900740739 -7130765.9652137384 0 0 0 0 9680377.3062210083 -9974615.7314605713 0 -9974615.7314605713 -1616353.1188554764 0 0 0 0 6517917.6522026062 -14435069.286565781 0 -14435069.286565781 -7865659.4024734497 0 0 0 0 -3126899.9837417603 15847711.735052109 0 15847711.735052109 -76530807.740158081 0 0 0 0 6974003.617740199 -10716425.18421548 0 -10716425.18421548 1874256.8347198255 0 0 0 0 5578852.8748168945 -12479894.361978531 0 -12479894.361978531 -7610374.0524635315 0 0 0 0 5415079.1283757687 -15298436.589269638 0 -15298436.589269638 -13573656.645446777 0 0 0 0 13156424.806842804 -12252156.522533417 0 -12252156.522533417 -18634581.617904663 0 0 0 0 5527919.106480943 -8218038.6693240479 0 -8218038.6693240479 -14439915.203655161 0 0 0 0 1262830930.8893585 -31798824.93787384 0 -31798824.93787384 101567671.65548706 0 0 0 0 1119619359.7785568 160138575.44448853 0 160138575.44448853 8680653.3137435913 0 0 0 0 31509240.558227539 -46880866.864993095 0 -46880866.864993095 11855298.635946274 0 0 0 0 9634472.1496262699 -13245352.578000622 0 -13245352.578000622 -2160858.637832148 0 0 0 0 5491556.0174231529 -13893222.092071772 0 -13893222.092071772 -11704066.024734497 0 0 0 0 -44279061.226501465 -34214841.276027679 0 -34214841.276027679 22903784.729319572 0 0 0 0 2348917.0862465538 -5501645.4978292882 0 -5501645.4978292882 -10487415.074273888 0 0 0 0 2064558020.5522194 -411609578.1248951 0 -411609578.1248951 -841631401.5866394 0 0 0 0 -25019884.765151978 -5437830.7363510132 0 -5437830.7363510132 -101935010.34643364 0 0 0 0 117604084.86662292 -27076193.649819374 0 -27076193.649819374 -148150551.48036957 0 0 0 0 61308761.759620667 9361861.8836507797 0 9361861.8836507797 -669496506.73419189 0 0 0 0 397658825.2033844 55226322.386392593 0 55226322.386392593 -665762326.44856262 0 0 0 0 295740014.17285919 299171070.78666592 0 299171070.78666592 -1131174517.7936592 0 0 0 0 335945036.10285187 -151562774.21527815 0 -151562774.21527815 -1101119639.8432579 0 0 0 0 307039.0863362588 -2509648.1463139951 0 -2509648.1463139951 -3865196.6507164724 0 0 0 0 -558215000.48566437 889915194.41146278 0 889915194.41146278 -974257224.53981018 0 0 0 0 -226278325.7668457 401418576.96122169 0 401418576.96122169 -388030167.5941906 0 0 0 0 300832448.75393677 272598262.24597931 0 272598262.24597931 -1111648141.4694481 0 0 0 0 309256253.02699804 656561627.06661975 0 656561627.06661975 -1718152741.1626129 0 0 0 0 503610186.05432892 -1917712692.6484385 0 -1917712692.6484385 -857802856.61885071 0 0 0 0 134159684.24609375 -1501656134.4458809 0 -1501656134.4458809 -424931727.4258213 0 0 0 0 646232367.6953125 -1462495104.3910522 0 -1462495104.3910522 -683430142.47158623 0 0 0 0 9215953.656861376 -8745840.0825626105 0 -8745840.0825626105 -2155008.9884189032 0 0 0 0 61680612.779087067 -250280194.74781513 0 -250280194.74781513 -361964843.49011612 0 0 0 0 660004999.25605774 -434291118.48776817 0 -434291118.48776817 707143939.71910095 0 0 0 0 662002264.44206238 -654226173.54239273 0 -654226173.54239273 -1693939463.2177467 0 0 0 0 1004736738.4683075 -304298747.90116501 0 -304298747.90116501 -626337985.99178314 0 0 0 0 1000882153.2933502 45716906.416072845 0 45716906.416072845 88516804.430225372 0 0 0 0 -883560811.71656799 413677776.19369125 0 413677776.19369125 -434951430.38657761 0 0 0 0 -2358957509.2404137 -1423029301.2427778 0 -1423029301.2427778 -133448749.27978516 0 0 0 0 -2028043840.9294128 -3300474681.6523166 0 -3300474681.6523166 -103666552.74111176 0 0 0 0 1783778685.3470612 -994828304.10951996 0 -994828304.10951996 -447135219.64473724 0 0 0 0 603923409.62953186 -3302477572.0247936 0 -3302477572.0247936 -972419204.38808441 0 0 0 0 1027042102.6699982 -198215523.85308838 0 -198215523.85308838 33933592.045158386 0 0 0 0 1116090572.139679 -549081786.60296249 0 -549081786.60296249 916763428.19272423 0 0 0 0 815709605.85269928 233769845.64502335 0 233769845.64502335 430390195.53669739 0 0 0 0 4323078.3301633298 -961765.8927297201 0 -961765.8927297201 -980280.01163251419 0 0 0 0 3045009734.7619629 1088434323.3040905 0 1088434323.3040905 -893607689.4992981 0 0 0 0 2464237097.3769836 1079570016.4713726 0 1079570016.4713726 -859102422.74262619 0 0 0 0 -145105886.99542236 227089475.67508698 0 227089475.67508698 -175336218.35385132 0 0 0 0 3740764461.8683014 862437130.42535019 0 862437130.42535019 -1161135063.4566422 0 0 0 0 -3035630773.3542938 173995318.91422462 0 173995318.91422462 1444095793.5344925 0 0 0 0 3450148226.7238464 696627465.17798615 0 696627465.17798615 -887303460.61804962 0 0 0 0 856093072.60207367 -33693937.2302742 0 -33693937.2302742 35487637.828857422 0 0 0 0 1430151621.8277283 1881305663.7736034 0 1881305663.7736034 2632360408.2534637 0 0 0 0 8066886.091322992 -9906867.4907315709 0 -9906867.4907315709 4779016.4072802365 0 0 0 0 303354035.14978027 -592516243.48428535 0 -592516243.48428535 1133253469.2234459 0 0 0 0 1818165562.2681274 -929144957.85505867 0 -929144957.85505867 -100435617.10311508 0 0 0 0 712773143.72683573 -847360115.50565386 0 -847360115.50565386 -586454622.71846008 0 0 0 0 724886182.29367208 -409665401.03032768 0 -409665401.03032768 -347245466.58005905 0 0 0 0 901651056.7711792 -670996768.62325096 0 -670996768.62325096 -752932648.00297546 0 0 0 0 858707835.00024414 214255619.6455574 0 214255619.6455574 -139118804.52386093 0 0 0 0 483960628.38523865 -379493710.22189331 0 -379493710.22189331 -557562673.58259201 0 0 0 0 48627708.557579041 -286333730.95464277 0 -286333730.95464277 -447494821.86643982 0 0 0 0 507733063.5453949 -633263344.06354713 0 -633263344.06354713 -689344454.80700874 0 0 0 0 455748526.75927544 -1064859637.4749784 0 -1064859637.4749784 -1154966450.8385086 0 0 0 0 352913208.38990784 -841647924.83339119 0 -841647924.83339119 -885449974.83819199 0 0 0 0 97137330.284116626 -874546843.013888 0 -874546843.013888 -719552891.0335083 0 0 0 0 112392182.5680542 -863117317.70579529 0 -863117317.70579529 -711167334.64434719 0 0 0 0 -139051570.82354736 -844975024.06109428 0 -844975024.06109428 -709179568.55280495 0 0 0 0 -136726058.9657135 -901685784.90510559 0 -901685784.90510559 -549156562.60154343 0 0 0 0 -88190339.73034668 -733126064.06881332 0 -733126064.06881332 -690473028.0906601 0 0 0 0 -25181352.347450256 -654967674.92977619 0 -654967674.92977619 -656284158.31408691 0 0 0 0 33141100.581863403 -617565108.76019669 0 -617565108.76019669 -681200163.05783081 0 0 0 0 -546904950.0115509 -535175002.2000103 0 -535175002.2000103 -432482027.47604179 0 0 0 0 -94068525.571777344 -302032956.43366671 0 -302032956.43366671 -314629982.07818222 0 0 0 0 6532989.3383771032 -5012191.75181216 0 -5012191.75181216 -5073092.9234548602 0 0 0 0 -516484314.8795929 1989541666.7135582 0 1989541666.7135582 -83290844.300544739 0 0 0 0 -620219187.52342224 -720974972.56162167 0 -720974972.56162167 -535466205.74300766 0 0 0 0 -164290062.8508606 -592992452.79207611 0 -592992452.79207611 -632400251.21324921 0 0 0 0 -166275866.18301392 -714655100.93351364 0 -714655100.93351364 -668091015.20465851 0 0 0 0 -490357422.12989044 -686121747.79836559 0 -686121747.79836559 -619985660.4546032 0 0 0 0 -254078884.21748352 -728101554.3476944 0 -728101554.3476944 -757624908.58465195 0 0 0 0 -511565805.4491272 -606062890.18359852 0 -606062890.18359852 -626246336.13298988 0 0 0 0 -249502468.17666626 -549091872.8172102 0 -549091872.8172102 -735678893.98241043 0 0 0 0 -257085998.73039246 -542038506.27693844 0 -542038506.27693844 -491552847.31529236 0 0 0 0 -291364322.94166946 -759076558.58374023 0 -759076558.58374023 -548971750.50974655 0 0 0 0 -225178269.56445312 -691679426.76098251 0 -691679426.76098251 -610132865.40102959 0 0 0 0 -235873042.43058777 -675778293.88284111 0 -675778293.88284111 -630107970.24184418 0 0 0 0 -432798940.75688171 -912130264.15749359 0 -912130264.15749359 -96462015.305820465 0 0 0 0 -360404744.37121582 -877093035.14223862 0 -877093035.14223862 -368925818.88806701 0 0 0 0 -315743541.36240387 -823771851.77354431 0 -823771851.77354431 -305296535.03379059 0 0 0 0 -415452626.74224854 -669802101.88718796 0 -669802101.88718796 -353581037.76811981 0 0 0 0 -300250187.78916931 -723979103.26792526 0 -723979103.26792526 -154991756.8175621 0 0 0 0 -183291700.62539673 -717933103.26443672 0 -717933103.26443672 -3766890.5159111023 0 0 0 0 -344787465.51309204 -669888703.42057037 0 -669888703.42057037 182010130.73203754 0 0 0 0 -129330975.35884857 -471597046.22739601 0 -471597046.22739601 171888208.49469757 0 0 0 0 -450130498.40560913 -676412608.12023091 0 -676412608.12023091 179304419.89923859 0 0 0 0 -402726053.39553833 -915504343.35316658 0 -915504343.35316658 -161395628.06620407 0 0 0 0 -118094446.54708862 -580002535.53117752 0 -580002535.53117752 36522164.051532745 0 0 0 0 -457130154.31280518 -833354747.07374191 0 -833354747.07374191 56250148.18848896 0 0 0 0 -355481426.25752258 -884304357.46197224 0 -884304357.46197224 -222490872.08725357 0 0 0 0 -459571005.62652969 -867917857.81778765 0 -867917857.81778765 -200574074.22657394 0 0 0 0 -549721114.93881226 -1016304530.7602921 0 -1016304530.7602921 -189492352.52436876 0 0 0 0 -644048241.6365509 -1000845290.9568386 0 -1000845290.9568386 -33932203.738822937 0 0 0 0 -516463811.23783875 -958881676.98781681 0 -958881676.98781681 -561860172.10744858 0 0 0 0 -691497203.16569519 -1132612790.0412273 0 -1132612790.0412273 -345639537.12498856 0 0 0 0 -436730901.26852417 -1135561211.2579098 0 -1135561211.2579098 -751988232.64372253 0 0 0 0 -549704381.02824402 -1115034671.5981894 0 -1115034671.5981894 -470439973.71674347 0 0 0 0 -290918538.39108276 -1207188110.784668 0 -1207188110.784668 -758376289.31800842 0 0 0 0 -390456933.34157562 -1066326872.8080359 0 -1066326872.8080359 -479667290.91842651 0 0 0 0 -384780036.89404297 -1023909588.3589611 0 -1023909588.3589611 -347604403.08992004 0 0 0 0 -216340662.64287186 -1025486384.9691129 0 -1025486384.9691129 -606781209.64068604 0 0 0 0 -239509228.77807617 -1104315881.334795 0 -1104315881.334795 -624735670.78455019 0 0 0 0 95819209.460630536 -1106960036.8677039 0 -1106960036.8677039 -872519758.47642517 0 0 0 0 -91030554.858760834 -1245372544.6556301 0 -1245372544.6556301 -1118594277.8227005 0 0 0 0 -50050887.975845337 -1077659281.6493645 0 -1077659281.6493645 -827401904.2204113 0 0 0 0 -734178062.49663544 -798349879.80360937 0 -798349879.80360937 -1256641512.997551 0 0 0 0 -433554650.12765503 -1199899360.6167927 0 -1199899360.6167927 -1166454018.5840073 0 0 0 0 -491779062.47396851 -1177520781.8770027 0 -1177520781.8770027 -750021045.10954666 0 0 0 0 -663909930.1020813 -1261987752.8245945 0 -1261987752.8245945 -998945437.76412773 0 0 0 0 343804886.76847839 -605394677.4770813 0 -605394677.4770813 -735169508.54774475 0 0 0 0 233630421.2177124 -1087864605.7092552 0 -1087864605.7092552 -1799791329.4962234 0 0 0 0 36522539.424301147 -85589951.051267624 0 -85589951.051267624 197578272.7026844 0 0 0 0 634074.1882019043 -204234993.42391586 0 -204234993.42391586 -141422198.33329773 0 0 0 0 138625161.12065125 149623470.11812401 0 149623470.11812401 -757769125.16130066 0 0 0 0 106226359.59022522 167569686.41111374 0 167569686.41111374 -93659296.940856934 0 0 0 0 210134.78133783489 315236.99275783077 0 315236.99275783077 -2902838.9328704737 0 0 0 0 9425598.7010726929 -81404693.081675529 0 -81404693.081675529 -52565107.775093079 0 0 0 0 9880331.0919762999 -3804280.9548847442 0 -3804280.9548847442 -3000247.4200726356 0 0 0 0 -63845715.78534317 -21959759.226044655 0 -21959759.226044655 116558118.31090164 0 0 0 0 -92185719.524230957 -603816805.38925552 0 -603816805.38925552 -880115879.99209785 0 0 0 0 -94252019.190970898 -1068688381.3917086 0 -1068688381.3917086 219981890.39537048 0 0 0 0 -699110.52100901306 -3510687.1971047297 0 -3510687.1971047297 -2915420.3852181546 0 0 0 0 -371073527.74104309 167848196.22812653 0 167848196.22812653 -95708094.318620682 0 0 0 0 -111737260.51184273 -428003443.55492258 0 -428003443.55492258 -2777356199.1446838 0 0 0 0 -847741.28815273941 -2390905.2304465557 0 -2390905.2304465557 73751.482872484252 0 0 0 0 12962870.150165126 -6807607.7997987773 0 -6807607.7997987773 -6591375.6328773983 0 0 0 0 40365115.518417358 176678740.94013214 0 176678740.94013214 -1087016717.5676422 0 0 0 0 3200558.2441879511 -72598.663821838796 0 -72598.663821838796 -9987082.2365996838 0 0 0 0 69405532.962417603 -32162039.381311417 0 -32162039.381311417 -24132051.310369492 0 0 0 0 -588921744.89533997 -1621224255.3877602 0 -1621224255.3877602 -2184356122.6887894 0 0 0 0 -445687234.06565857 -1317862203.0678787 0 -1317862203.0678787 -1550931241.5301399 0 0 0 0 -815036478.68347168 -1729964080.9872913 0 -1729964080.9872913 -2370938553.65205 0 0 0 0 -371009335.73594666 -1287882187.2277546 0 -1287882187.2277546 -1985874087.3950348 0 0 0 0 -700213375.76329803 -1091722199.0790026 0 -1091722199.0790026 -1584791079.8649521 0 0 0 0 -655991806.66882324 -1458004705.3635635 0 -1458004705.3635635 -1877543064.9811459 0 0 0 0 -542911537.64769745 -1134687066.3713284 0 -1134687066.3713284 -1321804200.7570114 0 0 0 0 -395379963.46083069 -1081486159.2138252 0 -1081486159.2138252 -2212677816.7281375 0 0 0 0 -520668564.59919739 -1194894537.541832 0 -1194894537.541832 -1314968457.4929695 0 0 0 0 -719245914.3266449 -1121897916.8529091 0 -1121897916.8529091 -752409087.80219316 0 0 0 0 -791009200.10137939 -1194119776.309165 0 -1194119776.309165 -652546202.83080292 0 0 0 0 -1064703967.6582336 -1206167565.4333725 0 -1206167565.4333725 -1095251569.075489 0 0 0 0 -543545076.36882019 -931355220.90295601 0 -931355220.90295601 -994281849.93545914 0 0 0 0 -954943332.71250534 -868104859.73735714 0 -868104859.73735714 -723868380.25178146 0 0 0 0 -530423052.23553467 -498966923.17980194 0 -498966923.17980194 -650213077.6582098 0 0 0 0 -1403421499.4128418 -682471525.5785408 0 -682471525.5785408 -1771945463.0490618 0 0 0 0 -657991951.67899323 -1008709794.8103209 0 -1008709794.8103209 -1703687587.602066 0 0 0 0 -1559043592.5526886 -1487674501.9756165 0 -1487674501.9756165 -1761792199.2010612 0 0 0 0 -229489611.7635498 -1569338076.9376945 0 -1569338076.9376945 -2768450328.1367431 0 0 0 0 -521961104.99109268 -1047436314.3008614 0 -1047436314.3008614 -1812163000.1024246 0 0 0 0 -582809787.02467346 -813085113.97444534 0 -813085113.97444534 -2668755678.1916924 0 0 0 0 -319344353.10025024 -1276487103.4713478 0 -1276487103.4713478 -1666545446.9142437 0 0 0 0 -560452007.54653168 -1554057832.8772087 0 -1554057832.8772087 -1789129526.4639206 0 0 0 0 -444719065.04428101 -1568013205.9420738 0 -1568013205.9420738 -1248175244.547554 0 0 0 0 -622397458.24000549 -1028618776.5838165 0 -1028618776.5838165 -559037139.01887512 0 0 0 0 -1220734157.4165039 -1986459578.396328 0 -1986459578.396328 -1459933114.8870468 0 0 0 0 -1479850908.4072418 -941556162.45482254 0 -941556162.45482254 -208415623.14332581 0 0 0 0 -407115879.85284424 -963410147.3938446 0 -963410147.3938446 -835721956.46007538 0 0 0 0 -129093865.41900635 -1775111981.5713463 0 -1775111981.5713463 -2155719771.646183 0 0 0 0 -10161333.746643066 -1579563089.8889427 0 -1579563089.8889427 -1864849748.4115906 0 0 0 0 -695409070.08390808 -1700913099.6350136 0 -1700913099.6350136 -1486564029.7132187 0 0 0 0 -823283378.44786453 -2191657179.2920141 0 -2191657179.2920141 -2247391890.2102737 0 0 0 0 -746691644.26455688 -1306294051.1593285 0 -1306294051.1593285 -2030223123.616436 0 0 0 0 -42689.448715209961 -15569548.642936707 0 -15569548.642936707 -20391697.867965698 0 0 0 0 1998286.7756536454 -3965217.8338433653 0 -3965217.8338433653 -5201168.1653586328 0 0 0 0 -2647264780.6963959 -2233307781.4137459 0 -2233307781.4137459 -1701277599.805584 0 0 0 0 44405.33757019043 -15500211.932563782 0 -15500211.932563782 -20457192.817626953 0 0 0 0 -920209556.70487213 -1195080104.6461525 0 -1195080104.6461525 -1564231545.3597393 0 0 0 0 -917169714.18344116 -1146339333.630455 0 -1146339333.630455 -1026309462.4400787 0 0 0 0 2580613.5876215473 -3730798.411380358 0 -3730798.411380358 -5923538.5252879485 0 0 0 0 -16288126.166107178 -5843638.6502380371 0 -5843638.6502380371 21255044.891921997 0 0 0 0 -19062128.162155151 -24338007.553871155 0 -24338007.553871155 -4202273.8659744263 0 0 0 0 -2588225.1604792923 30070347.791731935 0 30070347.791731935 25985675.881680384 0 0 0 0 16880590.70501709 -198479.35311126709 0 -198479.35311126709 -8977149.0642433167 0 0 0 0 -3349862.881439209 2194291.544002533 0 2194291.544002533 -7833261.5996875763 0 0 0 0 3680724.1100921631 2463838.2330780029 0 2463838.2330780029 -925109.88087558746 0 0 0 0 -2844528.4583707182 -3764107.5127185807 0 -3764107.5127185807 -542490.99737733603 0 0 0 0 556773909.43434143 -48775494.765600204 0 -48775494.765600204 3400986.0615844727 0 0 0 0 288342.4623260498 -4383940.7482376099 0 -4383940.7482376099 2393196.7862014771 0 0 0 0 -5270726.7612762451 -1322513.6335754395 0 -1322513.6335754395 2657029.0670776367 0 0 0 0 212608452.66778564 -167067878.20706367 0 -167067878.20706367 124390603.26716232 0 0 0 0 295848.98931353819 -3856192.3973489814 0 -3856192.3973489814 -4606950.6168785132 0 0 0 0 64465971.105606079 10238107.868398666 0 10238107.868398666 1354461.9941101074 0 0 0 0 -267000.78014752269 1261945.9183734301 0 1261945.9183734301 -3472675.9168069065 0 0 0 0 -2325241.4110316485 -1875861.2513071112 0 -1875861.2513071112 -1275920.7361094989 0 0 0 0 106198618.19657898 -54982663.040418625 0 -54982663.040418625 11012655.415744781 0 0 0 0 88068078.031311035 -404140642.426754 0 -404140642.426754 422767528.00257874 0 0 0 0 122121958.01806641 -323366880.93182755 0 -323366880.93182755 233309806.32247925 0 0 0 0 -33313465.622741699 -208014633.54505157 0 -208014633.54505157 386996243.12957382 0 0 0 0 -4074359.5340202004 -2303902.420267459 0 -2303902.420267459 -117877.34960222337 0 0 0 0 98226902.003417969 -107034144.89339066 0 -107034144.89339066 199011926.38796997 0 0 0 0 -3503242.7590332031 -3171222.8058948517 0 -3171222.8058948517 -3410225.0310134888 0 0 0 0 -16819899.216423035 -4296762.6584405899 0 -4296762.6584405899 1160883.0113830566 0 0 0 0 2427210.0197627619 -3248479.6538530812 0 -3248479.6538530812 -5540176.5463287868 0 0 0 0 -682864512.30284119 -591757215.45490646 0 -591757215.45490646 -636504233.03701019 0 0 0 0 -347106305.2177887 -472525623.01741219 0 -472525623.01741219 -728156995.78358841 0 0 0 0 -485727615.80241394 -635202684.59117126 0 -635202684.59117126 -765132117.39088058 0 0 0 0 173431.01035921276 -713116.40229408629 0 -713116.40229408629 -1081907.3871969571 0 0 0 0 -646297054.08409119 -1122530223.7672501 0 -1122530223.7672501 -536011773.17074966 0 0 0 0 -470182131.5335083 -737506317.33845901 0 -737506317.33845901 -167088995.89788818 0 0 0 0 -308383560.14923096 -864837930.11241913 0 -864837930.11241913 -66964712.263916016 0 0 0 0 -323721182.91847229 -510674757.37537956 0 -510674757.37537956 506459786.28936768 0 0 0 0 -351698899.03683472 -748592960.6542244 0 -748592960.6542244 -61367055.63038063 0 0 0 0 -155806555.37210083 65882202.258731842 0 65882202.258731842 913694904.55524635 0 0 0 0 413038.96023415029 -859779.77422245964 0 -859779.77422245964 -452331.50212068483 0 0 0 0 387471550.87362671 -554008275.41823578 0 -554008275.41823578 767966857.20258331 0 0 0 0 -340572551.03647995 -699975042.33789086 0 -699975042.33789086 926667506.54998016 0 0 0 0 395469900.01464844 -229506632.50809479 0 -229506632.50809479 366269147.19174194 0 0 0 0 311576551.96176147 -665984578.7758255 0 -665984578.7758255 708141272.76028442 0 0 0 0 614779248.34239197 -422550745.67674637 0 -422550745.67674637 341278762.35934448 0 0 0 0 45527900.966598511 -373156501.63259125 0 -373156501.63259125 193549475.37135625 0 0 0 0 179889198.60476685 -434344675.63513184 0 -434344675.63513184 340966060.62666178 0 0 0 0 356569289.97311401 -536248587.74242592 0 -536248587.74242592 184597207.62037659 0 0 0 0 282063542.17993164 -232479357.752491 0 -232479357.752491 367813163.45454025 0 0 0 0 235559543.29966736 -508767687.97659302 0 -508767687.97659302 27241822.85326004 0 0 0 0 -108719033.12805176 -511695247.62951088 0 -511695247.62951088 179184525.87281799 0 0 0 0 -146454426.21718216 -503903203.20620728 0 -503903203.20620728 174418187.27986526 0 0 0 0 -149579539.66902161 -523662300.19279099 0 -523662300.19279099 306577113.41829801 0 0 0 0 -39265200.526092529 -498371384.2626667 0 -498371384.2626667 172403776.56803513 0 0 0 0 208596564.46737671 -533975072.66866875 0 -533975072.66866875 28051819.671276093 0 0 0 0 42874873.732124329 -619797908.84680748 0 -619797908.84680748 37318337.071533203 0 0 0 0 316467660.08853149 -585405554.9178772 0 -585405554.9178772 -142822994.16339588 0 0 0 0 382300886.20404053 -527604929.47263527 0 -527604929.47263527 -121455918.82382202 0 0 0 0 360205994.70443726 -448797705.49985886 0 -448797705.49985886 -119117844.60334802 0 0 0 0 1035541978.8911438 -162422823.50032234 0 -162422823.50032234 -379537288.98757553 0 0 0 0 147045.61255206354 -1414133.3220920116 0 -1414133.3220920116 -1672576.567526821 0 0 0 0 736499711.79455566 -525310229.78903198 0 -525310229.78903198 -819270814.30888391 0 0 0 0 -754614328.28694153 -760254102.72511864 0 -760254102.72511864 -614292547.84171295 0 0 0 0 414894785.45333862 -191887071.23057556 0 -191887071.23057556 103184674.09658432 0 0 0 0 -792393.41134799575 149642149.107016 0 149642149.107016 96127890.748245239 0 0 0 0 173370056.57240295 -199256884.3285141 0 -199256884.3285141 103783549.97858429 0 0 0 0 232437816.96603394 -344867115.39503098 0 -344867115.39503098 230787039.04495239 0 0 0 0 256144210.85073853 -419642885.02277756 0 -419642885.02277756 132857999.95373344 0 0 0 0 248179900.42359924 -483447832.79582977 0 -483447832.79582977 77641923.831344604 0 0 0 0 403188376.09213257 -361212809.93172836 0 -361212809.93172836 2547118.7916488647 0 0 0 0 255673449.69028378 -427726690.70218897 0 -427726690.70218897 95547906.708679199 0 0 0 0 165694445.43136597 -125007690.49829102 0 -125007690.49829102 92727101.573295593 0 0 0 0 105546905.1048584 -266916317.26485825 0 -266916317.26485825 432791803.14874911 0 0 0 0 -240583.67900085449 -176119503.9637413 0 -176119503.9637413 380145755.30536652 0 0 0 0 7956473.469329834 -146933471.88076782 0 -146933471.88076782 430673118.45514345 0 0 0 0 32581182.541213989 -338429963.16169739 0 -338429963.16169739 795829971.67376709 0 0 0 0 -85857133.700813293 93514712.836307526 0 93514712.836307526 472118187.33258057 0 0 0 0 572018358.67887878 -486285696.10440826 0 -486285696.10440826 413731384.68532562 0 0 0 0 57308835.825790405 105643479.83010483 0 105643479.83010483 43385128.891235352 0 0 0 0 -507246.14016541466 -891132.32710534334 0 -891132.32710534334 2062774.9609125704 0 0 0 0 -66968589.835639954 127709.34980392456 0 127709.34980392456 35671223.65410614 0 0 0 0 -31117981.401779175 -33601136.5679245 0 -33601136.5679245 58406911.202271461 0 0 0 0 -1263524.3400341738 -1715886.3251529038 0 -1715886.3251529038 5421028.9116396829 0 0 0 0 10087598.59197998 -25856250.5038414 0 -25856250.5038414 12311251.084785461 0 0 0 0 586114.22527313232 -2198607.6446914673 0 -2198607.6446914673 82036016.798690796 0 0 0 0 -2297557.9827286229 -8556747.6289399266 0 -8556747.6289399266 -9158808.6362271197 0 0 0 0 -1059362.1386413574 -23931678.459430695 0 -23931678.459430695 13209921.073749542 0 0 0 0 4032592.9757843018 -30013780.385238647 0 -30013780.385238647 -16822073.223144531 0 0 0 0 -7488242.8494110107 -7824674.7941856384 0 -7824674.7941856384 3962010.7092933655 0 0 0 0 118578244.10668945 -46576419.017868042 0 -46576419.017868042 10415139.936836243 0 0 0 0 144969998.4576149 -105083157.30933762 0 -105083157.30933762 118065172.74046326 0 0 0 0 199550.35655212402 -107981136.09589005 0 -107981136.09589005 201243872.61885834 0 0 0 0 -31995.217178344727 -39793893.805290222 0 -39793893.805290222 52719465.993255615 0 0 0 0 77537515.853408813 -130917372.63483047 0 -130917372.63483047 159205445.33576202 0 0 0 0 66099901.444122314 -28942409.551735878 0 -28942409.551735878 -11636946.775985718 0 0 0 0 65678208.534097672 -29678880.169263363 0 -29678880.169263363 27589563.938796997 0 0 0 0 53975862.367462158 -109670607.74103546 0 -109670607.74103546 -36647948.397420883 0 0 0 0 -2517067.6951063909 -3152009.7984202206 0 -3152009.7984202206 8671717.3985908777 0 0 0 0 64809353.094543457 -33388853.990356445 0 -33388853.990356445 39214049.193019867 0 0 0 0 -80664232.362728119 -223139734.03998566 0 -223139734.03998566 -580943763.08029175 0 0 0 0 -322507093.86712646 465740936.74313354 0 465740936.74313354 -458055555.67688751 0 0 0 0 -526102284.67123413 849256938.83942032 0 849256938.83942032 -1155021344.5548401 0 0 0 0 -260254.737112673 -2010025.3323089033 0 -2010025.3323089033 -1337070.7882303894 0 0 0 0 735433569.4329834 -331294293.86430359 0 -331294293.86430359 -2864973785.0057831 0 0 0 0 127828610.70405579 282416120.26841736 0 282416120.26841736 -991833589.67353821 0 0 0 0 424675.0327835083 56260264.115455627 0 56260264.115455627 -506941913.57687378 0 0 0 0 53729187.049606323 -84565166.79246521 0 -84565166.79246521 51464243.545087814 0 0 0 0 -264593.92206259817 350826.36574392021 0 350826.36574392021 1085808.5388816409 0 0 0 0 -826591602.1829834 810944725.08531189 0 810944725.08531189 210249031.22755432 0 0 0 0 -64530424.162750244 -1298386354.5172958 0 -1298386354.5172958 -2084065357.5028944 0 0 0 0 127593502.75796509 -470110314.19861603 0 -470110314.19861603 -2188591722.3858871 0 0 0 0 -2331288.8681122214 387404.84335960075 0 387404.84335960075 -181963.47937400639 0 0 0 0 238385069.20994568 -1943582.110162735 0 -1943582.110162735 -891847009.12940979 0 0 0 0 -18027572.041526794 338357960.65056038 0 338357960.65056038 232351757.98687744 0 0 0 0 -197488582.44624329 -277895380.04364395 0 -277895380.04364395 -195486714.12400818 0 0 0 0 -210775848.18685913 -1029602781.2558441 0 -1029602781.2558441 -1197496102.1551857 0 0 0 0 330511549.79518127 -366464133.70011139 0 -366464133.70011139 -1309760230.5397949 0 0 0 0 -153940174.23587036 -1318457874.0668221 0 -1318457874.0668221 -1422559810.3047638 0 0 0 0 55745161.53276062 -739297761.17288589 0 -739297761.17288589 -908390669.89318848 0 0 0 0 -444981943.89208984 -1342228100.8456345 0 -1342228100.8456345 -1052814424.9123154 0 0 0 0 3442211.0272832452 -1444949279.4719789 0 -1444949279.4719789 -1855357698.8564911 0 0 0 0 -321367805.42098999 -1477851332.9012375 0 -1477851332.9012375 -1511301947.9675598 0 0 0 0 -194607860.56396484 -1558841056.7547989 0 -1558841056.7547989 -1865657852.3543491 0 0 0 0 -72811580.095581055 -1071729332.3377609 0 -1071729332.3377609 -1607529892.494278 0 0 0 0 -114404321.25894165 -167667399.77589417 0 -167667399.77589417 22124799.904579163 0 0 0 0 -420509545.28485107 74355457.533119202 0 74355457.533119202 315285707.62289429 0 0 0 0 -944761543.20306396 -761323385.5208168 0 -761323385.5208168 -246926787.95835876 0 0 0 0 -141627029.59713745 -172580964.40608978 0 -172580964.40608978 52232569.196853638 0 0 0 0 174910394.7859726 -869846390.99677086 0 -869846390.99677086 -654407499.74043274 0 0 0 0 -133421347.99423218 -918691106.32771301 0 -918691106.32771301 -833003813.13459396 0 0 0 0 -344491448.58082581 -1112827472.5141258 0 -1112827472.5141258 -318774177.18327332 0 0 0 0 -16864853.967529297 -676425538.70981598 0 -676425538.70981598 75798798.740585327 0 0 0 0 -144411451.22894287 -514187175.49211121 0 -514187175.49211121 -68263378.806285858 0 0 0 0 -258843710.91308594 -261967086.90594482 0 -261967086.90594482 -47346207.431472778 0 0 0 0 -338230161.93008423 -864538000.56167221 0 -864538000.56167221 -408020113.96539307 0 0 0 0 -423266130.18280029 -504652542.06467438 0 -504652542.06467438 611260982.36740112 0 0 0 0 -541659764.65628052 19947109.013763428 0 19947109.013763428 644656002.11514473 0 0 0 0 1003024.9052173868 -2808772.2133757211 0 -2808772.2133757211 130769.76668896526 0 0 0 0 1254643134.3205643 18759880.824054718 0 18759880.824054718 -24869949.662658691 0 0 0 0 217909623.01667023 -1133575609.9438324 0 -1133575609.9438324 940028785.6388855 0 0 0 0 699002634.12045288 -915985239.96318913 0 -915985239.96318913 577947646.47252655 0 0 0 0 -538276970.19360352 -165864175.04397583 0 -165864175.04397583 1379609121.2414246 0 0 0 0 1208408303.074955 255732494.47442055 0 255732494.47442055 -630526414.97224426 0 0 0 0 -142683395.69302368 442803612.35142517 0 442803612.35142517 -442404772.50035858 0 0 0 0 -452052310.07958984 -25191933.239025116 0 -25191933.239025116 447199055.40584946 0 0 0 0 -22364709.88961792 -104525152.39802551 0 -104525152.39802551 -868849204.12670898 0 0 0 0 -1769064.3179673478 -271316.68459969014 0 -271316.68459969014 -263254.29890787229 0 0 0 0 -426738698.07769775 169728343.98146439 0 169728343.98146439 -462202321.76858521 0 0 0 0 -308841519.36422729 197015432.5633316 0 197015432.5633316 -909104392.16424179 0 0 0 0 -391649442.57258606 267181600.74226761 0 267181600.74226761 -414216384.32913685 0 0 0 0 -2044086.2137478366 -5574707.5922093019 0 -5574707.5922093019 -6070505.9604938775 0 0 0 0 -16742308.615329742 -17076110.875558853 0 -17076110.875558853 18074771.592140198 0 0 0 0 -230227707.87484741 379564348.31299591 0 379564348.31299591 -419635283.40239811 0 0 0 0 232454617.58287048 107840614.03601456 0 107840614.03601456 -606349162.42923737 0 0 0 0 432638306.71235085 -280077747.13357592 0 -280077747.13357592 -138905835.95257568 0 0 0 0 501434108.08973122 249326575.72168684 0 249326575.72168684 -538657394.98847961 0 0 0 0 -216947727.96850586 240119217.11180878 0 240119217.11180878 -432609525.37690735 0 0 0 0 78168861.205207825 -65437714.597885132 0 -65437714.597885132 -121099793.4621048 0 0 0 0 -122590561.4498291 -39738858.809532166 0 -39738858.809532166 82180646.278297424 0 0 0 0 -16353186.780807495 137783135.00927734 0 137783135.00927734 -342244897.58876038 0 0 0 0 637612090.40118408 636698725.27528763 0 636698725.27528763 -242959890.35922241 0 0 0 0 -35418032.266052246 -396797294.15475464 0 -396797294.15475464 795055202.16532898 0 0 0 0 563221304.93531561 -584691750.21389866 0 -584691750.21389866 239104638.60215759 0 0 0 0 119976735.634552 -334375008.99806976 0 -334375008.99806976 104941006.87915039 0 0 0 0 136285154.4224968 -395222428.48020172 0 -395222428.48020172 330145812.02310944 0 0 0 0 319187658.59564209 -224247458.8376236 0 -224247458.8376236 116875103.52883911 0 0 0 0 133799340.30001831 -430591951.04115677 0 -430591951.04115677 247139471.68781853 0 0 0 0 101065511.52568054 -285039319.48899841 0 -285039319.48899841 -27474883.186141968 0 0 0 0 -12614113.6902771 -14967118.139938354 0 -14967118.139938354 97572270.59223175 0 0 0 0 -97014049.208175659 -93898333.083442688 0 -93898333.083442688 885533046.92449188 0 0 0 0 10665389.527435303 -79523431.76676178 0 -79523431.76676178 30642757.806671143 0 0 0 0 21997847.210113525 -176322737.89998627 0 -176322737.89998627 362821008.47876167 0 0 0 0 84122488.095546722 -43401283.884810448 0 -43401283.884810448 46831763.550628662 0 0 0 0 -8161043.0568618774 13146531.19162178 0 13146531.19162178 -26048031.196456909 0 0 0 0 60962260.345806122 6627211.9966087341 0 6627211.9966087341 -45963954.972457886 0 0 0 0 -2360217.6144137383 -15466806.582908086 0 -15466806.582908086 -6032507.9908693843 0 0 0 0 -290381868.65371704 -62344212.554285049 0 -62344212.554285049 -22635504.11123085 0 0 0 0 420894312.27301025 32411988.581409454 0 32411988.581409454 -5676099.8551940918 0 0 0 0 -35856638.866329193 -59463548.868152618 0 -59463548.868152618 4806118.7269058228 0 0 0 0 3236700.5462026224 -9192103.3094016705 0 -9192103.3094016705 -874230.26523497701 0 0 0 0 18186492.77116394 -93525988.849781036 0 -93525988.849781036 26238486.670692444 0 0 0 0 406719801.57409668 89887448.328643799 0 89887448.328643799 -131295036.58027649 0 0 0 0 -522302690.41995239 -210292920.50902367 0 -210292920.50902367 181638425.02441406 0 0 0 0 -433125772.89099121 -624370000.95005798 0 -624370000.95005798 1136158785.2688446 0 0 0 0 -596804299.59008026 -201816045.46642494 0 -201816045.46642494 281201765.87825775 0 0 0 0 -262662617.20895386 -283561913.01851082 0 -283561913.01851082 71849101.117801666 0 0 0 0 -13638243.240321159 45266302.89055562 0 45266302.89055562 8549522.9751434326 0 0 0 0 -1150270510.6681921 -221358776.12603712 0 -221358776.12603712 1676551827.7789764 0 0 0 0 -750562.2486076504 -12905008.958261784 0 -12905008.958261784 -4704018.847210221 0 0 0 0 -1117752691.9963989 1096939420.6448364 0 1096939420.6448364 142527299.23932052 0 0 0 0 -26651097.034408569 20403313.761322021 0 20403313.761322021 300603576.4990921 0 0 0 0 -660410.54790820181 -6034639.3376468206 0 -6034639.3376468206 1004121.8859706819 0 0 0 0 -65953602.477966309 -52440298.986747742 0 -52440298.986747742 5376888.1188821793 0 0 0 0 85981869.239425659 45666607.588569641 0 45666607.588569641 -24020695.971687317 0 0 0 0 544020628.73233223 -126867517.57252729 0 -126867517.57252729 -54738939.500701904 0 0 0 0 -204206356.4226532 -749368414.34115219 0 -749368414.34115219 497974322.08727455 0 0 0 0 -765119.53406238556 -2069514.2825753465 0 -2069514.2825753465 1124040.2217667364 0 0 0 0 -23516770.802398682 326479832.46442032 0 326479832.46442032 962204387.44921112 0 0 0 0 -112622663.87776184 -48424870.381168365 0 -48424870.381168365 114212886.09117508 0 0 0 0 -101654394.94822693 -113092931.62021208 0 -113092931.62021208 186856075.20834351 0 0 0 0 12138584.219451904 -28276523.693136215 0 -28276523.693136215 -70314411.334747314 0 0 0 0 -42797499.803710938 -3916262.7793636322 0 -3916262.7793636322 -36593286.380306244 0 0 0 0 18002121.686397552 -11033574.979830742 0 -11033574.979830742 -42481851.993469238 0 0 0 0 -11417739.474117279 -53384594.65826416 0 -53384594.65826416 6807780.6612472534 0 0 0 0 -12622319.54778415 -14504142.808507737 0 -14504142.808507737 -8842459.9215823617 0 0 0 0 1376129.855255127 -33518698.775520325 0 -33518698.775520325 45011124.221862793 0 0 0 0 1636370.6451423913 -5516902.2925427034 0 -5516902.2925427034 -2559256.7492353134 0 0 0 0 -7958965.0136108398 4755809.7393722534 0 4755809.7393722534 -18536457.558574677 0 0 0 0 199757162.12374878 -502801507.5552063 0 -502801507.5552063 -783850843.73934555 0 0 0 0 1578821.0246369243 -6123562.487496445 0 -6123562.487496445 -6719804.0084269699 0 0 0 0 297177203.5532074 -128998444.84740829 0 -128998444.84740829 -1078941494.6341171 0 0 0 0 4056321.3422393799 -24266612.611843109 0 -24266612.611843109 -29067729.228942871 0 0 0 0 -8461052.2317419499 -11835971.561369002 0 -11835971.561369002 -7486952.7567145601 0 0 0 0 -456754.27239273489 -1892082.1318316273 0 -1892082.1318316273 -2668874.2600447759 0 0 0 0 62211791.149734497 452752380.26364517 0 452752380.26364517 -680069804.50793552 0 0 0 0 -3114288.6015930176 -21830089.510681152 0 -21830089.510681152 45033658.091178894 0 0 0 0 -277510155.53399658 317308538.0555954 0 317308538.0555954 -132812241.56245685 0 0 0 0 -28122819.587219238 -22707675.556938171 0 -22707675.556938171 128033593.77514648 0 0 0 0 -10129006.65145874 -22465561.108879089 0 -22465561.108879089 78435918.849243164 0 0 0 0 -34682497.031402588 -42702064.85987854 0 -42702064.85987854 74176750.846982956 0 0 0 0 -9027026.8035583496 -29456337.45375824 0 -29456337.45375824 41018309.062568665 0 0 0 0 10203582.323425293 -55665266.748939514 0 -55665266.748939514 53369508.155357361 0 0 0 0 -21361417.565170288 -56114649.777694702 0 -56114649.777694702 75082628.329368591 0 0 0 0 16170070.650863647 -69115788.355499268 0 -69115788.355499268 76729596.579177856 0 0 0 0 493922.33003997803 -50545181.534454346 0 -50545181.534454346 87171803.406356812 0 0 0 0 -129491670.1245575 -29234370.371219635 0 -29234370.371219635 128350404.44803238 0 0 0 0 -64834281.16545105 -100481708.37678337 0 -100481708.37678337 140446379.67054749 0 0 0 0 30488341.800582886 -149520654.18051529 0 -149520654.18051529 160799697.33704376 0 0 0 0 64276165.085037231 -57603898.293041229 0 -57603898.293041229 114639438.35814667 0 0 0 0 44122165.252288818 -42843217.133102417 0 -42843217.133102417 76570604.334617615 0 0 0 0 20320952.409423828 -77298055.916984558 0 -77298055.916984558 105916454.40599823 0 0 0 0 -4388192.9842529297 -31851312.940166473 0 -31851312.940166473 109498665.41812897 0 0 0 0 -9356531.1731338501 -49707882.494495392 0 -49707882.494495392 75839712.479598999 0 0 0 0 -8599.2057151794434 -23947803.930529594 0 -23947803.930529594 61765284.385986328 0 0 0 0 24823287.93270874 -53548862.475975037 0 -53548862.475975037 51070094.285614014 0 0 0 0 -24031692.428836972 -17608097.421717212 0 -17608097.421717212 -5404052.0052897893 0 0 0 0 -187158071.46495056 208953969.44172668 0 208953969.44172668 -137893533.83544159 0 0 0 0 -225807953.99324036 181225831.10375214 0 181225831.10375214 -141235633.11642456 0 0 0 0 -196164111.98205566 247713583.27752686 0 247713583.27752686 -120229325.82306862 0 0 0 0 -110996690.9402771 115413280.12775803 0 115413280.12775803 -103701418.65647888 0 0 0 0 -17522964.268584453 -16643456.708129589 0 -16643456.708129589 -8606624.4019430056 0 0 0 0 -8482518.7326049805 -46339891.473243713 0 -46339891.473243713 81704921.129276276 0 0 0 0 -14212183.117393494 -39297653.061084747 0 -39297653.061084747 109827565.73521423 0 0 0 0 -11237977.865600586 -34810676.05569458 0 -34810676.05569458 99902520.484119415 0 0 0 0 -15522881.76373291 -36441763.288330078 0 -36441763.288330078 120638537.54907227 0 0 0 0 -12683289.501026154 -39979919.927576065 0 -39979919.927576065 98069464.187011719 0 0 0 0 5079423.3415222168 -16187908.644302368 0 -16187908.644302368 119618432.95120239 0 0 0 0 58738770.764160156 -30315676.680206299 0 -30315676.680206299 64786311.575805664 0 0 0 0 4385328.4786376953 -32814818.281295776 0 -32814818.281295776 87180883.869537354 0 0 0 0 2187830.1857910156 -58424711.551528931 0 -58424711.551528931 64509128.175170898 0 0 0 0 6282436.2754211426 -55798411.582584381 0 -55798411.582584381 59988340.176635742 0 0 0 0 58680160.985229492 154229506.59073639 0 154229506.59073639 -687259532.22528458 0 0 0 0 18984402.998535156 -64312713.218574524 0 -64312713.218574524 51048759.433410645 0 0 0 0 -10411015.358154297 -82027321.89630127 0 -82027321.89630127 44230837.212768555 0 0 0 0 -24845704.604398042 -24842116.258606926 0 -24842116.258606926 -7129137.629346095 0 0 0 0 -32556924.978057861 -98090800.771362305 0 -98090800.771362305 65757103.097396851 0 0 0 0 -71199359.553771973 -104703596.02540588 0 -104703596.02540588 65816322.808380127 0 0 0 0 -7126380.8754395396 4503185.3096231297 0 4503185.3096231297 7070828.9122188948 0 0 0 0 54746980.425537109 287185314.30284119 0 287185314.30284119 -662827784.35177612 0 0 0 0 44982759.821289062 -32103826.534973145 0 -32103826.534973145 72930352.94859314 0 0 0 0 4985168.6820678711 -53183586.300857544 0 -53183586.300857544 67656999.884887695 0 0 0 0 21369295.437561035 -64651273.869354248 0 -64651273.869354248 56438952.787109375 0 0 0 0 24673173.700927734 -67302770.607727051 0 -67302770.607727051 57464968.838088989 0 0 0 0 -4138782.2432250977 -80592871.28994751 0 -80592871.28994751 52875283.341094971 0 0 0 0 -2350145.7082824707 -83191148.787200928 0 -83191148.787200928 57677484.162902832 0 0 0 0 595133.74633789062 -88137417.798873901 0 -88137417.798873901 43332054.550109863 0 0 0 0 -43418750.847900391 -105065037.56549072 0 -105065037.56549072 44779396.536706924 0 0 0 0 -27602493.987426758 -84081387.776397705 0 -84081387.776397705 43892630.949386597 0 0 0 0 -27087738.06262207 -96116368.607421875 0 -96116368.607421875 45410285.210025787 0 0 0 0 -64207174.226135254 -88113628.545089722 0 -88113628.545089722 31141606.532714844 0 0 0 0 -31633546.157836914 -92844543.82321167 0 -92844543.82321167 52194141.026977539 0 0 0 0 4737655.3638000488 -90263721.594291687 0 -90263721.594291687 51778751.052124023 0 0 0 0 95912590.787353516 248209070.11024475 0 248209070.11024475 -630377312.27725625 0 0 0 0 85167137.226257324 283148667.62940979 0 283148667.62940979 -585530729.2191658 0 0 0 0 61558049.725891113 230941414.50367737 0 230941414.50367737 -501340718.04469299 0 0 0 0 62248195.51965332 221091790.30236816 0 221091790.30236816 -528577704.74641418 0 0 0 0 68821988.836853027 218893043.38897705 0 218893043.38897705 -598803979.15092087 0 0 0 0 40702010.598999023 144221253.74206543 0 144221253.74206543 -632086208.40570116 0 0 0 0 19425196.862365723 151788765.16737366 0 151788765.16737366 -561488211.99369812 0 0 0 0 -52526205.689666748 53614910.961380005 0 53614910.961380005 -641837076.11863708 0 0 0 0 -115642472.21185303 31669733.787902832 0 31669733.787902832 -594107238.23693848 0 0 0 0 63597038.107955933 -46049547.529460907 0 -46049547.529460907 64624366.38861084 0 0 0 0 38433723.726196289 -70795751.132049561 0 -70795751.132049561 60749509.816101074 0 0 0 0 -268778166.0803833 86975171.108917236 0 86975171.108917236 322395434.78559875 0 0 0 0 -234162077.57145691 -34947310.659328461 0 -34947310.659328461 -466422809.47058105 0 0 0 0 295381277.43364716 -207383850.13646698 0 -207383850.13646698 -338212234.95562744 0 0 0 0 354787434.52685547 9128990.6672363281 0 9128990.6672363281 -649767585.64489746 0 0 0 0 -283368465.34100342 273824501.6991272 0 273824501.6991272 -494495960.48400879 0 0 0 0 -366172502.72854614 131102072.32736588 0 131102072.32736588 -434190768.11486816 0 0 0 0 -103759448.24645996 -104856078.37115479 0 -104856078.37115479 68172325.12802124 0 0 0 0 -156902359.75537109 -99586039.152404785 0 -99586039.152404785 70243259.498153687 0 0 0 0 -74383794.179077148 -97622231.073867798 0 -97622231.073867798 45144954.544921875 0 0 0 0 -133995478.1986084 328021016.22335815 0 328021016.22335815 -543054570.4916687 0 0 0 0 63866381.200610638 244920865.9457891 0 244920865.9457891 -505401668.71090698 0 0 0 0 64207873.699707031 283791278.47990417 0 283791278.47990417 -564367648.95306396 0 0 0 0 -47248929.071350098 258638434.054245 0 258638434.054245 -472690265.97257996 0 0 0 0 67380432.324523926 266036350.37167358 0 266036350.37167358 -542368709.70394897 0 0 0 0 -47342317.686645508 328614772.30342102 0 328614772.30342102 -554406713.15545654 0 0 0 0 -77441107.567848206 216799623.41361809 0 216799623.41361809 -479272301.57992554 0 0 0 0 -88101997.962341309 103659828.32617188 0 103659828.32617188 -437308915.68682861 0 0 0 0 -159242480.31481934 193342238.60617065 0 193342238.60617065 -457301809.41067505 0 0 0 0 32180941.160095215 156512613.37670898 0 156512613.37670898 -456602547.3117919 0 0 0 0 -36232424.539657593 109475108.86072922 0 109475108.86072922 -420057562.5995636 0 0 0 0 90268150.4894104 38805924.841262817 0 38805924.841262817 -447746515.85151768 0 0 0 0 33322961.428375244 -61188006.479980469 0 -61188006.479980469 -470829872.09443665 0 0 0 0 -153958295.80786133 49647330.455963135 0 49647330.455963135 -448204037.29112434 0 0 0 0 197421367.44213867 130923060.98350525 0 130923060.98350525 -369468152.73987579 0 0 0 0 134428630.8502121 104146874.20145416 0 104146874.20145416 -294370793.85011292 0 0 0 0 136510678.84118652 78409409.629882812 0 78409409.629882812 -414705691.26404572 0 0 0 0 38846446.016433716 199567562.9805069 0 199567562.9805069 -391870272.12435913 0 0 0 0 179496670.7935791 141214559.92803192 0 141214559.92803192 -369078297.69894409 0 0 0 0 88290346.093719482 229456415.36142731 0 229456415.36142731 -264686501.89361572 0 0 0 0 55351501.518188477 268434880.88536072 0 268434880.88536072 -485108989.41030884 0 0 0 0 79211183.030212402 190230875.03489685 0 190230875.03489685 -437741534.54795837 0 0 0 0 53333415.444335938 212465226.60128784 0 212465226.60128784 -397747202.39750671 0 0 0 0 66890312.202804565 246779601.14827156 0 246779601.14827156 -489630052.1902771 0 0 0 0 69493592.741546631 254275620.59780693 0 254275620.59780693 -343274608.59118652 0 0 0 0 96250017.647766113 196463292.10852814 0 196463292.10852814 -401249039.14540672 0 0 0 0 92687446.122619629 298747253.17951202 0 298747253.17951202 -121652961.9887085 0 0 0 0 173068207.72125244 177214096.92592621 0 177214096.92592621 -253404477.35587502 0 0 0 0 320559711.44145203 121937562.33239746 0 121937562.33239746 -292966241.20915222 0 0 0 0 150840462.04949951 195140857.4381218 0 195140857.4381218 -132932246.11759949 0 0 0 0 -246370330.97766113 108032290.47152328 0 108032290.47152328 -293800657.11184692 0 0 0 0 -98599705.269226074 180794796.95837402 0 180794796.95837402 -308995744.1365509 0 0 0 0 -170405687.51177979 142790847.20748901 0 142790847.20748901 -236897107.00727844 0 0 0 0 -196179737.63800049 204757108.22155762 0 204757108.22155762 -144528729.05787659 0 0 0 0 -189175365.24545288 31328640.466217041 0 31328640.466217041 -472087420.668396 0 0 0 0 -158523610.06878662 89990533.7918396 0 89990533.7918396 -360573054.70098877 0 0 0 0 -68660284.893951416 114392207.34789276 0 114392207.34789276 -448568218.28442383 0 0 0 0 -51152772.893737793 94462924.137107849 0 94462924.137107849 -522136231.2041626 0 0 0 0 -3152884.2956848145 145251862.74345589 0 145251862.74345589 -501678122.83944702 0 0 0 0 -16543327.959716797 172457170.87774658 0 172457170.87774658 -410276003.77429199 0 0 0 0 27867808.974639893 189652386.60174561 0 189652386.60174561 -404784413.47134399 0 0 0 0 33185678.00592041 211181532.75788879 0 211181532.75788879 -437467312.53509521 0 0 0 0 -59460104.662353516 176174002.86875153 0 176174002.86875153 -311756448.17105103 0 0 0 0 499518.27868652344 221015728.23751831 0 221015728.23751831 -296911921.62457275 0 0 0 0 -73861996.135238647 135689724.33059692 0 135689724.33059692 -402168727.87628174 0 0 0 0 -121915111.72341919 219650109.81255341 0 219650109.81255341 -152924309.24493408 0 0 0 0 58671269.146911621 239078814.78114319 0 239078814.78114319 -225913311.7197876 0 0 0 0 -17246748.537750244 203518724.73752594 0 203518724.73752594 -237293450.24128723 0 0 0 0 -61751362.825073242 260641102.70679474 0 260641102.70679474 -94033793.458267212 0 0 0 0 -46624519.641845703 270972397.09526825 0 270972397.09526825 -134311476.35588074 0 0 0 0 -144929578.75552368 247650885.02050781 0 247650885.02050781 -53397076.120407104 0 0 0 0 -198744523.72116089 234435452.77561188 0 234435452.77561188 -65376446.065925598 0 0 0 0 -120087381.91253662 207081541.36019897 0 207081541.36019897 -205203502.4455719 0 0 0 0 -146873943.3046875 266013284.89549255 0 266013284.89549255 -130291359.47781754 0 0 0 0 -265492800.43473816 261005655.28846741 0 261005655.28846741 60726630.54927063 0 0 0 0 -156962178.51600266 304423947.00335026 0 304423947.00335026 23302155.024490356 0 0 0 0 -73150620.663085938 320492019.80038452 0 320492019.80038452 19899135.624069214 0 0 0 0 40461883.652954102 268009104.1155777 0 268009104.1155777 -93505913.504281998 0 0 0 0 -62155633.20892334 281723891.5162735 0 281723891.5162735 31667610.606243134 0 0 0 0 -23871839.643707275 335020439.03170776 0 335020439.03170776 100194366.27044678 0 0 0 0 190082213.93588257 304310442.77109528 0 304310442.77109528 76985968.771137238 0 0 0 0 -159033241.00710297 365849860.83382797 0 365849860.83382797 150098566.13911438 0 0 0 0 -277147997.24276733 293273415.8733139 0 293273415.8733139 155949854.4222784 0 0 0 0 288502686.27065277 53174405.631462097 0 53174405.631462097 -42693075.675674438 0 0 0 0 391979769.40159607 216033577.53507614 0 216033577.53507614 -138181736.86834717 0 0 0 0 199330373.48516846 291254325.35953522 0 291254325.35953522 -48176112.911552429 0 0 0 0 152282627.12854004 232839341.58639526 0 232839341.58639526 40328107.720161438 0 0 0 0 18423930.209617615 238134881.90340805 0 238134881.90340805 -58654902.156402588 0 0 0 0 412247372.20413208 252842857.54555511 0 252842857.54555511 19046086.261260986 0 0 0 0 149898165.34292603 266795364.45920944 0 266795364.45920944 173036159.25061798 0 0 0 0 341883908.96701813 177233406.85042572 0 177233406.85042572 252495088.56629944 0 0 0 0 967760117.8381958 -24189048.258708954 0 -24189048.258708954 132646777.35710144 0 0 0 0 510971109.96168137 -60819708.441478252 0 -60819708.441478252 308754720.20755005 0 0 0 0 513870499.55357361 82557238.791828156 0 82557238.791828156 195710841.54091644 0 0 0 0 471514219.66116428 261344549.58856916 0 261344549.58856916 78339161.645797729 0 0 0 0 591755476.29446411 121041018.56962967 0 121041018.56962967 202163409.01368713 0 0 0 0 -333315995.92825317 416885318.38283539 0 416885318.38283539 227122157.21782684 0 0 0 0 -312205293.10874939 335861752.42169762 0 335861752.42169762 247473591.23208618 0 0 0 0 -61734956.338684082 458972929.97537231 0 458972929.97537231 215677499.4390564 0 0 0 0 -251452283.52975464 523838235.6027298 0 523838235.6027298 78002033.280456543 0 0 0 0 330741792.66121292 569111978.91256523 0 569111978.91256523 14857542.88381958 0 0 0 0 -963997479.70071411 508609084.97678375 0 508609084.97678375 264164219.97102356 0 0 0 0 -743414239.73934937 -70740904.763313293 0 -70740904.763313293 602055423.67674828 0 0 0 0 -405984314.8706131 87304926.308645248 0 87304926.308645248 172209986.73731995 0 0 0 0 -566755753.93414307 -86752716.601184845 0 -86752716.601184845 203370971.6961441 0 0 0 0 -354177463.64935303 337832026.76864624 0 337832026.76864624 252825449.51109314 0 0 0 0 -263791961.59033871 113975780.31872845 0 113975780.31872845 87890888.513374329 0 0 0 0 -478582243.73815918 195783077.74669266 0 195783077.74669266 179579147.43032837 0 0 0 0 -252312596.63779259 215796907.68426609 0 215796907.68426609 35904088.079055786 0 0 0 0 -267189556.59011841 260213136.12480927 0 260213136.12480927 156652265.07971382 0 0 0 0 -157950664.1545105 -48070221.172218323 0 -48070221.172218323 33069044.772628784 0 0 0 0 -410991097.24688721 48572986.917503357 0 48572986.917503357 83060119.324033737 0 0 0 0 -162594856.59912109 -107284681.46042633 0 -107284681.46042633 -102197236.05482483 0 0 0 0 -340824325.22761536 -256543669.83293915 0 -256543669.83293915 -194856094.07530785 0 0 0 0 330541.54538612068 -2968450.4083368108 0 -2968450.4083368108 -399151.25377559662 0 0 0 0 -185982773.07672119 -342197025.97200775 0 -342197025.97200775 285185644.80264091 0 0 0 0 -117945528.23012638 -215925989.95448399 0 -215925989.95448399 22286289.156166077 0 0 0 0 68271780.036132812 -352917979.52377319 0 -352917979.52377319 -335347845.02209663 0 0 0 0 48654512.45880127 -45736903.926895142 0 -45736903.926895142 149482625.40921783 0 0 0 0 -1128669294.1308594 1289071703.3367538 0 1289071703.3367538 -770423209.6776886 0 0 0 0 -2279566095.3261719 435927630.57432556 0 435927630.57432556 560234857.65857172 0 0 0 0 -842610171.6085968 -918008984.98420715 0 -918008984.98420715 -214051030.45335388 0 0 0 0 -752056.93125993013 -2932301.1634480804 0 -2932301.1634480804 -1320727.9710107371 0 0 0 0 -2383182802.0142975 -278217568.71519089 0 -278217568.71519089 306026940.46956635 0 0 0 0 -623882446.32106018 -234129114.80144882 0 -234129114.80144882 -1548806698.3377686 0 0 0 0 -1294263972.4525299 307744269.55098724 0 307744269.55098724 448644988.61405945 0 0 0 0 -2236690421.0658731 1173634784.4121587 0 1173634784.4121587 -182270237.08890533 0 0 0 0 -1041399882.0306702 342547253.3984375 0 342547253.3984375 21975801.833040237 0 0 0 0 -1504063809.5253143 61744309.543624878 0 61744309.543624878 672877070.35373688 0 0 0 0 -630320345.16908264 -274677411.57291412 0 -274677411.57291412 480405483.89820862 0 0 0 0 -565565600.27841187 -27041288.326210022 0 -27041288.326210022 -16966761.982200623 0 0 0 0 -33994421.869995117 -102193931.15125918 0 -102193931.15125918 221919282.11459351 0 0 0 0 -2310356.4560127333 -8771809.44572879 0 -8771809.44572879 -2541112.3619647883 0 0 0 0 -1051464616.4971619 -284086812.51806641 0 -284086812.51806641 10959001.441336632 0 0 0 0 3719103.025686644 -11391571.813955909 0 -11391571.813955909 4744790.9532790892 0 0 0 0 3858609034.8997192 -2414566257.84935 0 -2414566257.84935 19051416.934906006 0 0 0 0 -1051742615.8651581 -163633952.95705032 0 -163633952.95705032 351553715.15088654 0 0 0 0 -694864641.83805847 -444294686.80591202 0 -444294686.80591202 567478879.42248535 0 0 0 0 2003749.8463699892 -4350734.701301706 0 -4350734.701301706 2339314.8615476452 0 0 0 0 -157777320.12463379 -322644994.03007126 0 -322644994.03007126 -602678773.90795898 0 0 0 0 -2826140662.1712418 70839256.78008461 0 70839256.78008461 -855466500.39485168 0 0 0 0 3376711.368322283 -4445887.7761749402 0 -4445887.7761749402 3737891.5089007281 0 0 0 0 3962489198.5595245 477223440.94206619 0 477223440.94206619 -1270230358.5322571 0 0 0 0 3974139205.1176758 -1177082866.3762856 0 -1177082866.3762856 -229018462.42258453 0 0 0 0 3153174058.0129089 -689010611.05452728 0 -689010611.05452728 35148112.155403137 0 0 0 0 1995300793.6522217 -1779697471.0319138 0 -1779697471.0319138 1516908625.8634796 0 0 0 0 1878513044.1488342 -321731303.9815712 0 -321731303.9815712 -97202375.172027588 0 0 0 0 1910386136.5100098 -1193468877.2646713 0 -1193468877.2646713 -125531458.6792984 0 0 0 0 1917077424.0270536 -440125835.74969107 0 -440125835.74969107 -427677005.71380615 0 0 0 0 416500398.29698944 -1229442410.6827774 0 -1229442410.6827774 255621474.25176239 0 0 0 0 525639240.1940155 -1590324579.4681511 0 -1590324579.4681511 -688025127.48925018 0 0 0 0 551601598.57228088 -1486017060.0609674 0 -1486017060.0609674 742853318.32633972 0 0 0 0 1414974522.8291016 -1091283530.4039268 0 -1091283530.4039268 -26158739.008789062 0 0 0 0 402124213.82440186 -1000019109.6432953 0 -1000019109.6432953 109979265.2250824 0 0 0 0 -418903662.57897949 -224800068.1374054 0 -224800068.1374054 414687314.26212311 0 0 0 0 -119213776.37082672 -773736085.31696892 0 -773736085.31696892 1090556255.0937958 0 0 0 0 554893237.9372406 -682026132.56342316 0 -682026132.56342316 784758038.5268631 0 0 0 0 2849893439.3996048 -2325103503.6113625 0 -2325103503.6113625 1026490342.8650894 0 0 0 0 713804307.4488678 -1319200932.1370087 0 -1319200932.1370087 3080020622.5826797 0 0 0 0 3986366140.6678162 -966583444.30539322 0 -966583444.30539322 -618373819.04701233 0 0 0 0 3883848018.55056 -335975723.31180382 0 -335975723.31180382 280449643.21037292 0 0 0 0 1576743539.8065338 690574823.51776505 0 690574823.51776505 1971897286.2378845 0 0 0 0 -667867636.18716431 -420264854.91433716 0 -420264854.91433716 1347142124.0463715 0 0 0 0 591150296.43972778 -365623487.11922073 0 -365623487.11922073 856940931.05046844 0 0 0 0 -544754262.69586182 -480809132.81238556 0 -480809132.81238556 173237056.60017776 0 0 0 0 253152976.12364197 155849683.25561905 0 155849683.25561905 610712707.45477295 0 0 0 0 -190243744.38313293 583026374.13378906 0 583026374.13378906 -119546143.73016548 0 0 0 0 399462320.13710022 -58190535.394111633 0 -58190535.394111633 -137738216.77342987 0 0 0 0 1536944283.1581573 602242341.06067657 0 602242341.06067657 165244431.39649582 0 0 0 0 746651700.6558075 553921387.35810852 0 553921387.35810852 -318623387.10996246 0 0 0 0 -265422610.32917786 471518582.64248657 0 471518582.64248657 -11033084.609306335 0 0 0 0 1488216276.1283264 -349638304.70362473 0 -349638304.70362473 11625849.858207703 0 0 0 0 1763141426.6000128 -670332187.94133186 0 -670332187.94133186 241648539.16114044 0 0 0 0 1104739767.8922729 -351134706.8256197 0 -351134706.8256197 228768696.65107727 0 0 0 0 1885320571.4243622 -1186055396.8094158 0 -1186055396.8094158 508882393.3587265 0 0 0 0 1675993826.6431274 -1267235805.308548 0 -1267235805.308548 725981245.50231171 0 0 0 0 1599021786.9130402 -1173783460.8506355 0 -1173783460.8506355 653376445.80991745 0 0 0 0 587508079.93548584 -703443975.24461746 0 -703443975.24461746 944192319.6485548 0 0 0 0 -1015562215.8920021 -482030032.54575729 0 -482030032.54575729 -119857397.1917572 0 0 0 0 3114913.7254858445 -5956476.3794667646 0 -5956476.3794667646 7714882.1347126439 0 0 0 0 1600503095.0429344 -1729373293.4300461 0 -1729373293.4300461 1885303937.8418198 0 0 0 0 2109156418.8037834 880175471.82933044 0 880175471.82933044 357372689.19477081 0 0 0 0 6062037.7127407119 -5849875.5555338468 0 -5849875.5555338468 -579431.64084073342 0 0 0 0 10152520.961217918 -18958195.79624198 0 -18958195.79624198 -6807103.3294897527 0 0 0 0 3394517.155330658 -16675624.199817657 0 -16675624.199817657 -14259157.916122437 0 0 0 0 -20703454.147834778 -17791239.381046295 0 -17791239.381046295 9989638.9075946808 0 0 0 0 -201898.18151492625 -1630231.6200780272 0 -1630231.6200780272 -3976622.8717255965 0 0 0 0 1854204548.2553718 302072140.24407256 0 302072140.24407256 36009810.067466736 0 0 0 0 9021228.0970315933 -18880762.283690453 0 -18880762.283690453 -24635080.073497772 0 0 0 0 13285083.181707643 -19683559.987786874 0 -19683559.987786874 -4117386.8736544494 0 0 0 0 8814055.7316513062 -14489222.117313385 0 -14489222.117313385 -15706970.421749115 0 0 0 0 2852172.8943328857 -309565989.92315674 0 -309565989.92315674 -226348358.94122314 0 0 0 0 6176191.8848419189 -17955952.698517799 0 -17955952.698517799 -18904195.180839539 0 0 0 0 6463935.0217633769 -20678053.985914558 0 -20678053.985914558 1741953.7162241396 0 0 0 0 189768113.66624832 -81546089.27488327 0 -81546089.27488327 -538889390.53882599 0 0 0 0 13927086.674964905 -287101258.14046097 0 -287101258.14046097 -765978027.48566437 0 0 0 0 1115249841.8572464 -426495591.19623566 0 -426495591.19623566 -751484559.16680336 0 0 0 0 472289470.35905647 148851134.57337189 0 148851134.57337189 -321626725.65714264 0 0 0 0 -32882272.663169861 -1064518840.1344261 0 -1064518840.1344261 -308676140.29363251 0 0 0 0 1731849098.3951645 -1052740291.4192238 0 -1052740291.4192238 -331003095.59771538 0 0 0 0 2250167383.5184793 779372690.42271328 0 779372690.42271328 -108217270.86013794 0 0 0 0 1886376305.4740982 -2325137482.9688873 0 -2325137482.9688873 2984415586.0571594 0 0 0 0 5385381155.3745289 88658794.430809021 0 88658794.430809021 -52827818.130706787 0 0 0 0 -873708.30704557709 -4418810.5890495693 0 -4418810.5890495693 6984448.2744506225 0 0 0 0 4767881568.6284103 -1994990974.3370943 0 -1994990974.3370943 591673389.67211914 0 0 0 0 2419236372.1419601 408241311.61252594 0 408241311.61252594 136223018.65337372 0 0 0 0 2161522137.5987854 -1263099855.1045418 0 -1263099855.1045418 520523446.33102417 0 0 0 0 3205689881.2762756 -980588481.52190399 0 -980588481.52190399 -207461696.16053772 0 0 0 0 -1508222470.0199471 -239157434.05404663 0 -239157434.05404663 2202412202.8919067 0 0 0 0 135414515.80915833 -113269122.33757019 0 -113269122.33757019 -440042287.03439331 0 0 0 0 2008111.1265670471 376357.13373447582 0 376357.13373447582 2135952.8120251074 0 0 0 0 -3353224663.4816513 -669992626.98573685 0 -669992626.98573685 2941649040.7711372 0 0 0 0 57477431.094085693 -1007218554.3204498 0 -1007218554.3204498 2423383341.5138321 0 0 0 0 2662354693.5592785 -2327964768.2750521 0 -2327964768.2750521 1336890744.4710999 0 0 0 0 788390971.36186218 -561885362.78300476 0 -561885362.78300476 928307540.7749939 0 0 0 0 1722557417.5682907 -1040925313.0378761 0 -1040925313.0378761 404881111.91165924 0 0 0 0 476878401.73374939 -156279198.67420578 0 -156279198.67420578 427576815.13948441 0 0 0 0 747295668.59254456 -75653832.712146759 0 -75653832.712146759 441747082.70336914 0 0 0 0 546099189.76843643 159749731.74461174 0 159749731.74461174 -84078448.850204468 0 0 0 0 619371332.12451172 139430829.33531952 0 139430829.33531952 -26529689.918655396 0 0 0 0 -178995872.14848328 17405463.789749146 0 17405463.789749146 1462554187.9666328 0 0 0 0 964584860.85043335 -715705747.80778027 0 -715705747.80778027 800283684.38804626 0 0 0 0 356302020.93128967 -45622730.48633194 0 -45622730.48633194 508336382.04766083 0 0 0 0 628879005.50478745 -9873170.6129322052 0 -9873170.6129322052 -280928278.46755981 0 0 0 0 580837834.3143158 -241231713.87300873 0 -241231713.87300873 -263345651.76726532 0 0 0 0 -51405119.037124634 -259670102.39825058 0 -259670102.39825058 -179007050.62661743 0 0 0 0 -135001243.77046204 -29193228.661567688 0 -29193228.661567688 -732814419.81105042 0 0 0 0 362965247.93936539 -76308993.627894402 0 -76308993.627894402 -404578885.96006775 0 0 0 0 433660591.89712524 -293478687.82579803 0 -293478687.82579803 -758126701.53837585 0 0 0 0 50193645.64465332 -392408133.43208313 0 -392408133.43208313 -552008304.6557312 0 0 0 0 194480946.41726685 -244965555.94317627 0 -244965555.94317627 -493747882.85219574 0 0 0 0 202862838.00749207 -379838011.27648926 0 -379838011.27648926 -603756351.32762146 0 0 0 0 116992424.75370026 -598168493.24748611 0 -598168493.24748611 -1054465501.2276306 0 0 0 0 -550394317.46363831 -789376292.99269104 0 -789376292.99269104 -556907153.96395874 0 0 0 0 291577520.39425659 166809017.69379425 0 166809017.69379425 -119683329.62778473 0 0 0 0 491015560.67342377 -4105635.150144577 0 -4105635.150144577 -359353751.92503357 0 0 0 0 475730180.7510376 -166137764.59889221 0 -166137764.59889221 -336526174.18919373 0 0 0 0 359125925.30892944 -3199579.493309021 0 -3199579.493309021 -118598246.80443954 0 0 0 0 382702062.86131668 -79784254.500350952 0 -79784254.500350952 -490628144.73039246 0 0 0 0 327826675.34101868 -253107936.09054565 0 -253107936.09054565 -564225734.4199295 0 0 0 0 247274377.69351196 -19777659.47706604 0 -19777659.47706604 -352081802.75813484 0 0 0 0 267202713.06986237 -42370984.874792099 0 -42370984.874792099 -441804412.3993988 0 0 0 0 -31052519.813651547 -30969824.295818746 0 -30969824.295818746 415376.23631985486 0 0 0 0 68360640.241149902 -105746786.97123718 0 -105746786.97123718 -488539742.49844742 0 0 0 0 59564823.594909668 -205005937.64416504 0 -205005937.64416504 51963370.3671875 0 0 0 0 58144857.556335449 -75734647.970840454 0 -75734647.970840454 -485082288.43098545 0 0 0 0 132229872.98022461 -107232797.43544006 0 -107232797.43544006 -513171998.20352173 0 0 0 0 59922588.927032471 -41035109.264328003 0 -41035109.264328003 -471474415.56007385 0 0 0 0 80742629.77038765 -59432653.811279774 0 -59432653.811279774 -463190911.6000061 0 0 0 0 146644698.25613403 -20710482.896659851 0 -20710482.896659851 -445226384.36615753 0 0 0 0 237916750.52076721 -101957307.02566147 0 -101957307.02566147 -509671894.8445282 0 0 0 0 125362608.73248291 -94866932.333984375 0 -94866932.333984375 -517841720.12715149 0 0 0 0 133838052.17138672 -104751896.70662689 0 -104751896.70662689 -509469485.98361206 0 0 0 0 117911172.96826172 -115798530.36187744 0 -115798530.36187744 -506608689.2066803 0 0 0 0 152599368.42144012 -162190593.66620636 0 -162190593.66620636 -492700738.36239624 0 0 0 0 90391802.307861328 -151952745.53230286 0 -151952745.53230286 -494309600.56958389 0 0 0 0 164883878.72900391 -121120112.49824524 0 -121120112.49824524 -511130290.61224365 0 0 0 0 189036302.4190979 -153804008.09136963 0 -153804008.09136963 -509988162.86391449 0 0 0 0 188489007.49789429 -156815203.91375732 0 -156815203.91375732 -501914591.84544373 0 0 0 0 170658712.90684319 -260834648.95283222 0 -260834648.95283222 -503133775.22779846 0 0 0 0 68068257.684844971 -153148439.6476059 0 -153148439.6476059 -413909327.1104126 0 0 0 0 61332317.027801514 -193911799.33413696 0 -193911799.33413696 -406473699.05090332 0 0 0 0 98427973.880554199 -168987840.6558075 0 -168987840.6558075 -460228524.78903198 0 0 0 0 63627290.216156006 -135743017.62194824 0 -135743017.62194824 -449487436.68707275 0 0 0 0 92216892.009124756 -112334536.20041656 0 -112334536.20041656 -499328049.51797485 0 0 0 0 137750256.49145508 -129947056.16918182 0 -129947056.16918182 -497755879.48191833 0 0 0 0 -9510022.310333252 -93207198.443939209 0 -93207198.443939209 -490558888.48504639 0 0 0 0 -93656693.111785889 -59394866.671520233 0 -59394866.671520233 -103680510.66858673 0 0 0 0 -291886216.04212952 -40317956.138612747 0 -40317956.138612747 23098373.177597046 0 0 0 0 -77103033.145523071 -219900588.02704334 0 -219900588.02704334 -193162190.78601074 0 0 0 0 -238226102.87698364 -321638671.19861603 0 -321638671.19861603 -254555238.48336029 0 0 0 0 -83775210.259140015 -392847945.55922699 0 -392847945.55922699 -221741498.55080414 0 0 0 0 -69356493.402618408 -420067611.60019684 0 -420067611.60019684 -452112921.32288361 0 0 0 0 55138690.490631104 -247097587.74060822 0 -247097587.74060822 -439380773.890625 0 0 0 0 51120899.305969238 -304266988.20114136 0 -304266988.20114136 -352052422.32322693 0 0 0 0 -65557275.051986694 -275955659.51271343 0 -275955659.51271343 -336568359.56117249 0 0 0 0 -17220958.992370605 -197583805.29711914 0 -197583805.29711914 -279613414.24876404 0 0 0 0 -30989528.965026855 -24644011.542816162 0 -24644011.542816162 -369710243.05180359 0 0 0 0 -43101764.965270996 -178187904.03637695 0 -178187904.03637695 -290850650.24819946 0 0 0 0 -4768533.2892456055 -173674167.44799805 0 -173674167.44799805 -412608894.75375366 0 0 0 0 -1047954.6843566895 -195490032.83542633 0 -195490032.83542633 -348841923.0135498 0 0 0 0 11761982.35168457 -115826480.74331665 0 -115826480.74331665 -427272823.59370422 0 0 0 0 -38712549.247131348 -113417817.50294495 0 -113417817.50294495 -342396830.88405037 0 0 0 0 -50016538.449432373 -170242445.9458046 0 -170242445.9458046 -212829352.47912598 0 0 0 0 -65234060.063690186 -25377099.283691406 0 -25377099.283691406 -268731075.73589706 0 0 0 0 -65761152.785522461 -22926081.077484131 0 -22926081.077484131 -106797879.03578949 0 0 0 0 -35052221.364059448 -135594742.17638397 0 -135594742.17638397 -217274062.39706421 0 0 0 0 -101505473.55354309 -151333404.39809036 0 -151333404.39809036 -49262444.306541443 0 0 0 0 -24638787.866973877 -145428162.20048904 0 -145428162.20048904 -220708228.09754944 0 0 0 0 -15098003.877449267 -16244635.067067802 0 -16244635.067067802 18623774.039333057 0 0 0 0 -481491790.0945015 -99967497.926223755 0 -99967497.926223755 263425848.34916687 0 0 0 0 -5880459.6071056835 -16598520.411130726 0 -16598520.411130726 8343887.501471594 0 0 0 0 -193540517.71961212 -69372479.326065063 0 -69372479.326065063 73026176.678909302 0 0 0 0 2046376524.6744728 -747239842.1028862 0 -747239842.1028862 -61311545.301147461 0 0 0 0 -494553482.43604755 105475022.46507478 0 105475022.46507478 175031229.42123413 0 0 0 0 1765108348.1517715 -907675567.0858078 0 -907675567.0858078 -66942901.266052246 0 0 0 0 -2252815.4228749229 -3470864.5759041756 0 -3470864.5759041756 1441550.7497871518 0 0 0 0 1895973025.3476028 -820697689.16680908 0 -820697689.16680908 -13328911.989215851 0 0 0 0 2020229105.4322586 -733019168.19002914 0 -733019168.19002914 -259128495.62571716 0 0 0 0 734496924.70015144 -24583189.228315353 0 -24583189.228315353 314800387.55307007 0 0 0 0 1892404803.6473389 -702022989.14064026 0 -702022989.14064026 -55399088.496643066 0 0 0 0 -3570794.7152168546 -14188937.413984198 0 -14188937.413984198 17270531.674555399 0 0 0 0 745836825.22200394 -36243339.535182953 0 -36243339.535182953 -343393337.91513062 0 0 0 0 -789473748.59277344 -785974997.02558517 0 -785974997.02558517 -701226827.36526489 0 0 0 0 -593116253.45896912 -1064522522.8006172 0 -1064522522.8006172 -340419952.85800457 0 0 0 0 -1016150470.4085236 -345089382.28213501 0 -345089382.28213501 84087425.322266579 0 0 0 0 -3224153.3276673388 -4886604.0422079451 0 -4886604.0422079451 3623741.9024870023 0 0 0 0 -6412815.0708618164 -20989492.434099197 0 -20989492.434099197 11782205.459915161 0 0 0 0 -7512599.7326049805 -24774398.339538574 0 -24774398.339538574 8128802.9916229248 0 0 0 0 -8845783.20703125 -16896038.423423767 0 -16896038.423423767 5584842.6806335449 0 0 0 0 -10231205.713100433 -18873334.605419159 0 -18873334.605419159 20177306.399291992 0 0 0 0 -7129660.5462646484 -33987813.840789795 0 -33987813.840789795 32364166.147171021 0 0 0 0 -7956929.7619857788 -25809386.653869629 0 -25809386.653869629 5825914.6591644287 0 0 0 0 -10199382.687454224 -19270980.984359741 0 -19270980.984359741 19725380.984832764 0 0 0 0 -159679165.02657366 -122509034.17962933 0 -122509034.17962933 -186038482.03909302 0 0 0 0 -8943710.9582279623 -17579269.778574336 0 -17579269.778574336 7991607.0903366283 0 0 0 0 -248976125.01753521 -140915445.86733437 0 -140915445.86733437 148342163.8678894 0 0 0 0 -261631118.08231735 -72260990.807731628 0 -72260990.807731628 504484.10349273682 0 0 0 0 -4439042.3246151228 -6579143.1983746551 0 -6579143.1983746551 2426137.7883544937 0 0 0 0 -147158859.14102101 331727252.78056562 0 331727252.78056562 -156210379.25793457 0 0 0 0 2657843.9518638439 -4792746.4689101093 0 -4792746.4689101093 -986529.29314937443 0 0 0 0 1547205320.2441406 -504322170.72071838 0 -504322170.72071838 426612072.12835693 0 0 0 0 -216246105.88542175 154811054.85407257 0 154811054.85407257 -43876815.812789917 0 0 0 0 324151.01349258423 -13466517.431962967 0 -13466517.431962967 1445960.3175048828 0 0 0 0 -4376904.3963165283 -10131041.368743896 0 -10131041.368743896 -5871410.0908889771 0 0 0 0 -983878.70500773937 -13591456.159004021 0 -13591456.159004021 2348488.2429997101 0 0 0 0 -8349245.3976593018 -8451153.0690917969 0 -8451153.0690917969 4985806.7404785156 0 0 0 0 12524393.748466492 518960.11472320557 0 518960.11472320557 -15905193.218484879 0 0 0 0 5892397.8179674223 -21846223.133926917 0 -21846223.133926917 -1412217.2217263728 0 0 0 0 5012612.6547536254 -35413545.510045007 0 -35413545.510045007 -14744244.170414232 0 0 0 0 -140001920.91947937 -86384100.682498932 0 -86384100.682498932 239800631.83790588 0 0 0 0 -3516625.3557128906 -65985253.973022461 0 -65985253.973022461 61230029.637623787 0 0 0 0 6804924.9371032715 -39776982.17237854 0 -39776982.17237854 24354047.20425415 0 0 0 0 10030934.896331787 -78082157.25327301 0 -78082157.25327301 8135784.2908782959 0 0 0 0 10584920.913452148 -30584151.910257339 0 -30584151.910257339 -8887528.3522338867 0 0 0 0 -24735041.534881592 -52359673.138893127 0 -52359673.138893127 -3959260.8268127441 0 0 0 0 1146567.1420849934 -2686030.0750666037 0 -2686030.0750666037 -2106814.1634977236 0 0 0 0 -10011307.060932159 -13706764.219862938 0 -13706764.219862938 22154592.363845825 0 0 0 0 27844353.160568237 -89454689.879699707 0 -89454689.879699707 -5100987.017791748 0 0 0 0 78988372.060470581 49027749.798858643 0 49027749.798858643 -9398089.6648592949 0 0 0 0 50872370.089660645 -68441428.335693359 0 -68441428.335693359 32146996.545001984 0 0 0 0 -8235528.8093261719 -28305338.098144531 0 -28305338.098144531 41415127.2784729 0 0 0 0 10991617.469818115 -32078912.62399292 0 -32078912.62399292 -879217.93910217285 0 0 0 0 11304025.13986969 -17239071.773620605 0 -17239071.773620605 -35785829.504493713 0 0 0 0 -11075900.709724426 -18946922.815544128 0 -18946922.815544128 -4584628.8288116455 0 0 0 0 -54312503.707473755 -9252312.2969779968 0 -9252312.2969779968 -5623962.7305679321 0 0 0 0 33395222.729125977 -43168470.674129486 0 -43168470.674129486 -29347097.307739258 0 0 0 0 19119758.560019162 -23530073.414716545 0 -23530073.414716545 -6132044.4072571546 0 0 0 0 886192.63192185014 -19555933.380240437 0 -19555933.380240437 6307120.2609920055 0 0 0 0 6509645.2543106079 -31823833.801017761 0 -31823833.801017761 -5502234.6514892578 0 0 0 0 6373644.58568573 -29805333.753219604 0 -29805333.753219604 -20979064.108978271 0 0 0 0 6809261.0422058105 -25852203.890113831 0 -25852203.890113831 -16248479.834152222 0 0 0 0 8844842.2301177979 -33699312.973342896 0 -33699312.973342896 -19551022.516387939 0 0 0 0 2881020.6795501709 -27917569.146354675 0 -27917569.146354675 -9680549.2255325317 0 0 0 0 6933299.9493676871 -16597983.78665024 0 -16597983.78665024 679972.31002737023 0 0 0 0 -1678002.0428771973 -34996384.254379272 0 -34996384.254379272 5864244.0870513916 0 0 0 0 -622221267.76172256 324504134.1377182 0 324504134.1377182 228474348.14892578 0 0 0 0 -10985039.70046982 -16335553.343708977 0 -16335553.343708977 11909807.007038645 0 0 0 0 7534222.5049591064 -13444838.596359253 0 -13444838.596359253 4339209.319770813 0 0 0 0 64647832.507286072 -27076849.480285645 0 -27076849.480285645 -21593147.342529297 0 0 0 0 27785622.270572662 -46875091.485904694 0 -46875091.485904694 -31464853.168182373 0 0 0 0 11676368.77746582 -14344223.966781616 0 -14344223.966781616 -39020088.551116943 0 0 0 0 3659840.7142521404 -15550588.498730488 0 -15550588.498730488 -8481149.8465996534 0 0 0 0 -6343533.5957641602 -39733867.424713135 0 -39733867.424713135 -15720378.67086792 0 0 0 0 2707013.2899932861 -40834801.88180542 0 -40834801.88180542 -27823751.10912323 0 0 0 0 766922.44743788987 1411439.5441200584 0 1411439.5441200584 -798292.26390406489 0 0 0 0 -12715129.943443298 -25468301.649616241 0 -25468301.649616241 -155768.08731079102 0 0 0 0 -2450402.5601959229 -33492702.923431396 0 -33492702.923431396 -6206185.4599609375 0 0 0 0 14610024.401153564 -29036879.191360474 0 -29036879.191360474 -5589956.7440319061 0 0 0 0 2831700.1980895996 -14156901.420272827 0 -14156901.420272827 8059351.3553314209 0 0 0 0 12277363.68605423 -34423436.229598999 0 -34423436.229598999 -12194589.142807007 0 0 0 0 8891763.6651005745 -36921876.162747681 0 -36921876.162747681 -12864960.830932617 0 0 0 0 8148356.2962493896 -33141361.258460999 0 -33141361.258460999 -135418.67816162109 0 0 0 0 12940998.734409332 -33464366.732208252 0 -33464366.732208252 -4641803.6739654541 0 0 0 0 18753389.805278778 -24958323.866950989 0 -24958323.866950989 341610.68756103516 0 0 0 0 53412959.118171692 -21166886.271434784 0 -21166886.271434784 -2082139.4085998535 0 0 0 0 39422205.979507446 -7841986.4152832031 0 -7841986.4152832031 2185160.9989013672 0 0 0 0 20303516.178161621 -26884443.121902466 0 -26884443.121902466 2540879.8211364746 0 0 0 0 36134761.389358521 -17292666.94997406 0 -17292666.94997406 2355124.4079802036 0 0 0 0 36373997.468578339 -18843362.293972969 0 -18843362.293972969 9710186.1613922119 0 0 0 0 21853545.93314743 -28022994.19140625 0 -28022994.19140625 2069877.2042541504 0 0 0 0 15393648.585845947 -22934384.63809967 0 -22934384.63809967 1059128.0188446045 0 0 0 0 17546762.281341553 -28212960.651275635 0 -28212960.651275635 -6406.1102206138903 0 0 0 0 35150055.218315125 -15266627.430805206 0 -15266627.430805206 4378924.2417755127 0 0 0 0 44192804.980510712 -25598766.666549683 0 -25598766.666549683 16086.548843383789 0 0 0 0 959790.22341918945 -28520520.678554535 0 -28520520.678554535 28175.291946411133 0 0 0 0 8220134.5324134827 -21646816.5532341 0 -21646816.5532341 456419.1467666626 0 0 0 0 9405337.7418823242 -32378792.657264709 0 -32378792.657264709 -4405215.4345207214 0 0 0 0 -1908191.2505760193 -25424712.389426231 0 -25424712.389426231 -17576064.34413147 0 0 0 0 -877234.66053771973 -29898571.971069336 0 -29898571.971069336 -2726486.9739837646 0 0 0 0 9063013.8126311302 -35236297.914257765 0 -35236297.914257765 -13392949.217391968 0 0 0 0 8887465.4945602417 -32868478.340431213 0 -32868478.340431213 -3953552.7845611572 0 0 0 0 95473.574859619141 -36063020.811347961 0 -36063020.811347961 -8213783.6070785522 0 0 0 0 54649323.53937149 -8515638.1616210938 0 -8515638.1616210938 -60631482.797012329 0 0 0 0 -1869870.7102127075 -39985841.893379211 0 -39985841.893379211 -14509016.074203491 0 0 0 0 9070100.1074908525 -6332509.9341445426 0 -6332509.9341445426 -6672863.6353492141 0 0 0 0 24683893.514564514 -9015226.7356033325 0 -9015226.7356033325 -6785884.2345848083 0 0 0 0 481775.65773735195 178023.99412433524 0 178023.99412433524 181281.39693893492 0 0 0 0 142898245.1787529 9075840.7555732727 0 9075840.7555732727 -21659299.77142334 0 0 0 0 -47231762.682178497 -49345418.818901062 0 -49345418.818901062 -1071692.945854187 0 0 0 0 59336973.56086731 -26569448.596542358 0 -26569448.596542358 -24515.377372741699 0 0 0 0 28317410.758735657 -50859344.125083923 0 -50859344.125083923 -3108650.9368419647 0 0 0 0 41561804.49955368 -33227853.013337135 0 -33227853.013337135 9498.1030883789062 0 0 0 0 44884899.701728821 -22410583.047386169 0 -22410583.047386169 14454366.809402466 0 0 0 0 51264277.687576294 -33999901.959598541 0 -33999901.959598541 -11142047.055351257 0 0 0 0 57530591.754310608 -51145409.584030151 0 -51145409.584030151 20580996.460624695 0 0 0 0 19535818.916030884 -34897217.879638672 0 -34897217.879638672 13601956.292503357 0 0 0 0 16990057.873989344 -48742723.152813792 0 -48742723.152813792 -18336341.264358521 0 0 0 0 16546863.15826416 -30717275.828456879 0 -30717275.828456879 -5270742.0909843445 0 0 0 0 50939090.619228363 -43069918.597702026 0 -43069918.597702026 -77563160.492698669 0 0 0 0 -19052260.450027466 -153832983.11345673 0 -153832983.11345673 -221326690.18647003 0 0 0 0 -860911.14638210833 19695.137175634503 0 19695.137175634503 495951.43361448124 0 0 0 0 -88804565.96940279 -135032474.36403501 0 -135032474.36403501 147684477.70645905 0 0 0 0 -85640022.859359741 -225688835.71121216 0 -225688835.71121216 -50999637.749931335 0 0 0 0 35427401.295700073 -83028678.541862488 0 -83028678.541862488 -178491436.81382751 0 0 0 0 -77410382.550994873 -71651797.912687302 0 -71651797.912687302 -90941843.100822449 0 0 0 0 28663210.742482215 -15814190.594246931 0 -15814190.594246931 2716614.7811441906 0 0 0 0 31197675.949112907 -22363764.120400913 0 -22363764.120400913 1727727.8811311126 0 0 0 0 14772954.615646362 -54697080.451438904 0 -54697080.451438904 -26836825.888839722 0 0 0 0 35029205.852813721 -61363590.61340332 0 -61363590.61340332 -39837376.279640198 0 0 0 0 -34904045.618320465 -123619711.10603142 0 -123619711.10603142 19208472.395523071 0 0 0 0 -35815227.795352936 -119666920.81965828 0 -119666920.81965828 2192947.6829986572 0 0 0 0 -58861104.823242188 -98162118.618804932 0 -98162118.618804932 9036762.3970108032 0 0 0 0 -33219001.144256592 -102782544.99112701 0 -102782544.99112701 24524056.9609375 0 0 0 0 -5441037.183807373 -95023498.825210571 0 -95023498.825210571 -56582886.964080811 0 0 0 0 -6859831.963394165 -54477165.775253296 0 -54477165.775253296 -7422503.768371582 0 0 0 0 -73900751.040679932 -46909198.674682617 0 -46909198.674682617 21385170.328125 0 0 0 0 -95443644.583007812 -54702792.69380188 0 -54702792.69380188 18570444.537208557 0 0 0 0 -58580397.219306946 -94691169.329912186 0 -94691169.329912186 20456059.768829346 0 0 0 0 -132571618.64970398 -89068831.406929016 0 -89068831.406929016 23413859.013153076 0 0 0 0 -76584277.382873535 -95650554.580490112 0 -95650554.580490112 -1903780.0353393555 0 0 0 0 -159772469.83227539 -74137088.723510742 0 -74137088.723510742 38904079.946411133 0 0 0 0 -196081453.23602295 -93004050.656311035 0 -93004050.656311035 69366633.129440308 0 0 0 0 -13634125.039779663 6218922.7364006042 0 6218922.7364006042 -78829692.9269104 0 0 0 0 -101279274.784729 -40537606.558815002 0 -40537606.558815002 -10269677.602325439 0 0 0 0 -357387793.76345825 32897091.402893066 0 32897091.402893066 16836498.985137939 0 0 0 0 -108556121.40008545 260273117.7298584 0 260273117.7298584 -365689066.94935608 0 0 0 0 -15921369.416870117 23694243.710418701 0 23694243.710418701 -92143127.864440918 0 0 0 0 -35790985.759231567 -97726401.878017426 0 -97726401.878017426 40765700.185333252 0 0 0 0 -43476581.947555542 -114839365.27410126 0 -114839365.27410126 23349908.288375854 0 0 0 0 -30034363.174865723 -100870429.53108215 0 -100870429.53108215 14282701.951324463 0 0 0 0 -73282221.050354004 -108286658.04750824 0 -108286658.04750824 35092712.036804199 0 0 0 0 -60135747.233825684 -95411913.119689941 0 -95411913.119689941 30200547.615570068 0 0 0 0 -53942319.00012207 -110587182.87902832 0 -110587182.87902832 26708077.56652832 0 0 0 0 -36285490.687713623 -90948570.531799316 0 -90948570.531799316 27699288.361816406 0 0 0 0 -14250683.296051025 -79372394.645469666 0 -79372394.645469666 42534695.58972168 0 0 0 0 -10253425.509368896 -89427250.353103638 0 -89427250.353103638 30668024.291244507 0 0 0 0 -27019432.490112305 -99664089.906616211 0 -99664089.906616211 34483546.173904419 0 0 0 0 -20200562.801116943 -62889860.739448547 0 -62889860.739448547 83107293.396606445 0 0 0 0 -23137787.335205078 -81263378.933853149 0 -81263378.933853149 51492883.50352478 0 0 0 0 -10957961.141853333 -56973327.719764709 0 -56973327.719764709 69486959.675384521 0 0 0 0 -42672682.736572266 -88604306.671966553 0 -88604306.671966553 59294642.565906525 0 0 0 0 -25037526.77142334 -106578183.84867096 0 -106578183.84867096 26095670.467086792 0 0 0 0 -15477451.42868042 -57491581.261642456 0 -57491581.261642456 72951503.976852417 0 0 0 0 -17083509.144302368 -64692282.686317444 0 -64692282.686317444 83816042.130691528 0 0 0 0 383830.26866149902 -20610204.970975876 0 -20610204.970975876 112960360.5378952 0 0 0 0 -16038865.822479248 -45042586.320755005 0 -45042586.320755005 102654249.84060669 0 0 0 0 -39553990.597183228 -47836138.183355331 0 -47836138.183355331 153081877.36776733 0 0 0 0 -96754403.138221741 -122724214.76817322 0 -122724214.76817322 73143523.330871582 0 0 0 0 -27175574.117004395 -118184287.40289307 0 -118184287.40289307 14078678.66740799 0 0 0 0 -1584272.2149101347 -39683.459782168269 0 -39683.459782168269 879450.56416456774 0 0 0 0 50182252.532623291 -198018367.38553238 0 -198018367.38553238 176427537.93121338 0 0 0 0 57755986.269104004 -66708334.723400116 0 -66708334.723400116 108076891.1207329 0 0 0 0 30599859.756511688 -97699963.597709656 0 -97699963.597709656 186139983.04986572 0 0 0 0 -953327.43942432106 51033.986553013325 0 51033.986553013325 629576.63236024976 0 0 0 0 -93946099.612213135 -197054378.1849823 0 -197054378.1849823 292582805.0697937 0 0 0 0 -14103920.393478394 -170186184.03676224 0 -170186184.03676224 18876792.404785156 0 0 0 0 85754506.326065063 -160539550.2493515 0 -160539550.2493515 16885601.699234009 0 0 0 0 14593041.514312744 -79671640.79549408 0 -79671640.79549408 248358966.58603096 0 0 0 0 118784212.20133972 -67430627.013374329 0 -67430627.013374329 -15286281.370239258 0 0 0 0 76976557.736351281 -138860026.94764853 0 -138860026.94764853 -86484028.489562988 0 0 0 0 76754191.95866394 -56982629.125274658 0 -56982629.125274658 -161530684.88504028 0 0 0 0 148045079.04893494 -75648925.881065369 0 -75648925.881065369 -269919552.97576904 0 0 0 0 101840343.36715698 -31276927.111701965 0 -31276927.111701965 -274937941.86611938 0 0 0 0 88971231.76751709 2458383.4023971558 0 2458383.4023971558 -337998599.12828064 0 0 0 0 19726927.992111206 -9699237.6544799805 0 -9699237.6544799805 -174509045.49442291 0 0 0 0 47587429.701171875 -100098716.99526978 0 -100098716.99526978 -264291470.6195755 0 0 0 0 37739774.718017578 -112790.73892211914 0 -112790.73892211914 -419469828.91036987 0 0 0 0 13517442.859451294 -102646056.27182007 0 -102646056.27182007 -253312888.38652039 0 0 0 0 42156546.838378906 -167250079.87396049 0 -167250079.87396049 -207417675.18534851 0 0 0 0 -37210837.019073486 -88568113.209503174 0 -88568113.209503174 -272092123.01539612 0 0 0 0 108695788.36312866 -79136138.338470459 0 -79136138.338470459 -272148593.15884018 0 0 0 0 91792266.571914673 -165877651.66123581 0 -165877651.66123581 -223766741.10518646 0 0 0 0 120158736.11071777 -32663502.166172028 0 -32663502.166172028 -114813755.06736755 0 0 0 0 74782238.631103516 -152987639.50173187 0 -152987639.50173187 -292086928.19776154 0 0 0 0 24296560.704735734 -13971360.898325931 0 -13971360.898325931 4200234.0370192733 0 0 0 0 21324989.46812439 -39471158.933456421 0 -39471158.933456421 -47041313.728538513 0 0 0 0 12629416.940055847 -30634879.594398499 0 -30634879.594398499 -7187627.8970489502 0 0 0 0 18930793.938434675 -14313258.798829921 0 -14313258.798829921 6617454.4219249487 0 0 0 0 42088866.196731567 -100542468.12951279 0 -100542468.12951279 -380008935.23753357 0 0 0 0 15220791.207870483 -31644443.594005585 0 -31644443.594005585 -9459021.1677398682 0 0 0 0 10414202.181854248 -37825689.813652039 0 -37825689.813652039 -9317300.3530240059 0 0 0 0 7198361.4301147461 -36514063.034812927 0 -36514063.034812927 2913546.8126907349 0 0 0 0 19472440.646224976 -32325113.91740036 0 -32325113.91740036 -838556.12995910645 0 0 0 0 3587772.7214813232 -35205810.698226929 0 -35205810.698226929 1059149.2120437622 0 0 0 0 9918486.0977325439 -34428487.232444763 0 -34428487.232444763 1145545.5244750977 0 0 0 0 9767934.7524604797 -40053587.859760284 0 -40053587.859760284 4196.8304748535156 0 0 0 0 -35949062.655563354 -15274054.966068268 0 -15274054.966068268 11725495.010391235 0 0 0 0 8540074.1423518285 -3407787.0870054439 0 -3407787.0870054439 662067.96672427654 0 0 0 0 4121611.4898681641 -34636232.953140259 0 -34636232.953140259 576075.2073059082 0 0 0 0 -12938246.402572632 -40820583.550712585 0 -40820583.550712585 5604.7954483032227 0 0 0 0 4897356.4196624756 -12538960.95917511 0 -12538960.95917511 11844548.629608154 0 0 0 0 7638298.7910308838 -20209459.289176941 0 -20209459.289176941 5541475.8883447647 0 0 0 0 -14196630.816421509 -27002979.446060181 0 -27002979.446060181 6589495.0716705322 0 0 0 0 16011791.83315964 -11102197.740424233 0 -11102197.740424233 4526436.9944113865 0 0 0 0 12694104.120445251 -19356256.038002014 0 -19356256.038002014 4411885.9211959839 0 0 0 0 32964591.410186768 -65877860.62097168 0 -65877860.62097168 27864886.422866821 0 0 0 0 8622726.6635665894 -30900952.249267578 0 -30900952.249267578 -5870554.7321777344 0 0 0 0 33135636.036865234 42195206.8097229 0 42195206.8097229 -301872955.27014923 0 0 0 0 -15234349.92111969 -190958422.05391312 0 -190958422.05391312 -500833831.22399902 0 0 0 0 3968316.3804838955 1641776.3425662536 0 1641776.3425662536 -4520698.2039909624 0 0 0 0 56265916.585754395 -59241568.028869629 0 -59241568.028869629 -328604305.25001526 0 0 0 0 -1104477.9125972837 -2838911.0076608658 0 -2838911.0076608658 2406000.8442760855 0 0 0 0 65792646.425476074 -82869796.794296265 0 -82869796.794296265 -286151994.8760376 0 0 0 0 530686.67298698425 -50743302.729789734 0 -50743302.729789734 -308272759.68215942 0 0 0 0 57757905.893768311 -56456364.099121094 0 -56456364.099121094 -335867331.66511869 0 0 0 0 100605540.40878296 -17885965.234664917 0 -17885965.234664917 -307696168.66772461 0 0 0 0 99774753.64692688 -26067443.738117218 0 -26067443.738117218 -252447304.66320801 0 0 0 0 91257234.684539795 30671300.46118927 0 30671300.46118927 -321213160.77458191 0 0 0 0 89238959.433074951 40286879.604095459 0 40286879.604095459 -229268867.91036987 0 0 0 0 34823626.570159912 -6826279.3277816772 0 -6826279.3277816772 -114769464.74917603 0 0 0 0 7178829.3602294922 50133166.133155823 0 50133166.133155823 -219100665.10890198 0 0 0 0 48241396.49230957 1431922.9442596436 0 1431922.9442596436 -239367113.38452148 0 0 0 0 58731486.912979126 -68753528.254249573 0 -68753528.254249573 -77950698.919677734 0 0 0 0 -29420323.667236328 10577983.362838745 0 10577983.362838745 -84101867.772628784 0 0 0 0 -84417631.529296875 138063540.64657593 0 138063540.64657593 -158259765.79541779 0 0 0 0 6343572.3963833228 -979800.55677960068 0 -979800.55677960068 2458892.433610633 0 0 0 0 4874900.9457092285 5396194.442855835 0 5396194.442855835 -95496198.583831787 0 0 0 0 14112400.052871704 -4633854.4510269165 0 -4633854.4510269165 11201445.629669189 0 0 0 0 38754853.434310913 -22893780.298175812 0 -22893780.298175812 -3942185.931060791 0 0 0 0 2358860.2740451396 -6108548.396893695 0 -6108548.396893695 831036.66192696244 0 0 0 0 11690086.71434477 -9775303.7084286567 0 -9775303.7084286567 5471823.0556034967 0 0 0 0 -3163649.0198059082 37683421.226608276 0 37683421.226608276 -34358944.973278821 0 0 0 0 10264802.018472672 -8602148.6703662872 0 -8602148.6703662872 9683063.2426605225 0 0 0 0 5674739.7966766357 36175461.61680603 0 36175461.61680603 -59462889.392150879 0 0 0 0 7834593.849029541 2811846.459487915 0 2811846.459487915 -34116745.400878906 0 0 0 0 37517983.219427109 -11483638.955993652 0 -11483638.955993652 -86800762.162017822 0 0 0 0 11681033.626861572 14329214.370544434 0 14329214.370544434 -116346963.30856991 0 0 0 0 8067079.8197021484 -13053294.11668396 0 -13053294.11668396 7552791.1412200928 0 0 0 0 15049841.0570755 -21955039.286403656 0 -21955039.286403656 4023538.8440856934 0 0 0 0 9066909.9091950506 -5075477.0158737525 0 -5075477.0158737525 2613388.848498024 0 0 0 0 24482960.445518494 -18709379.065666199 0 -18709379.065666199 2063090.0956115723 0 0 0 0 2307092.9310913086 -1826149.5881500244 0 -1826149.5881500244 573212.91624450684 0 0 0 0 7111544.3115991652 -8990716.7069421485 0 -8990716.7069421485 5684342.7297696471 0 0 0 0 17582405.428131104 -9669054.9092407227 0 -9669054.9092407227 15345766.962036133 0 0 0 0 9108483.4204406738 -4655655.6152038574 0 -4655655.6152038574 -1970623.0145874023 0 0 0 0 299784.24300610274 -313401.01905179769 0 -313401.01905179769 201224.05133857578 0 0 0 0 5640722.7243037969 -3087237.8524492681 0 -3087237.8524492681 1117547.5155823082 0 0 0 0 9720370.4051208496 -9545978.2373657227 0 -9545978.2373657227 2927633.1828918457 0 0 0 0 4225094.2547302246 -14868043.859893799 0 -14868043.859893799 4642025.6481323242 0 0 0 0 7451183.5173950195 -7972673.6902770996 0 -7972673.6902770996 2662515.9701004028 0 0 0 0 19871374.240386963 -14331727.454589844 0 -14331727.454589844 2150336.1436157227 0 0 0 0 -5659508.1581878662 -6324281.7135696411 0 -6324281.7135696411 8728316.7913131714 0 0 0 0 7339273.9625269845 -2877067.8131343052 0 -2877067.8131343052 1022021.2746330798 0 0 0 0 12383358.483932495 -19118575.945533752 0 -19118575.945533752 15721.808258056641 0 0 0 0 29772760.888702393 -13098014.505233765 0 -13098014.505233765 1507847.8929595947 0 0 0 0 10631320.358886719 -20407682.794944763 0 -20407682.794944763 5576631.0991516113 0 0 0 0 3573783985.9232178 -1860515113.9113159 0 -1860515113.9113159 -425886.31238934543 0 0 0 0 -301230.80708312988 -625126774.75190163 0 -625126774.75190163 375177980.27579498 0 0 0 0 2816460794.3206787 -3572844251.1027679 0 -3572844251.1027679 1309994523.3932495 0 0 0 0 757433629.01400757 421010824.39022064 0 421010824.39022064 85850178.03137207 0 0 0 0 1576821.1466320083 -1447299.4601427633 0 -1447299.4601427633 529882.46630740911 0 0 0 0 57459890.802246094 -90134589.436376572 0 -90134589.436376572 134189847.59864807 0 0 0 0 -46216849.316711426 37529905.711746216 0 37529905.711746216 322558468.77147102 0 0 0 0 4240988.2065223232 -4381061.3065933213 0 -4381061.3065933213 1589898.5451094136 0 0 0 0 3958359.109186437 -5637041.7266752943 0 -5637041.7266752943 2365057.6241286546 0 0 0 0 293997791.92590332 -85274514.49256134 0 -85274514.49256134 484502.00531005859 0 0 0 0 75124703.427520752 40537907.121101379 0 40537907.121101379 30041726.067619324 0 0 0 0 233708581.9894104 23047129.055435181 0 23047129.055435181 -7350883.9538269043 0 0 0 0 130365254.70429993 -49593898.563697815 0 -49593898.563697815 19459436.25113678 0 0 0 0 304028509.07254887 -335134199.40051222 0 -335134199.40051222 208270650.27127075 0 0 0 0 289809380.56733322 -103634803.51170516 0 -103634803.51170516 -2274886.8221130371 0 0 0 0 1260017.9208988324 -1985437.9532034248 0 -1985437.9532034248 4656817.8828810155 0 0 0 0 877961.64968823269 -1985215.4009780735 0 -1985215.4009780735 1158375.0161540136 0 0 0 0 35822441.092327118 -25351683.198083878 0 -25351683.198083878 76607832.468582153 0 0 0 0 -27809962.934936523 -19891378.606899261 0 -19891378.606899261 -1731944.5839767456 0 0 0 0 8977012.1653747559 -60285492.997993469 0 -60285492.997993469 -131043859.1034317 0 0 0 0 -261661.9556228146 -1107505.5297215953 0 -1107505.5297215953 5043837.07459471 0 0 0 0 59141458.26184082 -317707551.48522949 0 -317707551.48522949 -893956327.24647903 0 0 0 0 -22209.503884337199 9181114.4677051175 0 9181114.4677051175 -205008503.65031433 0 0 0 0 -242765510.84370422 204932754.3225174 0 204932754.3225174 -673942680.08714676 0 0 0 0 -225501057.27494812 -301186512.56684875 0 -301186512.56684875 -434302015.28544617 0 0 0 0 85749695.582931519 -282749167.96949005 0 -282749167.96949005 -842094704.58926392 0 0 0 0 -228019124.08021545 408255019.72283936 0 408255019.72283936 -597845779.88117981 0 0 0 0 126664024.78262329 -79037582.919570923 0 -79037582.919570923 -56130337.430603027 0 0 0 0 -220556.2988473177 -2023609.4885993078 0 -2023609.4885993078 602793.45347751677 0 0 0 0 130169445.27319336 115220470.98366547 0 115220470.98366547 -947306875.4299469 0 0 0 0 41690879.203338623 141396106.54416656 0 141396106.54416656 -392577738.21003723 0 0 0 0 137980373.23880005 14283271.847709656 0 14283271.847709656 -443260190.60079575 0 0 0 0 52518978.042648315 64412432.179031372 0 64412432.179031372 -454266699.87480164 0 0 0 0 128855986.95669556 3662215.6576156616 0 3662215.6576156616 -336969018.06567383 0 0 0 0 121161001.93145752 10676022.184181213 0 10676022.184181213 -343160977.09555054 0 0 0 0 122863152.35166931 -71985272.180038452 0 -71985272.180038452 -205643173.96870422 0 0 0 0 151446635.56575012 -81724043.837703705 0 -81724043.837703705 -379473034.85371399 0 0 0 0 140871387.97253418 -154264949.36227417 0 -154264949.36227417 -237545656.34397888 0 0 0 0 140683760.1758728 -148965372.96468353 0 -148965372.96468353 -210163180.03433037 0 0 0 0 48737859.796020508 -73933528.946296692 0 -73933528.946296692 -419822518.91523743 0 0 0 0 189863750.67500305 -131453327.0167923 0 -131453327.0167923 -535404670.04716492 0 0 0 0 167828611.91600037 -288265746.80991364 0 -288265746.80991364 -328057180.19881439 0 0 0 0 72377314.327072144 -188088424.34223175 0 -188088424.34223175 -20543853.782714844 0 0 0 0 206488879.47694397 -297456653.98957062 0 -297456653.98957062 -98279277.964530945 0 0 0 0 15928040.979797363 -266873316.99343872 0 -266873316.99343872 234645099.78936768 0 0 0 0 115036613.7610321 -121233237.2091217 0 -121233237.2091217 -202302437.80235291 0 0 0 0 51570859.489639282 -476784969.0057373 0 -476784969.0057373 482130594.54364669 0 0 0 0 -124058515.8541832 -265942661.86993217 0 -265942661.86993217 235742409.67033386 0 0 0 0 449418861.94255066 -322152428.04709244 0 -322152428.04709244 27107753.752258301 0 0 0 0 140499024.16244507 36845375.865207672 0 36845375.865207672 472264529.95758438 0 0 0 0 -74249223.619262695 64653505.823013306 0 64653505.823013306 151886183.92363739 0 0 0 0 34162.743296924324 -122979636.94584914 0 -122979636.94584914 -247840608.96728516 0 0 0 0 -66220734.13710022 -59839180.617134094 0 -59839180.617134094 -130513919.8160553 0 0 0 0 38725365.292339325 -207899090.81900215 0 -207899090.81900215 -23790986.29788208 0 0 0 0 -125751060.13597012 -418482253.23106194 0 -418482253.23106194 -681972197.14559937 0 0 0 0 22494118.731394686 -39467791.668151721 0 -39467791.668151721 41488022.91223444 0 0 0 0 -785690033.52626038 -620563657.35519409 0 -620563657.35519409 -379388207.17669678 0 0 0 0 -519635644.35493851 84705288.024673462 0 84705288.024673462 -330061122.03041077 0 0 0 0 -738611849.09390831 -324606200.47073364 0 -324606200.47073364 -621157511.73176575 0 0 0 0 -2301126739.2722607 -510433501.53839111 0 -510433501.53839111 -19413071.169464111 0 0 0 0 -913494954.76588154 -722898776.44957733 0 -722898776.44957733 -806887848.78656006 0 0 0 0 -613321414.27411652 -595684324.58922195 0 -595684324.58922195 -205583787.35083961 0 0 0 0 -469343828.39352417 -74488183.177883148 0 -74488183.177883148 74034177.502094269 0 0 0 0 6690300.493132595 -8764290.2030238565 0 -8764290.2030238565 -4445127.0053086877 0 0 0 0 -747310300.61954498 -397366434.10642624 0 -397366434.10642624 303428280.22915649 0 0 0 0 -239019482.18258667 -64620760.840393066 0 -64620760.840393066 37225089.864620209 0 0 0 0 -253671596.86277771 -58672896.195613861 0 -58672896.195613861 495097446.58934021 0 0 0 0 235556547.64990902 -2550662.2187848091 0 -2550662.2187848091 644098437.35570526 0 0 0 0 217332821.01130676 -112735524.65654755 0 -112735524.65654755 172476494.99070358 0 0 0 0 273534536.32987976 -497674610.84137726 0 -497674610.84137726 -518661090.62268448 0 0 0 0 123916296.04372787 -46016593.632202148 0 -46016593.632202148 -321074773.75666809 0 0 0 0 98899685.825759888 -83895121.911582947 0 -83895121.911582947 388504237.06416321 0 0 0 0 231823832.45121002 -574728261.69227409 0 -574728261.69227409 122820286.34992981 0 0 0 0 -584367516.59725189 -51076783.940933228 0 -51076783.940933228 329738154.39732742 0 0 0 0 -625585923.77819729 -755520275.61851788 0 -755520275.61851788 -607928258.56336975 0 0 0 0 27820833.126551714 -30704847.43638891 0 -30704847.43638891 23459331.038969405 0 0 0 0 -590713891.30156684 -538275101.5668335 0 -538275101.5668335 -360710863.90881348 0 0 0 0 -704581630.51147461 -1039351065.181694 0 -1039351065.181694 -48496226.095867157 0 0 0 0 -757160520.13813782 -1031926979.6912003 0 -1031926979.6912003 -1032614693.1082306 0 0 0 0 -359779711.37192535 -541259337.05871582 0 -541259337.05871582 -749731656.52567291 0 0 0 0 -299292597.66141176 -272043534.78470802 0 -272043534.78470802 -415545397.06552124 0 0 0 0 -33678884.132034302 -674376753.70211792 0 -674376753.70211792 -677229765.31625366 0 0 0 0 -445647786.1291256 -241928999.1177597 0 -241928999.1177597 -275366321.17811584 0 0 0 0 -7202540.2850799561 -690034439.82432556 0 -690034439.82432556 -676377282.24388123 0 0 0 0 -3581273.0591936763 -2609649.0383827984 0 -2609649.0383827984 1792280.9989174977 0 0 0 0 -523139387.10385513 -451751837.4690094 0 -451751837.4690094 -482487675.35030365 0 0 0 0 -377046721.92478943 -314865142.59884644 0 -314865142.59884644 -285407384.02375793 0 0 0 0 -910530539.89585209 -276990317.53815842 0 -276990317.53815842 -230828794.99707031 0 0 0 0 -573158400.83454132 -291880896.81108093 0 -291880896.81108093 -234497698.16513062 0 0 0 0 -387136735.68579865 -225499691.82493591 0 -225499691.82493591 -265162905.08825684 0 0 0 0 41747350.419559479 27734111.30569458 0 27734111.30569458 -474180438.98304749 0 0 0 0 -373839634.02793503 -394208253.75791168 0 -394208253.75791168 -1240350332.1734467 0 0 0 0 -232606544.03684998 -308639123.66909027 0 -308639123.66909027 -325055421.89059448 0 0 0 0 -25120187.698917389 -463389798.32176208 0 -463389798.32176208 -1704527145.776001 0 0 0 0 -192802496.40094376 -755366400.62779236 0 -755366400.62779236 -226810158.94348145 0 0 0 0 -364327299.03387451 -1114608817.8517151 0 -1114608817.8517151 -562521879.12271118 0 0 0 0 -59398195.631446838 -810023973.487854 0 -810023973.487854 -482970424.13041687 0 0 0 0 -406502151.54971862 -732597987.96756077 0 -732597987.96756077 -145391217.38879395 0 0 0 0 -227875823.73212433 -463155669.55673218 0 -463155669.55673218 -4921612.8875274658 0 0 0 0 192224265.41654778 -282864318.57433319 0 -282864318.57433319 90336255.903594971 0 0 0 0 64227799.286837578 -141991297.12085724 0 -141991297.12085724 -1736331286.6501923 0 0 0 0 -265402.39928867947 -2670678.8371199667 0 -2670678.8371199667 -1447470.1517960019 0 0 0 0 -2787626.4555190802 -166643859.66642761 0 -166643859.66642761 -532791572.1222229 0 0 0 0 -44999161.226354122 -103595036.75994873 0 -103595036.75994873 -615052873.79258728 0 0 0 0 116770655.15343428 -390646546.33742523 0 -390646546.33742523 -803478992.38235855 0 0 0 0 -1992603.1545710713 -1464862.4160184637 0 -1464862.4160184637 995088.97476743907 0 0 0 0 27641392.677670479 71845873.786308289 0 71845873.786308289 -609922694.78793335 0 0 0 0 -50914.575095653534 -71162958.693962097 0 -71162958.693962097 -437881890.86060715 0 0 0 0 3907497.6000833511 -109434733.54649162 0 -109434733.54649162 -137302649.47344971 0 0 0 0 -17902357.351926804 -203038201.33192444 0 -203038201.33192444 -251741117.79290771 0 0 0 0 55663954.415735006 -90804095.264305115 0 -90804095.264305115 -617956244.29450226 0 0 0 0 -2051897.377968803 -5951299.2511614859 0 -5951299.2511614859 -2732646.1677750014 0 0 0 0 143648347.45475411 -494776359.5905304 0 -494776359.5905304 -432802873.89032745 0 0 0 0 47800410.607492305 -216286461.07937622 0 -216286461.07937622 -636746522.19171143 0 0 0 0 91765662.915215969 -346307492.01599503 0 -346307492.01599503 -295002861.92001343 0 0 0 0 -46377507.522170544 -370909070.5696373 0 -370909070.5696373 -139880735.77890015 0 0 0 0 -24758906.386239529 -398746320.53591156 0 -398746320.53591156 -302818270.81124878 0 0 0 0 -132849499.10659027 -433282635.45270538 0 -433282635.45270538 -23109850.759067535 0 0 0 0 22299272.003492594 -550776043.50952148 0 -550776043.50952148 -74783128.206130981 0 0 0 0 -111374014.05979109 -350340198.63691711 0 -350340198.63691711 396237645.42678833 0 0 0 0 -287623117.62474918 689470052.81153107 0 689470052.81153107 610905907.4528656 0 0 0 0 881509107.55903053 389567158.06362152 0 389567158.06362152 -509231061.02823639 0 0 0 0 526720218.93618011 -948786036.04466248 0 -948786036.04466248 -104855993.80802917 0 0 0 0 -970554225.79489422 -991317255.02571106 0 -991317255.02571106 1215471660.6985626 0 0 0 0 -876993040.64305496 -1626737519.0388947 0 -1626737519.0388947 370800636.28059387 0 0 0 0 1281511733.0082483 629064598.18174362 0 629064598.18174362 -242017974.46629333 0 0 0 0 -49302.41865633335 -3486842.3242452294 0 -3486842.3242452294 2733549.2333943397 0 0 0 0 806156769.21894836 122683141.39601135 0 122683141.39601135 -217286561.39698792 0 0 0 0 200988858.15377045 -523611654.83594513 0 -523611654.83594513 -407582678.50662994 0 0 0 0 -579007777.45182419 -412726700.06848145 0 -412726700.06848145 -63908209.662536621 0 0 0 0 -82539199.285574794 -360243498.69411087 0 -360243498.69411087 -268026042.17935181 0 0 0 0 -758842.07566133304 -12102320.371674933 0 -12102320.371674933 7465760.4004590809 0 0 0 0 169365555.37978548 11548150.323150635 0 11548150.323150635 -206380723.4465332 0 0 0 0 -4034780.8032369614 -85055220.362468719 0 -85055220.362468719 -26913405.49861145 0 0 0 0 -6124487.8378873942 -24654003.348793875 0 -24654003.348793875 11094206.253217161 0 0 0 0 -66718124.546150208 370521243.29997253 0 370521243.29997253 -51398089.667053223 0 0 0 0 167008267.39358616 -144072877.6200664 0 -144072877.6200664 -63088006.460906982 0 0 0 0 45170196.964633942 -194123048.4466095 0 -194123048.4466095 -31275165.692214966 0 0 0 0 172248534.99729955 -66145576.395692825 0 -66145576.395692825 -16212269.615081787 0 0 0 0 96062144.742183685 128670759.87561035 0 128670759.87561035 235953451.99475098 0 0 0 0 -6568350.5689651184 -2347449.7332683913 0 -2347449.7332683913 8134242.4148399532 0 0 0 0 -633041106.17786551 -126668177.01295853 0 -126668177.01295853 91849784.64515686 0 0 0 0 -260207558.79108238 -462108844.49801636 0 -462108844.49801636 -64550968.787163973 0 0 0 0 120050843.97542763 -150909147.93836975 0 -150909147.93836975 -50785811.227031708 0 0 0 0 172453518.80483437 -224441886.43106079 0 -224441886.43106079 -145121710.78808594 0 0 0 0 76178837.523284912 -295656847.70257568 0 -295656847.70257568 -158770695.39648438 0 0 0 0 69088200.541111946 -245990841.52941513 0 -245990841.52941513 75332759.165527344 0 0 0 0 97357443.861999512 -452312518.25024414 0 -452312518.25024414 97556765.278270721 0 0 0 0 -131854388.46522141 -260332644.42875671 0 -260332644.42875671 -90059132.318984985 0 0 0 0 -202995448.65226841 -85144328.536289215 0 -85144328.536289215 -101889030.98553467 0 0 0 0 -283727489.56051159 -90961657.981010437 0 -90961657.981010437 79448413.100097656 0 0 0 0 -421389169.64847565 191290026.42337036 0 191290026.42337036 -186941462.74290466 0 0 0 0 194177372.26297569 -144687069.23338699 0 -144687069.23338699 -984923390.31863403 0 0 0 0 561209667.831707 -1602360406.903656 0 -1602360406.903656 -159264047.09283447 0 0 0 0 449089841.9631443 927336870.44567871 0 927336870.44567871 -2273266186.8931274 0 0 0 0 -991417.06613112707 -4154588.5980609655 0 -4154588.5980609655 3792857.5905721439 0 0 0 0 -337626360.15748167 -144463715.978302 0 -144463715.978302 97911361.558746338 0 0 0 0 -24161623.138572752 -4077885.0134806447 0 -4077885.0134806447 28975256.34520803 0 0 0 0 -297782611.41207552 483008983.9278183 0 483008983.9278183 -418683473.63742065 0 0 0 0 -244535.48955535889 -13335321.740600586 0 -13335321.740600586 6967764.5441269875 0 0 0 0 -56651594.293861389 -11372046.440045357 0 -11372046.440045357 51764527.532119751 0 0 0 0 -6341612.0116461441 -27923790.419480082 0 -27923790.419480082 39606462.724738307 0 0 0 0 -43556089.274044037 -45293073.059494019 0 -45293073.059494019 -53415068.105163574 0 0 0 0 -6931005.8158828551 -19586071.906519778 0 -19586071.906519778 29843030.98265627 0 0 0 0 -114555376.62229919 20042708.877034187 0 20042708.877034187 63597643.308990479 0 0 0 0 -33911598.608488098 -4185706.4708079789 0 -4185706.4708079789 33786766.066633634 0 0 0 0 -148083300.50978088 90005640.4538908 0 90005640.4538908 12465031.967861176 0 0 0 0 -143991171.08843994 70481390.677947044 0 70481390.677947044 72744124.12109375 0 0 0 0 -198211203.85449219 -18365660.400558472 0 -18365660.400558472 51447231.688790321 0 0 0 0 -246886595.34286499 45560547.471500397 0 45560547.471500397 68884182.614864349 0 0 0 0 -77324254.182249546 -210004310.48742676 0 -210004310.48742676 -63814008.167358398 0 0 0 0 -279551716.19367981 616783.4727191925 0 616783.4727191925 94767869.49180603 0 0 0 0 -98128.453407648485 -11308444.388926134 0 -11308444.388926134 10285952.311025158 0 0 0 0 5495815.3393540196 -42615913.465870939 0 -42615913.465870939 59319736.896078333 0 0 0 0 -615227482.59886563 -174515712.31955624 0 -174515712.31955624 119418108.13235474 0 0 0 0 -248735996.12306976 41316217.43649292 0 41316217.43649292 90370034.457275391 0 0 0 0 -190932221.31513977 141333024.36752319 0 141333024.36752319 135135226.585495 0 0 0 0 -347157587.33996201 5301028.607187748 0 5301028.607187748 203252357.80769348 0 0 0 0 -311488686.33926392 -91909105.488040924 0 -91909105.488040924 -13506825.163791656 0 0 0 0 -576707327.31327438 -154282651.15546894 0 -154282651.15546894 194064452.70085907 0 0 0 0 19645374.914863098 -48603193.146409556 0 -48603193.146409556 51863766.138423897 0 0 0 0 -194639745.27348518 41880794.943908691 0 41880794.943908691 230294982.62786865 0 0 0 0 -16882558.766188614 3090351.7706533894 0 3090351.7706533894 13796815.789776742 0 0 0 0 -837615687.01143265 -1703836076.7702332 0 -1703836076.7702332 -212918758.46144104 0 0 0 0 264406527.19220734 3532593.0786342621 0 3532593.0786342621 282216467.58366394 0 0 0 0 285224586.09423065 91829493.140197754 0 91829493.140197754 634770114.75580597 0 0 0 0 59541417.019393921 194556387.34550285 0 194556387.34550285 303131667.00270081 0 0 0 0 -237596535.96002197 70494471.415534973 0 70494471.415534973 185931665.50875092 0 0 0 0 -244595975.75526428 68885189.249959946 0 68885189.249959946 357632217.19027328 0 0 0 0 -482681892.98571777 -78471937.896011353 0 -78471937.896011353 307487178.75757599 0 0 0 0 3478526.7221374512 114295687.88916779 0 114295687.88916779 172152808.59396744 0 0 0 0 -97672158.844177246 204268017.55314255 0 204268017.55314255 211453366.38300037 0 0 0 0 3713479.8267555237 137333324.47801685 0 137333324.47801685 397690829.41204071 0 0 0 0 245004078.40089417 207625030.44842911 0 207625030.44842911 178026946.51361465 0 0 0 0 78816934.463336945 174226211.31712914 0 174226211.31712914 40267606.692470551 0 0 0 0 44788520.440551758 83940957.86869812 0 83940957.86869812 103625329.51320648 0 0 0 0 -148095487.71862793 46825983.200361252 0 46825983.200361252 -30190244.575281143 0 0 0 0 -88541831.068054199 153557239.76446533 0 153557239.76446533 77233952.981288612 0 0 0 0 -150736025.24596405 119748204.29320145 0 119748204.29320145 77843402.640014648 0 0 0 0 -63358726.701568604 192191837.6218586 0 192191837.6218586 -44474941.177623749 0 0 0 0 -23926983.758415148 1666761.9291828042 0 1666761.9291828042 18771688.453403972 0 0 0 0 -145193586.70231628 -20190921.575117111 0 -20190921.575117111 81297236.144870758 0 0 0 0 -28077071.381652832 39630523.832490921 0 39630523.832490921 23864374.975740433 0 0 0 0 -28117366.986646593 76521968.430422217 0 76521968.430422217 -108371913.2990303 0 0 0 0 -11750706.605760127 -914006.84944225103 0 -914006.84944225103 11675581.161381491 0 0 0 0 -18178843.380201712 2859767.9491527863 0 2859767.9491527863 14319690.071572449 0 0 0 0 15984521.914703369 37784762.225460052 0 37784762.225460052 11878710.111696243 0 0 0 0 113300291.72915649 35865830.803219795 0 35865830.803219795 -170147876.43754196 0 0 0 0 -587895.52229309082 107633494.62398911 0 107633494.62398911 -136660486.60647964 0 0 0 0 68143917.646160126 -14947756.868523598 0 -14947756.868523598 -119127262.30030823 0 0 0 0 -21057896.899726868 -30253652.823629379 0 -30253652.823629379 -88001949.329723358 0 0 0 0 -2558497.7029894926 1189547.6757277399 0 1189547.6757277399 -46380.987451137975 0 0 0 0 -658478907.3083725 -317204435.69184303 0 -317204435.69184303 112107347.20133209 0 0 0 0 -2088880236.8189392 103495321.05073547 0 103495321.05073547 138503775.06300926 0 0 0 0 -686061.29905069619 -595520.28808893077 0 -595520.28808893077 813939.05152775277 0 0 0 0 -2354.800163442269 -886434.6217151396 0 -886434.6217151396 -643173.70470580459 0 0 0 0 -106769627.23639679 -442447983.70788288 0 -442447983.70788288 130286805.13833618 0 0 0 0 162706947.29445457 -19746233.32302022 0 -19746233.32302022 -122854316.86078644 0 0 0 0 197262596.6656189 81828396.635856628 0 81828396.635856628 27659783.122325897 0 0 0 0 437294441.31329346 -647334815.4042244 0 -647334815.4042244 -142839669.87248039 0 0 0 0 592607956.16134644 -943135905.21245575 0 -943135905.21245575 99755548.388685226 0 0 0 0 -1001809080.1311646 -674733674.57835007 0 -674733674.57835007 137625486.92037201 0 0 0 0 -809229865.99755859 -1235733775.2750168 0 -1235733775.2750168 -465897342.66488194 0 0 0 0 396323952.21264648 -1221222998.8468418 0 -1221222998.8468418 204182221.54463768 0 0 0 0 164263668.71146393 -595773413.61623573 0 -595773413.61623573 -101862579.99396515 0 0 0 0 1296356094.1559448 -1534910746.8458881 0 -1534910746.8458881 1429616648.7288532 0 0 0 0 1029163894.4136429 -879292472.74887466 0 -879292472.74887466 -49218302.845718384 0 0 0 0 3290198102.8349075 -2255718424.5532856 0 -2255718424.5532856 1280716949.9620266 0 0 0 0 2327472468.4177856 -1087485439.6077747 0 -1087485439.6077747 -85482789.883323669 0 0 0 0 1492742330.3092346 -1073572541.7604637 0 -1073572541.7604637 -112372517.2605629 0 0 0 0 1996490577.6473618 -1309049072.2823792 0 -1309049072.2823792 -86773233.684200287 0 0 0 0 602760480.74250412 -1317677949.7573879 0 -1317677949.7573879 354595732.24022675 0 0 0 0 1570811011.9166946 -1412224105.0008488 0 -1412224105.0008488 -50242269.876871109 0 0 0 0 1244361410.5333862 -1291962097.627224 0 -1291962097.627224 -79554905.281677246 0 0 0 0 1449447755.4690285 -1245323185.7954845 0 -1245323185.7954845 -89512672.541564941 0 0 0 0 1496006564.4983978 -1106753321.8822861 0 -1106753321.8822861 -146188265.74403954 0 0 0 0 888676594.56610107 -775415946.41162109 0 -775415946.41162109 -210238162.060812 0 0 0 0 2073401622.1101532 -946457695.52527618 0 -946457695.52527618 -190917449.19533539 0 0 0 0 1455536605.7457886 -1247193678.9978561 0 -1247193678.9978561 -247647799.47488403 0 0 0 0 1422022953.3393326 -481551579.86097527 0 -481551579.86097527 -239889457.81034088 0 0 0 0 589468300.97267151 -548585462.43056679 0 -548585462.43056679 -197733947.14408875 0 0 0 0 28411874.354972839 -1598640278.6188965 0 -1598640278.6188965 -469567812.662323 0 0 0 0 537556041.30032349 -498254864.49424362 0 -498254864.49424362 -222248152.51878357 0 0 0 0 2355901742.4783554 -1405797795.3825722 0 -1405797795.3825722 -409464895.58561897 0 0 0 0 1483691875.6077194 -1136135298.6832809 0 -1136135298.6832809 -51087048.316085815 0 0 0 0 1504680275.9961243 -1147940404.6284027 0 -1147940404.6284027 -342862516.21406937 0 0 0 0 1667600239.37854 -671834469.53436565 0 -671834469.53436565 221611175.63253784 0 0 0 0 1590735836.5119629 -1087437275.6583443 0 -1087437275.6583443 908014485.04570007 0 0 0 0 3483027501.6898346 -1482889725.5433197 0 -1482889725.5433197 403011665.17678833 0 0 0 0 1181430247.5909119 -436604847.3002739 0 -436604847.3002739 810804508.02771378 0 0 0 0 1143788689.1574707 41019012.103321075 0 41019012.103321075 342382271.42240906 0 0 0 0 1784650329.2055817 -131045027.96680069 0 -131045027.96680069 294127693.06497955 0 0 0 0 823920748.92546082 109943295.17680359 0 109943295.17680359 170492868.40587616 0 0 0 0 832854756.49522829 -346381552.96826184 0 -346381552.96826184 383887402.93526459 0 0 0 0 272034481.59978962 -87073247.617282629 0 -87073247.617282629 197531144.17095947 0 0 0 0 1046643175.3462067 -272267819.48007965 0 -272267819.48007965 118230360.10225105 0 0 0 0 1070525861.5079842 -868559327.83072853 0 -868559327.83072853 -74899810.923042297 0 0 0 0 1165027801.9766235 -1004019904.2686348 0 -1004019904.2686348 41623983.143947601 0 0 0 0 -144724327.8259716 471104287.27894211 0 471104287.27894211 -716255499.42443848 0 0 0 0 103525368.04100037 -38565799.633111954 0 -38565799.633111954 -45804008.883216858 0 0 0 0 5604317.9027573094 -16235691.339026643 0 -16235691.339026643 -18883838.580374669 0 0 0 0 16193579.892044067 -15242707.528422356 0 -15242707.528422356 -18843317.367866516 0 0 0 0 50017769.498756409 -8935309.3022766113 0 -8935309.3022766113 -8146973.6368427277 0 0 0 0 23046426.685769871 -1120804.5986498483 0 -1120804.5986498483 -18250926.405973323 0 0 0 0 14245142.423226368 1990507.4725664095 0 1990507.4725664095 -12263275.500171535 0 0 0 0 7027005.7212993596 -2648466.0161864683 0 -2648466.0161864683 422158.00381130725 0 0 0 0 -15538193.466239929 46013309.987332344 0 46013309.987332344 -30550192.151275635 0 0 0 0 100113899.51859283 32339083.698835373 0 32339083.698835373 -90283805.836967468 0 0 0 0 352485175.21686554 276070482.35756111 0 276070482.35756111 219862522.63329315 0 0 0 0 1360839500.2680893 -72470418.5800457 0 -72470418.5800457 -193568235.71767426 0 0 0 0 1923411451.5383072 1195016341.3407197 0 1195016341.3407197 742980654.2575264 0 0 0 0 20383632.380706787 -1060534.5186042786 0 -1060534.5186042786 15449985.992458344 0 0 0 0 3092479.6308225915 -549291.35362517461 0 -549291.35362517461 -1956754.6130476296 0 0 0 0 4299690364.6292019 -303021519.11335993 0 -303021519.11335993 -460615045.88816833 0 0 0 0 1759594786.2401733 118458733.57991791 0 118458733.57991791 -465535814.61890757 0 0 0 0 1418595497.7301407 -349629664.66995049 0 -349629664.66995049 -408616523.07548523 0 0 0 0 2810620908.5369453 -440495278.70032883 0 -440495278.70032883 -408653232.2654686 0 0 0 0 1632603448.887207 -167379148.60320663 0 -167379148.60320663 -267568837.563591 0 0 0 0 1193894108.3511505 -233292360.06046295 0 -233292360.06046295 -238257530.48570538 0 0 0 0 1167689667.3246689 -225116440.44402313 0 -225116440.44402313 -368712155.65602875 0 0 0 0 1098192441.307663 -181713075.34059525 0 -181713075.34059525 -87746404.657546997 0 0 0 0 1542926604.9037628 10209762.407886505 0 10209762.407886505 -225503805.85803986 0 0 0 0 676367.92545699701 -2475256.2491409294 0 -2475256.2491409294 1713074.5653718561 0 0 0 0 29092488.217880249 287476731.69882774 0 287476731.69882774 -152085832.84362793 0 0 0 0 1557327213.7718506 -63140159.853813171 0 -63140159.853813171 -198081481.43124485 0 0 0 0 1664321912.3504639 -96834819.90819931 0 -96834819.90819931 -284631114.69407272 0 0 0 0 1227374.7590622604 -8844154.8057962842 0 -8844154.8057962842 -11361185.972104143 0 0 0 0 165165154.6064167 -125680589.60785246 0 -125680589.60785246 -8573286.8491706848 0 0 0 0 -978443972.59630585 1464081974.9188538 0 1464081974.9188538 -253579006.34149551 0 0 0 0 61649353.612442017 212825628.6164093 0 212825628.6164093 -632276361.68791389 0 0 0 0 546678339.77649117 108559548.01078796 0 108559548.01078796 -853088739.59376526 0 0 0 0 2161562016.4782181 -1224356800.4918365 0 -1224356800.4918365 148456683.86483955 0 0 0 0 868239451.09197807 -1477182194.8583231 0 -1477182194.8583231 1093190708.1398773 0 0 0 0 1210324001.1864929 -639017029.69390106 0 -639017029.69390106 805501403.81046295 0 0 0 0 509256952.10216522 201004745.82024384 0 201004745.82024384 2868294120.8607788 0 0 0 0 453748937.64096498 1003368965.5966065 0 1003368965.5966065 693345530.00624084 0 0 0 0 79871306.487739563 -918667467.92145538 0 -918667467.92145538 1519213391.1641388 0 0 0 0 -144202072.91090584 21913031.650044441 0 21913031.650044441 128152709.45404053 0 0 0 0 -1457610579.8002472 -127053970.62145233 0 -127053970.62145233 773784805.50046539 0 0 0 0 -422547168.42067719 -670234978.91413879 0 -670234978.91413879 833926198.81716156 0 0 0 0 607991998.06679726 -681321224.92191601 0 -681321224.92191601 100741936.17205811 0 0 0 0 -376254712.44332647 114702690.29649091 0 114702690.29649091 -597406785.58587646 0 0 0 0 -375113100.49893188 -496655336.36101913 0 -496655336.36101913 117842669.81147766 0 0 0 0 -870611938.70436096 737885982.97948837 0 737885982.97948837 -1029421814.4314651 0 0 0 0 -1888104852.3834591 1112735951.9798088 0 1112735951.9798088 144937063.68015289 0 0 0 0 1239932632.1458244 -233760518.540905 0 -233760518.540905 -251245623.66315079 0 0 0 0 1230312202.8668861 -478490383.54074478 0 -478490383.54074478 126539801.5493021 0 0 0 0 -1785536.4815014228 -5226076.7918650918 0 -5226076.7918650918 -4132731.0942839757 0 0 0 0 734347884.75205231 -603424096.19040298 0 -603424096.19040298 473770545.64382935 0 0 0 0 1118246581.0991898 -166288434.29426956 0 -166288434.29426956 -115622082.59922791 0 0 0 0 757120122.58352661 -442855046.57775116 0 -442855046.57775116 -263841982.28013229 0 0 0 0 1331637140.0880737 -1249410070.2316513 0 -1249410070.2316513 88221031.529933929 0 0 0 0 -2062909.8468283899 -2397051.2146878466 0 -2397051.2146878466 2014.9292164221406 0 0 0 0 1032112262.0801773 -565312865.32405663 0 -565312865.32405663 -817340670.38034058 0 0 0 0 624173855.5933609 -711860095.37414551 0 -711860095.37414551 -1041883936.9627533 0 0 0 0 334695441.82614326 -1035681387.3654423 0 -1035681387.3654423 -343128124.73962402 0 0 0 0 19116383.840071678 551826674.00209427 0 551826674.00209427 315158615.66023254 0 0 0 0 2268087967.4871445 464726222.40478516 0 464726222.40478516 -200721431.35240173 0 0 0 0 1401870775.6905975 -784542910.68216705 0 -784542910.68216705 200183554.5046196 0 0 0 0 147284629.92883301 -598153802.11280823 0 -598153802.11280823 228027440.92730713 0 0 0 0 640992176.05168915 -979417897.71479797 0 -979417897.71479797 -9899108.140838623 0 0 0 0 413093392.71235275 -887106453.29890442 0 -887106453.29890442 353106273.03186798 0 0 0 0 -67590256.74079895 -557956816.02194977 0 -557956816.02194977 -129960950.56652069 0 0 0 0 594713382.17627716 -1185758801.7356262 0 -1185758801.7356262 357915748.22850418 0 0 0 0 489381161.00973129 -1101006287.035923 0 -1101006287.035923 6561891.0407104492 0 0 0 0 195223761.81693268 -393048782.12781143 0 -393048782.12781143 -351572852.55712891 0 0 0 0 798493983.24982452 -1008688692.6961441 0 -1008688692.6961441 9918776.4372329712 0 0 0 0 790173110.2806015 -1040784327.7033148 0 -1040784327.7033148 271691045.39678955 0 0 0 0 1161390858.1108017 -923117734.1421051 0 -923117734.1421051 271629615.73374939 0 0 0 0 1143503363.0189972 -882001354.92869568 0 -882001354.92869568 249755855.06973267 0 0 0 0 1748547468.4778442 -824616311.39482117 0 -824616311.39482117 48478703.191291809 0 0 0 0 1439713770.8426056 -922081181.26355743 0 -922081181.26355743 18034911.372749329 0 0 0 0 1737190549.6196976 -1036511668.1815529 0 -1036511668.1815529 -162742107.61738586 0 0 0 0 1281753889.1807404 -1166877127.3784256 0 -1166877127.3784256 -65155206.967971802 0 0 0 0 1139706517.1546097 -891994095.9131279 0 -891994095.9131279 4800617.5309448242 0 0 0 0 1450057017.5464401 -1308343312.1389847 0 -1308343312.1389847 178566012.20776939 0 0 0 0 2185424412.6525574 -968013408.06635666 0 -968013408.06635666 -152303356.58157349 0 0 0 0 3142513072.8094463 707896244.6594944 0 707896244.6594944 414826867.73762512 0 0 0 0 2782218863.0558777 -205005724.22379303 0 -205005724.22379303 396790501.92927611 0 0 0 0 2579631928.7833443 185416827.03632164 0 185416827.03632164 -117407556.45188904 0 0 0 0 1672132126.6468658 -427509725.2727356 0 -427509725.2727356 277316038.75361633 0 0 0 0 1109121590.0458832 266602085.06921005 0 266602085.06921005 -2539244.2778167725 0 0 0 0 1452588053.3288727 279750199.04210663 0 279750199.04210663 341775139.44417667 0 0 0 0 1287001764.8877411 -300514129.46334457 0 -300514129.46334457 274349871.68045044 0 0 0 0 2421140794.6728058 53720683.270587921 0 53720683.270587921 331997340.58744812 0 0 0 0 5098437915.1245766 -148120544.98181725 0 -148120544.98181725 -408405546.65538788 0 0 0 0 2599971034.2846451 -515634231.82588196 0 -515634231.82588196 376271982.82354736 0 0 0 0 2713349.4696416208 -6648475.1449032649 0 -6648475.1449032649 -293683.57553150505 0 0 0 0 -190930749.38153076 23134383.773216248 0 23134383.773216248 327826776.61743927 0 0 0 0 2797537.223617455 -4705467.1024992727 0 -4705467.1024992727 -2382012.8360133767 0 0 0 0 -1429455861.3226166 -1313647214.923439 0 -1313647214.923439 257566514.49403381 0 0 0 0 -1078654474.4476852 -199728917.42448044 0 -199728917.42448044 155649692.86756134 0 0 0 0 121736513.7193222 6535056.6090965271 0 6535056.6090965271 -569496876.16404724 0 0 0 0 -128873476.33006287 -821199127.62120056 0 -821199127.62120056 -272443846.92738628 0 0 0 0 456459945.34851074 -88530042.179496765 0 -88530042.179496765 -353319963.86734009 0 0 0 0 738278498.29261971 -633217464.98848438 0 -633217464.98848438 -367101118.65667725 0 0 0 0 522348188.78866959 -365755142.45335388 0 -365755142.45335388 -133082232.3944397 0 0 0 0 909768081.82304382 -623695214.83781433 0 -623695214.83781433 -248726127.47019196 0 0 0 0 5090277.0872589238 -8132830.2292865813 0 -8132830.2292865813 -4524175.1956796646 0 0 0 0 523256464.96349335 -349230051.34365463 0 -349230051.34365463 -17184579.70621109 0 0 0 0 583721107.10933685 -314491990.17819595 0 -314491990.17819595 -160971678.64541626 0 0 0 0 584260388.94842529 -333758162.97845459 0 -333758162.97845459 -253083082.56230927 0 0 0 0 5425785.8134601526 -13636192.753081005 0 -13636192.753081005 1577751.4819047824 0 0 0 0 -641059582.17664337 -599676422.70537567 0 -599676422.70537567 358408238.16094971 0 0 0 0 2848712.5741264448 -4360310.0783299189 0 -4360310.0783299189 -2691444.3414032832 0 0 0 0 18756683.760707855 258286466.54836082 0 258286466.54836082 181532710.57673645 0 0 0 0 2191274632.4689178 -404385724.58111572 0 -404385724.58111572 -119455174.45947647 0 0 0 0 2582988853.1212234 456549453.45934296 0 456549453.45934296 65326602.112968445 0 0 0 0 1686565443.0010223 -294995573.27651215 0 -294995573.27651215 58848937.563587189 0 0 0 0 3534619478.8601532 84004569.101873398 0 84004569.101873398 -401227077.31097412 0 0 0 0 1701406068.8909607 -363564279.64600372 0 -363564279.64600372 -417564681.33518982 0 0 0 0 428226419.73406219 407169875.06962204 0 407169875.06962204 -579869560.70825195 0 0 0 0 1408151159.5079651 -606422337.62976074 0 -606422337.62976074 -373005241.82214737 0 0 0 0 22066869.678518403 -19795609.404376082 0 -19795609.404376082 11711736.600990243 0 0 0 0 -849149368.7134819 -770692462.95559692 0 -770692462.95559692 -995400016.50463867 0 0 0 0 -403347148.62111282 -688109287.28997803 0 -688109287.28997803 -1085312947.5270844 0 0 0 0 -747908897.3481369 -287878247.04568481 0 -287878247.04568481 -246253522.63401794 0 0 0 0 -597429832.01060486 -730515288.84095001 0 -730515288.84095001 405903214.9828186 0 0 0 0 9103513.8857544288 -6827309.8485578392 0 -6827309.8485578392 3064181.534025915 0 0 0 0 -774358943.12500668 -1294196877.2209387 0 -1294196877.2209387 902403662.40762329 0 0 0 0 5343867062.5250015 2438974506.1288071 0 2438974506.1288071 -1795372065.2784157 0 0 0 0 1440472233.7484016 -98333527.052234888 0 -98333527.052234888 -76279188.07484436 0 0 0 0 2300781968.3930016 -16275416.396774292 0 -16275416.396774292 -276123539.26468658 0 0 0 0 5696441.9263462853 -15037917.89594801 0 -15037917.89594801 8186085.0276142359 0 0 0 0 2694977816.4111061 -169262338.82533646 0 -169262338.82533646 -453051707.61547852 0 0 0 0 1490241686.7453537 -338602.34884643555 0 -338602.34884643555 -375792529.72226715 0 0 0 0 612828983.043396 -742285881.09072495 0 -742285881.09072495 -207118451.10739136 0 0 0 0 1733118732.8995132 -122466318.61724091 0 -122466318.61724091 64377429.00340271 0 0 0 0 -886179642.10319233 -1278721076.0629311 0 -1278721076.0629311 5617182789.900116 0 0 0 0 2253962996.4316483 -330462108.35502243 0 -330462108.35502243 26441738.191902161 0 0 0 0 4337868687.8315468 -2173432727.622139 0 -2173432727.622139 -1369944229.4297333 0 0 0 0 4095901.5560051398 -10849090.921477972 0 -10849090.921477972 12722453.120009184 0 0 0 0 2495547737.954361 -122073009.58898163 0 -122073009.58898163 182854005.87471008 0 0 0 0 2506053360.5728645 -1231918459.0610547 0 -1231918459.0610547 394275255.61338806 0 0 0 0 5755831585.7098503 -637707313.68540573 0 -637707313.68540573 -129503551.52852631 0 0 0 0 1785007003.9318008 -1023918588.1851044 0 -1023918588.1851044 900742168.80558777 0 0 0 0 1750325.3366046185 -3540377.8034433965 0 -3540377.8034433965 6247427.7039550245 0 0 0 0 139178500.68730927 380415903.31095505 0 380415903.31095505 -1069738119.6311493 0 0 0 0 -589826349.89953613 190013901.08844376 0 190013901.08844376 341737893.91969299 0 0 0 0 1248896432.4999847 -820022610.62549591 0 -820022610.62549591 35207996.256729126 0 0 0 0 609520008.62541199 -1177857669.9374542 0 -1177857669.9374542 -176012879.36995316 0 0 0 0 1247267569.1512985 -833244609.41636658 0 -833244609.41636658 -52975964.6664505 0 0 0 0 612759170.24436188 -1069864060.0108643 0 -1069864060.0108643 202150631.51507568 0 0 0 0 -153565600.81997681 -858144931.14457703 0 -858144931.14457703 210189918.1849575 0 0 0 0 89147707.773647308 -1027201494.4547577 0 -1027201494.4547577 278026288.32470703 0 0 0 0 -176143237.73752594 -1584670239.193306 0 -1584670239.193306 393827321.83297729 0 0 0 0 2057729756.6197662 -746059908.03045654 0 -746059908.03045654 -2034676916.384491 0 0 0 0 825798200.01786041 -2498909652.6896515 0 -2498909652.6896515 1196261365.2420845 0 0 0 0 1735562164.5029068 -1851854016.4260864 0 -1851854016.4260864 151856091.12806702 0 0 0 0 1021460419.5032501 -695955803.68628693 0 -695955803.68628693 309115724.35968018 0 0 0 0 1061683181.9502144 -791885533.88037109 0 -791885533.88037109 325664152.17853546 0 0 0 0 1099080793.1859741 -708033890.05648804 0 -708033890.05648804 435890643.06178284 0 0 0 0 1277800400.8191223 -830131300.47107697 0 -830131300.47107697 269582266.06634521 0 0 0 0 979007098.61907959 -991189544.94985962 0 -991189544.94985962 308885191.96151733 0 0 0 0 1033419160.6310501 -806778869.47449493 0 -806778869.47449493 472662010.50192261 0 0 0 0 1003373159.2383766 -892830725.47997665 0 -892830725.47997665 389392320.8684082 0 0 0 0 979362882.76560974 -883229769.28023529 0 -883229769.28023529 445842987.0329895 0 0 0 0 701308611.8764801 -928964936.94828796 0 -928964936.94828796 450647235.78044128 0 0 0 0 710436404.65969944 -969628069.14158535 0 -969628069.14158535 464204290.51860046 0 0 0 0 673834985.52830505 -977451869.20899963 0 -977451869.20899963 472423081.40171051 0 0 0 0 650586564.58361816 -964006097.18109894 0 -964006097.18109894 516563598.25465393 0 0 0 0 616800996.74402618 -816323783.33701324 0 -816323783.33701324 435177401.08870316 0 0 0 0 646226287.47675323 -934960257.20864868 0 -934960257.20864868 483417394.527565 0 0 0 0 801814918.30835724 -1081229386.3542023 0 -1081229386.3542023 509111797.56970215 0 0 0 0 630051312.76415253 -962230602.28567505 0 -962230602.28567505 538384580.35169125 0 0 0 0 718723455.13890839 -1041847860.4087296 0 -1041847860.4087296 547960344.13199711 0 0 0 0 777148350.9839325 -995545681.98818207 0 -995545681.98818207 382670583.5443573 0 0 0 0 717523064.7133646 -883318360.2969532 0 -883318360.2969532 417507886.40254211 0 0 0 0 922850424.8028183 -890593517.9788456 0 -890593517.9788456 416651973.75506592 0 0 0 0 1292495831.1676178 -968959424.34828949 0 -968959424.34828949 370857480.66796112 0 0 0 0 1181090163.1403732 -789844877.25846481 0 -789844877.25846481 294329534.26435852 0 0 0 0 1361480326.3439865 -1454662069.6281395 0 -1454662069.6281395 699064206.63322449 0 0 0 0 1681565460.0258026 -695940138.95175934 0 -695940138.95175934 302685350.79654026 0 0 0 0 1754303477.4096451 -1181589283.0219269 0 -1181589283.0219269 527379241.97357559 0 0 0 0 519776946.48470855 -1274750253.6714909 0 -1274750253.6714909 1159333293.1454163 0 0 0 0 468855852.86238861 -663628641.7950592 0 -663628641.7950592 388353546.11107635 0 0 0 0 385543991.19776917 -1175436486.4199181 0 -1175436486.4199181 833792573.98014832 0 0 0 0 844331978.16693497 -959056297.51106644 0 -959056297.51106644 442214121.06668091 0 0 0 0 156967661.0378418 -633698401.39613342 0 -633698401.39613342 368879571.19525146 0 0 0 0 350100852.92628479 -903585957.48510742 0 -903585957.48510742 595841913.57061005 0 0 0 0 -272104545.54421234 57089991.711509705 0 57089991.711509705 -192818469.88474274 0 0 0 0 55818971.10799408 -713974079.77178192 0 -713974079.77178192 336741503.38447571 0 0 0 0 7805041.1982917786 -261305726.73165131 0 -261305726.73165131 -260258567.97698593 0 0 0 0 -4677498.6653592456 -6169886.6271004304 0 -6169886.6271004304 2675294.3065573797 0 0 0 0 -203723257.94511795 -355841278.42798233 0 -355841278.42798233 405466309.38449097 0 0 0 0 -124417617.35856247 277694102.04977036 0 277694102.04977036 -150013934.6232605 0 0 0 0 379517321.03486049 -393630830.89701152 0 -393630830.89701152 177646008.76316833 0 0 0 0 43542181.932701111 -37408887.424659729 0 -37408887.424659729 -8389224.8640880585 0 0 0 0 1429071.8277135026 2606885.5653475188 0 2606885.5653475188 -1463142.9449770451 0 0 0 0 1828478.42568768 -3254477.6444385387 0 -3254477.6444385387 -3812551.5278264806 0 0 0 0 55727143.358469963 10267155.889308929 0 10267155.889308929 9329933.7963867188 0 0 0 0 -329476104.36537933 484889123.06885529 0 484889123.06885529 431162307.81038666 0 0 0 0 2566710.7188321762 -8438825.6028965265 0 -8438825.6028965265 -6842733.8900147304 0 0 0 0 -3594694.7402676009 -3893806.2010454722 0 -3893806.2010454722 2250481.0992273539 0 0 0 0 -1471197277.405632 269198781.25623322 0 269198781.25623322 526473840.10507965 0 0 0 0 3942735.4514026642 -296918458.51180458 0 -296918458.51180458 -572011155.06517029 0 0 0 0 -881477026.35102844 -519374955.99459839 0 -519374955.99459839 210462109.58009338 0 0 0 0 -539728884.05458832 522354258.50404358 0 522354258.50404358 903825491.34155273 0 0 0 0 -603881859.32131958 495844643.72724915 0 495844643.72724915 -560246659.0488205 0 0 0 0 -525057797.93714142 -511817864.15764618 0 -511817864.15764618 346197872.97532654 0 0 0 0 -238895352.20217896 -90843667.468261719 0 -90843667.468261719 365704774.64985657 0 0 0 0 -304755563.13153827 -777818953.10473585 0 -777818953.10473585 806261685.70756531 0 0 0 0 -36707976.37369442 -826375366.41639137 0 -826375366.41639137 1062390374.8975525 0 0 0 0 1020589417.0552902 -585102053.69087219 0 -585102053.69087219 837387377.06741333 0 0 0 0 691260164.77360535 -2103312.5929489136 0 -2103312.5929489136 247650603.29769897 0 0 0 0 911611270.85189533 -799328146.37483883 0 -799328146.37483883 1683177981.9419556 0 0 0 0 519481985.69930363 -752534291.08031559 0 -752534291.08031559 170842709.74893188 0 0 0 0 259497253.97468948 93190086.047786713 0 93190086.047786713 -180078113.41973877 0 0 0 0 470515965.81168747 -137869782.60870552 0 -137869782.60870552 -97411441.009185791 0 0 0 0 157724022.87594032 -605336380.18365097 0 -605336380.18365097 -296787175.72521973 0 0 0 0 -1350601105.548111 -561585519.40304565 0 -561585519.40304565 -838050.59181976318 0 0 0 0 -1473284061.799263 -684916799.33799744 0 -684916799.33799744 65933479.848716736 0 0 0 0 -2477294399.7855911 708250288.52199554 0 708250288.52199554 403099111.87866211 0 0 0 0 -1343350.1407428905 -1085148.9441602677 0 -1085148.9441602677 770901.99121789634 0 0 0 0 96421742.106189728 -249040901.13747406 0 -249040901.13747406 -944991656.18618774 0 0 0 0 39370613.617164612 -50478789.097454071 0 -50478789.097454071 -482.20256042480469 0 0 0 0 -2053615579.7137146 -213937438.83932495 0 -213937438.83932495 1266049495.4939117 0 0 0 0 1873362.5800342374 -411791.11375368387 0 -411791.11375368387 -1559881.9099558443 0 0 0 0 1574202.1900619539 2872513.6241918877 0 2872513.6241918877 -1542259.5335234702 0 0 0 0 71815730.577323914 -16056377.07661438 0 -16056377.07661438 -2324017.7240447998 0 0 0 0 2518544.2879943848 -3829057.3084793091 0 -3829057.3084793091 13530832.515640259 0 0 0 0 33463972.144577026 -19745276.724884033 0 -19745276.724884033 10977713.06968689 0 0 0 0 1842566985.8763466 -1799798887.2671432 0 -1799798887.2671432 899586464.60629654 0 0 0 0 786131872.86896133 -928782535.96994781 0 -928782535.96994781 715840149.36857605 0 0 0 0 761593639.15887332 -660377033.60272741 0 -660377033.60272741 449024044.7024231 0 0 0 0 681362783.25674057 -910983059.18868256 0 -910983059.18868256 265070790.69113159 0 0 0 0 659257255.31112194 -1299812126.5868468 0 -1299812126.5868468 1408516757.5118942 0 0 0 0 -396125488.17306519 -165342898.44071198 0 -165342898.44071198 896682850.53240967 0 0 0 0 4199894847.603714 -2206407766.9628563 0 -2206407766.9628563 738775655.23111725 0 0 0 0 2002261208.016222 -2019750553.6812878 0 -2019750553.6812878 1783771382.9122162 0 0 0 0 2155781369.6857452 -180423979.29283905 0 -180423979.29283905 322046512.31918335 0 0 0 0 2816120277.037673 -1280048553.5109291 0 -1280048553.5109291 -48925879.642272949 0 0 0 0 1619486340.6240902 -921585689.01605988 0 -921585689.01605988 -499530.13664245605 0 0 0 0 1666964297.7651081 -897531715.51023483 0 -897531715.51023483 -86249630.268295288 0 0 0 0 1725003722.8019066 -970951691.19382858 0 -970951691.19382858 -123150.37640380859 0 0 0 0 1020497573.2375984 -1033358254.423008 0 -1033358254.423008 341696202.06419373 0 0 0 0 1115287579.1686935 -748812753.94356537 0 -748812753.94356537 435091.6954574585 0 0 0 0 1444838965.6237526 -1107648855.8352528 0 -1107648855.8352528 348554245.12464905 0 0 0 0 993541710.42125511 -833641223.85207748 0 -833641223.85207748 250215274.62319183 0 0 0 0 763385544.33157349 -590957491.85890579 0 -590957491.85890579 84340.607376098633 0 0 0 0 725313991.46008301 -792463294.78873825 0 -792463294.78873825 373439107.67662048 0 0 0 0 890918448.33413696 -557429473.66346741 0 -557429473.66346741 372705758.6163559 0 0 0 0 384867073.60986328 -401040249.98732758 0 -401040249.98732758 230044.22434997559 0 0 0 0 602357326.33108139 -636549090.07159042 0 -636549090.07159042 253862598.28837585 0 0 0 0 242909844.08074951 -493998698.90016937 0 -493998698.90016937 271299259.15150452 0 0 0 0 296797802.02132797 -424871116.60494614 0 -424871116.60494614 359927570.16766357 0 0 0 0 1509449.2292437516 -10317.970258209854 0 -10317.970258209854 -1619015.4062595218 0 0 0 0 -155023681.92119789 -151696300.50122833 0 -151696300.50122833 287472329.54046059 0 0 0 0 51105496.783456802 -595702009.50369644 0 -595702009.50369644 536342596.8483429 0 0 0 0 -236808210.84638596 -134642337.74201202 0 -134642337.74201202 102572044.80096436 0 0 0 0 79720737.497533798 -122720259.6714325 0 -122720259.6714325 -176392151.79962158 0 0 0 0 52167483.237412453 -78921345.46604538 0 -78921345.46604538 -245992939.92726135 0 0 0 0 241909908.68699646 -255176572.62976837 0 -255176572.62976837 -223950920.28581238 0 0 0 0 756511636.99995422 -691372165.62288666 0 -691372165.62288666 680819304.62128448 0 0 0 0 -1096860.3589559421 -443610.35013647564 0 -443610.35013647564 2316413.3677213341 0 0 0 0 873070680.03893471 -589495238.9807682 0 -589495238.9807682 110097193.12243652 0 0 0 0 680913460.47266865 -122459506.37101746 0 -122459506.37101746 -93402207.424194336 0 0 0 0 768412770.43218613 -698925654.4958992 0 -698925654.4958992 136507560.17340088 0 0 0 0 737892929.25848389 -855954531.37604523 0 -855954531.37604523 494903765.35529327 0 0 0 0 450220047.51313019 -729612246.42901611 0 -729612246.42901611 157517723.62652588 0 0 0 0 284698057.57913971 -592857098.10603333 0 -592857098.10603333 63331576.374511719 0 0 0 0 33923258.321075439 -594395182.95051575 0 -594395182.95051575 169156392.24263 0 0 0 0 29825845.216148376 -499800247.87840271 0 -499800247.87840271 48601312.198028564 0 0 0 0 -355785157.24090195 -284888348.47066498 0 -284888348.47066498 64573333.109840393 0 0 0 0 -344727595.24571991 48934423.118347168 0 48934423.118347168 29898885.367538452 0 0 0 0 6739842.8822491169 -216355515.82093239 0 -216355515.82093239 30699249.820648193 0 0 0 0 -9828090.5268735886 -16795609.351023674 0 -16795609.351023674 36292098.014160156 0 0 0 0 22837211.696960449 -258310939.63346863 0 -258310939.63346863 75410408.049911499 0 0 0 0 462103947.81240016 -245710954.83682597 0 -245710954.83682597 -130257690.26858521 0 0 0 0 -254016098.37381089 -60201663.637453318 0 -60201663.637453318 51891318.08354187 0 0 0 0 -1735807.8037940301 -1662491.0202745385 0 -1662491.0202745385 4151925.4800357968 0 0 0 0 -244538761.90487671 65364295.02558136 0 65364295.02558136 108017246.82610321 0 0 0 0 -13967803.13815248 -18242582.121003985 0 -18242582.121003985 -190217879.50163269 0 0 0 0 -11258758.957542419 -98543174.696807861 0 -98543174.696807861 -182499021.34399796 0 0 0 0 -213953547.72431946 4596787.1396789551 0 4596787.1396789551 -29145473.242614746 0 0 0 0 -153076157.57323456 4073040.191619873 0 4073040.191619873 -29372853.858373642 0 0 0 0 -211846199.9654007 -22175022.874679565 0 -22175022.874679565 66902446.141357422 0 0 0 0 -216614636.65318298 74759709.320240021 0 74759709.320240021 -24572691.149673462 0 0 0 0 -842785778.18953323 113050564.63040161 0 113050564.63040161 -24412497.122787476 0 0 0 0 832016.43359121867 -625575.28073931858 0 -625575.28073931858 -1393512.3110419065 0 0 0 0 2398821.3422528505 5650818.599401474 0 5650818.599401474 475099141.9312439 0 0 0 0 -699943.07295641955 -502041.37895239145 0 -502041.37895239145 1363202.9311847165 0 0 0 0 1459909.2423653156 -1755949.4669025801 0 -1755949.4669025801 -2742298.9892571419 0 0 0 0 8453983.4746437073 49353332.373161316 0 49353332.373161316 222929832.09815979 0 0 0 0 14057100.668228149 -290782512.43360901 0 -290782512.43360901 388435958.77116394 0 0 0 0 563468333.22669029 -537705869.92303467 0 -537705869.92303467 496524323.58609009 0 0 0 0 178062320.54896164 -134889873.41167068 0 -134889873.41167068 117599841.18206787 0 0 0 0 81691005.335622787 -502833257.87172699 0 -502833257.87172699 -266271678.33709717 0 0 0 0 398514007.55780792 -492487301.86360168 0 -492487301.86360168 -53335470.301460266 0 0 0 0 -120350110.54698944 -466413578.33911133 0 -466413578.33911133 265626323.99154663 0 0 0 0 -6886935.5173435211 -533280687.27002335 0 -533280687.27002335 -335436717.33474731 0 0 0 0 106331772.64340019 -258098175.74499512 0 -258098175.74499512 -80868740.685760498 0 0 0 0 -471188121.14442825 -573326059.59915161 0 -573326059.59915161 -235324202.80126953 0 0 0 0 -137882553.6447525 -643700128.81385803 0 -643700128.81385803 -195524152.49494934 0 0 0 0 -194841990.49332428 -497432875.59352112 0 -497432875.59352112 -503977789.80007935 0 0 0 0 -2010312.2537096962 -1622218.6888745055 0 -1622218.6888745055 1119507.2385271192 0 0 0 0 -368582820.04884005 -21106795.480404854 0 -21106795.480404854 -482127666.59222412 0 0 0 0 -426661735.34765625 -105438960.42830658 0 -105438960.42830658 -66740497.795272827 0 0 0 0 -657218071.83662415 -375704748.64274597 0 -375704748.64274597 -327754258.35890961 0 0 0 0 -270825680.95157623 -417102360.91108704 0 -417102360.91108704 -337054186.94917297 0 0 0 0 -406372644.49094677 -241881939.31433296 0 -241881939.31433296 -157508659.09518433 0 0 0 0 -325219915.21626282 -476760901.77380371 0 -476760901.77380371 116421704.62518311 0 0 0 0 -177620999.42945862 -244375679.45391083 0 -244375679.45391083 -130544306.2142334 0 0 0 0 -574422386.62272644 -462261107.47608948 0 -462261107.47608948 -391750363.2277565 0 0 0 0 -436042921.5859375 -272687847.69413376 0 -272687847.69413376 -132887500.05589294 0 0 0 0 -6926634.1989004612 -35426847.011240005 0 -35426847.011240005 86072896.466888428 0 0 0 0 -23986028.140561819 -92865460.057327271 0 -92865460.057327271 234544876.54858398 0 0 0 0 34817855.174438477 -129403638.75466919 0 -129403638.75466919 166967402.62112427 0 0 0 0 5070282.2280607224 -75449450.912261963 0 -75449450.912261963 139134027.00024414 0 0 0 0 5404263.2711668015 -44153803.629974365 0 -44153803.629974365 58854303.786254883 0 0 0 0 14532163.074140996 -37189698.756742477 0 -37189698.756742477 30351914.210845947 0 0 0 0 12313519.962651849 -56898694.154568672 0 -56898694.154568672 73257748.590545654 0 0 0 0 -9649645.5651334226 -10932055.269108772 0 -10932055.269108772 40399428.505249023 0 0 0 0 -7618514.1944274902 -28912071.11239624 0 -28912071.11239624 79515957.82093811 0 0 0 0 -4862137.9770988375 -6485137.5851212665 0 -6485137.5851212665 -2184402.9855332747 0 0 0 0 -3067982.9801623821 4167213.2394332886 0 4167213.2394332886 17809521.125595093 0 0 0 0 -21583132.900877655 4142963.9415454865 0 4142963.9415454865 49794534.809082031 0 0 0 0 5876854.7865591049 30943533.728370667 0 30943533.728370667 -38369211.550582886 0 0 0 0 138917.17803989537 -5097986.2656516433 0 -5097986.2656516433 -888410.51057792082 0 0 0 0 -6937385.2872467041 -30538576.15788269 0 -30538576.15788269 2023028.9637298584 0 0 0 0 -17570942.002410889 -26166534.08908844 0 -26166534.08908844 93620168.532318115 0 0 0 0 60888062.487955093 54901322.737613678 0 54901322.737613678 33033069.886459351 0 0 0 0 -139428039.48178482 75409988.799102783 0 75409988.799102783 193034189.06201172 0 0 0 0 -159196774.05941963 -93956138.431884766 0 -93956138.431884766 333640485.10971069 0 0 0 0 557315718.06694031 -69061664.766235352 0 -69061664.766235352 176392294.17951965 0 0 0 0 442687333.7216568 -73677773.393981934 0 -73677773.393981934 56053986.340591431 0 0 0 0 256261460.02012825 -177181826.28742218 0 -177181826.28742218 138062507.54582214 0 0 0 0 182678.78505946416 -1851059.9252945855 0 -1851059.9252945855 -172672.45778641291 0 0 0 0 703564147.42029619 26522939.228061676 0 26522939.228061676 232947478.51205444 0 0 0 0 745368043.66684723 -245943008.365242 0 -245943008.365242 71749360.446487427 0 0 0 0 339807264.64889336 -17147200.783218384 0 -17147200.783218384 529093085.43113708 0 0 0 0 311903850.87600517 -424865965.62730408 0 -424865965.62730408 533651943.80600619 0 0 0 0 -57946233.063682556 -118034859.03092194 0 -118034859.03092194 340921577.58520508 0 0 0 0 7329437.1597137451 -81016706.023834229 0 -81016706.023834229 180599508.69872284 0 0 0 0 93992454.291324615 -135946172.25759888 0 -135946172.25759888 274887236.85595703 0 0 0 0 74443672.039863586 -210672789.55207825 0 -210672789.55207825 388384432.50314331 0 0 0 0 192921566.29439831 -228707786.0218277 0 -228707786.0218277 213026299.09501648 0 0 0 0 98880576.924369812 -249441891.18081665 0 -249441891.18081665 306590288.52225113 0 0 0 0 136011834.48387098 -192350453.16754913 0 -192350453.16754913 131851373.25257874 0 0 0 0 166012632.25806713 -284817551.57068634 0 -284817551.57068634 148745985.54077148 0 0 0 0 207437118.00598621 -290034340.96092987 0 -290034340.96092987 236483346.3531189 0 0 0 0 328992754.32764053 -101732067.71769714 0 -101732067.71769714 39062153.694440842 0 0 0 0 407218857.96432877 -286246643.74013519 0 -286246643.74013519 118390171.64141846 0 0 0 0 2634522.043353023 -1926269.8201989308 0 -1926269.8201989308 -3075750.550387904 0 0 0 0 131268171.99945641 -18824242.928092957 0 -18824242.928092957 -208042563.09607697 0 0 0 0 262751263.28388119 -233162762.01995087 0 -233162762.01995087 120055376.55015564 0 0 0 0 273675559.68273544 -432908056.94379425 0 -432908056.94379425 117115719.70925248 0 0 0 0 1357165.3727011625 -639717.82330908626 0 -639717.82330908626 -1587754.6985675171 0 0 0 0 266247512.30295086 -350729622.3310318 0 -350729622.3310318 -233612672.38066101 0 0 0 0 120909483.36731958 -203538597.13578796 0 -203538597.13578796 10859416.629943848 0 0 0 0 208058791.90017605 -191027447.2122879 0 -191027447.2122879 -150239118.90402222 0 0 0 0 178005390.82934284 -262678582.93000031 0 -262678582.93000031 17166002.472076416 0 0 0 0 115981043.97497559 -182585089.37336731 0 -182585089.37336731 66909997.966251373 0 0 0 0 46489559.561794281 -118449329.14846802 0 -118449329.14846802 77146210.335205078 0 0 0 0 52367383.848102182 -130021771.33688211 0 -130021771.33688211 92058119.402404785 0 0 0 0 49566210.616494179 -183900896.43086243 0 -183900896.43086243 197762317.37250519 0 0 0 0 58710767.984869957 -96631831.029968262 0 -96631831.029968262 38545137.483505249 0 0 0 0 90789138.081973076 -127005419.20812988 0 -127005419.20812988 -30249079.497238159 0 0 0 0 47892593.44071722 -88126273.077148438 0 -88126273.077148438 31894546.515457153 0 0 0 0 110282292.40318346 -117412792.09573364 0 -117412792.09573364 -38149669.694770813 0 0 0 0 193156295.08348572 -113609029.0334692 0 -113609029.0334692 -76508715.780715942 0 0 0 0 223373586.28332758 -80397834.341659546 0 -80397834.341659546 -108235414.18115997 0 0 0 0 278106492.61039066 -48481594.030807495 0 -48481594.030807495 -90334568.890090942 0 0 0 0 286239600.46449733 -143451559.50348663 0 -143451559.50348663 -152503628.3862915 0 0 0 0 283924469.54248285 -98876579.369976044 0 -98876579.369976044 -464752441.05886841 0 0 0 0 293942288.86572647 -76839472.542831421 0 -76839472.542831421 -221333731.01115417 0 0 0 0 189815949.03868771 -11362726.305908203 0 -11362726.305908203 -75993718.331954956 0 0 0 0 290020182.36015129 -106840744.49619293 0 -106840744.49619293 14419866.914352417 0 0 0 0 325602444.77004337 2278910.7707977295 0 2278910.7707977295 -60349291.412727356 0 0 0 0 349068166.59996021 68433276.168763638 0 68433276.168763638 -36169243.568206787 0 0 0 0 339606499.63204545 -30073854.931067467 0 -30073854.931067467 -8145228.0026550293 0 0 0 0 240151138.47325987 51283304.478946686 0 51283304.478946686 -3556879.9922790527 0 0 0 0 314652945.41264153 -49983249.674926758 0 -49983249.674926758 -97852703.568878174 0 0 0 0 -10437379.961701393 261303681.21269035 0 261303681.21269035 -542015568.25437927 0 0 0 0 146141377.70965099 -250005391.13093567 0 -250005391.13093567 -454450556.09317589 0 0 0 0 7162116.3764896393 9293995.5637969971 0 9293995.5637969971 -102898085.15415955 0 0 0 0 175276834.25736177 -131933804.59370375 0 -131933804.59370375 8628829.4606170654 0 0 0 0 191824975.33312607 -99017854.818939209 0 -99017854.818939209 25982935.347831726 0 0 0 0 154398487.81715751 -1999817.358915329 0 -1999817.358915329 40069310.184936523 0 0 0 0 219633845.21666718 -307385641.39381218 0 -307385641.39381218 222986837.99588013 0 0 0 0 203891589.90993309 -305903131.47329712 0 -305903131.47329712 122684784.82268715 0 0 0 0 2757985.0399493119 -105838.30083279312 0 -105838.30083279312 -2843408.5788341314 0 0 0 0 130607208.66726875 -120873116.88500977 0 -120873116.88500977 168114625.20083618 0 0 0 0 3162594.5288042501 24269.436932507902 0 24269.436932507902 -2824976.4410576671 0 0 0 0 337058341.32293606 -246854039.87008667 0 -246854039.87008667 373534.27141571045 0 0 0 0 165413627.57853413 -189176579.66484833 0 -189176579.66484833 221973856.09283447 0 0 0 0 359394779.02596092 -336162373.76533508 0 -336162373.76533508 225384108.08353901 0 0 0 0 288159430.21753037 71720808.892547607 0 71720808.892547607 26440333.442672729 0 0 0 0 458034353.01559639 -28116225.094833374 0 -28116225.094833374 113483721.41724443 0 0 0 0 731935400.52802086 34915882.534454346 0 34915882.534454346 73953062.529747009 0 0 0 0 633916587.49850273 67690607.861419678 0 67690607.861419678 117274214.47257471 0 0 0 0 541030680.50443459 307991183.53417969 0 307991183.53417969 43595118.683761597 0 0 0 0 183294.8165425905 -268022.10272280872 0 -268022.10272280872 -101989.01137688011 0 0 0 0 481264513.02581978 2340924.5884552002 0 2340924.5884552002 -2589492.8705749512 0 0 0 0 293599501.12082195 -85456496.773521423 0 -85456496.773521423 35760362.804214478 0 0 0 0 238177647.31612587 -179462944.30537415 0 -179462944.30537415 159771937.10728455 0 0 0 0 389895629.90089798 -174000191.40404892 0 -174000191.40404892 84696693.799072266 0 0 0 0 638734331.3255806 -139330237.83314514 0 -139330237.83314514 82498139.405467033 0 0 0 0 680403028.63834 -299057853.38339233 0 -299057853.38339233 450070.16837279889 0 0 0 0 171775019.60622287 -170626314.8901329 0 -170626314.8901329 176214920.54385376 0 0 0 0 280882120.22815037 -283961346.25236893 0 -283961346.25236893 130617095.7175293 0 0 0 0 1016247798.5043778 44260821.318756104 0 44260821.318756104 -52639046.550170898 0 0 0 0 -3401290.1257200921 1297155.9881751593 0 1297155.9881751593 1989310.188297607 0 0 0 0 -3763993.2399587631 -4334057.1745033264 0 -4334057.1745033264 -1846.9720001220703 0 0 0 0 -894971.84266710281 -2727937.3494720459 0 -2727937.3494720459 301152.14134216309 0 0 0 0 243255.58710231353 -3209884.71082782 0 -3209884.71082782 -763881.623981243 0 0 0 0 -7246506.265062809 -2754930.4385147095 0 -2754930.4385147095 6613180.5500793457 0 0 0 0 -13781436.143551826 10979632.260513306 0 10979632.260513306 -5594234.6964874268 0 0 0 0 -18324196.097834587 -1111654.1357460022 0 -1111654.1357460022 21519049.500610352 0 0 0 0 1200254.0195989609 -4077035.9223136902 0 -4077035.9223136902 10633.589508056641 0 0 0 0 647849.39787483215 31968878.492355347 0 31968878.492355347 -30878682.726173401 0 0 0 0 662751.02084082458 -2871856.3042064384 0 -2871856.3042064384 -975834.36236278899 0 0 0 0 2115504.2104148865 -2197190.8151092529 0 -2197190.8151092529 2434936.4971923828 0 0 0 0 3359710.7578487396 -691444.82280731201 0 -691444.82280731201 -31796.676498413086 0 0 0 0 -17562820.270801544 -29750299.818733215 0 -29750299.818733215 24096962.195236206 0 0 0 0 -30203491.844852448 2469591.1055831909 0 2469591.1055831909 58710135.649749756 0 0 0 0 -70398.573652884923 -543536.71116517484 0 -543536.71116517484 167014.50644830987 0 0 0 0 21437072.352529526 -9101488.6395874023 0 -9101488.6395874023 32824698.909767151 0 0 0 0 49687219.915025711 -16573735.477676392 0 -16573735.477676392 -8182208.4256515503 0 0 0 0 13885720.805990219 -19496012.646896362 0 -19496012.646896362 12715451.820611954 0 0 0 0 15133643.993868828 3782783.3521118164 0 3782783.3521118164 -2176891.9199409485 0 0 0 0 6445457.0936481012 -77884.198310896754 0 -77884.198310896754 -3107841.2186512798 0 0 0 0 9635731.4065538645 -3716542.9164352417 0 -3716542.9164352417 1767951.6068115234 0 0 0 0 11403942.03092289 -3336232.0336227417 0 -3336232.0336227417 584289.85066223145 0 0 0 0 -4793979.936994791 -4027984.7385635376 0 -4027984.7385635376 1611057.8905181885 0 0 0 0 4994366.4974300582 8515.4284205175936 0 8515.4284205175936 -2471100.9151057005 0 0 0 0 911067.54804897308 -6065936.6052093506 0 -6065936.6052093506 2161555.3283519745 0 0 0 0 -815046.01528153347 -436682.38341982663 0 -436682.38341982663 2419646.2318653166 0 0 0 0 127428250.83191907 164540.23631286621 0 164540.23631286621 -25561661.38949585 0 0 0 0 103708375.28869116 -30245648.428256989 0 -30245648.428256989 -20023572.53062439 0 0 0 0 -704287.67146813893 542209.41218753904 0 542209.41218753904 2306967.1306829974 0 0 0 0 -41127564.435348511 25853345.882156372 0 25853345.882156372 32859185.7855196 0 0 0 0 -128737443.0094986 -41686616.002082825 0 -41686616.002082825 14145561.517623901 0 0 0 0 -49163796.402019501 -17292017.817756653 0 -17292017.817756653 20039629.902999878 0 0 0 0 -42858076.786526203 -19202100.806369781 0 -19202100.806369781 35165.767379760742 0 0 0 0 -39660640.618280411 -15167162.321147919 0 -15167162.321147919 3534875.0738143921 0 0 0 0 -42067909.319535255 -21955456.948989868 0 -21955456.948989868 6288312.0479431152 0 0 0 0 -61517692.828262329 -31345978.762649536 0 -31345978.762649536 5242231.0346813202 0 0 0 0 -36564711.817760468 -23599866.510490417 0 -23599866.510490417 -9714.3136444091797 0 0 0 0 -9680918.702299118 -12487168.723003387 0 -12487168.723003387 -6520802.2475891113 0 0 0 0 -40781307.148994446 -36918836.826118469 0 -36918836.826118469 -7987124.4429016113 0 0 0 0 -28575494.408626556 -46741482.723190308 0 -46741482.723190308 -47557554.283035278 0 0 0 0 -15029886.013595581 -11934101.471710205 0 -11934101.471710205 -2202281.5971050262 0 0 0 0 -6281469.3145275116 -2416765.3056602478 0 -2416765.3056602478 -2215521.4565734863 0 0 0 0 3955048.8722305298 -6780947.0466766357 0 -6780947.0466766357 -496061.09918212891 0 0 0 0 465752.55449637957 105268.20307088643 0 105268.20307088643 -219978.21334333718 0 0 0 0 -26850865.732215881 -32882116.893890381 0 -32882116.893890381 47606.796142578125 0 0 0 0 -54365868.445970535 -7533630.1848182678 0 -7533630.1848182678 -2704357.0041809082 0 0 0 0 3779070.8686362188 -434884.96927868575 0 -434884.96927868575 -3049306.805378601 0 0 0 0 -29763333.229644775 -103122937.51501465 0 -103122937.51501465 -20889318.227233887 0 0 0 0 526637.6400682684 -1597721.1726153418 0 -1597721.1726153418 -615633.11326806247 0 0 0 0 38537382.2722435 35969918.130264282 0 35969918.130264282 28975095.767272949 0 0 0 0 36612658.197500229 -10737636.036201477 0 -10737636.036201477 -49187668.591056824 0 0 0 0 -2490172.7890701294 -8716371.662689209 0 -8716371.662689209 -6827681.8993530273 0 0 0 0 4134750.0484882621 -502760.84407761693 0 -502760.84407761693 -3027596.1483287141 0 0 0 0 -3218920.6420326233 -1374416.2722473145 0 -1374416.2722473145 1652528.8577194214 0 0 0 0 14113377.420872688 -39723673.195840836 0 -39723673.195840836 14308845.344192505 0 0 0 0 3384901.5263965819 -4161166.4800800085 0 -4161166.4800800085 646707.03397288918 0 0 0 0 7991829.8389935493 -4275691.2617340088 0 -4275691.2617340088 1466411.668258667 0 0 0 0 9097223.1929757595 -5356118.2031383514 0 -5356118.2031383514 1210512.9410705566 0 0 0 0 19154745.076629639 -29990903.01171875 0 -29990903.01171875 -30630044.67086792 0 0 0 0 -1122456.0386352539 9828349.3021240234 0 9828349.3021240234 -2376521.1979370117 0 0 0 0 -648183.95332373586 -894687.74936277233 0 -894687.74936277233 -657694.23110206425 0 0 0 0 -11438242.87802887 -11340928.126922607 0 -11340928.126922607 53936115.56757164 0 0 0 0 -2150235.4343897775 -3326125.5827308893 0 -3326125.5827308893 1253739.1287972089 0 0 0 0 -34633461.214780807 -60020314.333717346 0 -60020314.333717346 -43455612.338729858 0 0 0 0 -9392515.2236213684 39727139.386703491 0 39727139.386703491 -109050013.61510086 0 0 0 0 -6616860.6250915527 15205932.269104004 0 15205932.269104004 -50453089.738739014 0 0 0 0 -13098676.28162384 -72191744.699645996 0 -72191744.699645996 -82060514.984741211 0 0 0 0 9515873.0223846436 -10319034.827392578 0 -10319034.827392578 -85048464.148605347 0 0 0 0 -296407143.66059113 -90927824.306350708 0 -90927824.306350708 6277255.0153198242 0 0 0 0 -814576.49456429295 -1311724.3647635803 0 -1311724.3647635803 464287.00807441212 0 0 0 0 -136218040.57143021 72360801.788589478 0 72360801.788589478 56219444.384521484 0 0 0 0 1186042.1364479661 154731.94188228622 0 154731.94188228622 -1528610.1957247257 0 0 0 0 -145473690.70442963 -130150376.16842651 0 -130150376.16842651 -105721588.171875 0 0 0 0 -150744206.72701645 350595343.10663605 0 350595343.10663605 56350830.945129395 0 0 0 0 -314355390.55168915 -30716647.282394409 0 -30716647.282394409 35956841.63917923 0 0 0 0 -150224616.62751198 -7877341.9581794739 0 -7877341.9581794739 25035609.598510742 0 0 0 0 -8491557.7196042538 4788146.256313324 0 4788146.256313324 25804719.158599854 0 0 0 0 -8532494.4037813395 -7004676.4520066977 0 -7004676.4520066977 -1945077.6964921728 0 0 0 0 -33379828.31990242 -24557507.057250977 0 -24557507.057250977 92684072.135437012 0 0 0 0 -16138042.46554184 27256316.181159973 0 27256316.181159973 12890190.776580811 0 0 0 0 -8540835.6724185944 -817690.0891456604 0 -817690.0891456604 55979814.628295898 0 0 0 0 8344794.9843463898 12549402.357696533 0 12549402.357696533 -8410000.2089385986 0 0 0 0 -1619793.513300525 -842275.41182762943 0 -842275.41182762943 -467197.632134974 0 0 0 0 13512962.252094269 -6495108.9663314819 0 -6495108.9663314819 758574.24287605286 0 0 0 0 8200332.1147646904 11305542.930274963 0 11305542.930274963 2463963.7291564941 0 0 0 0 -246979.21484088898 -2912343.749912262 0 -2912343.749912262 1437943.8196105957 0 0 0 0 151878709.2504158 -269872491.20645142 0 -269872491.20645142 268932541.63661194 0 0 0 0 172379694.30251694 -214352726.09388733 0 -214352726.09388733 69772987.120010376 0 0 0 0 144740123.28600883 -421144031.73622131 0 -421144031.73622131 647186045.78198242 0 0 0 0 -6758236.2881250307 -7976702.0778584927 0 -7976702.0778584927 -2574806.5481759608 0 0 0 0 -330661594.03990173 -105650552.41345215 0 -105650552.41345215 929106130.66706848 0 0 0 0 268724237.86570358 -218893369.57334709 0 -218893369.57334709 119394564.09963989 0 0 0 0 63613285.810523987 -437278712.61305237 0 -437278712.61305237 -76664107.517242432 0 0 0 0 107499850.98119164 -316696360.22334003 0 -316696360.22334003 -750638923.02178955 0 0 0 0 -1166759203.4231033 -418977783.41539001 0 -418977783.41539001 211556287.33535767 0 0 0 0 94879123.700027466 -339746389.31023407 0 -339746389.31023407 208370772.45350647 0 0 0 0 115799109.51757812 228092231.26506615 0 228092231.26506615 743056819.01133728 0 0 0 0 -150616193.03440857 -758559961.25645447 0 -758559961.25645447 1347328893.8045731 0 0 0 0 -41003246.140901506 -31508060.640838623 0 -31508060.640838623 -10066392.055328369 0 0 0 0 -23313810.151642144 -29200539.654724121 0 -29200539.654724121 -72086996.328613281 0 0 0 0 -39344803.226989985 -78907084.880462646 0 -78907084.880462646 -85078110.083053589 0 0 0 0 6854489.6111598015 -23947065.037788391 0 -23947065.037788391 -62842060.639755249 0 0 0 0 -9432057.7106280327 -20359881.334609985 0 -20359881.334609985 10875765.043426514 0 0 0 0 -21782354.409536719 -37226991.660552979 0 -37226991.660552979 -10786747.013463974 0 0 0 0 -30031412.271673679 -18209346.203552246 0 -18209346.203552246 17170916.830596924 0 0 0 0 -12463164.8502388 -17452448.252227783 0 -17452448.252227783 126433.193359375 0 0 0 0 -11056963.585630178 -25177745.721954346 0 -25177745.721954346 -11715356.641204834 0 0 0 0 4105218.5708727837 -30784579.233413696 0 -30784579.233413696 26495721.525123596 0 0 0 0 4141157.0534510612 -30697447.555801392 0 -30697447.555801392 10678246.241516113 0 0 0 0 54904773.650268793 -71436563.024242401 0 -71436563.024242401 -1964329.9603881836 0 0 0 0 31886890.790265083 -41838129.070327759 0 -41838129.070327759 -40015570.61227417 0 0 0 0 -39722468.664803147 -28179219.563934326 0 -28179219.563934326 -8605759.6352081299 0 0 0 0 23543623.472427368 -48534667.066848755 0 -48534667.066848755 -15651994.036323547 0 0 0 0 3252274.568678081 -20302708.283706665 0 -20302708.283706665 -52941293.856933594 0 0 0 0 -87766800.922337234 -74252636.347473145 0 -74252636.347473145 -14147862.062408447 0 0 0 0 48138336.284664944 -26683459.675010681 0 -26683459.675010681 -7196070.9086608887 0 0 0 0 -57026978.248843908 -30615568.692962646 0 -30615568.692962646 -43184306.057678223 0 0 0 0 127489278.28015447 -74705806.302101135 0 -74705806.302101135 -57258969.94229126 0 0 0 0 47763204.930524826 -21710178.572845459 0 -21710178.572845459 -80565197.236938477 0 0 0 0 56658643.889140606 -75567292.291564941 0 -75567292.291564941 -31687160.251556396 0 0 0 0 7757668.3970546722 -6878083.5563201904 0 -6878083.5563201904 -496816.15585327148 0 0 0 0 17572677.947703123 13133235.376865387 0 13133235.376865387 -6260562.8411560059 0 0 0 0 -44648340.001536787 -69094338.074859619 0 -69094338.074859619 -96599723.420715332 0 0 0 0 338807.0511940759 176493.57894756272 0 176493.57894756272 36704.612137228251 0 0 0 0 508804.52995232824 -98142.369752138853 0 -98142.369752138853 -397556.92285475135 0 0 0 0 11803639.809699297 -4154612.45911026 0 -4154612.45911026 -10727599.20324707 0 0 0 0 9396632.6411589384 -10081171.837409973 0 -10081171.837409973 -7529001.1369628906 0 0 0 0 12681121.405025005 -4373144.2625007629 0 -4373144.2625007629 -3833132.760848999 0 0 0 0 9615010.3109283447 -18221965.199127197 0 -18221965.199127197 251677.21545410156 0 0 0 0 9308147.0188474655 -15152887.174682617 0 -15152887.174682617 3477785.256072998 0 0 0 0 9465719.8414239883 -20258811.736877441 0 -20258811.736877441 -22160435.398681641 0 0 0 0 10268595.736278057 -15609747.064029694 0 -15609747.064029694 -862506.83947753906 0 0 0 0 -8263503.0712299347 -32418198.998687744 0 -32418198.998687744 857603.61750793457 0 0 0 0 9810791.2691745758 -19526091.773292542 0 -19526091.773292542 -3100450.9965133667 0 0 0 0 -1838955.10430336 -20236347.384681702 0 -20236347.384681702 17720815.036621094 0 0 0 0 -8340478.3951992271 -7855135.6881537959 0 -7855135.6881537959 -1571684.820804745 0 0 0 0 -6625833.5369610786 -26350209.9894104 0 -26350209.9894104 22398315.248031616 0 0 0 0 80604364.160606384 -228014216.66836548 0 -228014216.66836548 394780308.44569397 0 0 0 0 -4446889.3568699816 -1638408.1518503409 0 -1638408.1518503409 1126114.7606782466 0 0 0 0 -3801686.5962300636 -9245111.4301349856 0 -9245111.4301349856 -3434432.6711850986 0 0 0 0 -7560347.8138856888 -1300841.4156990051 0 -1300841.4156990051 16937887.917648315 0 0 0 0 -1112292.1510377275 -510086.0101762861 0 -510086.0101762861 827641.72746406496 0 0 0 0 159070499.93674088 -227074100.07318878 0 -227074100.07318878 145692402.91815186 0 0 0 0 100384398.00387192 -218376664.97062683 0 -218376664.97062683 257434208.86273193 0 0 0 0 106631892.66127014 -135935101.17002869 0 -135935101.17002869 223343194.24093628 0 0 0 0 -12671056.048193932 -14702904.642017365 0 -14702904.642017365 83803172.347381592 0 0 0 0 107349381.68166351 -106723471.62265015 0 -106723471.62265015 80889895.673599243 0 0 0 0 38704569.533447266 -111142281.68676758 0 -111142281.68676758 101651439.49569702 0 0 0 0 153278217.34882355 -219873849.3182373 0 -219873849.3182373 168200532.86578369 0 0 0 0 -6697898.3056664532 -7007924.2085565329 0 -7007924.2085565329 -1986106.7782375477 0 0 0 0 88049609.239128113 -85086878.553970337 0 -85086878.553970337 -63636236.143234253 0 0 0 0 -15231848.409029007 -1529486.9561462402 0 -1529486.9561462402 404869.42699432373 0 0 0 0 -46209022.610836029 -3468538.9705200195 0 -3468538.9705200195 21500468.788818359 0 0 0 0 -17081394.519278765 -17348459.757797241 0 -17348459.757797241 41218043.242599487 0 0 0 0 -4658379.355181586 -11111551.497777939 0 -11111551.497777939 30068920.502075195 0 0 0 0 -24194734.14787972 -27789402.686050415 0 -27789402.686050415 22618962.734970093 0 0 0 0 -13661734.040541649 -21235633.432357788 0 -21235633.432357788 17076726.316741943 0 0 0 0 -9579874.8668079376 -19161791.062789917 0 -19161791.062789917 50591959.77746582 0 0 0 0 -16665068.822819948 -13406105.300888062 0 -13406105.300888062 30789107.778457642 0 0 0 0 -9332530.7933588028 -18461344.843231201 0 -18461344.843231201 34060535.707702637 0 0 0 0 -8932226.3030753136 -10638144.689285278 0 -10638144.689285278 35992525.267326355 0 0 0 0 -8321556.7884759903 -12013828.814788818 0 -12013828.814788818 38464424.292770386 0 0 0 0 -185863.48405425716 -6672708.5073653311 0 -6672708.5073653311 -997265.21612593904 0 0 0 0 12937124.812950134 -21977822.047821045 0 -21977822.047821045 -20571033.281925201 0 0 0 0 -8930120.288974762 -117906692.77391815 0 -117906692.77391815 -98744149.683929443 0 0 0 0 -20364389.054096222 -122792917.01118469 0 -122792917.01118469 -99519659.231330872 0 0 0 0 -24862854.844804287 -193155778.08654976 0 -193155778.08654976 10139729.223480225 0 0 0 0 -182931.79523975216 -2944332.0758601353 0 -2944332.0758601353 -56562.941894168034 0 0 0 0 -8240230.9188117981 -71309345.175247192 0 -71309345.175247192 160857659.68225098 0 0 0 0 -18928890.925706863 -148154860.02243805 0 -148154860.02243805 316078011.21391296 0 0 0 0 -64291245.897344589 -225282335.00981903 0 -225282335.00981903 71522007.173583984 0 0 0 0 23750760.768412948 -228763907.01753712 0 -228763907.01753712 17929918.270599365 0 0 0 0 16675354.805153728 -144050645.51551008 0 -144050645.51551008 115349317.8744812 0 0 0 0 -57701373.398759842 -365497214.35227966 0 -365497214.35227966 -39931567.879821777 0 0 0 0 -94588912.36079216 -330196202.99143982 0 -330196202.99143982 -66012014.145126343 0 0 0 0 -143023289.01375198 -425009517.27763367 0 -425009517.27763367 -75778163.736373901 0 0 0 0 -132868862.56814152 -386818717.56767064 0 -386818717.56767064 -118186015.40229797 0 0 0 0 -241789504.5075798 -330126330.8911438 0 -330126330.8911438 31555044.338459015 0 0 0 0 -95436153.013020515 -112459059.89942169 0 -112459059.89942169 58082327.382568359 0 0 0 0 1026009881.521492 -319022268.93534088 0 -319022268.93534088 -523277905.84744263 0 0 0 0 277368.40082679503 -6832326.136407055 0 -6832326.136407055 -10483843.912436113 0 0 0 0 90457175.715636671 -202221708.78043455 0 -202221708.78043455 117126739.14364624 0 0 0 0 91576890.773809433 -142057701.98761749 0 -142057701.98761749 3492334.6686325073 0 0 0 0 128978131.0891571 -108748273.15660095 0 -108748273.15660095 42725058.270202637 0 0 0 0 128920285.96304321 -95165805.263046265 0 -95165805.263046265 56234885.685882568 0 0 0 0 151723632.95944214 -110112604.95842743 0 -110112604.95842743 40334640.241882324 0 0 0 0 133876714.34932709 -109954515.52024078 0 -109954515.52024078 42510554.410507202 0 0 0 0 127443180.38281631 -138668887.22585297 0 -138668887.22585297 89601882.467010498 0 0 0 0 100400851.80578232 -161046620.06822205 0 -161046620.06822205 15026721.741775513 0 0 0 0 146351295.73180008 -118714453.2192688 0 -118714453.2192688 25403614.583229065 0 0 0 0 172119955.92661285 -211922393.56854248 0 -211922393.56854248 142435954.64556885 0 0 0 0 195453565.18117762 -99100181.866821289 0 -99100181.866821289 109322239.90029907 0 0 0 0 122667786.98656559 -155106232.43045807 0 -155106232.43045807 101220730.51475525 0 0 0 0 121306269.06390381 -166412720.97368622 0 -166412720.97368622 228357400.07836914 0 0 0 0 145389597.93117905 -150666381.42218781 0 -150666381.42218781 100174456.64620209 0 0 0 0 154494065.05858612 -119107268.55789948 0 -119107268.55789948 13761549.009292603 0 0 0 0 105086299.67592621 -162836695.2822113 0 -162836695.2822113 100744421.63861847 0 0 0 0 192683338.52064896 -112587974.2694931 0 -112587974.2694931 -79614270.355438232 0 0 0 0 -3468492.4197003655 -5120685.3778577372 0 -5120685.3778577372 -5477296.3185676336 0 0 0 0 62430538.215340137 30689991.679091454 0 30689991.679091454 -97725081.941375732 0 0 0 0 140615650.94487 -106326624.44120789 0 -106326624.44120789 16781859.281757355 0 0 0 0 81795935.764676571 -103423488.56770515 0 -103423488.56770515 37710981.34753418 0 0 0 0 -1002088580.346838 1247514211.7120695 0 1247514211.7120695 164528088.2424469 0 0 0 0 16923813.175140381 169590499.45493317 0 169590499.45493317 -707513429.56226444 0 0 0 0 -930964.66558732837 -1514336.672489021 0 -1514336.672489021 -1955518.6519010663 0 0 0 0 -36155161.356933594 56240385.644065857 0 56240385.644065857 -157704256.90061378 0 0 0 0 -651686717.25239563 84949712.762832642 0 84949712.762832642 1047095481.3241425 0 0 0 0 -619565186.78909302 171655332.64631653 0 171655332.64631653 188828686.22644043 0 0 0 0 -451961.45557511924 -1952623.8054011036 0 -1952623.8054011036 -3596659.1599832773 0 0 0 0 44277599.631813049 137228844.05683899 0 137228844.05683899 -50559437.496139526 0 0 0 0 -244310603.16217041 9547658.4486083984 0 9547658.4486083984 11729940.661066055 0 0 0 0 -270884519.03938293 290952910.0738678 0 290952910.0738678 144470867.13594055 0 0 0 0 -57555071.607971191 348397391.80206299 0 348397391.80206299 120763611.96137238 0 0 0 0 -46973038.827486992 231135824.4604609 0 231135824.4604609 -1906389121.9902496 0 0 0 0 545398719.51148224 94200065.894386292 0 94200065.894386292 -649447196.81489563 0 0 0 0 -375988.44815562619 -2569402.3887129333 0 -2569402.3887129333 -3802697.7383844256 0 0 0 0 -1486536114.5330353 -2908852267.7962952 0 -2908852267.7962952 626044136.76138306 0 0 0 0 -3280421.6898644883 -7916980.2527635954 0 -7916980.2527635954 -9416526.182816565 0 0 0 0 126627860.01411438 -85491665.964859009 0 -85491665.964859009 20844313.100395203 0 0 0 0 -447916293.92328644 1436943494.1145477 0 1436943494.1145477 96973545.386154175 0 0 0 0 -1208084154.6994324 -1113543043.9809113 0 -1113543043.9809113 -1126052100.1802597 0 0 0 0 -236270.43560895417 -1274381.4239287199 0 -1274381.4239287199 -7485702.8347580582 0 0 0 0 -2073881376.5230255 -567463609.25996017 0 -567463609.25996017 -188080737.52374268 0 0 0 0 1454504969.8315506 1021760864.5440521 0 1021760864.5440521 -1603020965.945137 0 0 0 0 -630161888.5140276 940925216.13616943 0 940925216.13616943 -638471331.09342957 0 0 0 0 625023598.44694519 228114237.22966003 0 228114237.22966003 -235057188.59603882 0 0 0 0 -1005293206.5488777 -753676395.57828522 0 -753676395.57828522 -233450381.33023071 0 0 0 0 -1124559289.2161255 -56718076.160202026 0 -56718076.160202026 49074755.899505615 0 0 0 0 -395673315.89290619 6545403.7487869263 0 6545403.7487869263 -130214814.57929993 0 0 0 0 -396562115.54174805 -36896905.121154785 0 -36896905.121154785 -191487828.68386841 0 0 0 0 555012922.410326 29573693.474300385 0 29573693.474300385 -465028903.17379761 0 0 0 0 -1643861.6482433919 -7098772.254661845 0 -7098772.254661845 -20055954.673090369 0 0 0 0 -376356471.70241547 -98861353.700992584 0 -98861353.700992584 -51367467.606231689 0 0 0 0 -498979837.31661987 202035876.26036072 0 202035876.26036072 -119054597.02322388 0 0 0 0 2255404.6725925207 104854.16865726374 0 104854.16865726374 -3135788.4144190624 0 0 0 0 451247775.09636688 -153979368.97000122 0 -153979368.97000122 194789315.97651482 0 0 0 0 -402062559.30066681 -294217623.37847137 0 -294217623.37847137 72254789.387397766 0 0 0 0 -441129334.98924255 -720680739.84085083 0 -720680739.84085083 -202337320.17455292 0 0 0 0 -413850438.6698761 -552486431.33361053 0 -552486431.33361053 -733965082.67060852 0 0 0 0 -4297208.3986434937 -412830249.56534576 0 -412830249.56534576 -1052333537.6681671 0 0 0 0 -396705882.50193024 -329250408.61190796 0 -329250408.61190796 -466393151.49497986 0 0 0 0 -499059739.76911926 -573689023.76848602 0 -573689023.76848602 -255624695.20823669 0 0 0 0 -215519.8761381493 -1596355.4083001148 0 -1596355.4083001148 -1791665.6126783043 0 0 0 0 -469308485.64951324 -865892560.04306793 0 -865892560.04306793 -528996898.11074829 0 0 0 0 609909513.6602869 -507767812.65038967 0 -507767812.65038967 -922005919.81828308 0 0 0 0 761823435.22244644 -864889249.80712509 0 -864889249.80712509 -1195978101.0956573 0 0 0 0 -133122029.49508667 248410035.57358932 0 248410035.57358932 83218616.049713135 0 0 0 0 280744019.49052429 -658909454.34127808 0 -658909454.34127808 562726488.50165558 0 0 0 0 -50739183.407042027 -49955951.160259724 0 -49955951.160259724 -240922419.1966095 0 0 0 0 -386796436.49642944 -193475193.7967453 0 -193475193.7967453 -120755277.67923737 0 0 0 0 745789207.65287018 -376948917.07481384 0 -376948917.07481384 156539637.31375885 0 0 0 0 -85739785.755428314 6214466.1893081665 0 6214466.1893081665 3541536.0308532715 0 0 0 0 238282965.18595123 -236907619.222229 0 -236907619.222229 38604098.199378967 0 0 0 0 -318862939.07795715 -129270913.9805603 0 -129270913.9805603 306069869.08322144 0 0 0 0 -207556627.63462067 -105760662.02894974 0 -105760662.02894974 347472418.53500366 0 0 0 0 -11731685.859848022 21514802.464252472 0 21514802.464252472 142011163.19140244 0 0 0 0 -2593085.0940653197 -3046530.7893600594 0 -3046530.7893600594 4597007.5799757168 0 0 0 0 1010149504.2368622 -759386283.9091568 0 -759386283.9091568 138676708.07144165 0 0 0 0 -18999427.778863907 -33185769.775291443 0 -33185769.775291443 24493881.420074463 0 0 0 0 -7260988.316091368 -9917968.879153287 0 -9917968.879153287 1311356.6618818715 0 0 0 0 -314731838.14453125 112261166.29835892 0 112261166.29835892 8786539.2476196289 0 0 0 0 -212527440.54044342 53579630.667938232 0 53579630.667938232 -82687138.2605896 0 0 0 0 -322851610.39796829 -166359012.65313339 0 -166359012.65313339 72337085.037658691 0 0 0 0 64736578.973228455 -151351711.49028778 0 -151351711.49028778 -81985595.404403687 0 0 0 0 -497596853.41802657 -50200387.583656281 0 -50200387.583656281 56633061.769439697 0 0 0 0 -563607985.71505356 228404978.76191139 0 228404978.76191139 103522899.42648315 0 0 0 0 -2047607.8015799783 -1729935.2189846905 0 -1729935.2189846905 2005841.468109332 0 0 0 0 -161291657.6951561 212040157.24519539 0 212040157.24519539 -139818208.59771729 0 0 0 0 43460920.990249634 -103285529.40612793 0 -103285529.40612793 -193639926.21453476 0 0 0 0 8696987.5600423813 202685410.3470993 0 202685410.3470993 -124796508.53067017 0 0 0 0 251774.24778747559 -2359707.7774200439 0 -2359707.7774200439 -3844428.2874832153 0 0 0 0 -5858219.9058761597 -86730797.806779146 0 -86730797.806779146 40027937.455368042 0 0 0 0 486230362.43844604 -687219794.52766418 0 -687219794.52766418 152426986.10281372 0 0 0 0 -5205246.7329947837 -15681451.31460062 0 -15681451.31460062 -24530694.885095954 0 0 0 0 597617703.74362659 -357775004.3238945 0 -357775004.3238945 -47471212.678405762 0 0 0 0 141988649.44226837 -344459462.64659119 0 -344459462.64659119 56149816.400344849 0 0 0 0 -119960123.89320755 -267717776.22338867 0 -267717776.22338867 589189288.07345581 0 0 0 0 -656734889.41393661 -334448682.93870544 0 -334448682.93870544 163194487.317173 0 0 0 0 -19266872.034132004 -351517237.20019531 0 -351517237.20019531 157177092.449646 0 0 0 0 172174496.58621216 -500718720.30550385 0 -500718720.30550385 -665225614.79312134 0 0 0 0 58912978.013408661 -261879628.32818604 0 -261879628.32818604 422760465.56589508 0 0 0 0 -15798968.383352777 -25430336.350041214 0 -25430336.350041214 -23417027.605635554 0 0 0 0 26379989.559658051 -599293719.94654846 0 -599293719.94654846 581943715.43768191 0 0 0 0 -146980408.94952011 -139261830.03158569 0 -139261830.03158569 367102086.01547241 0 0 0 0 -136572945.19267273 -34360337.177322388 0 -34360337.177322388 593832474.61743164 0 0 0 0 -427813450.38370895 -282640286.48876953 0 -282640286.48876953 444153962.53525543 0 0 0 0 -204821855.86090279 -493610325.12205505 0 -493610325.12205505 536516571.26299667 0 0 0 0 -472270513.16035461 318101798.06921387 0 318101798.06921387 777622075.31272888 0 0 0 0 -529741976.64286041 529960333.52325439 0 529960333.52325439 -1720247.0457267761 0 0 0 0 106975880.69247055 -177787903.25604248 0 -177787903.25604248 461367991.72129822 0 0 0 0 -376788885.47460938 -34335921.128997803 0 -34335921.128997803 429033089.53279114 0 0 0 0 125191299.35357866 389695937.3235569 0 389695937.3235569 418694521.31268311 0 0 0 0 -80514986.714044571 173072024.04714966 0 173072024.04714966 249701662.90771484 0 0 0 0 13399767.915777206 173983843.05207825 0 173983843.05207825 5544394.7939147949 0 0 0 0 -500813426.32972908 383611263.16682434 0 383611263.16682434 -78464127.469848633 0 0 0 0 -303610129.41498947 -125125874.29229736 0 -125125874.29229736 -323121058.14720154 0 0 0 0 -196875440.71899986 -81503110.48034668 0 -81503110.48034668 151578524.30606079 0 0 0 0 -606967233.95663071 -202971529.41741943 0 -202971529.41741943 143061250.24911404 0 0 0 0 -1568846008.1066227 -400271983.65752411 0 -400271983.65752411 -330163683.08561707 0 0 0 0 -210516145.61916161 324960205.28994751 0 324960205.28994751 -1171466150.4480286 0 0 0 0 1227342.8720631599 -11492317.805648804 0 -11492317.805648804 -717529362.50750732 0 0 0 0 -365662578.75693512 -793305891.42032623 0 -793305891.42032623 -662065678.2257843 0 0 0 0 -567237293.7177372 -233424353.57226562 0 -233424353.57226562 236734447.26416016 0 0 0 0 -15814725.818527222 745885877.06050873 0 745885877.06050873 -1872893327.6946106 0 0 0 0 1643378.0559788104 -2624146.7562978901 0 -2624146.7562978901 -5294107.9169053361 0 0 0 0 117218076.81743908 154062122.99916649 0 154062122.99916649 -666562855.49943542 0 0 0 0 625743313.17393494 207926335.82315063 0 207926335.82315063 -975660825.78160095 0 0 0 0 285715881.9905014 -330160617.26490784 0 -330160617.26490784 -609906946.30769348 0 0 0 0 486375642.07991791 -256406542.9877243 0 -256406542.9877243 -598124619.51544189 0 0 0 0 72903726.964530945 -33128834.246185303 0 -33128834.246185303 -646568284.89834595 0 0 0 0 -33375429.294525146 -647691553.4719696 0 -647691553.4719696 -1824841214.7987766 0 0 0 0 72653571.481784821 22172809.259979248 0 22172809.259979248 -136925456.13079071 0 0 0 0 14582192.07232666 -67366393.980369568 0 -67366393.980369568 38011240.839874268 0 0 0 0 -34804264.821249008 155351131.63250542 0 155351131.63250542 100997389.4066925 0 0 0 0 55990790.335783005 -38953997.485305786 0 -38953997.485305786 44641868.507019043 0 0 0 0 584208.22795710713 1991772.2932020873 0 1991772.2932020873 -4518.0684629306197 0 0 0 0 21359272.489303589 -35749155.722366333 0 -35749155.722366333 73156771.551399231 0 0 0 0 22637534.123228073 -57476567.479496002 0 -57476567.479496002 83063834.427688599 0 0 0 0 -16177709.956993103 64792037.866592407 0 64792037.866592407 -60515040.788711548 0 0 0 0 76325572.015642166 -26649671.254348755 0 -26649671.254348755 -92370217.234222412 0 0 0 0 7787813.0155286565 -1775295.0326670334 0 -1775295.0326670334 -5591399.3476079442 0 0 0 0 -3825852.7158403415 -13968314.760189883 0 -13968314.760189883 -10645003.362666287 0 0 0 0 106639245.18562317 11996768.988349915 0 11996768.988349915 -89945936.338731766 0 0 0 0 -22446739.429507256 -3066126.0574636459 0 -3066126.0574636459 -28353161.418731689 0 0 0 0 23870205.542268753 -99322979.618118286 0 -99322979.618118286 52850733.493591309 0 0 0 0 -56009145.766085625 105801350.93960285 0 105801350.93960285 -181662756.8733139 0 0 0 0 -5329821.228408359 -9982862.8439531885 0 -9982862.8439531885 -8295427.1989532337 0 0 0 0 67098748.757797241 -13517791.850484848 0 -13517791.850484848 -189488144.2701416 0 0 0 0 13010795.404811859 7572399.6881256104 0 7572399.6881256104 -192067475.00404358 0 0 0 0 156281910.3901825 -113355509.09070587 0 -113355509.09070587 -128632187.87092209 0 0 0 0 54594394.616130829 -36668052.711978912 0 -36668052.711978912 -185893636.36857605 0 0 0 0 205457459.59925461 -123747981.48297882 0 -123747981.48297882 -190458207.31770325 0 0 0 0 232955724.03144073 -129675259.03534698 0 -129675259.03534698 -231101927.7616272 0 0 0 0 124416649.95108032 -14774375.306304932 0 -14774375.306304932 -293597991.23167419 0 0 0 0 -105533137.71438122 302293902.56213856 0 302293902.56213856 -418302249.52548218 0 0 0 0 209135576.09459686 70260858.985450745 0 70260858.985450745 -379045543.90217304 0 0 0 0 -5224717.5493213739 -6884309.7109747939 0 -6884309.7109747939 -5686519.0199770629 0 0 0 0 291792923.498806 -77572589.403579712 0 -77572589.403579712 35839107.02074337 0 0 0 0 246805010.82500648 44812089.39283371 0 44812089.39283371 -229014405.85696411 0 0 0 0 238378873.74773026 -384543169.13690186 0 -384543169.13690186 68498036.139228821 0 0 0 0 205912765.47721481 -238104709.25782776 0 -238104709.25782776 -250889698.44235992 0 0 0 0 -479253097.50639343 -589614968.49675751 0 -589614968.49675751 -423941816.72718048 0 0 0 0 -506425224.01516438 -784112403.70441198 0 -784112403.70441198 -221699078.61738586 0 0 0 0 1287091488.1621933 789426410.07063293 0 789426410.07063293 -249287143.03862762 0 0 0 0 766088648.21604156 -1676281027.6501617 0 -1676281027.6501617 -2467803358.1867218 0 0 0 0 467180150.69759369 -8407496.724357605 0 -8407496.724357605 -863110967.60597992 0 0 0 0 474288676.7768631 305043194.23686981 0 305043194.23686981 26498294.791152954 0 0 0 0 -122514336.20693207 -126593369.61245728 0 -126593369.61245728 -21317375.248046875 0 0 0 0 -7933624.9254993573 -8313495.2797700949 0 -8313495.2797700949 -2285325.4225266203 0 0 0 0 -2023238424.8593063 -518107322.78324127 0 -518107322.78324127 235128085.9824295 0 0 0 0 -959805415.73538971 383173977.46985626 0 383173977.46985626 -2459039.8221244812 0 0 0 0 -3084600039.6615067 -1722433144.3012772 0 -1722433144.3012772 -476024375.79141998 0 0 0 0 -2400711.3987175636 -3214.9710130915046 0 -3214.9710130915046 95240.064116422087 0 0 0 0 73010299.955413818 -89675414.091674805 0 -89675414.091674805 -800133771.58895874 0 0 0 0 -4016552730.4403076 -1271662062.0317993 0 -1271662062.0317993 -1139124940.9832764 0 0 0 0 -2993089885.9380112 417342134.77267456 0 417342134.77267456 27943500.772716522 0 0 0 0 -3693754.9265225083 -2757604.3658709377 0 -2757604.3658709377 -331870.44791381061 0 0 0 0 183992613.04727173 -1555637379.8153763 0 -1555637379.8153763 -1169558465.4746017 0 0 0 0 -26561176.070159912 -139022144.62159729 0 -139022144.62159729 313926808.75588989 0 0 0 0 -1416674082.1831322 -640419699.83355713 0 -640419699.83355713 -165975578.43554688 0 0 0 0 -208175681.85308075 -168899554.56013489 0 -168899554.56013489 -78886827.868789673 0 0 0 0 -671812222.25315475 59445359.438865662 0 59445359.438865662 148019049.54489136 0 0 0 0 -627795428.87596512 60750384.908046722 0 60750384.908046722 79167123.130279541 0 0 0 0 -226394433.41885376 19067974.515975952 0 19067974.515975952 151389812.99490356 0 0 0 0 -167504647.80812836 -2741065.0184783936 0 -2741065.0184783936 120686758.96539307 0 0 0 0 -300063359.76957321 -15492950.168197632 0 -15492950.168197632 160989386.14367676 0 0 0 0 -83918918.174938202 -23132600.232410431 0 -23132600.232410431 82494091.961395264 0 0 0 0 -244563126.09735107 -153073335.87873077 0 -153073335.87873077 266459472.70607758 0 0 0 0 133520378.92176056 352715933.9698143 0 352715933.9698143 331291668.4763031 0 0 0 0 -3276090.4786500111 1125797.0282275341 0 1125797.0282275341 698382.21331824362 0 0 0 0 53209728.196548462 -136373375.01246643 0 -136373375.01246643 156762478.05454254 0 0 0 0 -103291959.04387665 179241050.69169617 0 179241050.69169617 27088526.421985626 0 0 0 0 188804836.7128334 -52283702.311309814 0 -52283702.311309814 -11829714.936950684 0 0 0 0 -164342657.86782074 5364722.2345733643 0 5364722.2345733643 102468247.29589844 0 0 0 0 70866392.174621582 37202281.023147583 0 37202281.023147583 -12522975.036895752 0 0 0 0 -754750.84582898766 239563.83647315204 0 239563.83647315204 692368.94468712062 0 0 0 0 -29637860.026374817 -56502363.171188354 0 -56502363.171188354 142523116.87136841 0 0 0 0 9529948.1343135834 -50164654.459728241 0 -50164654.459728241 -35481667.73903656 0 0 0 0 -1341847.610488113 369203.50111753494 0 369203.50111753494 1186560.7497160137 0 0 0 0 -133960390.53900909 -34147297.870132446 0 -34147297.870132446 77237618.202209473 0 0 0 0 -100354269.62530518 21870920.147499084 0 21870920.147499084 94523195.372846603 0 0 0 0 -52917515.971740723 -59684004.281196594 0 -59684004.281196594 -136300562.93388367 0 0 0 0 -53152554.369253159 -38356568.855724335 0 -38356568.855724335 -17615250.203887939 0 0 0 0 -10826868.29474926 -176274270.01162529 0 -176274270.01162529 102899110.42553711 0 0 0 0 -228469830.95214081 -30640447.860794067 0 -30640447.860794067 148244550.60748291 0 0 0 0 -217739950.31543732 -12697008.988739014 0 -12697008.988739014 119102345.77955627 0 0 0 0 -194676927.49106216 -117391190.96846008 0 -117391190.96846008 4358952.4255142212 0 0 0 0 -205888045.35936356 -86937071.471893311 0 -86937071.471893311 127572272.0245285 0 0 0 0 -126048960.36724472 -62889006.457355499 0 -62889006.457355499 8435318.9899139404 0 0 0 0 -290304044.94283581 -135022667.20431709 0 -135022667.20431709 -152287290.60476685 0 0 0 0 -349339208.88049316 -128584476.95866394 0 -128584476.95866394 -10781663.26367569 0 0 0 0 -59052475.647937775 -95047389.595188141 0 -95047389.595188141 -338679363.10760498 0 0 0 0 -203097213.0970726 -241583010.5408287 0 -241583010.5408287 -463861560.70549774 0 0 0 0 183792.04945092648 222901.40118291229 0 222901.40118291229 18587.675315054134 0 0 0 0 -394778662.28490448 -35928682.103225708 0 -35928682.103225708 783994919.82987595 0 0 0 0 -726480218.3888731 -494120954.59110451 0 -494120954.59110451 216160952.43096924 0 0 0 0 -540310025.28338623 236166498.78512573 0 236166498.78512573 184546690.65856934 0 0 0 0 -578483014.93855286 -3860617.818649292 0 -3860617.818649292 -203502994.42657471 0 0 0 0 -19369291.68545723 -1796274.0617408752 0 -1796274.0617408752 -119120906.84849548 0 0 0 0 39647345.065666199 -8899941.1088409424 0 -8899941.1088409424 -123690742.33466339 0 0 0 0 -45287520.136051178 -38820828.398361206 0 -38820828.398361206 -123322751.14150238 0 0 0 0 1321764.3598367944 -181184.71002470702 0 -181184.71002470702 -272263.72177710477 0 0 0 0 3030549.4487571716 -12330066.864139557 0 -12330066.864139557 -225488590.14942169 0 0 0 0 -119363629.45011902 56224038.1015625 0 56224038.1015625 781108085.47271538 0 0 0 0 -70855637.407943726 -85799450.572998047 0 -85799450.572998047 745384336.42305946 0 0 0 0 3549792.6191843078 -995937.57923209667 0 -995937.57923209667 -1160747.9465694819 0 0 0 0 37465542.902038574 -10056170.540306091 0 -10056170.540306091 -173662924.88231087 0 0 0 0 47028.384299278259 -2457882.4742584229 0 -2457882.4742584229 -108355968.28475952 0 0 0 0 46427085.281944275 -4188856.5333709717 0 -4188856.5333709717 -108389895.2406323 0 0 0 0 2914182.6461219788 -14695914.275688171 0 -14695914.275688171 -24361235.069282532 0 0 0 0 43764539.708679199 -86090914.764045715 0 -86090914.764045715 -4985354.7182216644 0 0 0 0 -1288664.2494610734 318874.46795370802 0 318874.46795370802 1098336.5612240657 0 0 0 0 31194385.672942638 -34779148.485355377 0 -34779148.485355377 43062016.995330811 0 0 0 0 38923249.742248535 -43487192.417182922 0 -43487192.417182922 45895850.792907715 0 0 0 0 -9843361.8368492126 -47793560.741043091 0 -47793560.741043091 97116976.793731689 0 0 0 0 17987963.570220947 -21529947.058822632 0 -21529947.058822632 44487717.014918685 0 0 0 0 6771390.7671585083 -35524879.839439392 0 -35524879.839439392 44909374.436668396 0 0 0 0 9587473.7817649841 -35780022.626714706 0 -35780022.626714706 44474224.265396118 0 0 0 0 17851404.844345093 -25599527.017780304 0 -25599527.017780304 49531863.794815063 0 0 0 0 30441066.257764339 -38619754.130823135 0 -38619754.130823135 40707537.248764038 0 0 0 0 -1143854.3090286255 -42740913.107620239 0 -42740913.107620239 58998079.149620056 0 0 0 0 -661193.89557264 172099.10560491681 0 172099.10560491681 565878.6090355441 0 0 0 0 -6602547.8265342712 -70002872.210784912 0 -70002872.210784912 7845989.8091049194 0 0 0 0 24706167.671257019 -50485030.2029953 0 -50485030.2029953 -63371961.890228271 0 0 0 0 7380572.9228935242 -17908584.156761169 0 -17908584.156761169 -52389094.896606445 0 0 0 0 -15409450.85360527 -38825159.765129089 0 -38825159.765129089 -65491276.633209229 0 0 0 0 -5071763.0098342896 -46433370.040344238 0 -46433370.040344238 -104179964.72439575 0 0 0 0 39945236.194289207 -43996065.451044559 0 -43996065.451044559 -114715637.19526672 0 0 0 0 11549856.011550903 -29431718.620298386 0 -29431718.620298386 -90211530.981430054 0 0 0 0 -269676191.78009033 -216748367.21942139 0 -216748367.21942139 72259585.09854126 0 0 0 0 6772381.4776507169 -2437002.8321882263 0 -2437002.8321882263 -3177799.7790811397 0 0 0 0 4107267.0503082275 -22170336.444358826 0 -22170336.444358826 -96325041.425468445 0 0 0 0 12839698.793502808 -2412007.7892513275 0 -2412007.7892513275 -42486959.69128418 0 0 0 0 14395953.689804077 -7016948.9405822754 0 -7016948.9405822754 -76359422.925575256 0 0 0 0 63223648.789644241 -28303947.495048523 0 -28303947.495048523 -37075208.413742065 0 0 0 0 371615242.36273956 -372162129.85222626 0 -372162129.85222626 131153161.29101562 0 0 0 0 2555219.7535335198 -863317.25371925347 0 -863317.25371925347 -2165359.5709131062 0 0 0 0 30439177.394973755 -9155138.0615081787 0 -9155138.0615081787 -46899887.005142212 0 0 0 0 14834849.30670166 7115744.9749221802 0 7115744.9749221802 -39466086.083953857 0 0 0 0 156608054.08781719 -318285163.53335571 0 -318285163.53335571 93747353.297607422 0 0 0 0 154897787.10678005 -326045565.70883751 0 -326045565.70883751 143096553.33432007 0 0 0 0 328157030.41750336 -193131300.97205353 0 -193131300.97205353 219007715.75802803 0 0 0 0 -7273837.8371982574 97345488.502105713 0 97345488.502105713 44778008.276260376 0 0 0 0 30837432.661471605 -378587219.58089638 0 -378587219.58089638 232572915.07315063 0 0 0 0 977362.12970845774 -244804.50839148089 0 -244804.50839148089 -929568.09241606295 0 0 0 0 32909248.026733398 -296574980.45851135 0 -296574980.45851135 237037602.51893711 0 0 0 0 214024614.47340393 -332179441.81370544 0 -332179441.81370544 -35561189.032417297 0 0 0 0 305341120.87467957 -79524433.703475952 0 -79524433.703475952 328876016.84954834 0 0 0 0 114111778.35774231 -250889559.43106842 0 -250889559.43106842 261142628.52182007 0 0 0 0 43300391.525161743 -290112257.44744873 0 -290112257.44744873 270953844.99466324 0 0 0 0 85113245.458999634 -345862196.76971436 0 -345862196.76971436 214601921.31439209 0 0 0 0 -142708147.56510162 -241011838.30804443 0 -241011838.30804443 595968116.25698853 0 0 0 0 -256848478.92649078 -129860793.70115662 0 -129860793.70115662 305899278.12451172 0 0 0 0 -112385467.18380356 -320419384.0113678 0 -320419384.0113678 224711986.41687012 0 0 0 0 -85058942.898475647 -298480047.73247528 0 -298480047.73247528 97522610.644378662 0 0 0 0 -59173867.719024658 -276622115.79528809 0 -276622115.79528809 260116758.60776234 0 0 0 0 78511757.06791687 -288456839.13837433 0 -288456839.13837433 138764023.7212677 0 0 0 0 65684646.903953552 -318904754.30525208 0 -318904754.30525208 232392633.1645813 0 0 0 0 11527979.017211914 -345450820.5269165 0 -345450820.5269165 90547372.537658691 0 0 0 0 78915242.523948669 -336552349.26369858 0 -336552349.26369858 12196261.920608521 0 0 0 0 -19142480.692626953 -247869486.23356628 0 -247869486.23356628 91653848.891360283 0 0 0 0 86147809.495178223 -213455570.74545288 0 -213455570.74545288 -4522673.5101165771 0 0 0 0 -270370230.58219147 -306818774.89458466 0 -306818774.89458466 -60826985.67489624 0 0 0 0 -83808031.531433105 -345282623.5810318 0 -345282623.5810318 -54208538.74331665 0 0 0 0 -177129920.93875122 -188664824.64199829 0 -188664824.64199829 87092251.875759125 0 0 0 0 -187410676.75827026 -247598096.84819031 0 -247598096.84819031 -8730550.9423027039 0 0 0 0 -193185823.9473877 -196088703.01847839 0 -196088703.01847839 -152437418.33355713 0 0 0 0 -468061595.53604126 -242721031.94787598 0 -242721031.94787598 -60297135.835327148 0 0 0 0 -345209511.76028442 -173750660.17976379 0 -173750660.17976379 -55578417.002655029 0 0 0 0 -245903610.53336716 -226531727.31478119 0 -226531727.31478119 -120760083.53086853 0 0 0 0 -301784698.70365906 -264819295.02859497 0 -264819295.02859497 -153640308.08615112 0 0 0 0 -501552028.67299652 -96087043.224380493 0 -96087043.224380493 -105522814.53078461 0 0 0 0 -174623036.57389832 -137306213.66320038 0 -137306213.66320038 -71174823.122982025 0 0 0 0 -10972160.923400879 -242735393.34757996 0 -242735393.34757996 4850529.7767028809 0 0 0 0 106655776.24123383 -287481514.23658752 0 -287481514.23658752 -60476652.09463501 0 0 0 0 -9631153.9858474731 -254346099.8157959 0 -254346099.8157959 -128540892.15007019 0 0 0 0 94491344.379440308 -183347932.06643677 0 -183347932.06643677 -63429290.550764561 0 0 0 0 202894209.40588379 -250138029.59988403 0 -250138029.59988403 -68517426.835083008 0 0 0 0 357204504.97783661 -232148902.60559082 0 -232148902.60559082 -68997706.584381104 0 0 0 0 202634614.50980377 -247491894.5429306 0 -247491894.5429306 34137698.862915039 0 0 0 0 278509701.3670578 -187289285.14823914 0 -187289285.14823914 -32388768.455070496 0 0 0 0 411231316.49733734 -176496880.10943604 0 -176496880.10943604 -57734829.575042725 0 0 0 0 368859947.04042053 -198009690.63201141 0 -198009690.63201141 19121313.914337158 0 0 0 0 388460889.3653717 -190436838.63547516 0 -190436838.63547516 22028019.758354187 0 0 0 0 306382757.93304443 -257854948.06797791 0 -257854948.06797791 187494288.52270508 0 0 0 0 137014088.44216919 -272865375.69325256 0 -272865375.69325256 162867019.93988419 0 0 0 0 136531360.28559875 -262012720.11027527 0 -262012720.11027527 108601139.55760193 0 0 0 0 311461318.23718929 -250805993.9317379 0 -250805993.9317379 10708464.903930664 0 0 0 0 -1263006297.1254425 10392101.218139648 0 10392101.218139648 724722240.79553223 0 0 0 0 -252980060.45098495 738803737.0404892 0 738803737.0404892 -505921299.39590454 0 0 0 0 -591229988.77158737 -547768825.45367432 0 -547768825.45367432 -712289746.84466553 0 0 0 0 -644247293.43922997 -103824407.21125793 0 -103824407.21125793 -2103230671.208374 0 0 0 0 -912155263.52256775 -211348374.53942108 0 -211348374.53942108 334630694.98822021 0 0 0 0 -269564.86528953305 -600605.07261657901 0 -600605.07261657901 -1657597.7975781858 0 0 0 0 -215668735.38533783 70669638.478569031 0 70669638.478569031 283869815.21844482 0 0 0 0 157775885.09170532 146305166.76896667 0 146305166.76896667 268448507.25102234 0 0 0 0 -138516835.52711487 -55455973.673149109 0 -55455973.673149109 131489433.54620361 0 0 0 0 107928397.71450043 202650013.19069672 0 202650013.19069672 442119239.9524231 0 0 0 0 -185523393.23248672 479060219.13674164 0 479060219.13674164 314446262.89437866 0 0 0 0 146471880.53585052 293387399.71557617 0 293387399.71557617 -160962436.95159149 0 0 0 0 500755401.20594025 425571989.82390594 0 425571989.82390594 229891803.37495422 0 0 0 0 -705685.99153137673 47436.508905304596 0 47436.508905304596 184679.96685996652 0 0 0 0 134448160.26988792 264167469.04490089 0 264167469.04490089 410702220.59251404 0 0 0 0 -868661367.46207428 -150190142.80298615 0 -150190142.80298615 172448102.1267395 0 0 0 0 214293275.27910614 46479961.094070435 0 46479961.094070435 242316706.87918091 0 0 0 0 44009619.632320404 -41986777.512264252 0 -41986777.512264252 575896444.70671082 0 0 0 0 -53747528.346305847 144375936.46897888 0 144375936.46897888 365711199.75222778 0 0 0 0 -357607487.82818604 -249685365.40745544 0 -249685365.40745544 398266159.98667908 0 0 0 0 74738401.074672699 -91647762.634231567 0 -91647762.634231567 454501635.47796631 0 0 0 0 -672784266.54213715 47766977.955551147 0 47766977.955551147 357438768.02566528 0 0 0 0 -295602329.77340698 -241440114.46604156 0 -241440114.46604156 74154327.669006348 0 0 0 0 -474779898.12841797 -88599272.097595215 0 -88599272.097595215 77898734.569959164 0 0 0 0 -591429533.92360687 -184504418.84604645 0 -184504418.84604645 22068171.753814697 0 0 0 0 -756121825.89016342 110573254.80965805 0 110573254.80965805 52976829.913818359 0 0 0 0 -1204707106.0700932 336890029.77390671 0 336890029.77390671 -40762326.192565918 0 0 0 0 -1007526268.7699127 -328358997.80911255 0 -328358997.80911255 -78755918.713470459 0 0 0 0 -795518583.20264435 -150021487.46136475 0 -150021487.46136475 20556947.674713135 0 0 0 0 -471660673.81967926 -160650195.92036438 0 -160650195.92036438 -288208192.53622437 0 0 0 0 -1033594352.7033234 -79780838.40001297 0 -79780838.40001297 -6639311.6997528076 0 0 0 0 -687825143.17694092 -113240993.04795837 0 -113240993.04795837 -85313741.590057373 0 0 0 0 -501732208.29059601 -103683072.76077271 0 -103683072.76077271 -276862516.26702881 0 0 0 0 -687156385.04137421 -111157397.68475914 0 -111157397.68475914 -550168067.74151611 0 0 0 0 -792244946.40378952 -335630972.17364502 0 -335630972.17364502 -143190617.64435959 0 0 0 0 28492768.796611786 -17689132.394187927 0 -17689132.394187927 666022.31231689453 0 0 0 0 -1861027.0344994008 421457.57769776694 0 421457.57769776694 -1732523.8747049421 0 0 0 0 -138220.1861981377 -614229.89818004519 0 -614229.89818004519 -352982.57437202707 0 0 0 0 42438503.680005312 124156149.72697258 0 124156149.72697258 310612476.7731781 0 0 0 0 -709533781.0867157 102441833.72255707 0 102441833.72255707 1619519.8951873779 0 0 0 0 -2165156.5739449663 -177539.54730577208 0 -177539.54730577208 240023.36179247499 0 0 0 0 -6365843.7336297594 -4032722.0634993315 0 -4032722.0634993315 -1403339.8993994743 0 0 0 0 93265129.338775635 271823857.19490051 0 271823857.19490051 179551623.95059204 0 0 0 0 18298218.616611481 -34633279.468635559 0 -34633279.468635559 -2820447.5703582764 0 0 0 0 21150097.019996643 -26855995.362823486 0 -26855995.362823486 16378960.15499115 0 0 0 0 11324253.511173248 -27160910.700248718 0 -27160910.700248718 12285620.228591919 0 0 0 0 -5557834.8535690308 -48138843.701095581 0 -48138843.701095581 -5762637.7639465332 0 0 0 0 -19266689.51511097 -73296179.806068897 0 -73296179.806068897 69894537.889526367 0 0 0 0 -537444247.02792358 -62185227.516998291 0 -62185227.516998291 1335302107.3427963 0 0 0 0 -8336459.280553136 -5532115.6742005497 0 -5532115.6742005497 -1485360.6940238513 0 0 0 0 -1093695.5866394043 -656852.86569213867 0 -656852.86569213867 6203074.9821166992 0 0 0 0 12131387.596214294 -1929573.3233184814 0 -1929573.3233184814 -8192965.6040649414 0 0 0 0 10209584.598879814 -6445598.5454692841 0 -6445598.5454692841 11736397.600280762 0 0 0 0 -6445769.377166748 8153952.9945678711 0 8153952.9945678711 -3747437.9336547852 0 0 0 0 7477605.0572357178 6972156.0166473389 0 6972156.0166473389 -24584590.983551025 0 0 0 0 9500986.3005700409 -13653344.318675339 0 -13653344.318675339 -26173918.759399414 0 0 0 0 22992944.878890991 -18051691.097290039 0 -18051691.097290039 -48625883.636795044 0 0 0 0 23504294.913712502 -22786523.686956406 0 -22786523.686956406 -9156113.4497680664 0 0 0 0 30225073.645055771 -18693666.214317322 0 -18693666.214317322 -3991546.2218017578 0 0 0 0 38306414.430701375 -6522737.4661999941 0 -6522737.4661999941 -1364944.3270263672 0 0 0 0 32437930.05355072 -20522877.42666626 0 -20522877.42666626 -11707816.647361755 0 0 0 0 38014484.35181427 -17618081.582015991 0 -17618081.582015991 -17808143.93938446 0 0 0 0 83984756.026000977 -17616025.784629822 0 -17616025.784629822 -8469822.455581665 0 0 0 0 -1138178266.5520401 -252395929.41734314 0 -252395929.41734314 44401298.901016235 0 0 0 0 -1666149.2613061541 1313544.8502884731 0 1313544.8502884731 -562466.78463619947 0 0 0 0 -893693147.3110199 -160385209.40791321 0 -160385209.40791321 2685441.8969116211 0 0 0 0 -634224448.35018921 -188041795.83630371 0 -188041795.83630371 -27971140.30947876 0 0 0 0 -896945131.49455261 -94609881.587200165 0 -94609881.587200165 30433006.792724609 0 0 0 0 -852623078.83521819 -117260680.92793798 0 -117260680.92793798 -96814452.598846436 0 0 0 0 -842274092.66649437 -234194605.51714492 0 -234194605.51714492 57274644.096054077 0 0 0 0 -947703990.474617 -316122325.31045914 0 -316122325.31045914 -132920.37459564209 0 0 0 0 184881217.33193588 -179654185.0035305 0 -179654185.0035305 -990400.74179077148 0 0 0 0 -1458138296.8540154 -142897127.50938416 0 -142897127.50938416 114344895.64154053 0 0 0 0 -1681400.3417397933 2006484.1057388112 0 2006484.1057388112 130259.58087162673 0 0 0 0 20841095.442874908 -21570715.693557739 0 -21570715.693557739 26278631.203109741 0 0 0 0 6234525.9923629761 2915976.3564987183 0 2915976.3564987183 7617827.475025177 0 0 0 0 2985531.1860302482 640162.69434467331 0 640162.69434467331 -3124474.2684266269 0 0 0 0 13950137.596763611 -12188525.627304077 0 -12188525.627304077 -19412.190575096858 0 0 0 0 59136695.343847275 16139421.451648712 0 16139421.451648712 205873.31893920898 0 0 0 0 -5803655.1496334076 14303361.314640045 0 14303361.314640045 10231526.586853027 0 0 0 0 2476869.8618031796 390956.80934013613 0 390956.80934013613 -2964524.3772482723 0 0 0 0 6125978.8698997498 2576599.8823699951 0 2576599.8823699951 6839000.6974334717 0 0 0 0 -36702552.612160206 -5796153.2670536041 0 -5796153.2670536041 9339779.4970550537 0 0 0 0 103819626.22821712 -8685100.0309276581 0 -8685100.0309276581 -38746646.411590576 0 0 0 0 128530926.43315125 -277764515.56447601 0 -277764515.56447601 -91419145.8256073 0 0 0 0 392458125.00094604 -144691511.5489502 0 -144691511.5489502 -104637301.0375967 0 0 0 0 651034249.73381424 -203396243.48065948 0 -203396243.48065948 -99682691.710380554 0 0 0 0 371875899.55898285 -119656814.81943512 0 -119656814.81943512 -13070862.951858521 0 0 0 0 487149200.1081543 -127070297.54499817 0 -127070297.54499817 -39725544.230133057 0 0 0 0 428614737.64606476 -231269050.06036377 0 -231269050.06036377 -88270124.406646729 0 0 0 0 354988361.76049423 -215469039.2631216 0 -215469039.2631216 -137014441.36990356 0 0 0 0 100778875.80493927 -206177555.39311218 0 -206177555.39311218 -44113579.950897217 0 0 0 0 232029857.3172493 -266790443.81267929 0 -266790443.81267929 -99305739.205291748 0 0 0 0 -82927917.976158142 -166304684.50654602 0 -166304684.50654602 -47568696.849121094 0 0 0 0 -19114850.741081238 -288275602.8320694 0 -288275602.8320694 -87239651.621032715 0 0 0 0 101976589.62269974 -210806187.98000336 0 -210806187.98000336 -139072225.5567627 0 0 0 0 -592398859.96129608 -111156330.75060272 0 -111156330.75060272 -28556498.178260803 0 0 0 0 -467781893.92401886 -273371294.38200378 0 -273371294.38200378 -85305946.805343628 0 0 0 0 -146604092.17262268 -268086748.45893097 0 -268086748.45893097 -80747815.150161743 0 0 0 0 -403104639.91102219 -146241589.98548889 0 -146241589.98548889 22161908.762645721 0 0 0 0 -26584202.368801117 -370264793.39571381 0 -370264793.39571381 -44805289.704963684 0 0 0 0 -535768603.67419434 -74463844.751747131 0 -74463844.751747131 -67471245.16999054 0 0 0 0 -350143955.71172142 -354344344.41716576 0 -354344344.41716576 -42615.842063903809 0 0 0 0 208531187.71576691 -86193881.612579346 0 -86193881.612579346 -22139206.493179321 0 0 0 0 375046797.80614471 -367448962.72866631 0 -367448962.72866631 365371.29048919678 0 0 0 0 400752845.24752045 -176111314.36989021 0 -176111314.36989021 14151072.027366638 0 0 0 0 1319622247.1244316 4503804.5713043213 0 4503804.5713043213 -87736613.868812561 0 0 0 0 -153376129.94087219 -41577373.97568512 0 -41577373.97568512 -22944.240539550781 0 0 0 0 -71549269.597335815 -87559014.085884094 0 -87559014.085884094 -8910828.882019043 0 0 0 0 -832224.291419046 1844236.8142281845 0 1844236.8142281845 1464925.3531025797 0 0 0 0 -221195162.97425842 -85064021.956054688 0 -85064021.956054688 27969832.696670532 0 0 0 0 -128740273.36089325 -62117870.620010376 0 -62117870.620010376 -29540439.226005554 0 0 0 0 -127441056.97982049 -34637306.417286873 0 -34637306.417286873 15928211.380447388 0 0 0 0 -20617055.389678955 -12830919.8932724 0 -12830919.8932724 10721731.980285645 0 0 0 0 -171899068.76228333 -82879994.97833252 0 -82879994.97833252 22055581.496032715 0 0 0 0 -145323907.71173859 -65957166.912322998 0 -65957166.912322998 4240301.2585144043 0 0 0 0 -139171421.46537781 -94785140.25138855 0 -94785140.25138855 28216201.651992798 0 0 0 0 -162737087.52793884 -42769359.599510193 0 -42769359.599510193 84553805.139770508 0 0 0 0 -228833.30241338536 1093292.3744309396 0 1093292.3744309396 172403.08892589808 0 0 0 0 -56602127.199489594 25338643.063407898 0 25338643.063407898 -39095076.64453125 0 0 0 0 -247465124.73223114 -66261140.373580933 0 -66261140.373580933 42765447.837341309 0 0 0 0 -220855374.53530121 -41400944.429283142 0 -41400944.429283142 24871062.3387146 0 0 0 0 -155653634.28167725 -50504639.983032227 0 -50504639.983032227 -8382862.3711547852 0 0 0 0 -33200202.515693665 -55815058.793464661 0 -55815058.793464661 -53725236.317077637 0 0 0 0 862939771.27739716 46450618.796848297 0 46450618.796848297 -65735835.514770508 0 0 0 0 -1096400.0366999758 762176.79526049271 0 762176.79526049271 2525439.0963040143 0 0 0 0 -153339.97926120972 1119523.2150236778 0 1119523.2150236778 62806.990945294499 0 0 0 0 -25690442.077423096 -18309783.21786499 0 -18309783.21786499 21318335.844329834 0 0 0 0 -208881244.84986877 -105147966.83323669 0 -105147966.83323669 45626565.046432495 0 0 0 0 -169019105.33699799 -134189027.70859528 0 -134189027.70859528 -23348189.540527344 0 0 0 0 -80881140.78818512 -113951640.3226738 0 -113951640.3226738 -92519862.406097412 0 0 0 0 695415.80607001111 -773221.50513988174 0 -773221.50513988174 -241736.54312532395 0 0 0 0 -190526595.91148376 5571671.4360427856 0 5571671.4360427856 6439201.3897094727 0 0 0 0 450318.87061309814 243409.02239990234 0 243409.02239990234 -33002963.776832581 0 0 0 0 -164398.81918349955 -718251.12415625155 0 -718251.12415625155 249916.63611198962 0 0 0 0 465096417.87036133 -107441138.92799377 0 -107441138.92799377 -49967541.556890488 0 0 0 0 459750188.46930218 -94956393.749103546 0 -94956393.749103546 -13830503.278900146 0 0 0 0 -1488065.1229774477 119559.3682021983 0 119559.3682021983 2870981.6113131642 0 0 0 0 48150943.123672485 -12218980.50970459 0 -12218980.50970459 -34367050.664627075 0 0 0 0 69950077.875679016 -71479987.211784363 0 -71479987.211784363 -73740728.939453125 0 0 0 0 -189116507.16588593 -93880986.776237488 0 -93880986.776237488 -14317169.300476074 0 0 0 0 -63932243.474700928 -148428796.04458618 0 -148428796.04458618 -96334538.886520386 0 0 0 0 -166060529.60062408 9494994.1465682983 0 9494994.1465682983 148217910.52476501 0 0 0 0 169721337.22035217 -74400360.541999817 0 -74400360.541999817 -154952181.69659805 0 0 0 0 -497532.8665426001 -1284881.9230066836 0 -1284881.9230066836 656744.38601147756 0 0 0 0 103409028.33394814 90095351.064479828 0 90095351.064479828 45066171.143768311 0 0 0 0 64292221.59211731 -85957217.537982941 0 -85957217.537982941 47410078.857696533 0 0 0 0 184807244.28271103 31301672.286769867 0 31301672.286769867 -10267143.238327026 0 0 0 0 -16964051.960670471 -27437487.972824097 0 -27437487.972824097 -23587249.76953125 0 0 0 0 26171539.917778015 -31191926.5729599 0 -31191926.5729599 -24465754.48324585 0 0 0 0 -44798379.768157959 -58558644.785354614 0 -58558644.785354614 67077.968423285653 0 0 0 0 87961935.848594666 -79388352.123886108 0 -79388352.123886108 -270568.73355102539 0 0 0 0 91319277.0128479 -91378986.718093872 0 -91378986.718093872 -51377641.490844727 0 0 0 0 -2308624.3460150287 -2438866.926187098 0 -2438866.926187098 2255816.3430892564 0 0 0 0 51240490.806999207 -42160486.816368103 0 -42160486.816368103 -109708417.1232605 0 0 0 0 -6019601.9583587646 -5360309.1518554688 0 -5360309.1518554688 6748.4920248523777 0 0 0 0 -9943070.9040679932 -1697700.9543762207 0 -1697700.9543762207 -72847848.237472534 0 0 0 0 25256064.605361938 -20204605.84262085 0 -20204605.84262085 -63616284.083389282 0 0 0 0 -20828242.862373352 -5381074.5401229858 0 -5381074.5401229858 -41517567.095703125 0 0 0 0 26153041.269683838 -32651907.217803955 0 -32651907.217803955 -32019030.093017578 0 0 0 0 19681102.404380798 -20098418.090675354 0 -20098418.090675354 -41275290.322799683 0 0 0 0 -79174264.874053955 -70712166.804508209 0 -70712166.804508209 -87869094.104888916 0 0 0 0 -25764508.039806366 -30805437.975982666 0 -30805437.975982666 -28594246.879638672 0 0 0 0 -36648123.771814346 -61577099.198007584 0 -61577099.198007584 -88884195.910827637 0 0 0 0 -57787073.116699219 -26915701.325714111 0 -26915701.325714111 -88018.939834594727 0 0 0 0 -2073096.8408551961 -2268318.8997553885 0 -2268318.8997553885 2083647.7233739235 0 0 0 0 3659293.9683494568 -32673425.897571564 0 -32673425.897571564 -84336953.191055298 0 0 0 0 -7987927.1487350464 -9423675.0740356445 0 -9423675.0740356445 -48783113.407852173 0 0 0 0 -1111744.7016927898 -1207934.695662722 0 -1207934.695662722 1107929.6045996733 0 0 0 0 -27926865.37147522 -68227807.081733704 0 -68227807.081733704 -46808595.179794312 0 0 0 0 -142895886.01693726 -203376188.95507812 0 -203376188.95507812 -134268032.25852966 0 0 0 0 -15853025.519615173 -50937083.34210968 0 -50937083.34210968 -102609833.12109375 0 0 0 0 -225899.30616760254 -21991878.941009521 0 -21991878.941009521 -287308.66298675537 0 0 0 0 9307993.8350687027 36605581.880190849 0 36605581.880190849 -42792564.873474121 0 0 0 0 -621281.7685546875 -25368624.282562256 0 -25368624.282562256 -37353656.396942139 0 0 0 0 3567915.3310394287 -7757433.8806304932 0 -7757433.8806304932 -3497330.9598464966 0 0 0 0 -645140.60665104538 -4347465.2006713822 0 -4347465.2006713822 643936.88343188912 0 0 0 0 -11484640.746555328 5555717.0810394287 0 5555717.0810394287 3165493.0165100098 0 0 0 0 55764230.655410767 -33048555.763771057 0 -33048555.763771057 -4972350.1563110352 0 0 0 0 -209460841.4042511 35528554.627494812 0 35528554.627494812 60897184.201293945 0 0 0 0 -1421500.8435268253 -976729.34121017158 0 -976729.34121017158 408934.08061383665 0 0 0 0 -321336097.41929626 -115096784.67471313 0 -115096784.67471313 1005354.8252258301 0 0 0 0 546570.41612466425 -1726462.2851820327 0 -1726462.2851820327 -2650190.1859052777 0 0 0 0 -3796874.0681991577 440463.95836639404 0 440463.95836639404 1795284.8677978516 0 0 0 0 -676925.36494212598 -2896883.5455134138 0 -2896883.5455134138 986643.3561366722 0 0 0 0 13403842.767730713 -26383746.772277832 0 -26383746.772277832 -28937914.506210327 0 0 0 0 4076301.904914856 -8144441.6349334717 0 -8144441.6349334717 -3745427.7687683105 0 0 0 0 10097200.518310547 -404327.80155944824 0 -404327.80155944824 -7300638.8073730469 0 0 0 0 26940187.39503479 13831459.265045166 0 13831459.265045166 1948107.9543685913 0 0 0 0 39090253.713310242 3777491.3942909241 0 3777491.3942909241 -19879902.931304932 0 0 0 0 25516015.539352417 -12223897.815872192 0 -12223897.815872192 -25847514.739459991 0 0 0 0 38724002.09173584 -356486.83529663086 0 -356486.83529663086 -42963834.486938477 0 0 0 0 34803377.527004242 -20114849.705760956 0 -20114849.705760956 -33172388.26776123 0 0 0 0 19732173.987548828 -27771553.23210907 0 -27771553.23210907 -15384330.91784668 0 0 0 0 14466438.9349823 -37245929.657989502 0 -37245929.657989502 -32161141.262268066 0 0 0 0 19192125.873443604 -24421311.670181274 0 -24421311.670181274 -7697530.2367553711 0 0 0 0 27833583.517707825 -6619887.5793991089 0 -6619887.5793991089 -12803431.458099365 0 0 0 0 13034013.191204071 -15829125.27085495 0 -15829125.27085495 770470.8102722168 0 0 0 0 3143538.540512085 -8463159.5016784668 0 -8463159.5016784668 -3854037.676651001 0 0 0 0 14798947.479919434 -17124205.377960205 0 -17124205.377960205 -18723983.675918579 0 0 0 0 96267172.001373291 -86236303.98979187 0 -86236303.98979187 -28572471.256072998 0 0 0 0 7105046.8573904037 -22632801.32271266 0 -22632801.32271266 -2645752.0484466553 0 0 0 0 -8005758.6707290038 -6890306.7940978128 0 -6890306.7940978128 -796826.64413502067 0 0 0 0 6290534.7278842926 -35019150.230638504 0 -35019150.230638504 18281479.165344238 0 0 0 0 -624403.72961083055 -891534.59985099733 0 -891534.59985099733 -318749.02880917117 0 0 0 0 36151274.672729492 -42536801.413665771 0 -42536801.413665771 -1431249.383972168 0 0 0 0 15353343.555603027 -27055451.893249512 0 -27055451.893249512 -237210.21932983398 0 0 0 0 4315246.5049438477 -33570491.136657715 0 -33570491.136657715 11741109.891693115 0 0 0 0 4042770.6070556641 -33728486.818222046 0 -33728486.818222046 -551070.1589050293 0 0 0 0 5079926.9466743469 -35138574.599155426 0 -35138574.599155426 -1862295.5971069336 0 0 0 0 9628451.272567749 -35133810.989181519 0 -35133810.989181519 -11630143.572631836 0 0 0 0 16546128.352729797 -27863059.00227356 0 -27863059.00227356 -10094304.421813965 0 0 0 0 -23798022.406723022 22632777.361343384 0 22632777.361343384 65146186.209442139 0 0 0 0 137960828.60738373 -4220144.9597702026 0 -4220144.9597702026 4802204.7507324219 0 0 0 0 61949569.023483276 73328135.452568054 0 73328135.452568054 88722767.94519043 0 0 0 0 -4443330.3503549211 -4343165.3645020761 0 -4343165.3645020761 -1991197.3200052977 0 0 0 0 3308473.2284698486 -7872078.2334136963 0 -7872078.2334136963 -3542659.5091171265 0 0 0 0 -39712225.552288055 -37577835.981924057 0 -37577835.981924057 103090305.2532196 0 0 0 0 -191534163.06448364 -67411637.805763245 0 -67411637.805763245 97481926.409812927 0 0 0 0 87833965.071926117 -138272847.91477776 0 -138272847.91477776 -211764164.93600464 0 0 0 0 107631040.58183289 67816275.571731567 0 67816275.571731567 -207134132.35662222 0 0 0 0 -136832283.2519989 65902988.643692017 0 65902988.643692017 101181087.45641708 0 0 0 0 10473878.088195801 39580335.051841736 0 39580335.051841736 -201916584.27607727 0 0 0 0 -226040.24816682935 -457415.23005284555 0 -457415.23005284555 -331188.99727009237 0 0 0 0 -24492957.369735718 -1855822.4734039307 0 -1855822.4734039307 21783169.789073944 0 0 0 0 -20518224.265670776 -153722100.94289398 0 -153722100.94289398 -106148059.91495132 0 0 0 0 -33808577.991348267 -67202553.732505798 0 -67202553.732505798 150229147.63619995 0 0 0 0 -546034.21997612715 1512027.5682116337 0 1512027.5682116337 1535215.2604204938 0 0 0 0 -6517760.6145324707 -7634392.2232818604 0 -7634392.2232818604 13445353.810890198 0 0 0 0 -11777868.0215538 -9189823.3667826355 0 -9189823.3667826355 2174991.6709543373 0 0 0 0 -5055924.1231130958 -8308119.8086319417 0 -8308119.8086319417 -3740036.0933509469 0 0 0 0 -222215041.80302048 122075690.51721191 0 122075690.51721191 203403314.54418945 0 0 0 0 -30685944.816009521 -56830095.628456116 0 -56830095.628456116 92754224.599281311 0 0 0 0 -15552533.477911629 -10119641.415891618 0 -10119641.415891618 4216955.2047745436 0 0 0 0 -48912212.732452393 -41961067.764652252 0 -41961067.764652252 199823251.64567566 0 0 0 0 -18355269.700294495 -49092345.063726425 0 -49092345.063726425 84912276.253372192 0 0 0 0 10611513.101043701 -36034473.264678955 0 -36034473.264678955 -606252.30486106873 0 0 0 0 -3915421.8178138733 -9047031.2308712006 0 -9047031.2308712006 11116754.658683777 0 0 0 0 -6248556.8680960834 -11482969.495391782 0 -11482969.495391782 -4175066.1598122343 0 0 0 0 -727790.66882324219 -36419043.882827759 0 -36419043.882827759 1560947.7848205566 0 0 0 0 -2444119.5914459229 -40495784.052566528 0 -40495784.052566528 4435961.5624694824 0 0 0 0 -1515034.6600799561 -9837823.1056594849 0 -9837823.1056594849 1708275.8563461304 0 0 0 0 -3522799.3002999648 -9156675.377562128 0 -9156675.377562128 -3297537.1219334342 0 0 0 0 97224549.138214111 93898539.040390015 0 93898539.040390015 74676862.550643921 0 0 0 0 -3051840.6732406616 -51402109.071063995 0 -51402109.071063995 35375365.08769989 0 0 0 0 -2552681.5441589355 -53893422.311439514 0 -53893422.311439514 21267336.729469299 0 0 0 0 -9370504.1328974143 -16060390.007736206 0 -16060390.007736206 -6005820.824329406 0 0 0 0 11948802.739883423 -17577373.199035645 0 -17577373.199035645 7068738.8472328186 0 0 0 0 -2081317.2378213853 -16578331.779000387 0 -16578331.779000387 -9299208.037899062 0 0 0 0 -10045054.049923278 -15488610.753588101 0 -15488610.753588101 -3302048.2752717361 0 0 0 0 -11003833.616760254 -33249569.85798645 0 -33249569.85798645 11857617.770523071 0 0 0 0 -14147874.605461121 -36910203.978233337 0 -36910203.978233337 7038031.8018951416 0 0 0 0 -265203.27297878265 -32805068.105761051 0 -32805068.105761051 7880775.2988739014 0 0 0 0 -2671509.7035675049 -37924501.423034668 0 -37924501.423034668 2541580.3271484375 0 0 0 0 -29720762.56098938 -18504355.688827515 0 -18504355.688827515 14956862.757270813 0 0 0 0 -19034128.670417786 -40229781.968444824 0 -40229781.968444824 5976135.0473480225 0 0 0 0 -2959989.5845280886 -13364025.83183825 0 -13364025.83183825 -4646403.3339068368 0 0 0 0 -12001693.558848858 -17287156.0379951 0 -17287156.0379951 15138159.608703613 0 0 0 0 -11778583.647521973 -15014742.51763916 0 -15014742.51763916 -6938173.4135437012 0 0 0 0 7056613.3037872314 -9756646.5536727905 0 -9756646.5536727905 -3248778.5687866211 0 0 0 0 3571544.6963348389 -15633075.364479065 0 -15633075.364479065 -10941788.482971191 0 0 0 0 10129106.791259766 383349.72607421875 0 383349.72607421875 -13452352.971588135 0 0 0 0 -4028538.9662780762 -10604491.246337891 0 -10604491.246337891 -5136441.6276817322 0 0 0 0 -10039702.294586182 -7504689.8128662109 0 -7504689.8128662109 1259285.8097610474 0 0 0 0 -1777591.9093322754 -17941334.293716431 0 -17941334.293716431 -12582720.016998291 0 0 0 0 -4664736.1684163958 -5645902.7514869273 0 -5645902.7514869273 -5984595.6583860815 0 0 0 0 147954.20312203467 -1034865.9288849831 0 -1034865.9288849831 -419890.09314823058 0 0 0 0 -10211427.139931764 -12688560.740805015 0 -12688560.740805015 -5346921.736182794 0 0 0 0 -10785023.130065918 -17136676.634578705 0 -17136676.634578705 -19958008.724761963 0 0 0 0 3308604.3897352684 -15645051.177217588 0 -15645051.177217588 -15331121.655518487 0 0 0 0 -17766447.871704102 -6741702.6127929688 0 -6741702.6127929688 -19213064.663505554 0 0 0 0 -10078718.643371582 -20753365.406799316 0 -20753365.406799316 -22728299.014648438 0 0 0 0 -6906366.2644976228 -14708045.310538113 0 -14708045.310538113 4009590.0624854695 0 0 0 0 110941.68780373037 -236141.44558720291 0 -236141.44558720291 -484194.65449808538 0 0 0 0 -2453671.0424499512 -16482062.004547119 0 -16482062.004547119 -14651729.58605957 0 0 0 0 7981122.3276977539 -28697381.561157227 0 -28697381.561157227 50549.862350463867 0 0 0 0 11475548.707032196 -8866604.8439145088 0 -8866604.8439145088 -7949773.9375543352 0 0 0 0 25567705.744506836 -37040388.434249878 0 -37040388.434249878 -7733317.2280578613 0 0 0 0 -172956.33029174805 -25971528.646850586 0 -25971528.646850586 -6173387.6463623047 0 0 0 0 -9177178.6961364746 -282266.47518920898 0 -282266.47518920898 -21937223.616210938 0 0 0 0 4307259.5300750732 -29197569.355041504 0 -29197569.355041504 -8642770.8916625977 0 0 0 0 -6609373.6163635254 -21898193.331878662 0 -21898193.331878662 -10776420.662445068 0 0 0 0 908874.77645874023 -20256292.101348877 0 -20256292.101348877 -13287561.912475586 0 0 0 0 3110775.8153076172 -22213043.014587402 0 -22213043.014587402 -11884445.824035645 0 0 0 0 5064323.4423522949 -19697296.863433838 0 -19697296.863433838 -15633682.838500977 0 0 0 0 11135915.739196777 -24067908.607025146 0 -24067908.607025146 -17258564.322113037 0 0 0 0 10524722.203941345 -25190853.526870728 0 -25190853.526870728 -17047361.247833252 0 0 0 0 2271311.7948455811 -11603883.731262207 0 -11603883.731262207 -11542558.570800781 0 0 0 0 916938.18539266754 508711.48510863259 0 508711.48510863259 74546.777351528406 0 0 0 0 31499692.221531868 -25494778.047888756 0 -25494778.047888756 -25087999.080383301 0 0 0 0 15895466.912628174 -15607075.867736816 0 -15607075.867736816 -31279209.627487183 0 0 0 0 14208553.627815247 -18425450.600578308 0 -18425450.600578308 -18014592.614929199 0 0 0 0 3363798.5634155273 -18070999.632568359 0 -18070999.632568359 -16671876.382568359 0 0 0 0 2827694.9064941406 -10033768.144317627 0 -10033768.144317627 -23718815.092102051 0 0 0 0 9824098.2957229614 -12979944.449005127 0 -12979944.449005127 -23774001.687805176 0 0 0 0 9388937.4830932617 -9341234.7388458252 0 -9341234.7388458252 -16844882.888370514 0 0 0 0 11814055.841430664 -8619553.3416671753 0 -8619553.3416671753 -16711373.180236816 0 0 0 0 16841632.956665039 -9297592.2663269043 0 -9297592.2663269043 -30385500.186897278 0 0 0 0 17273637.048927307 -3078848.6006202698 0 -3078848.6006202698 -16958841.858947754 0 0 0 0 -35384479.954444885 -6002522.8018074036 0 -6002522.8018074036 6669272.9672851562 0 0 0 0 -36235753.462509155 -16225676.5962677 0 -16225676.5962677 -6443074.9506835938 0 0 0 0 39929909.148513794 8393365.6705093384 0 8393365.6705093384 -11527579.77488327 0 0 0 0 -3311772.7786804978 -6178324.3248498067 0 -6178324.3248498067 6278840.9536747187 0 0 0 0 -3466008.8929089326 -4816131.1969127581 0 -4816131.1969127581 -2448754.611032322 0 0 0 0 -17508196.277416229 -20305048.427536011 0 -20305048.427536011 14352532.232894897 0 0 0 0 -1991175.7177124023 -17633463.757286072 0 -17633463.757286072 -9361227.6401977539 0 0 0 0 -2703119.9190673828 -12502553.046707153 0 -12502553.046707153 -2516480.3547973633 0 0 0 0 -25447705.698562622 -9361739.8989334106 0 -9361739.8989334106 -4006095.5957946777 0 0 0 0 -4552696.0246986933 -707237.16048078984 0 -707237.16048078984 4285790.2663364559 0 0 0 0 -56812820.157447815 -23262733.851974487 0 -23262733.851974487 14834443.519943237 0 0 0 0 -24008271.246181488 777818.12733840942 0 777818.12733840942 667660.18051147461 0 0 0 0 12207603.663635254 -9314965.9939575195 0 -9314965.9939575195 5357070.5226745605 0 0 0 0 4491936.6974550523 -1574175.1522929315 0 -1574175.1522929315 -2976302.1125261188 0 0 0 0 9480855.847442627 -6789012.1684112549 0 -6789012.1684112549 629335.89163208008 0 0 0 0 13375271.207489014 -11667298.330093384 0 -11667298.330093384 1510067.2680644989 0 0 0 0 4054175.6508178711 -6550412.0078201294 0 -6550412.0078201294 -956421.61721801758 0 0 0 0 11905999.066986084 -12294543.858627319 0 -12294543.858627319 3251789.1947021484 0 0 0 0 21286408.830032349 -70736.600952148438 0 -70736.600952148438 189383.23306274414 0 0 0 0 -795856.07951284898 -4682635.4060907625 0 -4682635.4060907625 620174.16671057045 0 0 0 0 -554507.6728370972 111896.32410617545 0 111896.32410617545 129699.82463552058 0 0 0 0 387641603.56138945 -185577751.47119045 0 -185577751.47119045 37484571.809524536 0 0 0 0 -970768.16812133789 599010.76737976074 0 599010.76737976074 368039.69287109375 0 0 0 0 -25367597.776168823 -3913570.5442428589 0 -3913570.5442428589 -93509.678100585938 0 0 0 0 3949118.1227981076 -3881760.5223814361 0 -3881760.5223814361 1230503.6854082942 0 0 0 0 431713237.60144043 -126701694.5645752 0 -126701694.5645752 52707113.48469162 0 0 0 0 -82246806.25655365 15688516.100524902 0 15688516.100524902 3670636.4518890381 0 0 0 0 -102922668.02302361 -49714810.747123718 0 -49714810.747123718 7265282.8928222656 0 0 0 0 -43215220.781997681 -68843773.985290527 0 -68843773.985290527 -11577414.998901367 0 0 0 0 -43234346.367034137 -73290807.407990217 0 -73290807.407990217 -28069985.475067139 0 0 0 0 6669459.842666626 -38353384.771728516 0 -38353384.771728516 -12692347.879608154 0 0 0 0 -390018.59083557129 -54416126.080444336 0 -54416126.080444336 -19778668.498504639 0 0 0 0 1707079.3531341553 -40080757.023178101 0 -40080757.023178101 -13184934.284202576 0 0 0 0 -14627677.418710709 -41444952.839307785 0 -41444952.839307785 1552801.0043945312 0 0 0 0 -14254382.488900185 -39114894.069917679 0 -39114894.069917679 3747443.9252929688 0 0 0 0 -35221953.785873413 -33068355.960723877 0 -33068355.960723877 11351959.267547607 0 0 0 0 -42853179.959068298 -48207403.453666687 0 -48207403.453666687 1072116.0409545898 0 0 0 0 -605492716.5575676 -2644623394.835825 0 -2644623394.835825 -579805345.9780426 0 0 0 0 -2904242.8534080517 -1583067548.3093591 0 -1583067548.3093591 -1478694242.0202942 0 0 0 0 -1145490461.5297127 -1473965871.1023407 0 -1473965871.1023407 -900833982.59429932 0 0 0 0 750350.16831843555 -2255559.4124232009 0 -2255559.4124232009 -835895.97955975682 0 0 0 0 -2150112310.843956 -3016809516.8722305 0 -3016809516.8722305 621523.28879165649 0 0 0 0 -2833187834.0222015 -2498178728.0717545 0 -2498178728.0717545 561709758.30539131 0 0 0 0 -4854444820.8642273 -1975916671.96698 0 -1975916671.96698 443336267.21363831 0 0 0 0 -4833276.9587990493 -3014052.2944799457 0 -3014052.2944799457 -1062686.307978265 0 0 0 0 -5702841306.3106422 827649917.75551987 0 827649917.75551987 139920173.14024353 0 0 0 0 -2335833500.6091909 498652423.30947542 0 498652423.30947542 109254097.81254578 0 0 0 0 -1388030268.8849506 -573771150.04373455 0 -573771150.04373455 502492588.0839386 0 0 0 0 514086.16798722744 -1158077.3054759651 0 -1158077.3054759651 -311970.76641686261 0 0 0 0 -1317707042.9920959 -1547719526.2244377 0 -1547719526.2244377 1136742117.6725502 0 0 0 0 -1118290276.4873962 -565916085.68119812 0 -565916085.68119812 -623878789.38066864 0 0 0 0 -1722080239.5065918 -1955859013.2871246 0 -1955859013.2871246 -1082025518.9233017 0 0 0 0 -900627981.46864319 -627228964.7843399 0 -627228964.7843399 137815682.12809277 0 0 0 0 -335083994.254776 316234001.59368134 0 316234001.59368134 228342555.65746641 0 0 0 0 -110767941.99874878 -80942989.034343719 0 -80942989.034343719 279489982.9197998 0 0 0 0 -4576261.2001290955 -12654358.538955044 0 -12654358.538955044 -13514908.240681678 0 0 0 0 246175202.34618759 -429012859.78695107 0 -429012859.78695107 -112577339.61453247 0 0 0 0 112105671.26745605 -81837966.982032776 0 -81837966.982032776 -81533984.089355469 0 0 0 0 -110321101.79266357 52398060.949810028 0 52398060.949810028 77579439.586654663 0 0 0 0 -1184064976.8114929 -326165164.01306915 0 -326165164.01306915 658180957.3471489 0 0 0 0 -1216151189.0732727 -108220817.83963776 0 -108220817.83963776 278892373.41207623 0 0 0 0 -6612355.2654462531 -8342435.7855085731 0 -8342435.7855085731 -6896912.2424087599 0 0 0 0 59647172.769622803 -44101662.367038727 0 -44101662.367038727 26752.58447265625 0 0 0 0 -42337167.573257446 -49160462.190860748 0 -49160462.190860748 -21558.548049926758 0 0 0 0 17444508.066940308 2532892.793800354 0 2532892.793800354 9904737.8818359375 0 0 0 0 -32527132.748718262 -44065262.260658264 0 -44065262.260658264 40597709.416343689 0 0 0 0 -31574224.2303195 -33237341.402959347 0 -33237341.402959347 -8556330.4222869873 0 0 0 0 -81706947.089569092 -61551348.689437866 0 -61551348.689437866 245513290.89280701 0 0 0 0 429558622.48343086 157345323.46654892 0 157345323.46654892 -79879472.368286133 0 0 0 0 -121786274.38160706 -20380331.261154175 0 -20380331.261154175 31550444.628211975 0 0 0 0 -1373760.5028885375 2294314.7724734843 0 2294314.7724734843 254961.02876001596 0 0 0 0 83103552.880493164 -28817893.55519104 0 -28817893.55519104 248342.19355418033 0 0 0 0 -121506938.39468765 4646740.0122146606 0 4646740.0122146606 56479349.481246948 0 0 0 0 -369555757.45245361 -130359804.62106323 0 -130359804.62106323 119539625.57514954 0 0 0 0 -87451354.55380249 -72803891.442230225 0 -72803891.442230225 19123602.802955627 0 0 0 0 78515254.080505371 256075965.86688232 0 256075965.86688232 84531168.429992676 0 0 0 0 -76663788.094970703 21285380.971061707 0 21285380.971061707 -324727264.12554932 0 0 0 0 -835488230.15896606 489729708.76794434 0 489729708.76794434 -607730386.34429932 0 0 0 0 -155032308.41815186 -351242108.0942688 0 -351242108.0942688 -382975739.2983551 0 0 0 0 6452466.3442583084 4671763.7563266754 0 4671763.7563266754 -247852674.20639038 0 0 0 0 421201.84383415431 -509927.93264795095 0 -509927.93264795095 -1153605.8751492575 0 0 0 0 -53395291.058776855 -30205748.793899536 0 -30205748.793899536 800434.39856529236 0 0 0 0 -439493739.70530701 242519790.43659973 0 242519790.43659973 -17545194.968139648 0 0 0 0 -181783643.08531952 -455765608.71730042 0 -455765608.71730042 -266993342.49902344 0 0 0 0 -32921909.832489014 -28020351.983222961 0 -28020351.983222961 -17206420.418624878 0 0 0 0 -1906943.0959110195 634068.00577576458 0 634068.00577576458 822725.84023779631 0 0 0 0 562653064.05063629 -131243904.70713043 0 -131243904.70713043 -424049653.46531677 0 0 0 0 -540034.07975272089 -248399.52322542854 0 -248399.52322542854 773206.97598956525 0 0 0 0 55240895.795967102 46404291.802650452 0 46404291.802650452 86263378.13973999 0 0 0 0 3172395.0475463867 -47093210.455001831 0 -47093210.455001831 27246299.300678253 0 0 0 0 -6756223.6534896549 -5782814.368812073 0 -5782814.368812073 3472084.0574315339 0 0 0 0 11209408.320465088 -332815.39479827881 0 -332815.39479827881 -390792.05229187012 0 0 0 0 1375542.701444976 -1760693.424443895 0 -1760693.424443895 -2473295.8483716547 0 0 0 0 195355630.06753349 137708382.53380013 0 137708382.53380013 -13800451.229187012 0 0 0 0 151151349.42308044 -296915459.09480286 0 -296915459.09480286 221705713.20541382 0 0 0 0 -124006579.36660767 303591792.44561768 0 303591792.44561768 366960804.88412476 0 0 0 0 15690661.510314941 -21721635.860801697 0 -21721635.860801697 -18408994.016357422 0 0 0 0 2471657.560836792 5452959.6171264648 0 5452959.6171264648 -32426860.674987793 0 0 0 0 -341822831.59741211 -422749796.45547485 0 -422749796.45547485 178073584.88104248 0 0 0 0 -111009.04361791909 -1305218.3943333086 0 -1305218.3943333086 -1248101.9229436815 0 0 0 0 2318438.6058971882 -4165530.6231324673 0 -4165530.6231324673 1959071.0350189209 0 0 0 0 3432917.4087100103 865705.35937368497 0 865705.35937368497 -2992803.5430768579 0 0 0 0 -2321280.5430513276 -12194391.944396526 0 -12194391.944396526 -15352895.923523664 0 0 0 0 26347993.303730488 9764384.1360058784 0 9764384.1360058784 -40668880.052307129 0 0 0 0 16880224.61390686 -14626748.22555542 0 -14626748.22555542 -41176007.920482635 0 0 0 0 12386540.188691616 -3543928.2342410088 0 -3543928.2342410088 -58652569.813201904 0 0 0 0 -29284558.18734169 -87924765.546182632 0 -87924765.546182632 2368172.9989929199 0 0 0 0 5456401.0727386475 -29727614.117553711 0 -29727614.117553711 -16427775.960090637 0 0 0 0 5918985.5503540039 -31280871.682243347 0 -31280871.682243347 -78595102.361282349 0 0 0 0 -12240461.307052612 -15152189.675735474 0 -15152189.675735474 35964100.318717957 0 0 0 0 -11496432.071651459 -16536731.473584175 0 -16536731.473584175 -3754924.3000488281 0 0 0 0 -14989564.156731978 -6623722.3002846166 0 -6623722.3002846166 5817249.8328387253 0 0 0 0 -54695858.608917236 -70265741.94140625 0 -70265741.94140625 554357768.88561249 0 0 0 0 -679499.86460822821 -1677065.7473250777 0 -1677065.7473250777 -236161.7255112417 0 0 0 0 159259543.36340714 -608143138.50387192 0 -608143138.50387192 1855285060.8648071 0 0 0 0 -618732.3963920367 -1343901.0379925668 0 -1343901.0379925668 -61376.196278132498 0 0 0 0 7720488.9831085205 -23716272.54246521 0 -23716272.54246521 -11458019.884471893 0 0 0 0 2330208.2252829215 -8826377.9689622074 0 -8826377.9689622074 -18140502.406573541 0 0 0 0 393869212.95027924 76446408.813461304 0 76446408.813461304 -5340578.9135971069 0 0 0 0 751050539.18308449 -151760426.50561714 0 -151760426.50561714 -12461392.417892456 0 0 0 0 153912234.04463196 -235957641.32263947 0 -235957641.32263947 272780764.56484985 0 0 0 0 170573287.79187012 -107880008.74669647 0 -107880008.74669647 864928506.19812012 0 0 0 0 1526163770.5281982 -116778815.05795288 0 -116778815.05795288 -176177045.90802002 0 0 0 0 -185653118.09127808 45737286.459403992 0 45737286.459403992 206354388.956707 0 0 0 0 -30800449.784263611 -357161161.10805893 0 -357161161.10805893 104085254.95733643 0 0 0 0 -47115169.102081299 -147960164.64475822 0 -147960164.64475822 -375603256.51358032 0 0 0 0 614058632.62932014 -61960320.334776878 0 -61960320.334776878 -257425942.33978271 0 0 0 0 -43588707.282562256 -249393642.1984024 0 -249393642.1984024 21251581.608754635 0 0 0 0 -256726727.76292419 -123166006.22357941 0 -123166006.22357941 186450270.9369812 0 0 0 0 499532.37703184783 46146.906008675694 0 46146.906008675694 -937989.09469206631 0 0 0 0 -422791655.6257 -800111425.4861455 0 -800111425.4861455 -534844898.72532654 0 0 0 0 -732112387.41727829 -897814476.82035065 0 -897814476.82035065 -338658675.18560791 0 0 0 0 -985042245.71755981 -441018480.45820999 0 -441018480.45820999 -136646849.62645149 0 0 0 0 299844.42685923725 -275802.38627522439 0 -275802.38627522439 -969215.85767763108 0 0 0 0 -415510070.54971313 -528613220.4315033 0 -528613220.4315033 -401714393.55622101 0 0 0 0 -489773160.86083221 -340808782.30875397 0 -340808782.30875397 -61237923.705619812 0 0 0 0 -221605296.99484253 -139637960.21770477 0 -139637960.21770477 -107569074.99189758 0 0 0 0 -379443232.43624878 -278466230.19426727 0 -278466230.19426727 -35085060.913047791 0 0 0 0 -226966349.19896698 -87426519.662014008 0 -87426519.662014008 -156702801.15325928 0 0 0 0 -293950127.67567444 -90971572.808563232 0 -90971572.808563232 -35140332.12932457 0 0 0 0 -251104073.74228668 -188862535.84824753 0 -188862535.84824753 -421011269.90040588 0 0 0 0 -328039673.30134583 -235780997.78356171 0 -235780997.78356171 -203846758.61106491 0 0 0 0 203862.99263695627 -254932.41922356933 0 -254932.41922356933 -513873.11564362049 0 0 0 0 -335551100.3586483 -252239060.88434029 0 -252239060.88434029 -157559336.54946899 0 0 0 0 -166869601.74420166 -327244499.95103073 0 -327244499.95103073 -194311240.34248734 0 0 0 0 9976465.3278808594 -488710822.36292458 0 -488710822.36292458 -2075834000.0575333 0 0 0 0 57080.029144920329 -1058503639.042735 0 -1058503639.042735 -738008657.1199646 0 0 0 0 -1610316.7647247314 -1060113475.5903587 0 -1060113475.5903587 -738705511.23855209 0 0 0 0 -924568028.00575256 -601406293.75994873 0 -601406293.75994873 -80318456.924102783 0 0 0 0 -693293571.84848785 -1562092599.6078377 0 -1562092599.6078377 -500597188.47831345 0 0 0 0 -920839534.61558056 -769231297.23774958 0 -769231297.23774958 -495346930.56590271 0 0 0 0 -1337216380.528513 -1116220329.6763573 0 -1116220329.6763573 -560736087.05282593 0 0 0 0 124883.30483563989 -1767791.7517014369 0 -1767791.7517014369 -1896378.9147553369 0 0 0 0 4142464.1543579102 -27573098.888393402 0 -27573098.888393402 134109301.13496399 0 0 0 0 17715763.606414795 -51411965.234735489 0 -51411965.234735489 107458061.69458008 0 0 0 0 -14218.381790161133 -64507476.852355957 0 -64507476.852355957 179798441.67315292 0 0 0 0 33565.388748924248 -60210028.000022575 0 -60210028.000022575 217225327.32341766 0 0 0 0 -2308040.2712274566 739839.58320728689 0 739839.58320728689 86304.042165551335 0 0 0 0 7937596.1107254028 -45778351.235164642 0 -45778351.235164642 194893665.23495102 0 0 0 0 7538952.5180875659 -84868763.288447008 0 -84868763.288447008 260445022.87286377 0 0 0 0 -4379591.8727848902 -753331.12285574898 0 -753331.12285574898 -486096.55660029501 0 0 0 0 -206281226.66545105 159556651.79870605 0 159556651.79870605 -640940452.46167374 0 0 0 0 -218422149.5256424 117732533.89607334 0 117732533.89607334 -72387644.456924438 0 0 0 0 20809187.737854481 -111350905.69708532 0 -111350905.69708532 365970141.31022644 0 0 0 0 18391631.563827515 -49256975.131801605 0 -49256975.131801605 204052685.24778748 0 0 0 0 -1558398.039276123 -30362340.54875946 0 -30362340.54875946 207516971.03737354 0 0 0 0 56101546.782073975 -38295010.194955826 0 -38295010.194955826 122687860.53521729 0 0 0 0 11287097.591064453 -21438508.592586517 0 -21438508.592586517 120114965.36803627 0 0 0 0 18771616.514862061 2405746.9211387634 0 2405746.9211387634 128302797.70508718 0 0 0 0 -92546143.429931641 -34885371.199548721 0 -34885371.199548721 686570880.9397049 0 0 0 0 -8409354.0635820478 -5161728.4683856331 0 -5161728.4683856331 -2522975.3183916174 0 0 0 0 15599440.653800964 16703632.00201416 0 16703632.00201416 265329509.99922943 0 0 0 0 75246739.664337158 -15283951.017772675 0 -15283951.017772675 125191234.64923906 0 0 0 0 -81688083.308273315 450436507.3246727 0 450436507.3246727 -586859078.62245178 0 0 0 0 -6214808.4602956772 -2582102.2287499923 0 -2582102.2287499923 -1316620.8312412202 0 0 0 0 404631798.77285767 301731147.84701538 0 301731147.84701538 -53648051.404506683 0 0 0 0 191902304.09698486 304167830.76618958 0 304167830.76618958 472568501.39628601 0 0 0 0 1064650695.7621746 278557872.65578842 0 278557872.65578842 391245866.76495361 0 0 0 0 1236920122.1627808 -972496324.16125488 0 -972496324.16125488 1521949720.1576385 0 0 0 0 639189435.55714417 -429254521.24359131 0 -429254521.24359131 319418233.46551514 0 0 0 0 479554511.49786377 -85452766.898281097 0 -85452766.898281097 -618336959.12443542 0 0 0 0 -261349761.71313477 185097939.57236671 0 185097939.57236671 -45160263.033309937 0 0 0 0 88147604.630981445 379322139.83583069 0 379322139.83583069 -847469876.04265213 0 0 0 0 -81300401.605285645 -54612998.210594177 0 -54612998.210594177 -237932406.7640419 0 0 0 0 192498477.63687897 -210255368.52044868 0 -210255368.52044868 -205569738.69015503 0 0 0 0 685603676.66003418 -386014947.74890137 0 -386014947.74890137 166040681.1139679 0 0 0 0 48261685.187896729 13691340.941520691 0 13691340.941520691 -54145138.188339233 0 0 0 0 644896797.25863647 -177098756.42695618 0 -177098756.42695618 194023271.95144653 0 0 0 0 -238680317.96843338 145917835.1498971 0 145917835.1498971 1353013153.2558899 0 0 0 0 637682218.9052124 -169070910.49246216 0 -169070910.49246216 475798480.93963623 0 0 0 0 -1564871.3874969482 9883017.843170166 0 9883017.843170166 234214884.53377533 0 0 0 0 7451886.431312561 -271877229.80525398 0 -271877229.80525398 252860261.35951233 0 0 0 0 79144951.115447998 -199267449.23894882 0 -199267449.23894882 -270131135.56866455 0 0 0 0 -19858524.078186035 -83255919.74061203 0 -83255919.74061203 -103918381.53458405 0 0 0 0 -10988101.410891309 -8253810.8142561782 0 -8253810.8142561782 -3716761.5799037851 0 0 0 0 6347819.6907958984 69334921.006713867 0 69334921.006713867 -456554244.46294403 0 0 0 0 -63083602.713554382 195375384.09312439 0 195375384.09312439 13270725.934700012 0 0 0 0 -407520493.95812988 -356506560.26665878 0 -356506560.26665878 786536129.25121307 0 0 0 0 310109841.24952698 -223200245.9396286 0 -223200245.9396286 -451376598.68954468 0 0 0 0 -43721537.055709839 304572006.01596451 0 304572006.01596451 -445699597.68609619 0 0 0 0 121618198.20024109 -7765353.5806465149 0 -7765353.5806465149 -358119591.21164322 0 0 0 0 -183627977.4696846 -301260630.63486099 0 -301260630.63486099 -223559764.62732697 0 0 0 0 -187302918.86794662 -210859037.04042816 0 -210859037.04042816 -78802447.371383667 0 0 0 0 -121114002.53005981 -4195685.0742340088 0 -4195685.0742340088 22448922.070336342 0 0 0 0 -436162774.66864777 -65544386.905252457 0 -65544386.905252457 15463286.735275269 0 0 0 0 -1197634.0467702597 -2051601.4458784945 0 -2051601.4458784945 1130178.0674934015 0 0 0 0 -41466300.325328827 -15648497.436418533 0 -15648497.436418533 -9158097.66746521 0 0 0 0 -97273160.234283447 -14028000.364448547 0 -14028000.364448547 7902679.354927063 0 0 0 0 -48052834.266876221 -20117795.53678894 0 -20117795.53678894 934408.901222229 0 0 0 0 -69614608.399383545 -17816239.633312225 0 -17816239.633312225 12112208.192207336 0 0 0 0 -35367421.643692017 -24107815.122085571 0 -24107815.122085571 3203790.8079147339 0 0 0 0 -32933771.62687397 -86182955.493761301 0 -86182955.493761301 -33346064.805175781 0 0 0 0 -48881061.442749023 -27250121.413627625 0 -27250121.413627625 -1191449.3541946411 0 0 0 0 -39033421.169921875 -33157846.431335449 0 -33157846.431335449 2300934.2288360596 0 0 0 0 -62910019.868328094 -45799122.768722534 0 -45799122.768722534 -3818907.9468231201 0 0 0 0 -87972719.12455368 -120905255.26688766 0 -120905255.26688766 -35200766.519546509 0 0 0 0 -105720319.8671875 -47947248.26914978 0 -47947248.26914978 8393906.1476287842 0 0 0 0 -223725500.04344177 -57313171.611793518 0 -57313171.611793518 29796923.65196228 0 0 0 0 -95466816.451282501 -49267091.606544733 0 -49267091.606544733 4161094.6916503906 0 0 0 0 -41919806.784210205 -129411969.20610809 0 -129411969.20610809 -34865184.523414612 0 0 0 0 -7148948.8450698853 -128706290.96784782 0 -128706290.96784782 -59855029.118736267 0 0 0 0 -41993240.490905762 -145895267.37434387 0 -145895267.37434387 -65812635.614891052 0 0 0 0 -30417482.282653809 -94662457.494621277 0 -94662457.494621277 -25325027.280925751 0 0 0 0 25042912.379211426 -69111738.017974854 0 -69111738.017974854 -28496716.309242249 0 0 0 0 4819499.5690307617 -99866401.20287323 0 -99866401.20287323 -63226695.499693871 0 0 0 0 3878228.2348022461 -119966276.19234848 0 -119966276.19234848 -61037724.236749649 0 0 0 0 -671575.72649383545 -110398212.3967762 0 -110398212.3967762 -80066159.700614929 0 0 0 0 23596900.704418182 -94890635.741441727 0 -94890635.741441727 -54518557.924446106 0 0 0 0 37418022.94758606 -96015664.982841492 0 -96015664.982841492 -57761073.88379097 0 0 0 0 -2012309.0274353027 -175140829.2873497 0 -175140829.2873497 -145471074.63978195 0 0 0 0 45264261.895629883 -121955792.46380997 0 -121955792.46380997 -122474786.83325958 0 0 0 0 79823146.525741577 -13573436.787439346 0 -13573436.787439346 -27611957.594543457 0 0 0 0 26703184.653678894 -64156807.625347137 0 -64156807.625347137 24093525.2084198 0 0 0 0 56149078.38180542 -46741588.289402008 0 -46741588.289402008 -24509997.548110962 0 0 0 0 30613369.690856934 -113040249.8682251 0 -113040249.8682251 -81356373.876911163 0 0 0 0 8727028.6261444092 -83933130.934978485 0 -83933130.934978485 -34173911.823467255 0 0 0 0 838993.08840942383 -111455754.43958664 0 -111455754.43958664 -82849668.413051605 0 0 0 0 -9005873.9286193848 -72585219.927196503 0 -72585219.927196503 -89874246.789455414 0 0 0 0 13054636.607803345 -97316841.101863861 0 -97316841.101863861 -71955830.606010437 0 0 0 0 9207599.3565979004 -47617561.644319057 0 -47617561.644319057 -53935164.852668762 0 0 0 0 -2443810.2278900146 -74951311.01745224 0 -74951311.01745224 -96213731.281036377 0 0 0 0 -37523101.084777832 -58552315.062133789 0 -58552315.062133789 -103381444.81752777 0 0 0 0 -24399.131019592285 -62839470.430761337 0 -62839470.430761337 -111099392.99005127 0 0 0 0 -15887384.115776062 -44410624.222992897 0 -44410624.222992897 -57663669.949882507 0 0 0 0 40804.119613647461 -72506874.167861938 0 -72506874.167861938 -46647842.373022079 0 0 0 0 -18980524.368087769 -60449231.066766739 0 -60449231.066766739 9161816.4598731995 0 0 0 0 30868705.534896851 -35454579.433303833 0 -35454579.433303833 16782988.483280182 0 0 0 0 12784095.015745163 -24042263.216353416 0 -24042263.216353416 83975973.094818115 0 0 0 0 -18381.596326234932 -67082124.570617676 0 -67082124.570617676 85323010.287216187 0 0 0 0 -41266001.385681152 -47120435.49502182 0 -47120435.49502182 -51193692.779238343 0 0 0 0 -42383519.213180542 -80490476.521705627 0 -80490476.521705627 -78658798.080596924 0 0 0 0 1384643.8717573173 -15400242.688477181 0 -15400242.688477181 -8273352.8449950814 0 0 0 0 3771223.1905606389 -4883984.7575733028 0 -4883984.7575733028 -2938847.3565965109 0 0 0 0 -59267082.366699219 -92665102.303489685 0 -92665102.303489685 -44736006.262786865 0 0 0 0 -149698557.31668091 -2684612.1331787109 0 -2684612.1331787109 11311214.651451111 0 0 0 0 24252885.370243073 -28436310.574439049 0 -28436310.574439049 -17034943.350372314 0 0 0 0 -40758375.532684326 -94182723.707550049 0 -94182723.707550049 -83036193.993865967 0 0 0 0 -166585673.17700195 -65244232.177978516 0 -65244232.177978516 -51715821.726072311 0 0 0 0 -98582826.414001465 -83555581.416763306 0 -83555581.416763306 31626302.723773956 0 0 0 0 -109285606.30510712 -47543501.248783112 0 -47543501.248783112 134472426.00415039 0 0 0 0 -49973512.722709656 -12301084.854874611 0 -12301084.854874611 66877641.322784424 0 0 0 0 -149875781.12493062 -90412164.349281684 0 -90412164.349281684 30781324.313140869 0 0 0 0 -67153960.214141846 -92166693.578125 0 -92166693.578125 7542007.9101409912 0 0 0 0 -94861686.854370117 -76896615.513763428 0 -76896615.513763428 20930683.133331299 0 0 0 0 24815567.31080246 -30261313.366020203 0 -30261313.366020203 -9464461.7481231689 0 0 0 0 -35313425.875976562 -30565688.847930908 0 -30565688.847930908 4675789.4173278809 0 0 0 0 -7287856.8966421392 -22172810.558779623 0 -22172810.558779623 4236141.1934200227 0 0 0 0 17391574.208097424 -13492164.56675224 0 -13492164.56675224 -13038477.967180252 0 0 0 0 25037321.360519409 -33045821.620487213 0 -33045821.620487213 -20357277.368728638 0 0 0 0 29907475.394416809 -39724138.528709412 0 -39724138.528709412 -14319484.02331543 0 0 0 0 24442208.012573242 -26149978.019371033 0 -26149978.019371033 -42751616.88633728 0 0 0 0 12569258.71233033 -11662851.128056671 0 -11662851.128056671 -14841882.63266791 0 0 0 0 43894661.152328491 -16923525.527404785 0 -16923525.527404785 -81245467.162940979 0 0 0 0 22419797.993362427 -25229999.642692566 0 -25229999.642692566 -3092860.2614822388 0 0 0 0 -1156667.756619323 -11935834.407191541 0 -11935834.407191541 -4482167.1801455542 0 0 0 0 20621400.005504608 -41051550.915359497 0 -41051550.915359497 6772262.89037323 0 0 0 0 15438156.550836563 -57028138.137792587 0 -57028138.137792587 8830159.0141601562 0 0 0 0 13993216.814361572 -5599690.7628860474 0 -5599690.7628860474 -8648406.1063156128 0 0 0 0 5231718.2845345959 -15234262.276524566 0 -15234262.276524566 -14110690.140564688 0 0 0 0 13975576.089645386 -20241644.236099243 0 -20241644.236099243 -1540379.5083312988 0 0 0 0 32113846.163302422 -44581708.171470642 0 -44581708.171470642 -15718192.984069824 0 0 0 0 18053347.484870911 -27937989.975379944 0 -27937989.975379944 -14772978.131103516 0 0 0 0 2421333.0876528155 -13511131.807228353 0 -13511131.807228353 -11117842.764849767 0 0 0 0 34257441.6842556 -38427536.375827789 0 -38427536.375827789 -30657237.610977173 0 0 0 0 27821666.014389038 -23559387.707199097 0 -23559387.707199097 -31178642.419548512 0 0 0 0 21660526.407424927 -10902440.088729858 0 -10902440.088729858 -35079635.227241516 0 0 0 0 30025111.984542847 -21173622.528381348 0 -21173622.528381348 -60564871.72203064 0 0 0 0 29830634.892920494 -24785929.080125093 0 -24785929.080125093 -35785892.104400635 0 0 0 0 28256609.046310425 -10671471.836380005 0 -10671471.836380005 -38821537.596435547 0 0 0 0 2918357.5088043213 -3652606.9781646729 0 -3652606.9781646729 -2134696.3857727051 0 0 0 0 -17826601.279052734 -9809775.123046875 0 -9809775.123046875 -3954497.0547485352 0 0 0 0 -14465842.651034594 -9938314.073343806 0 -9938314.073343806 -6704407.0434078574 0 0 0 0 28224210.773441315 -25246986.413795471 0 -25246986.413795471 -24441460.377990723 0 0 0 0 27462556.427444458 -11441234.603424072 0 -11441234.603424072 -23919350.583190918 0 0 0 0 -3240591.2056846507 -6069759.4268811122 0 -6069759.4268811122 -3673741.2831475884 0 0 0 0 -7430098.791809082 -10172128.667572021 0 -10172128.667572021 -4772579.4564208984 0 0 0 0 2691748.5787936971 -14312366.343758531 0 -14312366.343758531 -11450846.594362453 0 0 0 0 -5837825.4119740352 -7322450.7880046405 0 -7322450.7880046405 -980983.75371535122 0 0 0 0 -16229421.189102173 -10505490.518661499 0 -10505490.518661499 409366.33522033691 0 0 0 0 -3214069.4197387695 -14818898.240074158 0 -14818898.240074158 -15340170.261639357 0 0 0 0 -9801967.2453918457 -14599670.15397644 0 -14599670.15397644 2592648.7052307129 0 0 0 0 -9368213.4965209961 -22793908.079330444 0 -22793908.079330444 -2699013.3970031738 0 0 0 0 -3071500.1201477051 -15477748.561058044 0 -15477748.561058044 5552993.908996582 0 0 0 0 2165937.8390359879 -23232266.314296961 0 -23232266.314296961 3374675.4134216309 0 0 0 0 -1894313.1925516874 -15262072.84630849 0 -15262072.84630849 -10685301.987131976 0 0 0 0 2727045.3739318848 -9636780.7302093506 0 -9636780.7302093506 -1376247.5879516602 0 0 0 0 -11963653.207423136 -13560378.124948733 0 -13560378.124948733 -4892016.7348031253 0 0 0 0 -5793555.4258243535 -6172108.3417325243 0 -6172108.3417325243 -3323795.0752783418 0 0 0 0 -4315454.254466746 -3357530.7003925741 0 -3357530.7003925741 -1740287.9397725165 0 0 0 0 -102180914.86941528 -30215518.366928101 0 -30215518.366928101 4923942.0076904297 0 0 0 0 2947100.6494140625 -3722528.3814849854 0 -3722528.3814849854 -2646550.3272705078 0 0 0 0 -11539845.96861589 -8109886.0833089054 0 -8109886.0833089054 -52053.718242272735 0 0 0 0 57465.139099121094 -3819903.3294067383 0 -3819903.3294067383 -3097325.2399902344 0 0 0 0 -49434767.374420166 -24374618.033004761 0 -24374618.033004761 -21177180.400695801 0 0 0 0 6619321.4657289758 -16684067.366557835 0 -16684067.366557835 -9747895.1272791103 0 0 0 0 12235155.690898273 -15715345.581269868 0 -15715345.581269868 -13984084.50507848 0 0 0 0 36438990.099090576 -34861331.693893433 0 -34861331.693893433 -19241605.794631958 0 0 0 0 21175224.082214355 -25188163.121490479 0 -25188163.121490479 -14919275.337463379 0 0 0 0 23185603.024169922 -24746476.785171509 0 -24746476.785171509 -15875396.665893555 0 0 0 0 20044264.310188293 -29131934.064856529 0 -29131934.064856529 -16538154.906799316 0 0 0 0 -279192.17203521729 -31203161.336338043 0 -31203161.336338043 -10801134.602058411 0 0 0 0 11411973.611808777 -37011945.884819031 0 -37011945.884819031 -7919670.3717041016 0 0 0 0 3639505.5694255829 -48422731.520148277 0 -48422731.520148277 4619807.3455505371 0 0 0 0 23685942.938995361 -63634265.462646484 0 -63634265.462646484 -11308959.963554382 0 0 0 0 19303980.275756836 -79104145.052528381 0 -79104145.052528381 -24335574.24949646 0 0 0 0 -6146873.3611984253 -89439612.037940979 0 -89439612.037940979 20584701.804077148 0 0 0 0 15853569.059326172 -113534665.72208023 0 -113534665.72208023 -67875411.028594971 0 0 0 0 40744313.812759399 -79531402.162254333 0 -79531402.162254333 -24445378.272359848 0 0 0 0 37353277.020309448 -71459560.985591888 0 -71459560.985591888 -43590195.603973389 0 0 0 0 43014586.095962524 -60403085.828686714 0 -60403085.828686714 -26317659.928512573 0 0 0 0 -49135410.643554688 -97359344.13835907 0 -97359344.13835907 105447368.86275101 0 0 0 0 -10676788.593673706 -101743384.3071022 0 -101743384.3071022 -11457816.55632019 0 0 0 0 -14842471.244094849 -100711533.23067474 0 -100711533.23067474 -11289916.820076942 0 0 0 0 9135475.2484207153 -91400301.892921448 0 -91400301.892921448 -141796433.51381683 0 0 0 0 -21879293.107192993 -158522709.25101089 0 -158522709.25101089 -3645975.7300720215 0 0 0 0 -6428339.1257324219 -55939729.957313538 0 -55939729.957313538 -118986672.75440979 0 0 0 0 -71027546.183624268 -426536149.36643219 0 -426536149.36643219 859359813.92536926 0 0 0 0 -12551487.168929935 -11209145.655270929 0 -11209145.655270929 -4513643.1804639176 0 0 0 0 -30326160.286884308 18650173.066196442 0 18650173.066196442 -200081347.2979126 0 0 0 0 310956475.60333395 -478769591.78127402 0 -478769591.78127402 104149683.41069031 0 0 0 0 117748296.83660889 -54593612.183197021 0 -54593612.183197021 -60678167.501052856 0 0 0 0 63051315.141357422 -1796661.0560073853 0 -1796661.0560073853 -621018.64302825928 0 0 0 0 42104878.004669189 -64536275.072486877 0 -64536275.072486877 -81515529.447792053 0 0 0 0 48995924.847091675 -84352886.573028564 0 -84352886.573028564 -56021326.230316162 0 0 0 0 82491477.251205444 -121100363.10617828 0 -121100363.10617828 -99895967.726821899 0 0 0 0 -76496357.518013 -73149070.079223633 0 -73149070.079223633 -35910013.034484863 0 0 0 0 211475169.79025269 -46792963.833229065 0 -46792963.833229065 -102377037.82083893 0 0 0 0 -3648900.312484473 -2155177.747502856 0 -2155177.747502856 732806.93343307823 0 0 0 0 -209179917.11688232 -158190433.36117554 0 -158190433.36117554 192367079.3910675 0 0 0 0 199292617.89582825 63533032.167503357 0 63533032.167503357 -32941948.057029724 0 0 0 0 -236438668.63515472 -321407522.19957733 0 -321407522.19957733 118626964.40658569 0 0 0 0 -97227199.113952637 -254494570.07272339 0 -254494570.07272339 -91434386.92741394 0 0 0 0 140146633.4770813 -491682371.58378601 0 -491682371.58378601 -525670.01389694214 0 0 0 0 44327054.499500275 250847177.87111497 0 250847177.87111497 -124434550.36694336 0 0 0 0 195133242.95401001 305502780.76142883 0 305502780.76142883 -16185927.907871246 0 0 0 0 1123752.5625481158 -3638904.8744574618 0 -3638904.8744574618 -1279243.7977687586 0 0 0 0 -11928160.320311308 -14534472.38856576 0 -14534472.38856576 -4850499.5632638484 0 0 0 0 19977460.446685791 -173435506.00967407 0 -173435506.00967407 187355985.29644775 0 0 0 0 109779831.41461182 -297377101.2215271 0 -297377101.2215271 -30146109.659488678 0 0 0 0 103960027.07086182 -71768776.468734741 0 -71768776.468734741 38293966.7072258 0 0 0 0 107130788.76580048 -78492647.233610153 0 -78492647.233610153 -56983701.31350708 0 0 0 0 74207433.342437744 -46732357.635383606 0 -46732357.635383606 18264465.962982178 0 0 0 0 82921777.565261841 -68935322.924156189 0 -68935322.924156189 26539457.398468018 0 0 0 0 7896611.7286071777 -30469103.229049683 0 -30469103.229049683 25887921.576698303 0 0 0 0 13421833.871276855 1446386.5855712891 0 1446386.5855712891 49169295.706695557 0 0 0 0 36115761.599243164 -47072282.060623169 0 -47072282.060623169 86710299.829650879 0 0 0 0 19361980.885986328 -17534527.642837524 0 -17534527.642837524 97928520.955924988 0 0 0 0 33688529.708312988 -34867497.381561279 0 -34867497.381561279 26046133.629501343 0 0 0 0 192996218.82339478 53083547.339279175 0 53083547.339279175 -193282469.39268494 0 0 0 0 97456279.328552246 10253295.97933197 0 10253295.97933197 -212476325.29859924 0 0 0 0 140244045.837677 -203622514.23284149 0 -203622514.23284149 -191465191.74725342 0 0 0 0 130777493.86499023 -216389762.97059631 0 -216389762.97059631 -364501149.32308197 0 0 0 0 278441305.77554321 -108548115.28623199 0 -108548115.28623199 -265610060.05974197 0 0 0 0 50496755.61730957 -132262242.04096985 0 -132262242.04096985 -261172269.74705315 0 0 0 0 86456018.336364746 188859361.5174942 0 188859361.5174942 196960358.88860321 0 0 0 0 74129689.836853027 -85012341.790908813 0 -85012341.790908813 -259794708.63573456 0 0 0 0 87621743.652587891 -446539602.94668579 0 -446539602.94668579 -470143664.41503906 0 0 0 0 -110563062.85180664 -263368241.27046967 0 -263368241.27046967 -270512464.38498688 0 0 0 0 136516157.29131317 -32471754.085887909 0 -32471754.085887909 -17770006.825866699 0 0 0 0 107061319.24160767 -33082763.909881592 0 -33082763.909881592 -9826325.5712432861 0 0 0 0 1851004.4134642184 -1956087.1503347531 0 -1956087.1503347531 -3706685.7050005719 0 0 0 0 -117974210.37747192 -71257297.157592773 0 -71257297.157592773 -221406231.67248535 0 0 0 0 -1055961.6228432804 -681745.99645860866 0 -681745.99645860866 1595011.8045924008 0 0 0 0 98329180.046066284 13274041.572601318 0 13274041.572601318 -202825984.16067505 0 0 0 0 2055298.274307251 -18909394.675495148 0 -18909394.675495148 -147237037.3783474 0 0 0 0 13396737.393238068 -65592748.233148575 0 -65592748.233148575 -225587478.22576904 0 0 0 0 98470809.510192871 2724607.5564899445 0 2724607.5564899445 -200753813.78979492 0 0 0 0 114691902.8276062 -81998779.805053711 0 -81998779.805053711 -268837181.8772583 0 0 0 0 3088809.0749511719 -147431538.5499115 0 -147431538.5499115 -271988099.85884047 0 0 0 0 56316308.877838135 -6854939.0959320068 0 -6854939.0959320068 -145820990.8350029 0 0 0 0 -4157137.8487894535 -6801697.0679922998 0 -6801697.0679922998 4888596.3415298015 0 0 0 0 -37750492.468273163 -30781446.521437645 0 -30781446.521437645 7555568.95337677 0 0 0 0 -5179102.8136672974 -8033616.5034637451 0 -8033616.5034637451 11762109.428283691 0 0 0 0 -49640661.195384979 -9066323.5316307545 0 -9066323.5316307545 20793220.357589722 0 0 0 0 757264.14818753302 -12458995.28172303 0 -12458995.28172303 5381084.4750021249 0 0 0 0 392744.50951112062 -11653276.700693384 0 -11653276.700693384 -11051463.276513729 0 0 0 0 9256955.488861084 -33405069.011544228 0 -33405069.011544228 21301526.305965424 0 0 0 0 61115290.051727295 -22523612.948768616 0 -22523612.948768616 -7774145.7877140045 0 0 0 0 -8009476.4595277682 -6505997.8487349898 0 -6505997.8487349898 10919430.734050876 0 0 0 0 -53880348.493438721 -21243614.563695908 0 -21243614.563695908 43744929.437408447 0 0 0 0 -6188702.4818725586 -1741087.8854188919 0 -1741087.8854188919 15781049.816505432 0 0 0 0 -25339906.139923096 2357952.6844940186 0 2357952.6844940186 7863739.1864204407 0 0 0 0 -4767662.9206895828 12497759.489476681 0 12497759.489476681 -124666766.80498886 0 0 0 0 4441590.2498062924 -9696489.4147844836 0 -9696489.4147844836 9443696.4898157716 0 0 0 0 51557742.550582886 -43991463.741929054 0 -43991463.741929054 7256063.0637207031 0 0 0 0 49040797.71307373 -52324317.713749886 0 -52324317.713749886 -4944696.3229064941 0 0 0 0 73411688.182556152 -45131330.673622131 0 -45131330.673622131 -11210065.643035889 0 0 0 0 2835586.8971156031 -16744337.58996626 0 -16744337.58996626 -18169663.550849933 0 0 0 0 69991242.325180054 -63973067.44613266 0 -63973067.44613266 -1549204.5209598541 0 0 0 0 81565082.643226624 -99163459.632476807 0 -99163459.632476807 22375544.092916489 0 0 0 0 54119719.971244812 -26023777.727516174 0 -26023777.727516174 -4573928.0311584473 0 0 0 0 8319495.5926228408 -27785652.970579524 0 -27785652.970579524 -7178353.5337341279 0 0 0 0 -40343560.580371857 -79211248.76700592 0 -79211248.76700592 -16197058.167243958 0 0 0 0 15272633.843154907 -53607198.2943573 0 -53607198.2943573 -3752030.1368436813 0 0 0 0 -12961000.599937439 -65873185.601177216 0 -65873185.601177216 -31103061.296081543 0 0 0 0 14239684.830871582 -94846591.247314453 0 -94846591.247314453 -25324250.097091675 0 0 0 0 27032949.842485428 -45901866.466302872 0 -45901866.466302872 -24678333.490753174 0 0 0 0 35858042.789611816 -38299976.991455078 0 -38299976.991455078 -38393711.952102661 0 0 0 0 19831751.069711685 -68213564.937839508 0 -68213564.937839508 -63442030.587554932 0 0 0 0 14228843.84677124 -23337894.100997925 0 -23337894.100997925 -11047366.634412766 0 0 0 0 -39340505.106285095 -43813877.379837036 0 -43813877.379837036 12682669.933265686 0 0 0 0 9913130.8237705566 -25766202.405799292 0 -25766202.405799292 -7535999.3412851244 0 0 0 0 6363714.1036700904 -19184885.526252002 0 -19184885.526252002 -7188626.4171427563 0 0 0 0 -345104.10569763184 -46209660.105258942 0 -46209660.105258942 -4174340.7534179688 0 0 0 0 11692002.933242798 -17837249.447320938 0 -17837249.447320938 -11082852.298545837 0 0 0 0 41482660.28527832 -12815470.973876953 0 -12815470.973876953 -6913380.7369842529 0 0 0 0 36732052.013700485 -30363822.695579529 0 -30363822.695579529 -15536107.502578735 0 0 0 0 46014391.802036285 -45963984.547962189 0 -45963984.547962189 -68834359.092987061 0 0 0 0 -8094701.9447331056 -20677146.653679479 0 -20677146.653679479 -5955966.5858268589 0 0 0 0 -8246284.7785491943 -38168207.389701843 0 -38168207.389701843 -1153553.5889434814 0 0 0 0 10476112.98034668 -17286412.695983887 0 -17286412.695983887 -5241902.3643341064 0 0 0 0 31157006.61658068 -12835970.459885575 0 -12835970.459885575 -9745236.0482010916 0 0 0 0 -4144944.0143346116 -24276861.440466728 0 -24276861.440466728 -8538368.931536153 0 0 0 0 -10281649.589930017 -24148478.686636239 0 -24148478.686636239 5954157.4018532485 0 0 0 0 -12853098.082305908 -42586633.133384705 0 -42586633.133384705 7236213.5524978638 0 0 0 0 8033761.6365013123 -23671501.874862671 0 -23671501.874862671 -33919104.037948608 0 0 0 0 9133974.6761245728 -34763306.256465912 0 -34763306.256465912 -3910590.9097747803 0 0 0 0 -7201859.6879577637 -84362648.550811768 0 -84362648.550811768 -162040422.3937149 0 0 0 0 116198965.30180264 -261955362.7028966 0 -261955362.7028966 -58770866.800415039 0 0 0 0 -6580985.1950364858 -22666526.949456327 0 -22666526.949456327 -6686377.8897582144 0 0 0 0 -68342981.924041748 -98441483.784927368 0 -98441483.784927368 3487862.5060272217 0 0 0 0 45798919.522544861 -25048796.377784729 0 -25048796.377784729 -42293361.741260529 0 0 0 0 23168716.03477478 -40422158.396791458 0 -40422158.396791458 -50722487.845687866 0 0 0 0 65552526.092615128 -67991999.670892715 0 -67991999.670892715 -24264661.38885498 0 0 0 0 15662803.45318985 -47809260.740762711 0 -47809260.740762711 -10057943.27053833 0 0 0 0 -8140880.4253727794 -48342566.854789197 0 -48342566.854789197 22313896.872619629 0 0 0 0 17555341.688354492 -55031893.399841309 0 -55031893.399841309 -4631145.3329849243 0 0 0 0 22752483.852592468 -68761822.681861877 0 -68761822.681861877 26660253.362518311 0 0 0 0 13543105.085189819 -47116499.929229736 0 -47116499.929229736 24371176.563705444 0 0 0 0 8444426.0215321481 -18641436.494410582 0 -18641436.494410582 -5801375.8496155553 0 0 0 0 11408650.089645386 -58211324.383735657 0 -58211324.383735657 22206175.557693481 0 0 0 0 2981029.0185203925 -6485209.9541269764 0 -6485209.9541269764 -1915114.7014134899 0 0 0 0 33906488.920501709 -117993906.32526398 0 -117993906.32526398 142278667.97930145 0 0 0 0 128941107.60525513 -109519448.05892944 0 -109519448.05892944 -4542387.5905380249 0 0 0 0 105092259.89176941 -13387959.888679504 0 -13387959.888679504 -153790651.00870514 0 0 0 0 171298647.79672623 -72199718.188396454 0 -72199718.188396454 -139808678.87770081 0 0 0 0 106897367.45342255 -84451079.623588562 0 -84451079.623588562 -133642346.2830658 0 0 0 0 40146487.341873169 -82330095.98059845 0 -82330095.98059845 -55666674.546707153 0 0 0 0 31310389.229072571 -36233432.182365417 0 -36233432.182365417 -86819285.78213501 0 0 0 0 31027976.248001099 -48662488.240089417 0 -48662488.240089417 -48813363.142089844 0 0 0 0 80061058.858627319 -68322360.565574646 0 -68322360.565574646 -93447095.603816986 0 0 0 0 15222246.11000061 -101382831.54255676 0 -101382831.54255676 -60235400.45690155 0 0 0 0 70880488.13911438 -146073007.3987236 0 -146073007.3987236 -36234258.938194275 0 0 0 0 134460253.10637283 -158201124.0965004 0 -158201124.0965004 -127667630.87374878 0 0 0 0 105113091.23774719 -125485008.27557373 0 -125485008.27557373 -115620213.95073891 0 0 0 0 139089918.10430908 -207448877.89041138 0 -207448877.89041138 -107904083.93231201 0 0 0 0 56774443.23110199 -170024850.90784264 0 -170024850.90784264 93406975.777633667 0 0 0 0 55305034.743988037 -151334713.41345215 0 -151334713.41345215 -82055753.276145935 0 0 0 0 -28426107.655883789 -155906673.3394928 0 -155906673.3394928 -35181926.948730469 0 0 0 0 -16968949.195426941 -111585900.22595024 0 -111585900.22595024 24872318.769363403 0 0 0 0 -94298534.040565491 -73188170.434150696 0 -73188170.434150696 147019296.99193573 0 0 0 0 -76889561.67258358 -104984484.25764179 0 -104984484.25764179 69743349.841674805 0 0 0 0 56772626.352157593 -73772722.530792236 0 -73772722.530792236 53968433.70860672 0 0 0 0 3086720.6436462402 -138679294.01363373 0 -138679294.01363373 75609193.565132141 0 0 0 0 34570310.204597473 -4261616.3025588989 0 -4261616.3025588989 170594001.93547058 0 0 0 0 -29151754.225166321 62670365.006225586 0 62670365.006225586 -350728522.87509918 0 0 0 0 -2500219.3009175435 -2551572.961669147 0 -2551572.961669147 -2419665.2408539578 0 0 0 0 -92185935.26700592 -52440848.458213806 0 -52440848.458213806 284672511.0329895 0 0 0 0 30268360.56816864 -43741238.805801392 0 -43741238.805801392 -536142684.02401733 0 0 0 0 568070765.74285889 -442000176.52954102 0 -442000176.52954102 -640900941.11979675 0 0 0 0 -118006411.00500488 22908458.419334412 0 22908458.419334412 -125971915.65162659 0 0 0 0 -9171817.9746871702 -20112552.069863796 0 -20112552.069863796 1767604.0634947941 0 0 0 0 -7523758.412293639 -7917348.9720525518 0 -7917348.9720525518 -8144504.6992930211 0 0 0 0 -14061225.917129517 -55782220.18321228 0 -55782220.18321228 -196978050.33815765 0 0 0 0 -33276579.775314331 -95993076.935974121 0 -95993076.935974121 -158469026.02602386 0 0 0 0 -58406608.857719421 -110797561.00640106 0 -110797561.00640106 -93014630.599517822 0 0 0 0 -9214886.7641697563 -26971887.186966609 0 -26971887.186966609 1949733.7687216625 0 0 0 0 -5507772.5584869385 -28601043.912708282 0 -28601043.912708282 13621339.49937439 0 0 0 0 -41193959.391181946 -41643474.70489502 0 -41643474.70489502 -65913593.025104523 0 0 0 0 2995452.1509094238 -30272756.786575317 0 -30272756.786575317 -11461519.256439209 0 0 0 0 -6940059.9283752441 -24334940.920963287 0 -24334940.920963287 5692865.849395752 0 0 0 0 -2416384.4268188477 -22744605.033658981 0 -22744605.033658981 -4318050.8772277832 0 0 0 0 -555623.5858001709 -29108726.712814331 0 -29108726.712814331 3571969.5887069702 0 0 0 0 24306686.65927124 -32740309.845756531 0 -32740309.845756531 -9384585.8362503052 0 0 0 0 14362382.437393188 -21943682.13476944 0 -21943682.13476944 -7870768.4199066162 0 0 0 0 24030155.294692993 -34860641.616371155 0 -34860641.616371155 -7226380.474105835 0 0 0 0 24079968.234884739 -33751514.17240274 0 -33751514.17240274 -12695592.906021118 0 0 0 0 14245092.81269455 -47044329.77688694 0 -47044329.77688694 13906767.505195618 0 0 0 0 22150446.919021606 -29643927.862293243 0 -29643927.862293243 -5925912.8097229004 0 0 0 0 30542382.956939697 -43126828.083106995 0 -43126828.083106995 12096474.999229431 0 0 0 0 28513140.093078613 -30331755.659851074 0 -30331755.659851074 -10069631.21925354 0 0 0 0 27057870.96472168 -30696300.904891968 0 -30696300.904891968 7648231.572517395 0 0 0 0 39234765.603424072 -25306501.256906509 0 -25306501.256906509 -8110239.1572265625 0 0 0 0 -4649252.5497415066 -26923507.96418941 0 -26923507.96418941 -21608099.502091657 0 0 0 0 19011880.410820007 -15166247.696918488 0 -15166247.696918488 -19400207.60559845 0 0 0 0 24708910.471057892 -18946722.309194565 0 -18946722.309194565 -27962799.146789551 0 0 0 0 28322826.251220703 -36380627.04372406 0 -36380627.04372406 -41970147.403266907 0 0 0 0 -8937413.8640924059 -4122197.3660467174 0 -4122197.3660467174 11119287.814401597 0 0 0 0 -1233225.234852314 -71914178.492361307 0 -71914178.492361307 -174560475.98934937 0 0 0 0 77277995.731994629 -17999581.164489746 0 -17999581.164489746 76614418.678649902 0 0 0 0 -26170703.81947466 -26208960.138535988 0 -26208960.138535988 -832690.00541570783 0 0 0 0 -748413.80020141602 -57898997.761108398 0 -57898997.761108398 -139133977.94680786 0 0 0 0 -83716999.411499023 -151090136.75033569 0 -151090136.75033569 -118585115.54640198 0 0 0 0 -26541282.57330513 -114857464.05171585 0 -114857464.05171585 -181342619.07958984 0 0 0 0 -22877116.040252686 -90501374.611694336 0 -90501374.611694336 -97851191.844940186 0 0 0 0 -22987427.612701416 -167728664.686203 0 -167728664.686203 -101562474.93847656 0 0 0 0 -133146874.26139832 -69660531.909805298 0 -69660531.909805298 97276220.483779907 0 0 0 0 37010563.990325928 27354358.606124878 0 27354358.606124878 -16932844.779541016 0 0 0 0 -42983259.709228516 -1142009.9578933716 0 -1142009.9578933716 -17414595.785690308 0 0 0 0 75192961.455612183 6304291.470703125 0 6304291.470703125 -48067813.020965576 0 0 0 0 -25103786.345092773 -25177513.332481384 0 -25177513.332481384 -100341807.86611176 0 0 0 0 -58242268.122573853 -103917724.07572174 0 -103917724.07572174 -52500742.087493896 0 0 0 0 -46923040.561080933 -98598761.450431824 0 -98598761.450431824 -98957883.999664307 0 0 0 0 9653228.8968353271 -17132067.264526367 0 -17132067.264526367 -44259107.362304688 0 0 0 0 -11690222.940870866 -21409720.860858668 0 -21409720.860858668 -17712278.854480129 0 0 0 0 45804654.284729004 -19460305.098609924 0 -19460305.098609924 -47584345.091125488 0 0 0 0 74432225.822587252 -19684386.956941724 0 -19684386.956941724 -54016616.58164978 0 0 0 0 6009179.2818676457 -19172323.981680185 0 -19172323.981680185 -22046378.233129092 0 0 0 0 18768352.906929016 -35528212.491491318 0 -35528212.491491318 -7300711.8790359497 0 0 0 0 26265696.999786377 -36855679.326145172 0 -36855679.326145172 -9972796.8143081665 0 0 0 0 30798765.220947266 -17149191.022035599 0 -17149191.022035599 3538447.6223754883 0 0 0 0 13889159.25660415 -29488487.018599074 0 -29488487.018599074 -35517781.431946225 0 0 0 0 16807537.436767578 -14937201.640808105 0 -14937201.640808105 -8224247.785736084 0 0 0 0 7708901.648524018 -36912192.12987873 0 -36912192.12987873 -10121935.699627936 0 0 0 0 6378131.0074462891 -61910110.280704498 0 -61910110.280704498 -99416245.592353821 0 0 0 0 -18160140.828645289 -20873974.367815904 0 -20873974.367815904 -6346551.3588272482 0 0 0 0 -81615289.993114471 -57246581.919223785 0 -57246581.919223785 -24279082.194480896 0 0 0 0 -8128717.3342957627 -11817918.677582335 0 -11817918.677582335 -5248506.3502152748 0 0 0 0 10194241.215649374 -28774669.643995494 0 -28774669.643995494 -22761976.763818555 0 0 0 0 -4386004.9556686804 -5347257.5011690482 0 -5347257.5011690482 -2955615.6774347872 0 0 0 0 58082670.418190002 18331941.84362793 0 18331941.84362793 -90513652.652633667 0 0 0 0 -35682569.219356537 -226754098.43331814 0 -226754098.43331814 -187854465.34745789 0 0 0 0 -89020611.084709167 -102616787.77484131 0 -102616787.77484131 -5442174.8162975311 0 0 0 0 -50199390.355865479 -61532958.255577087 0 -61532958.255577087 62744489.954338074 0 0 0 0 -20008192.478818893 -79514737.082670212 0 -79514737.082670212 -21536122.994262695 0 0 0 0 -60678059.400020599 -35150923.128417969 0 -35150923.128417969 -1842178.2293395996 0 0 0 0 -22193634.776878357 -86301510.108322144 0 -86301510.108322144 -20805305.93662262 0 0 0 0 64395692.41230011 -53996831.894128799 0 -53996831.894128799 5464765.7313690186 0 0 0 0 -3150562.5373836309 -2159007.3161612041 0 -2159007.3161612041 3882774.5470951721 0 0 0 0 -255785793.99514771 -37268707.66178894 0 -37268707.66178894 151315157.75436974 0 0 0 0 250674919.78045654 -47089939.75120163 0 -47089939.75120163 -338683237.97273445 0 0 0 0 -153431202.36810303 -155629951.6217823 0 -155629951.6217823 -101986789.66615295 0 0 0 0 -164839887.09701538 -159161064.55303574 0 -159161064.55303574 -76833190.168266296 0 0 0 0 -165584683.10803223 -147950759.97247314 0 -147950759.97247314 -72123994.415484428 0 0 0 0 147648479.27410889 -68748933.650104523 0 -68748933.650104523 -85056648.98824501 0 0 0 0 -182300062.99236298 -4694303.2373431921 0 -4694303.2373431921 -85095930.257953644 0 0 0 0 229654901.08599854 -144107125.44518471 0 -144107125.44518471 -95649172.668426514 0 0 0 0 19654717.223444998 -21545936.315655515 0 -21545936.315655515 -32750456.689119264 0 0 0 0 148016374.1194458 35251328.92440033 0 35251328.92440033 23309506.751644135 0 0 0 0 69392927.900390625 9215807.8627548218 0 9215807.8627548218 30700938.82881546 0 0 0 0 15850451.879837483 -21454734.201529585 0 -21454734.201529585 -29751642.265288621 0 0 0 0 -67145432.503433228 156580997.73459625 0 156580997.73459625 -21700275.325279236 0 0 0 0 -76460169.025283813 70618207.822841644 0 70618207.822841644 153896668.85115051 0 0 0 0 -12188991.823425293 -30316530.583629608 0 -30316530.583629608 -90670445.460586548 0 0 0 0 -86966983.575531006 26074526.58095932 0 26074526.58095932 -33373420.318332672 0 0 0 0 -31406310.831054688 50961314.77130127 0 50961314.77130127 -24818111.938289642 0 0 0 0 -98427401.84942627 -100251244.51124191 0 -100251244.51124191 -131189532.09673119 0 0 0 0 -184436912.30072021 -111431420.10907173 0 -111431420.10907173 -82702071.891616344 0 0 0 0 -101447764.47357178 -112898109.34831524 0 -112898109.34831524 -83855615.88508606 0 0 0 0 -88290904.249816895 -166108764.61693573 0 -166108764.61693573 -69130810.355680466 0 0 0 0 -86554227.819946289 -70835540.997270584 0 -70835540.997270584 -22159802.897350311 0 0 0 0 -124299968.17353821 -106795793.62556171 0 -106795793.62556171 -43099462.887939453 0 0 0 0 -50774070.447937012 -8514764.3659563065 0 -8514764.3659563065 -2214856.0773963928 0 0 0 0 -104505628.09364319 -82059068.962481499 0 -82059068.962481499 99021616.999420166 0 0 0 0 -4750988.8519287109 -162267349.25743294 0 -162267349.25743294 2137385.3759651184 0 0 0 0 -13047531.782926559 -74332352.068144679 0 -74332352.068144679 18100529.777603149 0 0 0 0 -86306408.893959045 -52855789.776581049 0 -52855789.776581049 257925376.84430695 0 0 0 0 -84869624.602478027 -33414935.783786774 0 -33414935.783786774 59629998.809270859 0 0 0 0 -16101450.077987671 -139104792.45293808 0 -139104792.45293808 -213757754.45489502 0 0 0 0 -47495746.64553833 -105356802.15513229 0 -105356802.15513229 -62955575.001399994 0 0 0 0 -64742576.681747437 -186093288.00424671 0 -186093288.00424671 -178703119.59059906 0 0 0 0 -107992729.51333618 -171408497.54988194 0 -171408497.54988194 -69607746.080786109 0 0 0 0 6514638.5156952739 -9212255.001572093 0 -9212255.001572093 -11296153.076466531 0 0 0 0 -111935254.14492798 -160923593.69699049 0 -160923593.69699049 -154036184.58773232 0 0 0 0 -114554582.99539185 -149965285.86396027 0 -149965285.86396027 -197087004.54907608 0 0 0 0 -100536751.02380371 -138220441.33561516 0 -138220441.33561516 -96976904.622919083 0 0 0 0 -184142363.10235596 -173260269.91357899 0 -173260269.91357899 -156037888.0120039 0 0 0 0 -99370370.558439255 -145504980.44686496 0 -145504980.44686496 -197536133.52458572 0 0 0 0 21649365.892211914 -97958494.88837254 0 -97958494.88837254 53507549.081003964 0 0 0 0 -29819765.183151245 -72764041.691500902 0 -72764041.691500902 223366749.17699432 0 0 0 0 -37367985.633163452 -17062419.013046026 0 -17062419.013046026 86052870.506309986 0 0 0 0 -181313257.20265198 -240304603.54629493 0 -240304603.54629493 -190990718.43929029 0 0 0 0 -44811151.710494995 28216873.678740859 0 28216873.678740859 329456938.48527217 0 0 0 0 5594637.53085199 -3952185.2511311173 0 -3952185.2511311173 -6522632.5938063096 0 0 0 0 -61186448.086746216 -262177869.9721086 0 -262177869.9721086 -427732128.38787365 0 0 0 0 14276904.603940859 -16431371.441350959 0 -16431371.441350959 -33855424.479716882 0 0 0 0 -5806981.9152679443 -24764226.234664917 0 -24764226.234664917 -12080073.726604462 0 0 0 0 89704841.208404541 -20596286.891628265 0 -20596286.891628265 -70010006.393327713 0 0 0 0 -9497041.4467684217 -26128513.093518145 0 -26128513.093518145 -8548875.9792246446 0 0 0 0 -5491184.6914825439 -22678493.772201538 0 -22678493.772201538 -23103920.394663811 0 0 0 0 -5800766.7328825444 -26885008.854910403 0 -26885008.854910403 -16092139.215788545 0 0 0 0 -7720406.5644836426 -21286364.886005402 0 -21286364.886005402 -10569539.533325195 0 0 0 0 927495.4056609273 -9669034.2275573686 0 -9669034.2275573686 -4397268.0977416085 0 0 0 0 -45111449.443054199 12989108.144348145 0 12989108.144348145 -40664573.378525734 0 0 0 0 4055185.9247436523 -94347326.878046036 0 -94347326.878046036 -212456343.1015358 0 0 0 0 5262771.1865689233 -384546.13126011193 0 -384546.13126011193 -4797784.4685628768 0 0 0 0 8588507.7422637939 -104409027.16557038 0 -104409027.16557038 107416120.83363152 0 0 0 0 -1915996.7017765418 -19974322.632104628 0 -19974322.632104628 -9838501.3094602022 0 0 0 0 20285509.637878418 -6091945.0365814716 0 -6091945.0365814716 10297497.116461754 0 0 0 0 -516281.8243560791 -21031588.836914062 0 -21031588.836914062 -10730759.748085022 0 0 0 0 -13166835.994416354 -25446865.961786598 0 -25446865.961786598 -4417713.9828756861 0 0 0 0 -6968232.8019866943 -32646717.340660095 0 -32646717.340660095 5452001.1685123444 0 0 0 0 330628702.40612793 -297430998.61865091 0 -297430998.61865091 162353185.72224236 0 0 0 0 -50589913.322906494 -1028201.8005895615 0 -1028201.8005895615 528429881.93403435 0 0 0 0 -1945765.0699420385 -7542897.3271535933 0 -7542897.3271535933 -2177220.4155309573 0 0 0 0 232539073.35501099 -154614685.85079288 0 -154614685.85079288 383613.05027106404 0 0 0 0 88583209.262786865 -381175830.48316431 0 -381175830.48316431 510590177.78674555 0 0 0 0 -82770847.811401367 -131735513.14706182 0 -131735513.14706182 229738714.33174989 0 0 0 0 -54811858.801307678 -205834794.50979745 0 -205834794.50979745 345362852.43465042 0 0 0 0 -170677557.8911438 -110442167.91820234 0 -110442167.91820234 413625476.12539291 0 0 0 0 -127031576.27859497 36293372.860504627 0 36293372.860504627 709714129.02531862 0 0 0 0 323676725.01870728 -437065964.37345243 0 -437065964.37345243 394762921.17063618 0 0 0 0 -28051174.822418213 -305358878.0014534 0 -305358878.0014534 755389225.07229328 0 0 0 0 -80620225.944587708 -70695370.18112433 0 -70695370.18112433 303600574.27570534 0 0 0 0 -12395422.439743042 -37868618.502479911 0 -37868618.502479911 311411875.68815625 0 0 0 0 48950639.310264587 59406203.89885962 0 59406203.89885962 327311175.23068714 0 0 0 0 -85888909.422714233 -85079463.698315144 0 -85079463.698315144 373728429.52989292 0 0 0 0 -158407387.09542847 -39235947.631683826 0 -39235947.631683826 403992749.93816805 0 0 0 0 -224373844.48820496 66519947.765214443 0 66519947.765214443 293408553.53900003 0 0 0 0 -132193755.37899399 17381687.132889152 0 17381687.132889152 287618438.27327156 0 0 0 0 -66141344.429595947 -8044880.4890198708 0 -8044880.4890198708 237240998.26300383 0 0 0 0 -62344477.356742859 46583497.393258899 0 46583497.393258899 137090310.29748154 0 0 0 0 -17213932.866577148 85740036.503507614 0 85740036.503507614 -21072357.688192844 0 0 0 0 -140424402.95220947 109229066.4811058 0 109229066.4811058 149033092.61403227 0 0 0 0 -12583610.480926514 73989871.739730597 0 73989871.739730597 7534634.325343132 0 0 0 0 -31594189.954987049 104138511.0118643 0 104138511.0118643 30272579.665054321 0 0 0 0 -31379146.751238346 110081605.52789809 0 110081605.52789809 -8970248.5618000031 0 0 0 0 -221480543.49987793 192346564.99654913 0 192346564.99654913 57923002.250714302 0 0 0 0 -134173243.25946045 56898039.77644968 0 56898039.77644968 235718493.46416903 0 0 0 0 20004.82666015625 39226609.04498291 0 39226609.04498291 -96496103.516741753 0 0 0 0 -264970248.74990845 186644120.23860931 0 186644120.23860931 57791113.571987152 0 0 0 0 -23480243.996368408 156252620.02546787 0 156252620.02546787 -191721890.87407207 0 0 0 0 -87727430.882781982 215873714.16460419 0 215873714.16460419 -406957783.41968155 0 0 0 0 10388564.109985352 80388321.514042854 0 80388321.514042854 -21800271.872098923 0 0 0 0 -2742908.3685455322 66534352.384196281 0 66534352.384196281 -35099991.153793335 0 0 0 0 -37265213.198944092 -258244250.77592325 0 -258244250.77592325 322785202.21347427 0 0 0 0 -86146687.635253906 -253813204.94699669 0 -253813204.94699669 171262674.06876373 0 0 0 0 -253908059.88217163 -347061351.21388054 0 -347061351.21388054 289777864.17495012 0 0 0 0 -450114622.70446777 45291269.531088829 0 45291269.531088829 393209158.58287406 0 0 0 0 -47956480.3253479 -123272838.62714696 0 -123272838.62714696 116983332.30199051 0 0 0 0 -464198687.49865723 30649644.314127922 0 30649644.314127922 81333821.447495699 0 0 0 0 -671585581.10004234 -237336519.09863698 0 -237336519.09863698 -215130217.21507263 0 0 0 0 -580921912.45187378 448387093.31052208 0 448387093.31052208 -159022405.77609539 0 0 0 0 -998642443.57797241 442778883.74058247 0 442778883.74058247 -399409393.93358994 0 0 0 0 -358420884.49365234 -376325294.07102633 0 -376325294.07102633 120436253.74025536 0 0 0 0 -505725076.90405273 -48174805.962217331 0 -48174805.962217331 31566722.711335182 0 0 0 0 -132662454.26641846 -182688192.23777485 0 -182688192.23777485 -166299772.45081806 0 0 0 0 31231085.54586792 -194053953.1076088 0 -194053953.1076088 36147355.562109947 0 0 0 0 43591501.106750488 -344557640.82550144 0 -344557640.82550144 373118438.19935226 0 0 0 0 -153560527.16678619 -311467656.44954276 0 -311467656.44954276 223777293.4466114 0 0 0 0 87942119.569549561 -391269269.22284794 0 -391269269.22284794 114409079.79036474 0 0 0 0 -116190885.67673492 -383471206.29304135 0 -383471206.29304135 286793221.31301689 0 0 0 0 198520199.64331055 -479742427.29406166 0 -479742427.29406166 227907877.82688332 0 0 0 0 85987556.868118286 -361937500.93303895 0 -361937500.93303895 337085432.90471649 0 0 0 0 52784909.051849365 -447803332.27813673 0 -447803332.27813673 358220866.40432262 0 0 0 0 57144098.388122559 -472165484.23007584 0 -472165484.23007584 260590750.85323644 0 0 0 0 266237929.21868896 -365621474.65872383 0 -365621474.65872383 360536523.34859133 0 0 0 0 566886849.34823608 -374104630.47836494 0 -374104630.47836494 235785390.31872845 0 0 0 0 231616586.45506287 -468321022.13776255 0 -468321022.13776255 291165583.73698044 0 0 0 0 276619371.98278809 -304932219.96079445 0 -304932219.96079445 218554047.92885065 0 0 0 0 455916725.210289 -537233620.32262683 0 -537233620.32262683 406364687.7276001 0 0 0 0 634913152.76765442 -512978997.20983219 0 -512978997.20983219 257337760.89962482 0 0 0 0 -145888899.0014801 -40241865.779492378 0 -40241865.779492378 121003751.85070038 0 0 0 0 575072271.51263428 -367710539.98641491 0 -367710539.98641491 376678657.78493261 0 0 0 0 134968406.93371582 -109327285.06515265 0 -109327285.06515265 -32065654.095952034 0 0 0 0 68974395.154785156 277036780.52809238 0 277036780.52809238 -36760511.588333607 0 0 0 0 -7362472.3480403721 -6161101.4945468083 0 -6161101.4945468083 -2789067.7958081909 0 0 0 0 -2155095.4788513184 14016020.057187557 0 14016020.057187557 -222860488.99995899 0 0 0 0 -45808459.606414795 71137237.089661598 0 71137237.089661598 236219569.66265774 0 0 0 0 -21178192.509017102 -20570260.274725053 0 -20570260.274725053 -9935119.9567913264 0 0 0 0 87563566.670379639 -230804850.75623512 0 -230804850.75623512 127315668.08798027 0 0 0 0 -95069.494644165039 -34817354.017608643 0 -34817354.017608643 11343105.474510193 0 0 0 0 -108742677.49371338 -203075589.02766418 0 -203075589.02766418 248414678.00370246 0 0 0 0 -51659986.858673096 -155646646.66108608 0 -155646646.66108608 136693028.82251167 0 0 0 0 -133899266.3453064 37725627.919304848 0 37725627.919304848 75103445.489561081 0 0 0 0 112580252.96829224 -30533569.573286057 0 -30533569.573286057 71459503.482898831 0 0 0 0 -8808123.0019964948 -2348823.2542155683 0 -2348823.2542155683 9711836.7404519953 0 0 0 0 -13199317.958067328 -11051608.730767261 0 -11051608.730767261 -4190135.3731005881 0 0 0 0 -9608141.9855041504 -68503706.25962925 0 -68503706.25962925 82274647.26115036 0 0 0 0 -84124168.153656006 -25787354.990523338 0 -25787354.990523338 115422887.76202774 0 0 0 0 198629996.87017822 108593724.31925011 0 108593724.31925011 134841054.33849716 0 0 0 0 253271193.79666138 18534286.942884445 0 18534286.942884445 33140067.22284317 0 0 0 0 -288770863.70944214 60677174.314868927 0 60677174.314868927 314221513.49051666 0 0 0 0 -170265530.06949997 -248057431.32839441 0 -248057431.32839441 -49622455.491474152 0 0 0 0 4483589.8493041992 -157056311.40296173 0 -157056311.40296173 -132002576.9112072 0 0 0 0 -2553527.8012237549 -31936071.060188293 0 -31936071.060188293 13706180.217285156 0 0 0 0 -1715517.3467254639 -30380578.291648865 0 -30380578.291648865 11993007.041473389 0 0 0 0 -818152.54986572266 -31635985.742141724 0 -31635985.742141724 11546566.18611145 0 0 0 0 -1578432.6235809326 -30171635.132499695 0 -30171635.132499695 9422993.7603020668 0 0 0 0 -778717.56932067871 -29927043.458393097 0 -29927043.458393097 9444802.7566299438 0 0 0 0 -2912069.2557220459 -30131586.776870728 0 -30131586.776870728 11584420.034216046 0 0 0 0 -2186198.2809753418 -31509374.570980072 0 -31509374.570980072 10470762.516365051 0 0 0 0 -3216910.8993682861 -30000875.622695923 0 -30000875.622695923 10327570.291963577 0 0 0 0 -3460191.6819090843 -30814309.015514493 0 -30814309.015514493 9113300.5895385742 0 0 0 0 -3277680.7348022461 -27291598.143141508 0 -27291598.143141508 5438103.4178161621 0 0 0 0 -2928256.5971374512 -32802023.105808258 0 -32802023.105808258 11664723.943382263 0 0 0 0 -21611372.823099058 -18733927.833768625 0 -18733927.833768625 2194415.1256919187 0 0 0 0 -1428535.5189819336 -32768996.026096344 0 -32768996.026096344 11003686.923126221 0 0 0 0 20441873.453704834 -80579728.252807617 0 -80579728.252807617 -53347558.400230408 0 0 0 0 -117018686.73504639 -186993964.85640335 0 -186993964.85640335 -40199408.122192383 0 0 0 0 -12633964.7338036 -3417693.3973836973 0 -3417693.3973836973 11373772.730170358 0 0 0 0 7538140.5703735352 -134858856.65673065 0 -134858856.65673065 -122005124.33992004 0 0 0 0 42723786.179214478 -29466902.264127731 0 -29466902.264127731 50343520.433227539 0 0 0 0 52223285.089782715 -17400231.644187927 0 -17400231.644187927 47610545.954147339 0 0 0 0 16799469.000396729 18650533.53074646 0 18650533.53074646 191263885.06155396 0 0 0 0 16486847.139953613 -106172227.7818222 0 -106172227.7818222 -57730134.963756561 0 0 0 0 40070095.456665039 -78784434.733337402 0 -78784434.733337402 -37139459.054031372 0 0 0 0 9413187.1415405273 -101134108.10671997 0 -101134108.10671997 -42605941.408636093 0 0 0 0 26633373.448699951 -100644448.39152718 0 -100644448.39152718 -71923870.365661621 0 0 0 0 31302792.988433838 -83306559.28352356 0 -83306559.28352356 -35159129.548980713 0 0 0 0 19510577.423400879 -91482213.440765381 0 -91482213.440765381 -38940478.512405396 0 0 0 0 39236829.724111557 -58462004.052919388 0 -58462004.052919388 6129134.3231811523 0 0 0 0 -39423342.184814453 -152740194.24456787 0 -152740194.24456787 -24974076.307504654 0 0 0 0 31241545.92791748 -59002382.493179321 0 -59002382.493179321 -41272783.039413929 0 0 0 0 -112747185.88592529 25593318.304336548 0 25593318.304336548 320993935.868927 0 0 0 0 -170058477.52142334 -49295432.022619247 0 -49295432.022619247 327625153.52928162 0 0 0 0 -265597651.88815308 -195505356.89768219 0 -195505356.89768219 241823217.79000092 0 0 0 0 -1467676.2645558566 -2362589.651315216 0 -2362589.651315216 -1826753.6733530611 0 0 0 0 -56142436.95300293 -78473331.278457642 0 -78473331.278457642 80673398.68730545 0 0 0 0 -10832710.330993652 -98063381.767173767 0 -98063381.767173767 75487042.193130493 0 0 0 0 54383917.620849609 -52520429.341501236 0 -52520429.341501236 3131730.2996139526 0 0 0 0 32636017.634277344 -68826237.45500946 0 -68826237.45500946 -3164210.7872810364 0 0 0 0 34516306.179718018 -28279800.013664246 0 -28279800.013664246 21416918.373064041 0 0 0 0 -19722890.667770386 23604877.647181273 0 23604877.647181273 362346155.37254333 0 0 0 0 17405481.432403564 -49298421.817459106 0 -49298421.817459106 108348792.87919617 0 0 0 0 -19704639.027255736 -19251007.114286941 0 -19251007.114286941 -2620486.4937718892 0 0 0 0 157959360.59490967 75452799.498939514 0 75452799.498939514 -246350595.37353516 0 0 0 0 77238612.254760742 84110178.195075989 0 84110178.195075989 88627970.175287247 0 0 0 0 26528795.997070312 -46384879.331035614 0 -46384879.331035614 13305883.053482056 0 0 0 0 67044397.922576904 -55516971.011058807 0 -55516971.011058807 -103625981.75478745 0 0 0 0 82713265.705444336 -130522078.94713974 0 -130522078.94713974 -219470221.34095359 0 0 0 0 -14997829.896087646 -278485969.60985851 0 -278485969.60985851 288267771.21154332 0 0 0 0 175981775.65876389 -406641962.60864657 0 -406641962.60864657 370601403.15561867 0 0 0 0 -142870619.60679626 -14269883.341160774 0 -14269883.341160774 58138594.771312714 0 0 0 0 -15722588.936413258 -13608411.975808769 0 -13608411.975808769 -1480005.0967896041 0 0 0 0 169654369.5247345 -440452201.63036394 0 -440452201.63036394 339927742.10053265 0 0 0 0 -9010228.0754088089 -4126020.388863869 0 -4126020.388863869 5259306.4912821855 0 0 0 0 -15990429.066986084 -111065596.94434166 0 -111065596.94434166 -32242443.535171509 0 0 0 0 -6612468.3793640137 -143976140.12867355 0 -143976140.12867355 -102998008.42318726 0 0 0 0 -54171.029243469238 -29128056.901388168 0 -29128056.901388168 10673003.382104874 0 0 0 0 -11963569.029999912 -25493580.716447115 0 -25493580.716447115 17883726.079284668 0 0 0 0 -13372843.016662598 -37351160.636257172 0 -37351160.636257172 53115458.795715332 0 0 0 0 -11993115.395843506 -29076623.911563873 0 -29076623.911563873 37095492.239212036 0 0 0 0 -5587406.1551208496 -80141377.136856079 0 -80141377.136856079 76007973.883239746 0 0 0 0 -10889606.50450325 -55196985.655653477 0 -55196985.655653477 32482871.164497375 0 0 0 0 -5402604.8617095947 -79912362.62878418 0 -79912362.62878418 -50476530.713745117 0 0 0 0 19336.163215637207 -53883821.569988251 0 -53883821.569988251 -139188176.62778473 0 0 0 0 -36834399.373947144 -38055656.857215881 0 -38055656.857215881 -86066083.601394653 0 0 0 0 -16097987.393737793 -44474621.390869141 0 -44474621.390869141 -129466242.08821869 0 0 0 0 -8769441.1335105896 -65310588.833580971 0 -65310588.833580971 -167671759.43063354 0 0 0 0 -5319901.3906860352 -96521831.015501022 0 -96521831.015501022 -313283660.46063232 0 0 0 0 -148071457.28692627 -19902428.951461792 0 -19902428.951461792 151604199.09908295 0 0 0 0 -60935270.696395874 -97240595.959880829 0 -97240595.959880829 -148812222.31924248 0 0 0 0 267954.04965730011 1358812.3575929552 0 1358812.3575929552 -174755.5302738389 0 0 0 0 92516707.232666016 -1017403.7785797119 0 -1017403.7785797119 11091181.698829651 0 0 0 0 -12479315.702171326 -81200672.642835617 0 -81200672.642835617 -160495718.60159302 0 0 0 0 -30027467.798366547 -50406411.471291542 0 -50406411.471291542 -143023293.15292358 0 0 0 0 -20944644.598373413 -93036551.170509338 0 -93036551.170509338 -116330251.8443985 0 0 0 0 -25035502.85723877 -35993019.133090973 0 -35993019.133090973 -171767542.13956451 0 0 0 0 -20445876.799621582 -41172363.554092407 0 -41172363.554092407 -96613586.911140442 0 0 0 0 -2628601.0073547363 -85356725.036922455 0 -85356725.036922455 -111826651.17044067 0 0 0 0 458818.52476224303 2333694.5843998976 0 2333694.5843998976 -22695.168163910508 0 0 0 0 5582567.4278869629 1989570.342048645 0 1989570.342048645 28000286.108650208 0 0 0 0 -18636528.069015503 1899012.1597442627 0 1899012.1597442627 45723811.028236389 0 0 0 0 -4641628.5795135498 -67207479.127357483 0 -67207479.127357483 -180072687.90886688 0 0 0 0 -3712619.0947113037 -22755565.072226524 0 -22755565.072226524 10065231.95059967 0 0 0 0 -1337669.9573047087 467241.80538237933 0 467241.80538237933 2511464.9116709474 0 0 0 0 9816066.1642150879 20653471.119720459 0 20653471.119720459 9423621.7552108765 0 0 0 0 -9627183.252679348 -42029896.882049084 0 -42029896.882049084 58447315.778743744 0 0 0 0 4725145.518371582 -23992559.315490723 0 -23992559.315490723 57350893.637299299 0 0 0 0 18490136.909210205 -25805329.914440155 0 -25805329.914440155 26612777.745552063 0 0 0 0 18352685.234146118 -25239918.830789566 0 -25239918.830789566 34317181.881843567 0 0 0 0 11231035.233581543 -17402492.049987793 0 -17402492.049987793 47365527.320133209 0 0 0 0 5624024.9854431152 -6897888.743850708 0 -6897888.743850708 -7524226.5705871582 0 0 0 0 -2340861.7184821963 -110638.71778937988 0 -110638.71778937988 6864279.7821388021 0 0 0 0 20843841.839324951 -22357030.633468628 0 -22357030.633468628 31604392.460517883 0 0 0 0 817899.92291641235 -8314631.6662101746 0 -8314631.6662101746 -728869.12421417236 0 0 0 0 3695426.9109904915 -9409542.3834436461 0 -9409542.3834436461 15833130.615638416 0 0 0 0 2472620.8802890554 -8029746.0087592453 0 -8029746.0087592453 -2441648.7290150113 0 0 0 0 6172273.8783569336 -7764240.6106643677 0 -7764240.6106643677 -7929620.2445259094 0 0 0 0 1928204.3981189728 -30573616.76962328 0 -30573616.76962328 -22852960.776634216 0 0 0 0 -2533336.944659695 -7251764.7425993243 0 -7251764.7425993243 20023892.67463398 0 0 0 0 11345030.016235352 11524788.820259094 0 11524788.820259094 -12033606.051361084 0 0 0 0 3322965.5577392578 -12962667.739257812 0 -12962667.739257812 3364534.8909301758 0 0 0 0 1461851.2492370605 -6591345.9987564087 0 -6591345.9987564087 4665394.7668685913 0 0 0 0 7369314.1611938477 -11225629.462181091 0 -11225629.462181091 -7367219.5387787819 0 0 0 0 55435.321960449219 -9435283.1200218201 0 -9435283.1200218201 11246040.155662537 0 0 0 0 -1265896.8765563965 -49426200.400951385 0 -49426200.400951385 -70921718.897155762 0 0 0 0 373041.30522185564 1943718.98019927 0 1943718.98019927 739444.21464109514 0 0 0 0 -2468670.2421875 -6577950.7659606934 0 -6577950.7659606934 16253212.413467407 0 0 0 0 -15706533.738128662 -56111844.88842392 0 -56111844.88842392 -55498828.309661865 0 0 0 0 -9082881.864440918 -65811137.147323608 0 -65811137.147323608 -70841081.339241028 0 0 0 0 -1957859.7861757278 -96856172.93427062 0 -96856172.93427062 -52544225.011383057 0 0 0 0 -4490142.787109375 -104002034.03498459 0 -104002034.03498459 -31874425.002243042 0 0 0 0 44815222.253997803 -81639728.913490295 0 -81639728.913490295 -35649382.619377136 0 0 0 0 -27069274.46270752 627171.73834991455 0 627171.73834991455 -17063543.392860413 0 0 0 0 -1638463.5701599121 -87672411.438047409 0 -87672411.438047409 -10553570.930229187 0 0 0 0 33639557.07334137 -52630047.88053894 0 -52630047.88053894 -1495184.6901245117 0 0 0 0 926380.58239532635 -4177611.5298281014 0 -4177611.5298281014 -1716147.2245117426 0 0 0 0 47811845.3932724 -70659420.466146469 0 -70659420.466146469 104838360.54985046 0 0 0 0 43938889.556274414 27341723.40901947 0 27341723.40901947 16202871.615264893 0 0 0 0 228428.15452726185 497178.40406580642 0 497178.40406580642 -387990.00040959101 0 0 0 0 29304465.615562439 4859245.7746276855 0 4859245.7746276855 -16630848.745864868 0 0 0 0 -599192.81492614746 -4781767.6958503723 0 -4781767.6958503723 10936722.603157043 0 0 0 0 229352.78855124302 -508507.12631373852 0 -508507.12631373852 -145404.91240335628 0 0 0 0 -57687622.118927002 -93498312.614330292 0 -93498312.614330292 5906833.2869567871 0 0 0 0 82434256.246517181 -111869015.07948685 0 -111869015.07948685 -8155903.992401123 0 0 0 0 5428963.1653402597 -10034752.145595148 0 -10034752.145595148 13723378.813329944 0 0 0 0 73647716.166015625 -15490192.577850342 0 -15490192.577850342 -2693550.7614440918 0 0 0 0 92872246.867340088 -106165543.81816864 0 -106165543.81816864 42007360.161071777 0 0 0 0 -48703845.68258667 29429172.007717133 0 29429172.007717133 34286480.352577209 0 0 0 0 37719103.311462402 -74413465.410636902 0 -74413465.410636902 -26313195.031661987 0 0 0 0 -7092093.8200378418 -5626653.9074325562 0 -5626653.9074325562 -3783440.8645782471 0 0 0 0 5374458.5788100585 -9920874.4118835032 0 -9920874.4118835032 11980710.394891679 0 0 0 0 -90986917.172729492 -43846122.562778473 0 -43846122.562778473 26310921.99615097 0 0 0 0 252210416.83032227 -446744295.97540283 0 -446744295.97540283 555301977.04898071 0 0 0 0 -49833345.232788086 -26301097.832127571 0 -26301097.832127571 5084032.528427124 0 0 0 0 -120577364.6785965 139311264.13562393 0 139311264.13562393 282125377.38482666 0 0 0 0 239706479.37213135 -221712266.74007034 0 -221712266.74007034 135858961.1804924 0 0 0 0 273797565.20956421 37230929.134561241 0 37230929.134561241 -36873038.693546295 0 0 0 0 -108673279.47515869 288879885.69039726 0 288879885.69039726 -322386246.90485764 0 0 0 0 6972427.950012207 -170366734.43136978 0 -170366734.43136978 403724527.80287933 0 0 0 0 1812953.8966822177 -1311981.4146353006 0 -1311981.4146353006 -350132.58977422118 0 0 0 0 186872390.96560669 -146572764.22789192 0 -146572764.22789192 38086715.559137344 0 0 0 0 110251581.54608154 -115587867.88683701 0 -115587867.88683701 -71703327.200498581 0 0 0 0 -85368711.918121338 -88805355.872688293 0 -88805355.872688293 -43375458.522922516 0 0 0 0 21818572.5831604 -114116236.98785305 0 -114116236.98785305 -192392003.66220665 0 0 0 0 -112843536.89624023 -49868087.753699303 0 -49868087.753699303 64098685.591844797 0 0 0 0 67232088.645458221 103349935.22333765 0 103349935.22333765 20897121.663833618 0 0 0 0 119255167.00408936 -218437150.25485229 0 -218437150.25485229 72397219.465248108 0 0 0 0 -1529522.9839514345 1478070.6828602031 0 1478070.6828602031 6739429.5647834307 0 0 0 0 78628749.774002075 -64270801.252591133 0 -64270801.252591133 -148427331.09549332 0 0 0 0 21185673.850036621 33047455.912285805 0 33047455.912285805 12421518.29725647 0 0 0 0 -71882879.742034912 -20086358.490647316 0 -20086358.490647316 -136085544.28854251 0 0 0 0 14080892.296539307 -14190414.714059949 0 -14190414.714059949 52548097.909232616 0 0 0 0 -111638818.52206421 98833932.897392273 0 98833932.897392273 19920686.857345581 0 0 0 0 -204161373.14941406 -424657787.44682264 0 -424657787.44682264 -100026429.18272638 0 0 0 0 -250478947.64608765 -301932894.93643522 0 -301932894.93643522 27068402.908991814 0 0 0 0 -313403002.50085449 -436755350.30395985 0 -436755350.30395985 -47929773.248614311 0 0 0 0 -62707632.843505859 -462917867.3991406 0 -462917867.3991406 -626888120.0974431 0 0 0 0 -170851422.70407391 -79470082.279919803 0 -79470082.279919803 -193746716.3068943 0 0 0 0 -19811249.216003418 -154993765.09702301 0 -154993765.09702301 -520104823.26832771 0 0 0 0 -1935363.5210266113 128241810.66760635 0 128241810.66760635 537650724.10801792 0 0 0 0 2468644.8439318687 -801672.47471447848 0 -801672.47471447848 -2452431.891682812 0 0 0 0 -179896710.73892212 -45266650.484039307 0 -45266650.484039307 1160247871.5912881 0 0 0 0 -73423114.687255859 220271971.57893276 0 220271971.57893276 -20348150.679536939 0 0 0 0 15765099.804977417 -67195016.627295017 0 -67195016.627295017 266757538.49955988 0 0 0 0 461835124.34393311 -1033781422.5335789 0 -1033781422.5335789 -285583284.97158909 0 0 0 0 -198773126.86904907 -96718520.601437569 0 -96718520.601437569 -7221820.960848093 0 0 0 0 -311647050.06938362 -464626283.93800581 0 -464626283.93800581 394440604.1134882 0 0 0 0 -1036441892.6759644 1228572090.6030693 0 1228572090.6030693 184229566.86290932 0 0 0 0 -1290130.5206510276 -246103.07090562582 0 -246103.07090562582 2388200.9990829034 0 0 0 0 -1479267.3140271083 4273621.088793762 0 4273621.088793762 1329292.6357437689 0 0 0 0 8342095.6670532227 18295594.772812843 0 18295594.772812843 -25307012.114336014 0 0 0 0 -1644905.8009732813 104917.93594524823 0 104917.93594524823 22857301.827933721 0 0 0 0 -299057993.59879303 -15916466.891352654 0 -15916466.891352654 123973028.66729355 0 0 0 0 -653573.76710145548 -7452444.0960636064 0 -7452444.0960636064 22776730.438675597 0 0 0 0 -78279794.210388184 50775277.895578861 0 50775277.895578861 29373479.828290462 0 0 0 0 41412504.66027832 20188343.894389629 0 20188343.894389629 65083503.174008369 0 0 0 0 -6583201.4304504395 -53135767.831552505 0 -53135767.831552505 265267328.67728233 0 0 0 0 -16529059.686355591 36362909.849292278 0 36362909.849292278 102747994.46615314 0 0 0 0 -44794078.590667725 91977077.918340206 0 91977077.918340206 85676480.481076837 0 0 0 0 -78460880.923355103 49103017.874847174 0 49103017.874847174 41722873.689909935 0 0 0 0 -26351377.900527954 74873077.474600792 0 74873077.474600792 29641628.385048866 0 0 0 0 -17178784.751800537 66428436.389592648 0 66428436.389592648 -4725627.1101932526 0 0 0 0 -9514449.9960021973 54291068.242418289 0 54291068.242418289 -9801814.2300605774 0 0 0 0 -11590181.490644455 42081194.673564672 0 42081194.673564672 12643569.465753555 0 0 0 0 -34773642.560913086 -3412152.1289031506 0 -3412152.1289031506 47270287.604787827 0 0 0 0 12744701.199523926 1240521.4353094101 0 1240521.4353094101 31443276.672286987 0 0 0 0 -44821065.538665771 33460830.366557121 0 33460830.366557121 20423177.287611544 0 0 0 0 -70082620.971710205 45150979.275121689 0 45150979.275121689 13316424.816879511 0 0 0 0 -67531000.61542511 33973330.36506021 0 33973330.36506021 6628259.5341186523 0 0 0 0 -533180.72558034956 -1467266.4981972133 0 -1467266.4981972133 3802299.0177821685 0 0 0 0 -109739975.51076508 38043237.20400238 0 38043237.20400238 38929289.678010941 0 0 0 0 -880542.76255081221 -4755467.0915437564 0 -4755467.0915437564 23866136.965788487 0 0 0 0 -133383595.13034058 -47427198.244026184 0 -47427198.244026184 39002914.876041412 0 0 0 0 -163147083.5846405 -65360175.482400894 0 -65360175.482400894 146843852.20012665 0 0 0 0 -125308091.01678467 65168067.731372833 0 65168067.731372833 180814763.32001495 0 0 0 0 138908303.46142578 -115037546.63898468 0 -115037546.63898468 -212012306.38684082 0 0 0 0 92448814.17199707 136074706.29280853 0 136074706.29280853 37260131.192070007 0 0 0 0 24362212.79788208 188095723.60813522 0 188095723.60813522 277951474.37556458 0 0 0 0 -123654045.54679871 -124506400.00247574 0 -124506400.00247574 -208720375.26953888 0 0 0 0 -259478462.52145386 -115639937.90405464 0 -115639937.90405464 352546991.63468933 0 0 0 0 1782433.4926080853 -1927986.500867296 0 -1927986.500867296 10404459.658887997 0 0 0 0 -7030010.8553771973 31431887.551877975 0 31431887.551877975 -52946078.047935486 0 0 0 0 -832982.90082377195 1919545.2675683293 0 1919545.2675683293 10037038.655364174 0 0 0 0 -2374332.267791748 1047959.9981651306 0 1047959.9981651306 5041501.8796606064 0 0 0 0 -2635611.3766942527 -3475255.0927606821 0 -3475255.0927606821 16100447.422107505 0 0 0 0 298993868.87150574 306311057.77477646 0 306311057.77477646 77242321.323738098 0 0 0 0 4549996.8721197695 1001402.3565779608 0 1001402.3565779608 5433784.8791938527 0 0 0 0 77220102.844223022 -54642984.815807343 0 -54642984.815807343 82644098.869431973 0 0 0 0 -1402176.5259578228 -702599.49170896225 0 -702599.49170896225 4084743.8981518522 0 0 0 0 18092269.931625366 -6420687.2890968323 0 -6420687.2890968323 17465509.198913574 0 0 0 0 336061859.22406006 147998892.06267929 0 147998892.06267929 -23058251.391235352 0 0 0 0 96506.15597050637 -325946.23429914564 0 -325946.23429914564 572887.81133879721 0 0 0 0 178737870.99607849 -181363163.27098656 0 -181363163.27098656 -82636419.601112366 0 0 0 0 361235474.09928894 -42353303.01884079 0 -42353303.01884079 -70595940.882949829 0 0 0 0 46707422.093971252 -42570039.165794373 0 -42570039.165794373 38268213.016067505 0 0 0 0 113783190.76320267 -4907762.7102146149 0 -4907762.7102146149 11378864.001922607 0 0 0 0 53087938.282867432 -54286030.56775856 0 -54286030.56775856 42164982.722480774 0 0 0 0 -177977.83894991875 174779.02735947073 0 174779.02735947073 2376452.8614597395 0 0 0 0 41573551.747749329 -54837749.154423714 0 -54837749.154423714 33564607.463676453 0 0 0 0 57981690.403640747 -45980810.916284561 0 -45980810.916284561 32391023.56640625 0 0 0 0 59442736.489135742 -26453118.345684052 0 -26453118.345684052 19711492.671264648 0 0 0 0 111743297.65792847 -47452933.126995087 0 -47452933.126995087 19865161.249549866 0 0 0 0 63799247.494155884 -59986344.947467804 0 -59986344.947467804 40370672.476173401 0 0 0 0 43757967.132873535 101420561.41239548 0 101420561.41239548 -30943641.223899841 0 0 0 0 -67749714.164951324 14373898.779816151 0 14373898.779816151 46398167.206192017 0 0 0 0 -155683799.38824463 16745460.862304688 0 16745460.862304688 164170422.39579773 0 0 0 0 -960543.27884691209 1107635.0772201344 0 1107635.0772201344 1045979.7796819732 0 0 0 0 47838515.568695068 17642835.632717133 0 17642835.632717133 -17125310.709739685 0 0 0 0 -10048669.825408936 91971476.887763977 0 91971476.887763977 18373904.096401215 0 0 0 0 13660952.981384277 42817784.633201599 0 42817784.633201599 -62820487.604915619 0 0 0 0 44351802.606842041 72454459.458095551 0 72454459.458095551 -42095918.979602814 0 0 0 0 -24307836.365905762 24739076.58688736 0 24739076.58688736 21534490.947189331 0 0 0 0 -4338392.8626120538 4518623.0764786452 0 4518623.0764786452 4659751.1520484835 0 0 0 0 -6019992.790725708 8593243.592206955 0 8593243.592206955 -7891559.1527748108 0 0 0 0 -27823582.719726562 2441451.0989875793 0 2441451.0989875793 20391787.599746704 0 0 0 0 -2080926.4186893851 -1718286.4199388735 0 -1718286.4199388735 26731236.285180829 0 0 0 0 5392.8344116210938 1039568.0471076965 0 1039568.0471076965 11796310.547115326 0 0 0 0 -672632.90123702586 4210253.1358942911 0 4210253.1358942911 2703732.1606448218 0 0 0 0 -3037963.5105775762 -1703938.1166734397 0 -1703938.1166734397 6270405.0023179539 0 0 0 0 1950929.1531066895 25532104.072212219 0 25532104.072212219 14758700.463928223 0 0 0 0 -6027718.7066345215 44734.604484558105 0 44734.604484558105 4127292.1174926758 0 0 0 0 11473148.31829834 -12823381.916807175 0 -12823381.916807175 23835775.381568909 0 0 0 0 34339490.070121765 -28991325.279031754 0 -28991325.279031754 25838205.355567932 0 0 0 0 32234546.031402588 -23392832.441478729 0 -23392832.441478729 11599031.490737915 0 0 0 0 48811718.687194824 -33624954.327850342 0 -33624954.327850342 15615618.765571594 0 0 0 0 42907174.703857422 -9977726.7948455811 0 -9977726.7948455811 -1715738.3743591309 0 0 0 0 72111470.27154541 -20645498.59633255 0 -20645498.59633255 -3687450.0966186523 0 0 0 0 -489674.41567928344 362641.65628435463 0 362641.65628435463 630460.26931021735 0 0 0 0 13636979.548461914 -34530051.811538696 0 -34530051.811538696 28349474.087827682 0 0 0 0 20938099.975952148 -37380772.160903931 0 -37380772.160903931 28333380.177747726 0 0 0 0 12426675.070709229 -36344634.20734787 0 -36344634.20734787 29268693.13719368 0 0 0 0 12966708.681838989 -30857114.549175262 0 -30857114.549175262 31041778.338973999 0 0 0 0 7954877.8147201538 -36632407.454141617 0 -36632407.454141617 29917670.906349182 0 0 0 0 -8883329.1728057861 -27805616.552436829 0 -27805616.552436829 42443206.243776321 0 0 0 0 -8597223.177116394 -29070341.999506474 0 -29070341.999506474 4670360.9936790466 0 0 0 0 -15727721.632774353 1763221.4520750046 0 1763221.4520750046 25563144.71465683 0 0 0 0 -46917239.02935791 -23266285.429267883 0 -23266285.429267883 49229161.405483246 0 0 0 0 15003501.742431641 -58870997.052492142 0 -58870997.052492142 57298643.0664711 0 0 0 0 -205101699.42041016 -46246761.230560303 0 -46246761.230560303 60241424.712924957 0 0 0 0 -23763129.331207275 17437489.495023727 0 17437489.495023727 17971963.459117889 0 0 0 0 7570417.1365509033 11344690.707208633 0 11344690.707208633 18788635.930023193 0 0 0 0 3440785.8430039436 1626150.1071710177 0 1626150.1071710177 2765088.1523749079 0 0 0 0 -6564664.6201324463 1201129.7432146072 0 1201129.7432146072 17528856.029979706 0 0 0 0 -8589568.6942367554 472971.0338602066 0 472971.0338602066 21119555.679450989 0 0 0 0 -12677259.025665283 463583.00662612915 0 463583.00662612915 25786028.153087616 0 0 0 0 -5936556.3881454468 -7453504.4128828049 0 -7453504.4128828049 27203896.590486526 0 0 0 0 -2872603.8303604126 -7117016.8643074036 0 -7117016.8643074036 12700856.086981773 0 0 0 0 3389.1486237173331 -15834253.049838766 0 -15834253.049838766 1057799.4458808899 0 0 0 0 6405.4053039550781 -17595648.00786972 0 -17595648.00786972 25297451.787349701 0 0 0 0 2951713.0921295732 262566.52585800737 0 262566.52585800737 -2926574.7531389073 0 0 0 0 -13583472.171569824 -2403837.6539955139 0 -2403837.6539955139 51323647.155593872 0 0 0 0 -13125190.406585693 300943.06484127045 0 300943.06484127045 14398622.68977356 0 0 0 0 -14249701.327636719 2036069.1483325958 0 2036069.1483325958 23671775.105909348 0 0 0 0 1627569.2588858381 137477.45154071599 0 137477.45154071599 -1600631.3212855458 0 0 0 0 -12051453.952636719 -3602759.9655532837 0 -3602759.9655532837 44763228.555068016 0 0 0 0 -1970.1117553710938 -19391543.284845352 0 -19391543.284845352 -12336251.283039093 0 0 0 0 -10792015.406505585 -4655811.7638244629 0 -4655811.7638244629 7522670.7983932495 0 0 0 0 7829990.893371582 -51242928.736997604 0 -51242928.736997604 44312564.471615791 0 0 0 0 4893398.0530700684 -61063435.285017014 0 -61063435.285017014 11809355.962947845 0 0 0 0 -9006616.619644165 -46513344.834317207 0 -46513344.834317207 63757212.457431793 0 0 0 0 -10542975.458312988 -40322452.975297928 0 -40322452.975297928 40537854.693835258 0 0 0 0 29614887.446136475 -150606011.23522186 0 -150606011.23522186 -45133377.914339066 0 0 0 0 29655183.381713867 83632117.491706848 0 83632117.491706848 277688630.31715012 0 0 0 0 -15809574.420898438 -48508020.763029099 0 -48508020.763029099 73284048.213050842 0 0 0 0 34332411.48626709 -22574578.052692413 0 -22574578.052692413 85106498.954387665 0 0 0 0 -12003352.68963623 -63306851.467170715 0 -63306851.467170715 112970049.87596321 0 0 0 0 45916071.061340332 8654125.8701171875 0 8654125.8701171875 130575365.74807549 0 0 0 0 4366860.0504150391 -30655405.605434418 0 -30655405.605434418 157364834.54294777 0 0 0 0 -29209921.037857056 -106791820.23795986 0 -106791820.23795986 97470350.652427673 0 0 0 0 2788077.5192565918 -75542522.682296753 0 -75542522.682296753 76338297.682962418 0 0 0 0 2041592.2452087402 -84640910.452486038 0 -84640910.452486038 60759422.283881187 0 0 0 0 -4145152.9404203147 -420351.73083771393 0 -420351.73083771393 4168269.8174257781 0 0 0 0 229449239.98786926 -469941355.68997955 0 -469941355.68997955 675274273.13894105 0 0 0 0 27809018.126220703 -40759323.355548859 0 -40759323.355548859 21887652.673480988 0 0 0 0 31953382.783464432 -30446532.393052578 0 -30446532.393052578 -70997249.362838745 0 0 0 0 13591555.757324219 -34379986.328619957 0 -34379986.328619957 40668880.027942657 0 0 0 0 3303.4052366352416 -42849048.758644551 0 -42849048.758644551 35583244.907318115 0 0 0 0 319913492.95698547 -607045842.39881516 0 -607045842.39881516 1223992299.0599792 0 0 0 0 53668.150857426641 -35614498.553574525 0 -35614498.553574525 42835047.023277283 0 0 0 0 -3227761.0320523456 -120545.36861665919 0 -120545.36861665919 4124861.5936544891 0 0 0 0 3715608.9698171029 -918473194.68988955 0 -918473194.68988955 1228495560.9441147 0 0 0 0 56312878.173995972 -411309538.13817978 0 -411309538.13817978 1721649513.5983047 0 0 0 0 1655543.6874987185 2021216.8932201061 0 2021216.8932201061 1940400.479273817 0 0 0 0 -55385255.175666809 -39476221.04796505 0 -39476221.04796505 1032446123.8382263 0 0 0 0 148389353.36923218 -364954970.2401104 0 -364954970.2401104 695075143.4217329 0 0 0 0 369973101.18867874 -530235630.44442797 0 -530235630.44442797 815952808.53641129 0 0 0 0 132555502.41072845 -249860200.69225121 0 -249860200.69225121 556186790.8636322 0 0 0 0 88980531.177459717 -118483345.05113411 0 -118483345.05113411 432721118.60237932 0 0 0 0 -3677610.0235137939 -16847662.546998978 0 -16847662.546998978 241797108.22434235 0 0 0 0 -41322104.608459473 -92097114.492988586 0 -92097114.492988586 564414122.48390198 0 0 0 0 80946315.131774902 -285375922.5177269 0 -285375922.5177269 539216444.29166937 0 0 0 0 19163581.027992249 -201874627.29424953 0 -201874627.29424953 494557826.24917603 0 0 0 0 -2423794.0828094482 -228862551.25322914 0 -228862551.25322914 567522731.8837471 0 0 0 0 97707578.489318848 -283100393.45750046 0 -283100393.45750046 532993316.43207073 0 0 0 0 128917802.94458771 -258143192.75692129 0 -258143192.75692129 476705800.13594055 0 0 0 0 43748563.149368286 -226215640.67737961 0 -226215640.67737961 479190924.52392197 0 0 0 0 267461051.05474854 -372423956.56144714 0 -372423956.56144714 547852796.22902822 0 0 0 0 277151892.84170532 -168180293.72356606 0 -168180293.72356606 -29347608.997236013 0 0 0 0 1820821.7566442192 686544.18399680778 0 686544.18399680778 -1315991.4089526739 0 0 0 0 -68584119.42779541 25164524.815784454 0 25164524.815784454 322530438.1451211 0 0 0 0 209325152.09092712 289883550.79182243 0 289883550.79182243 66559462.496049881 0 0 0 0 -114413228.60935974 -197891196.33925056 0 -197891196.33925056 199718461.97128677 0 0 0 0 -89712782.248161316 -62890522.239186287 0 -62890522.239186287 318164788.33837891 0 0 0 0 -5156654.4053463042 -946039.24447274208 0 -946039.24447274208 4202858.6766837686 0 0 0 0 118373672.97859192 -276368945.48438358 0 -276368945.48438358 479083821.4374572 0 0 0 0 123725851.73288727 -264957889.23338771 0 -264957889.23338771 440496083.92723846 0 0 0 0 50002934.899124146 -203734963.8509655 0 -203734963.8509655 464572665.74147415 0 0 0 0 105692412.14968872 -195315656.72559357 0 -195315656.72559357 282098136.43042636 0 0 0 0 19495476.452026367 -205079084.83517456 0 -205079084.83517456 521872097.52566481 0 0 0 0 54082800.413619995 -153092869.9368639 0 -153092869.9368639 347833698.24066353 0 0 0 0 138674200.41946411 -276871363.35038471 0 -276871363.35038471 475142847.60775948 0 0 0 0 68084042.194396973 -224372295.5239563 0 -224372295.5239563 467362942.67782784 0 0 0 0 217559397.40750122 -139945035.50695229 0 -139945035.50695229 491018825.5302887 0 0 0 0 173510652.93084717 -168574884.49409866 0 -168574884.49409866 482420044.35178947 0 0 0 0 24367634.450508118 -195505096.34039783 0 -195505096.34039783 587070411.52204895 0 0 0 0 77893574.02797699 -212731332.14413977 0 -212731332.14413977 456378292.42367554 0 0 0 0 42956855.854370117 -218244618.78254509 0 -218244618.78254509 527973581.37945938 0 0 0 0 4989276.1347045898 -212654970.8861618 0 -212654970.8861618 532693854.97511864 0 0 0 0 4594533.4237365723 -211281059.84434891 0 -211281059.84434891 514344575.8135128 0 0 0 0 27015040.579803467 -203440210.03093529 0 -203440210.03093529 515647878.9222641 0 0 0 0 48239721.033599854 -204756427.64920425 0 -204756427.64920425 418174124.39624786 0 0 0 0 54807555.361999512 -205780096.30156136 0 -205780096.30156136 417638615.11984253 0 0 0 0 17670003.308532715 -225295563.62959862 0 -225295563.62959862 458049134.29552078 0 0 0 0 50347379.333847046 -120181013.40569305 0 -120181013.40569305 221610150.4916687 0 0 0 0 9160340.0330200195 -48723680.076990128 0 -48723680.076990128 153668188.35992432 0 0 0 0 -6028875.8239746094 -119566444.01122284 0 -119566444.01122284 470267642.15707016 0 0 0 0 91774463.87878418 -143541721.51442719 0 -143541721.51442719 189793427.41202164 0 0 0 0 50089136.06980896 -82442630.5303936 0 -82442630.5303936 158742555.88019562 0 0 0 0 -82102423.52432251 -843546.1268901825 0 -843546.1268901825 110442104.33980179 0 0 0 0 -549279.75450375304 668554.35970433056 0 668554.35970433056 5099337.7401291002 0 0 0 0 -19142623.591827393 33846960.892884254 0 33846960.892884254 89033361.08140564 0 0 0 0 -26823529.449020386 36990924.250804901 0 36990924.250804901 53133058.344825745 0 0 0 0 94361443.466308594 -75697519.147960663 0 -75697519.147960663 67637407.232414246 0 0 0 0 130750761.14764404 -224708561.02822113 0 -224708561.02822113 193805614.9103899 0 0 0 0 270736746.53204346 -99509753.501461029 0 -99509753.501461029 -89186659.453788757 0 0 0 0 375164587.79324341 -313150750.83549309 0 -313150750.83549309 148667677.30091858 0 0 0 0 288862.01035603881 811923.54235000163 0 811923.54235000163 606395.86827915534 0 0 0 0 -92846342.674606323 164722513.84070969 0 164722513.84070969 317476796.4634552 0 0 0 0 114083390.36557007 -188086093.06686211 0 -188086093.06686211 227763934.45311737 0 0 0 0 228763694.09960938 -408504678.0238266 0 -408504678.0238266 402607967.72988892 0 0 0 0 88541477.222686768 -173545936.65296936 0 -173545936.65296936 761173502.79159546 0 0 0 0 68140869.577484131 -244846142.89374161 0 -244846142.89374161 515285081.76618576 0 0 0 0 184717894.63171005 -271336159.91808724 0 -271336159.91808724 445414766.56705093 0 0 0 0 44712985.069351196 -106450824.4604764 0 -106450824.4604764 154790556.15120316 0 0 0 0 -49090298.022155762 -111563356.61298752 0 -111563356.61298752 557884096.09135246 0 0 0 0 122735002.08566284 4099101.0525054932 0 4099101.0525054932 19372468.04009819 0 0 0 0 -3111468.0668775588 5044528.8576885648 0 5044528.8576885648 9988380.2137791961 0 0 0 0 1291328.0519836992 2151378.3670234587 0 2151378.3670234587 2219348.5519079356 0 0 0 0 -448009.86220359802 164708.03856801987 0 164708.03856801987 1760307.055721283 0 0 0 0 -20625069.687225342 -1277045.0590467453 0 -1277045.0590467453 32501005.74280858 0 0 0 0 -8257808.9764289856 24331987.956702828 0 24331987.956702828 15837189.995552063 0 0 0 0 -2644397.2443080693 10131027.454657197 0 10131027.454657197 5488544.9958229 0 0 0 0 -819464.78848266602 12276704.164196014 0 12276704.164196014 19234579.396917522 0 0 0 0 -10943.336006611586 478359.94212088175 0 478359.94212088175 -1472605.7630208069 0 0 0 0 34036193.544528961 -7235184.3396437168 0 -7235184.3396437168 134730454.70685577 0 0 0 0 -19626826.886734009 -109378886.71746349 0 -109378886.71746349 314829540.0058403 0 0 0 0 119421470.38554382 -249433312.38772106 0 -249433312.38772106 368450477.75518036 0 0 0 0 78824265.859172821 -136705996.80268002 0 -136705996.80268002 267691434.21999741 0 0 0 0 88129227.703582764 -147123167.83521461 0 -147123167.83521461 269685177.63596916 0 0 0 0 149130227.37286377 -277839760.83388519 0 -277839760.83388519 410160172.27194786 0 0 0 0 61188666.192932129 -222821488.45387459 0 -222821488.45387459 443253417.34230804 0 0 0 0 234859263.09487915 -455471902.92640781 0 -455471902.92640781 515958932.87190771 0 0 0 0 89922039.386703491 -230451321.86084843 0 -230451321.86084843 437139751.90645409 0 0 0 0 169874601.86405945 -264366143.48310566 0 -264366143.48310566 300376648.63018227 0 0 0 0 104753711.26605225 -295234529.73790932 0 -295234529.73790932 328752655.55189514 0 0 0 0 170582062.30814362 -421116904.45679665 0 -421116904.45679665 -2292585.3608970642 0 0 0 0 99416422.147369385 -452554253.0233202 0 -452554253.0233202 329562952.35264885 0 0 0 0 120469521.05905151 -321051941.08165121 0 -321051941.08165121 -809812592.06240463 0 0 0 0 -9513555.0366363525 -205536910.58402348 0 -205536910.58402348 1078998892.1769562 0 0 0 0 570174.32915316522 312508.80753040686 0 312508.80753040686 -86249.914031987311 0 0 0 0 -102247386.89810181 -110568268.62712193 0 -110568268.62712193 -328885210.16957188 0 0 0 0 134515192.61009216 -481902461.39646244 0 -481902461.39646244 -313036695.63311386 0 0 0 0 -84307461.184412479 -125805100.73189962 0 -125805100.73189962 -78594209.692922592 0 0 0 0 -83201966.36733675 -173780328.70170975 0 -173780328.70170975 -274316006.65303802 0 0 0 0 33366299.22845459 -189944531.7444818 0 -189944531.7444818 -61492594.003195286 0 0 0 0 20639140.178537369 -237844418.49485266 0 -237844418.49485266 111421292.63658047 0 0 0 0 -21183308.707092285 -257328768.45777977 0 -257328768.45777977 -21247634.033761263 0 0 0 0 38724891.2059021 -1852141.7758182287 0 -1852141.7758182287 -166139199.95446324 0 0 0 0 -154235038.77080154 -138868954.80230558 0 -138868954.80230558 33369533.19824028 0 0 0 0 -159297531.3399353 -152573601.06186402 0 -152573601.06186402 32620082.291170567 0 0 0 0 -142625623.97885132 31419331.726017237 0 31419331.726017237 330270298.28103375 0 0 0 0 -26861058.917182922 -260538753.31667134 0 -260538753.31667134 -470066873.68857753 0 0 0 0 -685186.17022441328 863316.39039791748 0 863316.39039791748 163320.8731055597 0 0 0 0 -1243095.6783280373 1297074.6129949433 0 1297074.6129949433 273342.38750700961 0 0 0 0 58986544.777351379 -180985309.98649865 0 -180985309.98649865 -101861143.93126202 0 0 0 0 -85683361.76210022 -156524443.09998417 0 -156524443.09998417 109399797.89949179 0 0 0 0 -79999233.796112061 -123345511.43465948 0 -123345511.43465948 -109272802.03762817 0 0 0 0 22547877.385536194 -123111408.30843437 0 -123111408.30843437 -290559887.05866957 0 0 0 0 -63064.816497802734 -17674101.653903008 0 -17674101.653903008 -601304225.2127018 0 0 0 0 -169777468.64102173 -68878636.363956451 0 -68878636.363956451 14013690.574818373 0 0 0 0 -138322165.61857605 -247752689.24145889 0 -247752689.24145889 -261215584.91022873 0 0 0 0 -63026566.067047119 -25274368.113239765 0 -25274368.113239765 -311400170.68806267 0 0 0 0 977165.96505044401 99175.751643050462 0 99175.751643050462 211982.87000682252 0 0 0 0 -174992531.39645386 -266229308.16807842 0 -266229308.16807842 -392776162.99906921 0 0 0 0 50304580.326309204 -144979756.29643059 0 -144979756.29643059 335102345.4904871 0 0 0 0 -101350.05091475695 -156402.20026345551 0 -156402.20026345551 238614.28481070325 0 0 0 0 -96913855.602355957 -236303259.90157986 0 -236303259.90157986 -468284573.06377983 0 0 0 0 -23121241.826339722 -109665547.17544818 0 -109665547.17544818 407616219.77999878 0 0 0 0 5566236.7515370548 -96620.931830706075 0 -96620.931830706075 -1985455.3905148136 0 0 0 0 -5218296.2176823616 -2324146.138712965 0 -2324146.138712965 3063455.2412153194 0 0 0 0 54048201.836303711 -78914509.007599831 0 -78914509.007599831 281981604.51874655 0 0 0 0 18750491.954528809 -131876869.72586632 0 -131876869.72586632 377315283.91753197 0 0 0 0 -60148543.820770264 -42352159.198199987 0 -42352159.198199987 -17517731.188341141 0 0 0 0 -30437839.325881958 -79806766.822653294 0 -79806766.822653294 -41051760.978827477 0 0 0 0 156512707.60142517 17760956.26619029 0 17760956.26619029 -107541012.68259239 0 0 0 0 121700425.72724915 105952609.26154256 0 105952609.26154256 -58538786.575315475 0 0 0 0 78501568.77633667 56723934.953205109 0 56723934.953205109 -68468649.504650116 0 0 0 0 2363705.6638367176 852758.29129077867 0 852758.29129077867 -1024524.4101902219 0 0 0 0 89406937.868408203 -5263213.9063425064 0 -5263213.9063425064 -114781829.45293331 0 0 0 0 -61356361.513320923 -148576390.35850906 0 -148576390.35850906 106695750.27890635 0 0 0 0 43033076.304092407 -137464327.92267156 0 -137464327.92267156 -296845840.35712528 0 0 0 0 -33374934.275192261 -110166973.54547501 0 -110166973.54547501 -121106582.73132467 0 0 0 0 5202087.178604126 -92097946.970932245 0 -92097946.970932245 -118185213.50177479 0 0 0 0 -16818716.561248779 -198041135.98402965 0 -198041135.98402965 11203992.237564534 0 0 0 0 -251814165.83700562 -138339078.73145032 0 -138339078.73145032 382177548.99294591 0 0 0 0 -167581420.61195374 -24960990.196277976 0 -24960990.196277976 306290257.76985914 0 0 0 0 47780850.779510498 -16921500.257480711 0 -16921500.257480711 10807130.100909993 0 0 0 0 -637285.24034029245 878998.50205983687 0 878998.50205983687 172977.49313907512 0 0 0 0 53779319.445915222 -78648761.601496816 0 -78648761.601496816 -292785530.41801214 0 0 0 0 50903693.916503906 -255397630.05880857 0 -255397630.05880857 -478940338.72335017 0 0 0 0 -281713696.69422913 88632067.770473719 0 88632067.770473719 -265813128.2880187 0 0 0 0 1173425.6976849027 -3653917.1138055734 0 -3653917.1138055734 606211.70279177511 0 0 0 0 -301382111.77003479 -65836946.321469545 0 -65836946.321469545 -194312851.50246429 0 0 0 0 -189543816.94815063 -198850525.75380355 0 -198850525.75380355 154550388.42107868 0 0 0 0 -248056548.73799133 -120276892.83465745 0 -120276892.83465745 212735388.1901657 0 0 0 0 -177049574.67001343 -107968204.73933312 0 -107968204.73933312 52294297.708792903 0 0 0 0 -239556224.67524719 -145283586.11272645 0 -145283586.11272645 69255392.466496944 0 0 0 0 998259.15452033468 -3072246.5746745989 0 -3072246.5746745989 94012.085178440553 0 0 0 0 11392.381568908691 -5053295.5681387186 0 -5053295.5681387186 -814269.52632761002 0 0 0 0 1223.2551956176758 -6425714.5924973488 0 -6425714.5924973488 -329785.19009876251 0 0 0 0 -3803333.4024353027 -6516649.5967082977 0 -6516649.5967082977 841575.50477981567 0 0 0 0 -2881000.8546447754 -5263881.9305291176 0 -5263881.9305291176 -600129.70845746994 0 0 0 0 -1766710.208190918 -7870177.4581818581 0 -7870177.4581818581 1054918.5666027069 0 0 0 0 82543635.628967285 -444938330.79004669 0 -444938330.79004669 -133409191.19758534 0 0 0 0 681310330.87417603 347999984.31149673 0 347999984.31149673 -641882275.84088898 0 0 0 0 31183714.247924805 -8949780.0207233429 0 -8949780.0207233429 -49203033.586181641 0 0 0 0 -45306657.622375488 -205358280.52354813 0 -205358280.52354813 151773951.56932831 0 0 0 0 406707660.72900391 -745784330.99969292 0 -745784330.99969292 661276924.86722755 0 0 0 0 18239661.53302002 65112402.168188095 0 65112402.168188095 -64904246.938123703 0 0 0 0 -94654283.77734375 -128862001.63603783 0 -128862001.63603783 104275155.94836426 0 0 0 0 1185175.0292573385 -3656931.5647635311 0 -3656931.5647635311 355313.1445152713 0 0 0 0 24061740.471496582 26785877.861896515 0 26785877.861896515 -64712176.818250656 0 0 0 0 -63959485.941986084 36377567.169591904 0 36377567.169591904 -37127207.858394623 0 0 0 0 71851281.047393799 -29916961.445624828 0 -29916961.445624828 -6433025.522857666 0 0 0 0 113258.40571807697 -198852.20590562373 0 -198852.20590562373 -72465.093477215618 0 0 0 0 -7911619.6666259766 6101145.093875885 0 6101145.093875885 34104389.358000755 0 0 0 0 -83802173.366271973 6154232.3904762268 0 6154232.3904762268 150807881.53308868 0 0 0 0 -49722.503128051758 -42536040.280351162 0 -42536040.280351162 33879753.098806381 0 0 0 0 1920933.9738776162 2005571.457693439 0 2005571.457693439 -421645.02440479677 0 0 0 0 -5024497.2617988586 -547861.68514370918 0 -547861.68514370918 11374293.998996735 0 0 0 0 4955216.426574707 -36264970.194119453 0 -36264970.194119453 5607308.2196717262 0 0 0 0 -264208521.8700943 191245442.40966308 0 191245442.40966308 199912333.19489098 0 0 0 0 59369724.209686279 13671535.511851788 0 13671535.511851788 279949122.69342846 0 0 0 0 -338763088.00471497 156370519.42577529 0 156370519.42577529 299670003.93010521 0 0 0 0 -386722772.48403931 338644076.42161322 0 338644076.42161322 177031218.7460953 0 0 0 0 -388228404.7640686 189026804.83717394 0 189026804.83717394 245068638.80003929 0 0 0 0 -486405443.84260559 333015056.28415728 0 333015056.28415728 130775719.54319674 0 0 0 0 -431070128.42002869 17708881.753926754 0 17708881.753926754 138092309.4881804 0 0 0 0 -366710121.32064056 -93010834.867740989 0 -93010834.867740989 321654360.2894125 0 0 0 0 -252089621.27401733 112304337.72680283 0 112304337.72680283 184105634.29251575 0 0 0 0 -157868503.57592773 -277245347.00850725 0 -277245347.00850725 201832239.01687956 0 0 0 0 -201811878.30477905 -312525836.09642649 0 -312525836.09642649 231607514.22616005 0 0 0 0 -334612547.61889648 -149749955.08861995 0 -149749955.08861995 128353877.68264604 0 0 0 0 -176354061.01846313 -346124917.6541245 0 -346124917.6541245 46529465.084101677 0 0 0 0 -228241810.45233154 -289712279.27064776 0 -289712279.27064776 419669329.21505737 0 0 0 0 -36314130.482666016 -350407066.98987055 0 -350407066.98987055 232056578.56066418 0 0 0 0 -25949428.658782959 -379112973.39534855 0 -379112973.39534855 410149505.02167529 0 0 0 0 89949258.688049316 -514717381.19837332 0 -514717381.19837332 555858711.95602989 0 0 0 0 -54307796.286499023 27965652.280770302 0 27965652.280770302 204677242.73984098 0 0 0 0 -127907590.36535645 -204513897.1287756 0 -204513897.1287756 367383184.15386295 0 0 0 0 -920108.31524658203 -173315612.8737092 0 -173315612.8737092 358257833.99071312 0 0 0 0 -20529283.800064087 8179321.3330819607 0 8179321.3330819607 518541692.72505569 0 0 0 0 250421543.3704071 -353983080.5605917 0 -353983080.5605917 469193295.08568096 0 0 0 0 240848183.99716187 -384428790.55690002 0 -384428790.55690002 1103761123.2465811 0 0 0 0 406213765.32710266 -270505630.14339972 0 -270505630.14339972 509875424.14589691 0 0 0 0 3734202.1870570183 -574052285.26108646 0 -574052285.26108646 520452111.60688591 0 0 0 0 452453804.21798706 -166622268.28078318 0 -166622268.28078318 629290109.79825974 0 0 0 0 527066244.70838928 -638566697.2464962 0 -638566697.2464962 469489428.33590841 0 0 0 0 185222449.86473083 -815223398.17876339 0 -815223398.17876339 573483547.65847015 0 0 0 0 -147176768.17800903 96752927.827338219 0 96752927.827338219 230048681.52726746 0 0 0 0 79169640.457061768 -293729858.5367527 0 -293729858.5367527 792456764.48623657 0 0 0 0 -1376036.6378744915 127990.97493744642 0 127990.97493744642 1955953.9670945881 0 0 0 0 1191569196.2633057 -965411973.21652699 0 -965411973.21652699 578623141.05446625 0 0 0 0 803336695.73977661 -877649107.05067062 0 -877649107.05067062 957741920.16804504 0 0 0 0 396211028.89933777 -433525836.39705133 0 -433525836.39705133 654006840.85570908 0 0 0 0 1123653378.1029434 -581602972.27023602 0 -581602972.27023602 359228519.09240532 0 0 0 0 174563617.11016846 -240297131.66434765 0 -240297131.66434765 462430568.05551314 0 0 0 0 198574613.5426178 -221497784.57360125 0 -221497784.57360125 228665395.23319817 0 0 0 0 -101142273.83067322 -88756089.214586258 0 -88756089.214586258 421921145.91575718 0 0 0 0 439631022.36698914 -414514899.64882231 0 -414514899.64882231 506157708.17165184 0 0 0 0 95037037.014770508 -100524696.4770422 0 -100524696.4770422 591352994.22160864 0 0 0 0 -216066962.12915039 85835561.779144287 0 85835561.779144287 421624748.59351826 0 0 0 0 137148240.97834015 -91487856.624277353 0 -91487856.624277353 282060362.06788635 0 0 0 0 -176127762.94775391 196567386.88991022 0 196567386.88991022 137230718.20452404 0 0 0 0 -338253315.74163818 84093573.493017197 0 84093573.493017197 283487601.41123867 0 0 0 0 -70986366.552246094 -7202473.7310380936 0 -7202473.7310380936 74829855.23481369 0 0 0 0 -257682063.32789612 -87090524.656003594 0 -87090524.656003594 255404404.39489937 0 0 0 0 -234458221.48953247 -14406520.89367795 0 -14406520.89367795 -152860190.39799118 0 0 0 0 -566409792.27270508 163354586.93607807 0 163354586.93607807 106847627.90316677 0 0 0 0 -612245486.60627747 67045322.506784916 0 67045322.506784916 -1423891.8412952423 0 0 0 0 -858589331.88568115 286055316.43186855 0 286055316.43186855 -144079457.94993973 0 0 0 0 -1065688861.4946289 176996554.3586731 0 176996554.3586731 -43712861.125074387 0 0 0 0 -483355486.55113983 -17702813.93397522 0 -17702813.93397522 -299710018.1130867 0 0 0 0 -1654751956.6081543 196759540.19542027 0 196759540.19542027 32690936.70331192 0 0 0 0 -1597051129.4467773 211668553.23631287 0 211668553.23631287 -47729173.195617676 0 0 0 0 -1141899752.2070236 -47230423.359905958 0 -47230423.359905958 -204471709.1969223 0 0 0 0 130578.77343387064 3317179.4953527525 0 3317179.4953527525 -495232.2129897913 0 0 0 0 52230821.997198105 -74413677.701657951 0 -74413677.701657951 -171069175.51969147 0 0 0 0 -41573.8269777596 187520.11653786968 0 187520.11653786968 276872.59212815104 0 0 0 0 -843428541.60491943 95380899.823601723 0 95380899.823601723 -245407697.05458736 0 0 0 0 -1517669884.0789185 -206878187.28050232 0 -206878187.28050232 45797681.42264986 0 0 0 0 -4254677.1865024362 -125435.58577456325 0 -125435.58577456325 15630865.08365765 0 0 0 0 -945075393.33580017 67347446.936825275 0 67347446.936825275 101941946.08815908 0 0 0 0 -879030890.35713196 6042950.9850847721 0 6042950.9850847721 99252131.795637131 0 0 0 0 -48057007.528579712 15153513.846683502 0 15153513.846683502 42242807.36933136 0 0 0 0 -399312059.97891426 267579575.65571427 0 267579575.65571427 62700421.199774742 0 0 0 0 -337695079.75336599 170010344.68348792 0 170010344.68348792 15226169.465673447 0 0 0 0 -576100521.90518188 142211661.56373978 0 142211661.56373978 155747543.87131119 0 0 0 0 -652595510.15969849 258385299.75673103 0 258385299.75673103 40874674.281005859 0 0 0 0 26612622.522247314 881138.65591907501 0 881138.65591907501 -24343582.762968063 0 0 0 0 -78688346.936309814 32168207.295557022 0 32168207.295557022 2413994.0201919079 0 0 0 0 -3640532.8065217882 9461386.5911914799 0 9461386.5911914799 3940457.0683968193 0 0 0 0 -4720008.0428771973 15132617.893354416 0 15132617.893354416 -4783337.8033471107 0 0 0 0 25645846.174010992 44778078.728003934 0 44778078.728003934 -95607359.207054138 0 0 0 0 9080900.3022460938 1147187.1099147797 0 1147187.1099147797 -15298447.880532265 0 0 0 0 129.68702697753906 34568118.793455124 0 34568118.793455124 27916618.019742966 0 0 0 0 77218621.347503662 -152357759.91469479 0 -152357759.91469479 231533303.94164991 0 0 0 0 24783320.871528625 -51801849.522758961 0 -51801849.522758961 87016709.633958817 0 0 0 0 28101987.974441528 -48588794.800568581 0 -48588794.800568581 89703799.346980095 0 0 0 0 -16570178.589538574 -67288456.167411804 0 -67288456.167411804 106876043.65094566 0 0 0 0 9966910.0960655212 9736037.6921291351 0 9736037.6921291351 -5360033.6514892578 0 0 0 0 100299825.10742188 -66606088.290897369 0 -66606088.290897369 6536871.2718954086 0 0 0 0 155178042.7076416 -222894540.77376747 0 -222894540.77376747 191150326.78252649 0 0 0 0 98092711.405002594 -264436944.71504152 0 -264436944.71504152 189166557.199296 0 0 0 0 -507989406.41941833 279836265.70470953 0 279836265.70470953 154359906.17840481 0 0 0 0 -490941399.30042744 179005588.62804013 0 179005588.62804013 87787802.53275013 0 0 0 0 -2016311.1401805272 -1239166.3912096322 0 -1239166.3912096322 11148646.171531502 0 0 0 0 -508973246.05874634 127619196.56515121 0 127619196.56515121 4856692.8918460608 0 0 0 0 -322106218.40283203 155142918.07309893 0 155142918.07309893 58582317.135655999 0 0 0 0 -306838588.97563171 328826713.63066542 0 328826713.63066542 74314300.694501966 0 0 0 0 -395069090.52510834 306088396.97110224 0 306088396.97110224 70660953.156612396 0 0 0 0 -714859.82069515903 -1172322.913113825 0 -1172322.913113825 6439317.5386006245 0 0 0 0 46739375.459289551 243523638.52587444 0 243523638.52587444 -68132449.072517663 0 0 0 0 70607211.36177063 67772246.123838007 0 67772246.123838007 93308567.989572287 0 0 0 0 580685690.8861084 157445037.35838586 0 157445037.35838586 -168882326.828578 0 0 0 0 -57592.776162846945 -600612.13896160573 0 -600612.13896160573 2024231.1915397872 0 0 0 0 -131446243.36875916 387330233.39786208 0 387330233.39786208 -157982087.69065261 0 0 0 0 -258929803.05368042 225717050.85474074 0 225717050.85474074 -106797862.62372401 0 0 0 0 192754042.73448181 -359036720.50610876 0 -359036720.50610876 164977559.98641872 0 0 0 0 258849313.37449074 -181139841.68712282 0 -181139841.68712282 86719722.77076149 0 0 0 0 1060032554.5370483 -342985760.52646041 0 -342985760.52646041 -33766834.314617157 0 0 0 0 475030131.60366821 -144857405.19359183 0 -144857405.19359183 37532344.351341724 0 0 0 0 334305500.16830444 -453814631.83661401 0 -453814631.83661401 93360804.428432465 0 0 0 0 153501652.79045105 -231302858.46514922 0 -231302858.46514922 -41933644.39372611 0 0 0 0 148205625.72286987 -225978272.97605789 0 -225978272.97605789 237269869.61771095 0 0 0 0 471737885.70323181 -495722845.30109096 0 -495722845.30109096 356076309.21688128 0 0 0 0 266704711.74904633 36196590.094823301 0 36196590.094823301 153839634.14192033 0 0 0 0 788705396.59648132 -282640958.28144282 0 -282640958.28144282 -537628038.78134918 0 0 0 0 252137113.15164185 -118557189.51225114 0 -118557189.51225114 -399947514.8325398 0 0 0 0 -110478524.76237488 127096052.79304647 0 127096052.79304647 -574132837.94601822 0 0 0 0 -31580379.091964722 -77021585.31619215 0 -77021585.31619215 -64507043.335825413 0 0 0 0 -231690317.8117981 -277156574.42300177 0 -277156574.42300177 -198414040.83135235 0 0 0 0 130563116.79246521 190473705.99005896 0 190473705.99005896 261127732.1164341 0 0 0 0 254473317.71368408 -798991428.75532985 0 -798991428.75532985 97519785.259717464 0 0 0 0 207650562.03390503 -563344326.30459487 0 -563344326.30459487 -891410498.96985555 0 0 0 0 70301493.027482033 -620199285.85275674 0 -620199285.85275674 -1257444505.9825397 0 0 0 0 -418770266.70872498 -474321903.78223729 0 -474321903.78223729 -801685420.77109337 0 0 0 0 -580002016.6022644 -63802459.668838263 0 -63802459.668838263 -1844386610.6005681 0 0 0 0 -758035896.79214478 -971443140.75060129 0 -971443140.75060129 -1168507449.5218358 0 0 0 0 -1070005256.4808044 -284760965.05512357 0 -284760965.05512357 -1382404149.9989767 0 0 0 0 -835166435.59294891 29217296.123065472 0 29217296.123065472 -571077529.53523016 0 0 0 0 -988049461.39476013 438048892.56301951 0 438048892.56301951 -1572352789.9576039 0 0 0 0 -305419546.58499146 19508987.683393359 0 19508987.683393359 -1281611105.8381472 0 0 0 0 -528161828.55921936 394233429.50991875 0 394233429.50991875 -170019967.77836582 0 0 0 0 -547782231.70114136 185472998.36870277 0 185472998.36870277 -294064678.98726594 0 0 0 0 -836188894.7288208 474470756.96081948 0 474470756.96081948 -583651738.53301322 0 0 0 0 -1039061372.3823929 4572253.9173330665 0 4572253.9173330665 -302632896.57046986 0 0 0 0 -909942797.00146484 200522581.29800785 0 200522581.29800785 -147854632.1785152 0 0 0 0 -690312864.84048009 42711323.803530157 0 42711323.803530157 -35085166.748796165 0 0 0 0 -696607734.48938036 422083076.19535476 0 422083076.19535476 -87082662.971789524 0 0 0 0 -449615882.92837524 261616851.52402478 0 261616851.52402478 15994919.995814895 0 0 0 0 -441584707.98666382 422855134.63102382 0 422855134.63102382 13116642.915016353 0 0 0 0 -368423697.45367432 -431482714.12402153 0 -431482714.12402153 -293355944.02332711 0 0 0 0 -561831150.5765686 -258299931.13853228 0 -258299931.13853228 -102442336.287911 0 0 0 0 -361023241.79924011 -385157103.9216435 0 -385157103.9216435 -154361534.44711888 0 0 0 0 -163042224.79928589 -392211855.7700122 0 -392211855.7700122 -156391015.09500086 0 0 0 0 -339145151.87380981 -284580967.09332424 0 -284580967.09332424 -101289282.33195066 0 0 0 0 -368097024.61376953 -277716023.38482976 0 -277716023.38482976 34540992.293659687 0 0 0 0 -530960181.6505127 -224224681.86587626 0 -224224681.86587626 100351973.12353539 0 0 0 0 -686117163.19656372 135104928.04110324 0 135104928.04110324 90392593.41218324 0 0 0 0 -421143231.75486755 -110532210.30148476 0 -110532210.30148476 -45763008.854347944 0 0 0 0 -539328172.32040405 -291709146.91041791 0 -291709146.91041791 -290736460.76963162 0 0 0 0 -814262140.6446228 -72998041.878497481 0 -72998041.878497481 -48807438.904781997 0 0 0 0 -846240013.2456665 -251204667.13410687 0 -251204667.13410687 -291167308.14439678 0 0 0 0 -838154376.55691528 -146950449.02171504 0 -146950449.02171504 -192680318.80049133 0 0 0 0 -1169853046.2557068 29813938.283267975 0 29813938.283267975 -268501316.08928537 0 0 0 0 -988811014.51878357 94599483.806833744 0 94599483.806833744 -608600057.94289446 0 0 0 0 -983459862.89482117 -446732215.0535264 0 -446732215.0535264 -562840245.2498498 0 0 0 0 -726070195.38360596 -610892943.12703359 0 -610892943.12703359 -572018995.9181056 0 0 0 0 -404733540.88397217 -605467801.07888556 0 -605467801.07888556 -827333556.88208103 0 0 0 0 -535734107.80152893 -373678276.31660056 0 -373678276.31660056 -305262051.71578932 0 0 0 0 -275811795.08348465 -460867765.79303408 0 -460867765.79303408 -452853167.9288578 0 0 0 0 -278992657.43618774 -492593064.20875597 0 -492593064.20875597 -726930452.77713299 0 0 0 0 -841015464.00417328 -959228327.96521664 0 -959228327.96521664 -1468661996.4548712 0 0 0 0 -625031151.44772339 -525517764.03276253 0 -525517764.03276253 -810758775.62951493 0 0 0 0 -119085354.19865417 -463720779.94957542 0 -463720779.94957542 -1454139872.876606 0 0 0 0 -1787114607.3026733 62684586.672885418 0 62684586.672885418 -606536913.8412286 0 0 0 0 -1640979094.802887 -366661466.66896296 0 -366661466.66896296 -566854676.6900878 0 0 0 0 -3084918453.8645935 166238976.47811794 0 166238976.47811794 -986981328.62348187 0 0 0 0 -1410796341.2976379 -185738405.6705327 0 -185738405.6705327 -940754224.32723045 0 0 0 0 62397145.595077515 95429420.064053535 0 95429420.064053535 -1642108490.5144501 0 0 0 0 -1262965554.5055237 380157153.20759416 0 380157153.20759416 -3425085254.1647282 0 0 0 0 -1237287800.6406021 -1377653992.5761418 0 -1377653992.5761418 -2780663612.5117378 0 0 0 0 -2503141852.4079895 -1364782627.713448 0 -1364782627.713448 -1811997567.418046 0 0 0 0 -40778439.680541992 -295469106.61238956 0 -295469106.61238956 -1591975006.0007038 0 0 0 0 -432394227.65852356 -299763799.00646591 0 -299763799.00646591 -1656537341.232255 0 0 0 0 -434627143.86911011 -324993917.09253883 0 -324993917.09253883 -1200199636.8860254 0 0 0 0 36548299.458770752 311880206.12759972 0 311880206.12759972 -1569107943.0631981 0 0 0 0 1124990.4450073242 134471900.1828537 0 134471900.1828537 -961160687.39142323 0 0 0 0 172371672.79980469 -50589203.280364037 0 -50589203.280364037 -1150106784.5376625 0 0 0 0 43504324.571617126 223679439.19953966 0 223679439.19953966 -925225792.29648209 0 0 0 0 10860446.868824005 -69999204.875019908 0 -69999204.875019908 -1055988977.09025 0 0 0 0 240891447.17617798 -241176450.24312782 0 -241176450.24312782 -896292561.23581266 0 0 0 0 159253636.52723694 -51886715.385987759 0 -51886715.385987759 -806164759.98401642 0 0 0 0 251035058.0316391 -116746088.77715254 0 -116746088.77715254 -662695884.78297806 0 0 0 0 256065868.57980347 -108701531.59590626 0 -108701531.59590626 -649837855.63632488 0 0 0 0 331080197.48948669 -257289322.19602633 0 -257289322.19602633 -670605547.23793411 0 0 0 0 242694855.31806946 -20312539.565865517 0 -20312539.565865517 -867209422.85080528 0 0 0 0 287437120.33053589 -178544766.71726227 0 -178544766.71726227 -812336080.12631989 0 0 0 0 336340328.70860291 -338452935.33152127 0 -338452935.33152127 -774462826.99413586 0 0 0 0 280605403.81973267 -366193986.27392197 0 -366193986.27392197 -781208393.10447788 0 0 0 0 177755572.93379211 -311446321.9394207 0 -311446321.9394207 -720773025.00132656 0 0 0 0 125957122.78137207 -425835679.36286926 0 -425835679.36286926 -973001006.53815508 0 0 0 0 27705149.023162842 -318275689.14973593 0 -318275689.14973593 -884661752.87151241 0 0 0 0 -121085456.36470604 -427742320.70848608 0 -427742320.70848608 -938475968.0784359 0 0 0 0 129533498.52902222 -310343485.8901186 0 -310343485.8901186 -1279225277.615159 0 0 0 0 167398929.26670074 -189057370.4865334 0 -189057370.4865334 -891728422.0781498 0 0 0 0 45577619.356111526 -324607413.24047732 0 -324607413.24047732 -480419409.42827225 0 0 0 0 234566181.36547852 -380430020.12885666 0 -380430020.12885666 -478166359.22599351 0 0 0 0 374676981.94029236 -251089877.98762035 0 -251089877.98762035 -697957740.84801579 0 0 0 0 394001092.85533905 -377676979.13110888 0 -377676979.13110888 -630948116.68865204 0 0 0 0 328256157.81390381 -360276498.07425737 0 -360276498.07425737 -581113015.23310065 0 0 0 0 316941197.24557495 -453069550.85711288 0 -453069550.85711288 -695701022.32998085 0 0 0 0 133662816.13220215 -466122236.56560564 0 -466122236.56560564 -547950565.39445305 0 0 0 0 135711749.96446419 -519954367.41943836 0 -519954367.41943836 -375426848.6257534 0 0 0 0 417575088.49113846 -695316895.86382389 0 -695316895.86382389 -804080908.69839859 0 0 0 0 595436752.06895447 -300048525.33567572 0 -300048525.33567572 -648317552.99166429 0 0 0 0 386533373.87072754 -466675725.44746339 0 -466675725.44746339 -318596108.6341809 0 0 0 0 359300505.41162109 -322371166.9602747 0 -322371166.9602747 -304576173.31118774 0 0 0 0 401620254.55023956 -334461844.43373609 0 -334461844.43373609 -574256893.68928432 0 0 0 0 318234357.05677795 -413040003.5221507 0 -413040003.5221507 -178889916.15166146 0 0 0 0 328370016.34606934 -552194049.96959114 0 -552194049.96959114 -116362142.2144489 0 0 0 0 295232671.32804871 -477808231.95240188 0 -477808231.95240188 10801455.926920891 0 0 0 0 324160533.41851807 -516398994.45723319 0 -516398994.45723319 -68152629.783687949 0 0 0 0 416042818.60352373 -351489250.20897943 0 -351489250.20897943 21355066.895025611 0 0 0 0 415931582.91801453 -347625591.64691806 0 -347625591.64691806 -88476324.144594789 0 0 0 0 104735041.4357605 -481731887.01780212 0 -481731887.01780212 -515670372.23670262 0 0 0 0 85119431.644134521 -493238796.99276388 0 -493238796.99276388 -340885617.81777954 0 0 0 0 -37945220.744995117 -559055600.28142858 0 -559055600.28142858 -824534488.27974606 0 0 0 0 24302145.860565186 -412626669.66808271 0 -412626669.66808271 -480409949.21530557 0 0 0 0 196867921.5070343 -460487543.25519657 0 -460487543.25519657 -815397297.54963493 0 0 0 0 215617878.40797424 -368463202.46848392 0 -368463202.46848392 -524805223.04564953 0 0 0 0 238354649.79129028 -425915316.28650737 0 -425915316.28650737 -388023897.62483621 0 0 0 0 297884432.37939453 -436732002.30231953 0 -436732002.30231953 -579126322.56344843 0 0 0 0 220290615.52747631 -414791050.45849609 0 -414791050.45849609 -296205014.12389988 0 0 0 0 213150880.60606384 -527349795.29313076 0 -527349795.29313076 -191774685.0313015 0 0 0 0 351412934.10360718 -442958106.76851285 0 -442958106.76851285 -402438297.95681131 0 0 0 0 336164671.80603027 -558340559.54986715 0 -558340559.54986715 -54354434.06291008 0 0 0 0 285067893.22405624 -445480083.65434313 0 -445480083.65434313 -119273647.64220643 0 0 0 0 106143518.37948608 -511044739.62178248 0 -511044739.62178248 -109212630.17694592 0 0 0 0 51558154.90222168 -380305495.05173951 0 -380305495.05173951 -44499501.942331791 0 0 0 0 -94139470.669250488 -467435136.18189299 0 -467435136.18189299 -473475057.8989706 0 0 0 0 -88492539.487442017 -412404537.42213672 0 -412404537.42213672 -238272468.06358141 0 0 0 0 -173920305.9334259 -356780796.99297035 0 -356780796.99297035 9610402.9626436234 0 0 0 0 15705799.597442627 -471721016.47639823 0 -471721016.47639823 -242852952.77276736 0 0 0 0 -8995832.6054992676 -387560057.73514223 0 -387560057.73514223 7750220.8770000637 0 0 0 0 -29758058.447525024 -374118443.82485461 0 -374118443.82485461 190721378.30641174 0 0 0 0 140472206.25201416 -440481820.69820595 0 -440481820.69820595 -31206331.06185174 0 0 0 0 119422178.54495239 -455471349.15934658 0 -455471349.15934658 111627981.50809574 0 0 0 0 103177241.20063019 -387669399.46758437 0 -387669399.46758437 371112654.81046772 0 0 0 0 -66472518.362243652 -361011307.3706193 0 -361011307.3706193 457539148.81537533 0 0 0 0 134399914.04449463 -375937828.86039257 0 -375937828.86039257 190546673.27847111 0 0 0 0 -52619711.346660614 -507410988.72504222 0 -507410988.72504222 707395304.6015873 0 0 0 0 22864522.270202637 -367985656.39534378 0 -367985656.39534378 449019989.33887863 0 0 0 0 16796433.697105408 -353573245.101439 0 -353573245.101439 684858073.85090637 0 0 0 0 341037199.82623291 -343831431.58663845 0 -343831431.58663845 377547528.67159939 0 0 0 0 -140687361.03234863 -435299144.62527466 0 -435299144.62527466 971647374.66738796 0 0 0 0 139430745.91967773 -290604827.44686127 0 -290604827.44686127 713707184.37508011 0 0 0 0 187987234.39093781 -130716519.64773011 0 -130716519.64773011 977130637.95440102 0 0 0 0 -28859119.054016113 -249254873.51603699 0 -249254873.51603699 980970494.9707346 0 0 0 0 -26910274.352416992 -274279571.9477787 0 -274279571.9477787 1130619586.1971245 0 0 0 0 -146652128.44369507 -525416563.13705349 0 -525416563.13705349 716573258.59377098 0 0 0 0 576790175.894104 -424408238.80542111 0 -424408238.80542111 773058759.34818649 0 0 0 0 646942573.77342224 -624147786.0557797 0 -624147786.0557797 638152243.92171478 0 0 0 0 278984258.21264648 -590909338.42302704 0 -590909338.42302704 1010422400.9156036 0 0 0 0 379979295.58581543 -568121301.88464355 0 -568121301.88464355 1014208163.7442198 0 0 0 0 1407114817.503418 -746211714.85538387 0 -746211714.85538387 871983949.70182323 0 0 0 0 511446217.02624512 -548857649.32634354 0 -548857649.32634354 662747316.92750168 0 0 0 0 297420550.18707275 -328340971.96846962 0 -328340971.96846962 523839632.04386324 0 0 0 0 756613123.78399658 -277588013.520051 0 -277588013.520051 526367555.74108124 0 0 0 0 553388516.78955078 -460555521.1078186 0 -460555521.1078186 302296051.43085861 0 0 0 0 393146959.21435547 -570963947.19359016 0 -570963947.19359016 450101768.86318588 0 0 0 0 590913710.13146973 -485831348.76340199 0 -485831348.76340199 478946306.26634598 0 0 0 0 376384109.81710815 -577816587.92301941 0 -577816587.92301941 632876250.91568756 0 0 0 0 398706189.74862671 -477878798.26239729 0 -477878798.26239729 315166951.30690002 0 0 0 0 320446722.11103821 -542332981.99998724 0 -542332981.99998724 188787324.79712677 0 0 0 0 403371120.2951355 -576292686.74894416 0 -576292686.74894416 198667482.25094414 0 0 0 0 307080503.57269287 -368246969.9417417 0 -368246969.9417417 149714587.44866228 0 0 0 0 293212844.94876099 -506303384.11744952 0 -506303384.11744952 198496175.69133568 0 0 0 0 371324481.12696838 -414394363.37628746 0 -414394363.37628746 291737157.61198807 0 0 0 0 255305612.3352356 -422788937.06700373 0 -422788937.06700373 -59636619.566683769 0 0 0 0 217104084.15471649 -496060006.25255585 0 -496060006.25255585 30969002.820245743 0 0 0 0 347753443.77975464 -446526478.98282003 0 -446526478.98282003 46400893.240460396 0 0 0 0 324651103.2789917 -475278837.3191328 0 -475278837.3191328 28825662.629616737 0 0 0 0 323842688.34661865 -589180341.2773838 0 -589180341.2773838 101008675.68834591 0 0 0 0 237398525.9078064 -484917677.49302864 0 -484917677.49302864 212905039.6228981 0 0 0 0 216527766.8162384 -495834568.42446232 0 -495834568.42446232 309590846.97194862 0 0 0 0 371892921.96488953 -413820199.41806507 0 -413820199.41806507 114076698.48705721 0 0 0 0 183667233.47839355 -404734409.16272068 0 -404734409.16272068 118873161.58271694 0 0 0 0 26540372.966294765 -71476732.86239168 0 -71476732.86239168 62781152.84804821 0 0 0 0 47976058.61769104 -272048686.87892532 0 -272048686.87892532 458846905.68490887 0 0 0 0 70395860.98235321 -221048201.33532763 0 -221048201.33532763 408501817.84433079 0 0 0 0 309379847.01622009 -591008165.57096863 0 -591008165.57096863 450916797.26547813 0 0 0 0 147706308.86538696 -475469197.59588242 0 -475469197.59588242 521516663.38316536 0 0 0 0 320286435.04101562 -583045271.71925497 0 -583045271.71925497 301809001.03742027 0 0 0 0 393619460.92718506 -568165577.56969261 0 -568165577.56969261 429757758.1281414 0 0 0 0 163359076.72848511 -432185680.11679554 0 -432185680.11679554 289190800.52694368 0 0 0 0 210358515.23138428 -565576361.72013855 0 -565576361.72013855 647017768.70511055 0 0 0 0 279534880.08331299 -542908419.72780037 0 -542908419.72780037 636557048.67556477 0 0 0 0 1986001.1192626953 -266569989.21466064 0 -266569989.21466064 825182954.16101646 0 0 0 0 -125967839.51318359 -203203714.93093491 0 -203203714.93093491 1003787022.9414291 0 0 0 0 182676595.2572937 -607694335.50656414 0 -607694335.50656414 1415968151.8016281 0 0 0 0 32277020.505126953 -318665349.9528656 0 -318665349.9528656 865075169.26496887 0 0 0 0 -130503688.93218994 -296711930.32873535 0 -296711930.32873535 1420454690.1728897 0 0 0 0 -145557554.1461792 -273198861.0925293 0 -273198861.0925293 1417695175.8573227 0 0 0 0 -33485774.496217571 -20028657.397049122 0 -20028657.397049122 -3282586.3279701904 0 0 0 0 -47818167.341903687 -27650728.433681488 0 -27650728.433681488 31759369.109161377 0 0 0 0 -3181108.1320648193 -61240829.699213028 0 -61240829.699213028 9907286.1190032959 0 0 0 0 -14537381.302398682 -41442246.052173615 0 -41442246.052173615 33861672.234344482 0 0 0 0 -115643763.32400131 -6646857.8543553352 0 -6646857.8543553352 189240542.78566742 0 0 0 0 -103820332.61946106 -41960469.131347656 0 -41960469.131347656 65767945.861301422 0 0 0 0 -60030683.887275696 -173049176.74843693 0 -173049176.74843693 28402090.773384094 0 0 0 0 -61292030.606384277 -74930320.809745789 0 -74930320.809745789 89392662.122634888 0 0 0 0 -88301770.687210083 -237066939.5346241 0 -237066939.5346241 -107893138.71881104 0 0 0 0 -19222388.416183472 -78117546.690555573 0 -78117546.690555573 -7073857.0488357544 0 0 0 0 -44354190.839202881 -61621136.998176575 0 -61621136.998176575 23592178.764972687 0 0 0 0 1868441.1928405762 -64742101.149963379 0 -64742101.149963379 -16326366.562431335 0 0 0 0 4692393.1396636963 -52244334.487125397 0 -52244334.487125397 6345720.7654876709 0 0 0 0 -3314890.2991905212 -62797014.980270386 0 -62797014.980270386 -1107761.448425293 0 0 0 0 -182333722.5471344 770858549.8021574 0 770858549.8021574 315479316.13847125 0 0 0 0 -422553452.77279663 -376907657.77643394 0 -376907657.77643394 183591146.85100746 0 0 0 0 74179112.245880127 -372046008.70068169 0 -372046008.70068169 76157270.769311905 0 0 0 0 -2369003.9434955791 -1914047.965111848 0 -1914047.965111848 -857326.89426333504 0 0 0 0 102538200.38677979 -719305848.91267109 0 -719305848.91267109 510296066.53532028 0 0 0 0 -78720925.177490234 -1085345661.2885704 0 -1085345661.2885704 -127880331.77146769 0 0 0 0 -298950203.2482605 -977194373.14901829 0 -977194373.14901829 599257411.33866549 0 0 0 0 -1302222.7974643707 -701026863.25424099 0 -701026863.25424099 832993099.52895546 0 0 0 0 -864803417.77154541 -1422241215.1519995 0 -1422241215.1519995 615868032.00656319 0 0 0 0 -396668060.96555328 -744391895.00673223 0 -744391895.00673223 1425288174.6751595 0 0 0 0 -1278117228.8710251 -399593620.63228893 0 -399593620.63228893 2323070016.4861488 0 0 0 0 1127472805.9150696 506314963.0625658 0 506314963.0625658 1347430173.1495552 0 0 0 0 -23202218.67296844 -26184852.640616838 0 -26184852.640616838 -21913050.687319439 0 0 0 0 331679761.23210144 -808259518.27898312 0 -808259518.27898312 -593118340.79886436 0 0 0 0 1253792774.4885254 505332180.95217896 0 505332180.95217896 382196782.25528336 0 0 0 0 635789305.44683838 -924364570.54323959 0 -924364570.54323959 1506864847.342823 0 0 0 0 214442581.75299072 -719184130.87412643 0 -719184130.87412643 1791394942.4693871 0 0 0 0 3837187.4924443811 -9110364.5280710123 0 -9110364.5280710123 -5275956.9085747879 0 0 0 0 -694841588.87609863 295758291.33244324 0 295758291.33244324 -108534256.67063904 0 0 0 0 -90164965.770233154 -67102668.23626709 0 -67102668.23626709 92970744.413295746 0 0 0 0 -87983591.648178101 1170989434.1561031 0 1170989434.1561031 466409316.24540138 0 0 0 0 -2010238026.5663757 287205950.55541611 0 287205950.55541611 1049370999.5494223 0 0 0 0 -2243707932.2486877 -230200233.43488693 0 -230200233.43488693 959889632.59648728 0 0 0 0 -1265956864.5376129 -40578372.265907288 0 -40578372.265907288 565328897.06832886 0 0 0 0 -1426085391.0015259 12594398.656578064 0 12594398.656578064 950568168.20248306 0 0 0 0 -1297993218.1248474 501375712.24387741 0 501375712.24387741 1008592371.4220052 0 0 0 0 -851249147.0308075 281054599.5489254 0 281054599.5489254 422046010.12508392 0 0 0 0 -1191220547.5843964 47850180.370567322 0 47850180.370567322 351879659.10556412 0 0 0 0 -1132348472.2795181 235667914.93928146 0 235667914.93928146 316023392.38225555 0 0 0 0 -815202116.92416382 -92652623.999893188 0 -92652623.999893188 568335513.03738403 0 0 0 0 -1305240375.738884 227329983.89715195 0 227329983.89715195 85748083.040649414 0 0 0 0 -2351276172.3623505 -600850316.65534973 0 -600850316.65534973 528970689.18182373 0 0 0 0 -1131402477.1445603 -302755251.98992705 0 -302755251.98992705 528001695.77230835 0 0 0 0 -1129688925.5059967 185482538.59515381 0 185482538.59515381 484404588.30633926 0 0 0 0 516766600.27919769 -990738190.40840912 0 -990738190.40840912 -10055631.535751343 0 0 0 0 -749930881.31594849 -378706179.96376801 0 -378706179.96376801 476918956.06507111 0 0 0 0 -1116964933.4634705 -1407007162.5255203 0 -1407007162.5255203 416161328.58677673 0 0 0 0 -1386804782.7726135 -1249897252.4513855 0 -1249897252.4513855 361675449.56678391 0 0 0 0 -1306190131.1455841 -1177444146.0191879 0 -1177444146.0191879 384962927.36732483 0 0 0 0 -3159750276.6713257 -1488542620.3306427 0 -1488542620.3306427 342655998.79102707 0 0 0 0 -4336027.203685794 -2250050.2807630971 0 -2250050.2807630971 2220721.5891739316 0 0 0 0 -252937577.84832764 -843207654.60791779 0 -843207654.60791779 19050385.647880554 0 0 0 0 -637125763.08251953 1114420211.2974243 0 1114420211.2974243 2373330339.4086304 0 0 0 0 -143632853.58532715 -1985177615.0226974 0 -1985177615.0226974 935180292.75015259 0 0 0 0 73863098.03780365 -1962204940.4715061 0 -1962204940.4715061 187778127.30828857 0 0 0 0 -880113494.92678833 -1641258947.4197235 0 -1641258947.4197235 1083888370.368042 0 0 0 0 -1014749380.0858459 -2033032013.4180183 0 -2033032013.4180183 20289972.861602783 0 0 0 0 -136600744.67211914 -191678158.24761963 0 -191678158.24761963 2313763111.4752121 0 0 0 0 -349138914.63117981 -368223267.98390961 0 -368223267.98390961 425768684.27726746 0 0 0 0 -299829596.40727234 -173545663.15661621 0 -173545663.15661621 1171987491.2695274 0 0 0 0 -125615231.75655222 -3709800931.2561064 0 -3709800931.2561064 -392413424.57881165 0 0 0 0 -77169093.452224731 134640262.36938477 0 134640262.36938477 756445542.02588654 0 0 0 0 -89935417.84576416 30690354.728149414 0 30690354.728149414 215410833.25518036 0 0 0 0 63245814.301689148 55244031.629629135 0 55244031.629629135 -35572887.253196716 0 0 0 0 -7714326.4347796142 -8349351.7076437101 0 -8349351.7076437101 5275470.4705777653 0 0 0 0 -30751506.185142219 -17209305.472914089 0 -17209305.472914089 -2823907.9394501923 0 0 0 0 92464091.481750488 159208953.9175148 0 159208953.9175148 279396478.02450562 0 0 0 0 -613128768.84037781 -1384312417.862175 0 -1384312417.862175 1062038447.5677395 0 0 0 0 755463290.19985962 131559059.24291134 0 131559059.24291134 -792777243.04232407 0 0 0 0 -319471557.60244751 -196598987.35995007 0 -196598987.35995007 -167467367.93233395 0 0 0 0 -127693680.4967804 -179736126.22228765 0 -179736126.22228765 -311993831.15776443 0 0 0 0 -21270507.229437143 -4230182.9294706956 0 -4230182.9294706956 322192.20224742714 0 0 0 0 71323664.327301025 -146251313.22806764 0 -146251313.22806764 130817391.64194584 0 0 0 0 -8583220.2880383264 -8185102.4798504934 0 -8185102.4798504934 -10733824.635664087 0 0 0 0 666647071.89907837 -282203769.13343394 0 -282203769.13343394 -25424380.125535786 0 0 0 0 320814699.77841949 -239067134.62111247 0 -239067134.62111247 1762481.1338739395 0 0 0 0 -798129146.65768433 -445966127.74413776 0 -445966127.74413776 -70849739.698069096 0 0 0 0 -1036549755.9614944 -562430640.91423225 0 -562430640.91423225 -104259304.30041313 0 0 0 0 -586151623.22629547 -642475849.54740715 0 -642475849.54740715 -172395320.03416634 0 0 0 0 -917401823.09194946 -781410930.71993065 0 -781410930.71993065 87084021.064574242 0 0 0 0 -680167251.92462158 -596688683.17449474 0 -596688683.17449474 -79832590.810223579 0 0 0 0 -854514195.45599365 -855933564.40050983 0 -855933564.40050983 -240410303.25521088 0 0 0 0 -671616472.44933319 -806774280.52596903 0 -806774280.52596903 -362717192.06981277 0 0 0 0 -1425111451.4826813 791198845.71078682 0 791198845.71078682 1481166106.7060223 0 0 0 0 -34141315.829727173 -320157002.74074078 0 -320157002.74074078 -1384201855.5005856 0 0 0 0 -8450894.6944924071 329469.2479025044 0 329469.2479025044 308466.65721880994 0 0 0 0 -871007555.02249146 -1132264780.6669025 0 -1132264780.6669025 -518151389.53816986 0 0 0 0 -147137342.71315002 -1394894026.9625702 0 -1394894026.9625702 -3591461669.1630487 0 0 0 0 -977327124.72167969 -882418517.30377603 0 -882418517.30377603 -175737910.8644371 0 0 0 0 334026262.34896851 -1544434340.2603188 0 -1544434340.2603188 -5760505240.9075985 0 0 0 0 -1671307974.9776917 -2779908316.343874 0 -2779908316.343874 -2121343061.2533789 0 0 0 0 -4286244132.0463715 -2728922121.5578003 0 -2728922121.5578003 2542133473.5055943 0 0 0 0 453273176.60565758 425946811.90739632 0 425946811.90739632 217060706.36184692 0 0 0 0 27216865.305945843 -18268531.757358145 0 -18268531.757358145 -14995434.780176891 0 0 0 0 -333578851.27645874 295810821.61359501 0 295810821.61359501 331657766.95593452 0 0 0 0 544447784.50460768 283061859.63714695 0 283061859.63714695 141990389.7618866 0 0 0 0 -1920278062.0479584 223718364.57492638 0 223718364.57492638 1423200219.0337677 0 0 0 0 153782520.09666061 249662397.30246735 0 249662397.30246735 283276187.51596832 0 0 0 0 1105444137.9477367 543513815.49794388 0 543513815.49794388 329929275.60774994 0 0 0 0 -50534820.64191246 -178504244.16288567 0 -178504244.16288567 499923459.78476715 0 0 0 0 117505795.33698082 439965258.03292799 0 439965258.03292799 445631452.76690674 0 0 0 0 -686237959.19786453 -599502345.44804454 0 -599502345.44804454 -52215999.015947342 0 0 0 0 -781939571.98152161 -700880797.19725466 0 -700880797.19725466 -132202338.65269279 0 0 0 0 -666513882.11776733 -603075650.14228439 0 -603075650.14228439 -328950109.10041618 0 0 0 0 -530063409.32368469 -573104502.54854274 0 -573104502.54854274 -343231585.84441566 0 0 0 0 -573190821.87736511 -431499248.86859035 0 -431499248.86859035 -64517094.519405127 0 0 0 0 -315740314.84115601 -429036087.72765732 0 -429036087.72765732 -350404857.4540596 0 0 0 0 689188148.55644226 996280877.44020081 0 996280877.44020081 286759905.44683838 0 0 0 0 500803729.04590988 783743416.27914429 0 783743416.27914429 -108380271.98855591 0 0 0 0 -1079326.6773196561 486313.30208195932 0 486313.30208195932 928511.2752645053 0 0 0 0 28242804.468184035 -15745279.98726882 0 -15745279.98726882 -16227473.068382733 0 0 0 0 -207644753.93615723 -648967520.71963882 0 -648967520.71963882 -429164337.91093826 0 0 0 0 -289877394.70080566 -575523807.10699463 0 -575523807.10699463 -468653155.32339859 0 0 0 0 -314384733.39212036 -845787720.11757898 0 -845787720.11757898 -178009996.96038437 0 0 0 0 557766043.98857498 127576006.35340881 0 127576006.35340881 14864639.4425354 0 0 0 0 550052044.24691772 -88508661.425354004 0 -88508661.425354004 1015051730.9229584 0 0 0 0 452071973.56300735 287032076.32862091 0 287032076.32862091 255975547.95349121 0 0 0 0 422459285.37185478 435151881.88884354 0 435151881.88884354 -83361719.487915039 0 0 0 0 535539280.90802574 847705535.55047607 0 847705535.55047607 -472800646.1308136 0 0 0 0 408453938.71767044 389397492.49274445 0 389397492.49274445 -151441790.85718155 0 0 0 0 380225552.66659355 628619413.5160675 0 628619413.5160675 -1028673922.1511383 0 0 0 0 -276094137.91558933 877671180.63730049 0 877671180.63730049 -415392196.75372314 0 0 0 0 692380871.80070019 315157465.47856522 0 315157465.47856522 -102082201.42057037 0 0 0 0 -4542630.4832023205 -2179827.0643806122 0 -2179827.0643806122 -6242888.9415478725 0 0 0 0 416247575.45572662 -410947528.31594646 0 -410947528.31594646 -7993975.2030679584 0 0 0 0 -858803289.03964233 -581856440.69878769 0 -581856440.69878769 -247298239.11381531 0 0 0 0 -1439494441.2131653 -435284382.24232864 0 -435284382.24232864 -257587885.03589219 0 0 0 0 -874266538.9074707 -585036634.13892269 0 -585036634.13892269 -182149168.79536462 0 0 0 0 -573503626.36524963 -667785471.13224506 0 -667785471.13224506 -588873709.75945282 0 0 0 0 -768534339.00305557 -888303270.58748031 0 -888303270.58748031 -453420054.56217384 0 0 0 0 -584631915.03964233 -664388695.4871788 0 -664388695.4871788 -288439244.64970016 0 0 0 0 -714865517.67434692 -79178842.774370193 0 -79178842.774370193 216308711.69429421 0 0 0 0 -989147540.04776001 -444566816.87130737 0 -444566816.87130737 -332123585.94104958 0 0 0 0 -636312732.25396729 -579872488.77301788 0 -579872488.77301788 290635452.61717224 0 0 0 0 -629010146.67916107 -565910779.8833518 0 -565910779.8833518 -347351219.78643799 0 0 0 0 -668023526.4826355 20328971.46745491 0 20328971.46745491 -167854305.07036877 0 0 0 0 -990818082.00527954 -1356415982.2541995 0 -1356415982.2541995 -1253683402.5366631 0 0 0 0 -1418432360.2149353 -810826670.60385513 0 -810826670.60385513 -399177634.5180521 0 0 0 0 -2910141942.2967834 -1172825601.7239299 0 -1172825601.7239299 -94163874.365786552 0 0 0 0 1359317420.2563171 -120607529.1102438 0 -120607529.1102438 -453392280.36641598 0 0 0 0 -1521340.5515560675 -166418.50707563385 0 -166418.50707563385 -2038323.2624137569 0 0 0 0 -397960842.78726196 -871981099.19685984 0 -871981099.19685984 -583100231.95467091 0 0 0 0 -420850263.0378418 -407746688.32834911 0 -407746688.32834911 -1519072234.1458583 0 0 0 0 -472631434.84538269 -622900791.95826435 0 -622900791.95826435 -80504599.475038528 0 0 0 0 -649065359.20188904 -358887172.78478193 0 -358887172.78478193 -376608817.00945663 0 0 0 0 934694522.94735527 37069871.863052368 0 37069871.863052368 -112189017.70695496 0 0 0 0 -197038519.18139648 164484709.61679173 0 164484709.61679173 -337926383.0019865 0 0 0 0 -25406918.625915527 -208977759.63177299 0 -208977759.63177299 -382273907.4685173 0 0 0 0 34196636.571602978 -15346585.754016684 0 -15346585.754016684 -16730753.760065671 0 0 0 0 -42058236.240875244 -275274534.98540878 0 -275274534.98540878 -517852913.98120403 0 0 0 0 -214425071.35046387 -427482033.98078728 0 -427482033.98078728 -599051847.05510807 0 0 0 0 -663771179.16815186 -347296482.94833088 0 -347296482.94833088 -493870243.20082092 0 0 0 0 -168600113.53904533 -18434319.88310802 0 -18434319.88310802 -613896877.25990295 0 0 0 0 -613462312.88446045 -310629007.26109314 0 -310629007.26109314 -872362174.24811363 0 0 0 0 -515528929.02824402 -32097832.183739185 0 -32097832.183739185 -549669789.59547043 0 0 0 0 831141730.88310242 53505249.210723877 0 53505249.210723877 -35215822.082901001 0 0 0 0 740452311.96914101 -67889225.437114716 0 -67889225.437114716 112695535.94523239 0 0 0 0 -54272095.107414246 -410292563.6518755 0 -410292563.6518755 697341369.8278656 0 0 0 0 -246558109.00749207 -129521018.45586395 0 -129521018.45586395 -40290399.604854584 0 0 0 0 5473909.2515062094 -68618.42875752598 0 -68618.42875752598 -3888982.8654430397 0 0 0 0 21321070.87509767 -25835325.324518114 0 -25835325.324518114 -12665077.928325927 0 0 0 0 -116543699.68086243 -148574691.98139572 0 -148574691.98139572 -68709684.266933441 0 0 0 0 -170671284.28656006 -233519737.59779739 0 -233519737.59779739 99644553.269705772 0 0 0 0 54767697.497678757 -242218403.73673469 0 -242218403.73673469 -170899463.78906441 0 0 0 0 -292939292.63929749 -482855820.74441338 0 -482855820.74441338 -317650358.84176922 0 0 0 0 518258115.85535049 -43839019.936779022 0 -43839019.936779022 -342528972.35229492 0 0 0 0 37387728.792797089 -175309754.39410973 0 -175309754.39410973 -493608585.38333893 0 0 0 0 340923464.01589394 108161428.23603821 0 108161428.23603821 -261155264.83242798 0 0 0 0 630992732.7102623 -22784107.481811523 0 -22784107.481811523 -242030202.60697174 0 0 0 0 373043904.98309803 -24073558.931399345 0 -24073558.931399345 -98397525.57460022 0 0 0 0 639280190.66925716 -86869464.698669434 0 -86869464.698669434 145509005.68478394 0 0 0 0 976452189.60670662 -177943504.8514061 0 -177943504.8514061 21861527.280044556 0 0 0 0 848254306.25780869 156136.9591178894 0 156136.9591178894 -206644757.71832275 0 0 0 0 667273791.54491043 -35501128.799846649 0 -35501128.799846649 -108277586.69205475 0 0 0 0 820307201.44544983 -94524658.300918579 0 -94524658.300918579 -169144711.80656433 0 0 0 0 614329244.6125412 -167540188.16485977 0 -167540188.16485977 -237137057.25374222 0 0 0 0 642536443.52381802 -275064328.74296761 0 -275064328.74296761 -24337846.241470337 0 0 0 0 661349990.01893044 -232795993.39686584 0 -232795993.39686584 41113926.043861389 0 0 0 0 609636740.99557638 -157003259.66551685 0 -157003259.66551685 -183943689.69785309 0 0 0 0 730408054.33237267 -149115823.28217316 0 -149115823.28217316 -215222574.16004181 0 0 0 0 306049262.21685123 -231697317.86962891 0 -231697317.86962891 -120149408.79299927 0 0 0 0 219395091.83647966 147888397.03752995 0 147888397.03752995 -468837396.10829926 0 0 0 0 64680032.026081085 136822664.95900917 0 136822664.95900917 -343996556.72436142 0 0 0 0 -318941740.86227131 407989291.06769753 0 407989291.06769753 -449861407.87041473 0 0 0 0 -346005458.85926723 86629635.116731644 0 86629635.116731644 -693394048.63500595 0 0 0 0 -598043916.51696396 -290775609.61975098 0 -290775609.61975098 -484036768.1284771 0 0 0 0 155536816.56259298 89941430.095164299 0 89941430.095164299 -931078805.29986572 0 0 0 0 -1611197528.0968227 -1486774674.1216869 0 -1486774674.1216869 -1491617250.327652 0 0 0 0 -392199337.50469875 -460967434.44364929 0 -460967434.44364929 -641578709.62362671 0 0 0 0 -3139566298.8607006 -599379933.50523376 0 -599379933.50523376 26166407.343120575 0 0 0 0 -811264977.76934814 -151201235.20376587 0 -151201235.20376587 -36081576.433822632 0 0 0 0 -318031.70397923701 -1767330.4789225645 0 -1767330.4789225645 -3925769.5771184713 0 0 0 0 19707979.233844042 531123032.05364418 0 531123032.05364418 -2173870439.5268021 0 0 0 0 -48647958.546669483 -1316579106.7099304 0 -1316579106.7099304 -2764070734.1657066 0 0 0 0 -3040329340.1756706 -282732888.07217598 0 -282732888.07217598 -434405427.00871277 0 0 0 0 257973721.60028648 -55952445.534866333 0 -55952445.534866333 -2445033625.1582394 0 0 0 0 -1152278402.5455575 650711455.55346489 0 650711455.55346489 1154307860.7897606 0 0 0 0 -6796905.2816347042 -1020390.385590028 0 -1020390.385590028 1692170.6186203938 0 0 0 0 321136230.1175828 -267161073.74296379 0 -267161073.74296379 -517050288.67375565 0 0 0 0 -25887312.954202652 22644631.013792038 0 22644631.013792038 194490554.72377396 0 0 0 0 -24687588.127621949 -18980430.407018661 0 -18980430.407018661 104984790.90802956 0 0 0 0 -27552913.573740005 111532911.16663551 0 111532911.16663551 228701003.25386047 0 0 0 0 -78766884.828042418 24098158.373807907 0 24098158.373807907 240282007.38468933 0 0 0 0 19724959.652693748 378415761.93550873 0 378415761.93550873 635836924.63919401 0 0 0 0 126198280.6204052 103101136.22036362 0 103101136.22036362 182732472.41056824 0 0 0 0 -554680696.76070833 111883633.84007645 0 111883633.84007645 338190434.38251495 0 0 0 0 -119046958.89869392 -235601334.9054718 0 -235601334.9054718 -142600973.15180588 0 0 0 0 75664575.296030998 644981809.7346611 0 644981809.7346611 -309288550.68076324 0 0 0 0 -2805659.8520074347 -226193.0519040972 0 -226193.0519040972 551180.28648747504 0 0 0 0 712461100.32792664 114994647.31125259 0 114994647.31125259 -806461560.16216469 0 0 0 0 50297344.74149704 -47490712.434638977 0 -47490712.434638977 -400640854.68614578 0 0 0 0 259704960.81703186 -91266485.375045776 0 -91266485.375045776 -103958298.74105453 0 0 0 0 -46547529.482355118 -153239294.45233345 0 -153239294.45233345 -121957242.01688004 0 0 0 0 -1799992.1984189115 -2941714.08259736 0 -2941714.08259736 400750.30809904635 0 0 0 0 140874471.53312802 153830558.72927094 0 153830558.72927094 63327420.67767334 0 0 0 0 11489699.703536987 -422580837.88713455 0 -422580837.88713455 -513825747.87761688 0 0 0 0 -267423731.9384737 -611022165.87938309 0 -611022165.87938309 -571856647.42434406 0 0 0 0 57556047.90798378 -256341275.79004288 0 -256341275.79004288 -671165475.01218033 0 0 0 0 10481219.136696696 -214397085.36506081 0 -214397085.36506081 -354664968.27444458 0 0 0 0 63139914.242781043 -166162909.64350128 0 -166162909.64350128 -142706608.57972717 0 0 0 0 -103633071.49003029 224555345.06332397 0 224555345.06332397 -264664152.59699821 0 0 0 0 21454652.279386997 -900882978.53610611 0 -900882978.53610611 -1071815522.2511158 0 0 0 0 123546581.52323389 -33508806.371343613 0 -33508806.371343613 -1556503472.7455597 0 0 0 0 -251319689.28745985 -826619323.98452187 0 -826619323.98452187 -741984469.57539749 0 0 0 0 -7035921.9633140648 -2201325.5337941833 0 -2201325.5337941833 2283525.6050711814 0 0 0 0 -901784207.28555071 -416688194.82082176 0 -416688194.82082176 585098597.75741577 0 0 0 0 -3240172.7732431577 -1687470.3851978239 0 -1687470.3851978239 1335362.3583292933 0 0 0 0 -363482182.10134697 -973226684.70722198 0 -973226684.70722198 -930978161.91705513 0 0 0 0 -78762290.438495636 -769999714.70130348 0 -769999714.70130348 -785173349.35107422 0 0 0 0 -60245333.698701859 -376063103.51103783 0 -376063103.51103783 -521549589.05712128 0 0 0 0 -782396953.07098389 -582632350.65769005 0 -582632350.65769005 -509589100.1123904 0 0 0 0 -66109033.688987732 -343826803.5626564 0 -343826803.5626564 -537431551.20692635 0 0 0 0 -216931461.36294174 -113908619.42560291 0 -113908619.42560291 -721896922.97445679 0 0 0 0 -585496347.88088417 -336230534.51936913 0 -336230534.51936913 -11513120.602874756 0 0 0 0 -28581571.409484863 -346257588.20447731 0 -346257588.20447731 -309145497.8163271 0 0 0 0 322308058.58007479 -199971980.32675743 0 -199971980.32675743 -264736284.27181244 0 0 0 0 -55935692.149989128 -455664006.70411205 0 -455664006.70411205 -690174319.87794113 0 0 0 0 -469913910.1218071 163097949.78569984 0 163097949.78569984 240699835.60063362 0 0 0 0 -206519289.41254759 12722441.189259291 0 12722441.189259291 221024866.14826965 0 0 0 0 -128044966.3110075 205157223.79051399 0 205157223.79051399 97466638.446203232 0 0 0 0 -7327811.5798265934 3571874.7876152992 0 3571874.7876152992 151743423.44558716 0 0 0 0 -46642244.767113686 63597400.13820076 0 63597400.13820076 114260032.56866837 0 0 0 0 -191625129.34816742 67630179.58659935 0 67630179.58659935 185429447.79124069 0 0 0 0 -81105027.142214537 28368151.553693295 0 28368151.553693295 197219747.92757416 0 0 0 0 -102151496.74785519 -2473894.7579574585 0 -2473894.7579574585 213955349.77099419 0 0 0 0 -99149361.454728127 -23727134.37093544 0 -23727134.37093544 262008564.74890041 0 0 0 0 -209664947.12592554 -105687408.67928314 0 -105687408.67928314 202426670.15990448 0 0 0 0 -192021836.68470764 -64006943.776784897 0 -64006943.776784897 258652573.4992485 0 0 0 0 -185937744.0705719 11920803.125476837 0 11920803.125476837 247968692.85918999 0 0 0 0 -199513193.00160027 33059792.298125267 0 33059792.298125267 223624542.52568436 0 0 0 0 -291618434.68536186 20917388.282197952 0 20917388.282197952 471213240.88055992 0 0 0 0 -67914583.280902863 52869362.456209183 0 52869362.456209183 267054689.24341583 0 0 0 0 -113539376.07315063 -177422633.21033478 0 -177422633.21033478 401351376.12068939 0 0 0 0 359235178.67971706 -508311494.03792191 0 -508311494.03792191 833505356.72026825 0 0 0 0 -120861278.1809864 -201421691.70788383 0 -201421691.70788383 105466876.27702904 0 0 0 0 390768478.04660034 230363599.29757309 0 230363599.29757309 469865106.50144196 0 0 0 0 98682847.935536385 144307994.41337585 0 144307994.41337585 89787356.177654266 0 0 0 0 19749473.924608171 84386325.40486145 0 84386325.40486145 210237070.37905502 0 0 0 0 -1646019.6779913611 278090.66695406195 0 278090.66695406195 1641338.7873308491 0 0 0 0 93427078.554986954 194529654.43934631 0 194529654.43934631 145908062.87449646 0 0 0 0 431776766.72700119 82795415.320320129 0 82795415.320320129 155038023.96229553 0 0 0 0 201532363.38007355 123551608.2784729 0 123551608.2784729 189244435.21539307 0 0 0 0 86536345.835441589 189736971.17770767 0 189736971.17770767 224909219.33991241 0 0 0 0 274416316.31106997 132940213.49991035 0 132940213.49991035 185371904.49430084 0 0 0 0 -2475604.9931766577 714251.57992110215 0 714251.57992110215 2244154.552411152 0 0 0 0 433123023.443367 199938808.99126434 0 199938808.99126434 95531883.572319031 0 0 0 0 231248838.57487297 240509077.27643967 0 240509077.27643967 115463363.91777039 0 0 0 0 539708278.73867273 128242373.98175383 0 128242373.98175383 60050374.96812439 0 0 0 0 32857074.799477935 26118219.073619843 0 26118219.073619843 189959954.4372406 0 0 0 0 -16179034.14141655 13394645.457373619 0 13394645.457373619 175011394.33000183 0 0 0 0 10045702.957791567 35664155.660715103 0 35664155.660715103 169755834.12660027 0 0 0 0 -13304859.98872447 11035015.182114601 0 11035015.182114601 148596437.4081459 0 0 0 0 8465037.725834012 49104555.49202776 0 49104555.49202776 126555375.98046494 0 0 0 0 93505580.291885972 -4103681.7164783478 0 -4103681.7164783478 99708354.778484344 0 0 0 0 12954969.515501022 -12584985.961210251 0 -12584985.961210251 220809816.5199852 0 0 0 0 27472922.770986557 48137979.685558319 0 48137979.685558319 214834672.58146524 0 0 0 0 -4494878.247677803 25698605.769788742 0 25698605.769788742 144897901.68694496 0 0 0 0 -78312471.135316074 18153135.458749056 0 18153135.458749056 209560187.87497711 0 0 0 0 -14865365.214870453 -9772166.105014801 0 -9772166.105014801 182843988.49126053 0 0 0 0 -26610087.266602516 17414835.37386322 0 17414835.37386322 207065553.26334572 0 0 0 0 -20118517.86793685 9324375.1104507446 0 9324375.1104507446 191903046.54612732 0 0 0 0 55195324.146816254 29553756.107908249 0 29553756.107908249 183948161.70424604 0 0 0 0 47694805.581899881 46792772.15917778 0 46792772.15917778 188497416.95806885 0 0 0 0 14589437.845785122 4512492.0178057719 0 4512492.0178057719 -10814334.850007024 0 0 0 0 48848981.65088892 52324232.384754181 0 52324232.384754181 191683097.7871151 0 0 0 0 177958049.03530502 -96152256.660360813 0 -96152256.660360813 10470778.933624268 0 0 0 0 33877297.772680387 -36606877.326298006 0 -36606877.326298006 3569315.9607715923 0 0 0 0 53120590.806865811 90100966.635744572 0 90100966.635744572 485854785.58995819 0 0 0 0 246891380.43318272 -341960163.00735855 0 -341960163.00735855 383107683.18730927 0 0 0 0 -10522426.975785732 64623957.323997498 0 64623957.323997498 57845000.448051453 0 0 0 0 3349817.9314086391 922909.3339716997 0 922909.3339716997 -2116030.1700549088 0 0 0 0 295167059.51895046 138203506.22819901 0 138203506.22819901 80225506.541414261 0 0 0 0 413114070.25939274 -202621824.65612793 0 -202621824.65612793 272994365.01338577 0 0 0 0 643743531.68415213 216311468.56139565 0 216311468.56139565 -494685619.61154175 0 0 0 0 147395662.28832626 248662543.05287552 0 248662543.05287552 46396256.320495605 0 0 0 0 26955538.225433826 73686084.588011742 0 73686084.588011742 112527410.40756989 0 0 0 0 31016109.640106782 -25933128.268511958 0 -25933128.268511958 -9685454.8980093077 0 0 0 0 396460890.30202246 571023362.31106043 0 571023362.31106043 -864607324.64356613 0 0 0 0 85628122.405491829 220844709.94560623 0 220844709.94560623 102688369.8707962 0 0 0 0 69899444.571046829 315340707.15145493 0 315340707.15145493 -3087425.4170455933 0 0 0 0 -870069739.41143799 -585833343.07697296 0 -585833343.07697296 454445672.46673584 0 0 0 0 231814004.06669617 -437096103.87429047 0 -437096103.87429047 168307256.81767273 0 0 0 0 -334071423.18333435 -155423614.64608002 0 -155423614.64608002 100998735.42135811 0 0 0 0 -395130356.83079529 -226917058.37740326 0 -226917058.37740326 159129727.16818523 0 0 0 0 -488041320.03207397 -66694754.512916565 0 -66694754.512916565 74487445.112884521 0 0 0 0 -482960137.62518311 -167278864.5848999 0 -167278864.5848999 169240124.23863983 0 0 0 0 -38421273.898017883 -95856510.770153046 0 -95856510.770153046 138317760.34367371 0 0 0 0 -22092591.827673569 -14432765.82765808 0 -14432765.82765808 8282157.1449646344 0 0 0 0 340105718.89981461 -165045912.60814857 0 -165045912.60814857 -872192856.39837646 0 0 0 0 -40465586.890548706 -11666439.073371887 0 -11666439.073371887 -748762933.28483391 0 0 0 0 185647340.39341736 -99284499.719490051 0 -99284499.719490051 -408850557.76681519 0 0 0 0 -277514698.44860077 -284390502.19103622 0 -284390502.19103622 -343297299.75616455 0 0 0 0 -19531411.614562988 -368262460.81687927 0 -368262460.81687927 -652253175.85820007 0 0 0 0 1018031947.3504944 -241163150.03956604 0 -241163150.03956604 -665797124.86287308 0 0 0 0 -1016572.3547054864 -1270504.5616368037 0 -1270504.5616368037 413483.50805799663 0 0 0 0 -285516462.85671234 -586744069.0172348 0 -586744069.0172348 -749997460.12928772 0 0 0 0 -178826385.41421127 -196455955.11953926 0 -196455955.11953926 -779744467.65731812 0 0 0 0 -660153248.13119507 -662798067.72157669 0 -662798067.72157669 -658373548.65536499 0 0 0 0 48534090.849975586 -116594844.78017426 0 -116594844.78017426 35393622.521657944 0 0 0 0 51001564.072918892 67050417.434427261 0 67050417.434427261 -126307616.49959564 0 0 0 0 44761306.214106776 -33823280.391602695 0 -33823280.391602695 5885526.1977129569 0 0 0 0 1765267.7746430114 -11068248.432470046 0 -11068248.432470046 2739638.0935587063 0 0 0 0 -94222100.724903107 -98716585.467494011 0 -98716585.467494011 28186229.16840744 0 0 0 0 -1132116.2453327179 52750345.176583767 0 52750345.176583767 -78249065.401809692 0 0 0 0 40138445.225829877 -25521055.699055236 0 -25521055.699055236 12318248.001725845 0 0 0 0 -354211876.49016571 -231344822.40507126 0 -231344822.40507126 -28091465.94493866 0 0 0 0 156729626.87140656 -270584776.69887161 0 -270584776.69887161 -852521400.58046722 0 0 0 0 10361263.209757503 -4937511.7865838408 0 -4937511.7865838408 -11059411.765782282 0 0 0 0 -340806841.80674744 -990019318.25479889 0 -990019318.25479889 -900595471.27587891 0 0 0 0 -560779490.24205017 -826097894.07479858 0 -826097894.07479858 -947701408.35315704 0 0 0 0 287302519.0470047 34668623.377063751 0 34668623.377063751 -229434793.10474396 0 0 0 0 -313838788.69174957 161598345.62957001 0 161598345.62957001 132854748.79518127 0 0 0 0 -671539395.67572403 -420718971.19802094 0 -420718971.19802094 -158294740.28437805 0 0 0 0 49900267.793960571 -34623860.078834534 0 -34623860.078834534 3750561.2010803223 0 0 0 0 -50920416.288192749 -517482594.03757477 0 -517482594.03757477 -786659530.6288147 0 0 0 0 -263956314.70098877 -282742578.61845398 0 -282742578.61845398 -2333588.4411392212 0 0 0 0 123979490.88223267 -192235867.58496857 0 -192235867.58496857 -416919523.46035004 0 0 0 0 98762184.6156497 -510583951.02052474 0 -510583951.02052474 -1547552009.7524261 0 0 0 0 -2213235.4438884705 -2841810.6919980757 0 -2841810.6919980757 -1628056.6443753745 0 0 0 0 -101754614.31384468 -136634727.41888046 0 -136634727.41888046 148587119.77928162 0 0 0 0 -161554566.37355042 -113805694.38053894 0 -113805694.38053894 144570920.00764275 0 0 0 0 -5559980.4197452813 366800.6575100217 0 366800.6575100217 3773342.9624403156 0 0 0 0 -165623977.66629791 41903442.331804276 0 41903442.331804276 193386429.14135742 0 0 0 0 -1309775.4751396179 -7054859.4002780914 0 -7054859.4002780914 8420391.4578094482 0 0 0 0 -2978736.1165854484 -1797827.2029835097 0 -1797827.2029835097 -187738.30665766075 0 0 0 0 -90856647.729972839 59704450.206771851 0 59704450.206771851 165061771.04265594 0 0 0 0 -99334.658813476562 -3589877.790512085 0 -3589877.790512085 16054635.194351196 0 0 0 0 -7116684.3980800584 -3665697.6779689882 0 -3665697.6779689882 1482638.1521568596 0 0 0 0 -247737.93992614746 -5022747.2109527588 0 -5022747.2109527588 8206042.626449585 0 0 0 0 286266594.61997986 -231578451.08292389 0 -231578451.08292389 392200348.78258514 0 0 0 0 -6954751.0434109531 -6563560.5952464212 0 -6563560.5952464212 2833748.5773426369 0 0 0 0 -42260530.498123169 -397661808.96456909 0 -397661808.96456909 562372041.25575638 0 0 0 0 8833232.5385131836 -468003.37456512451 0 -468003.37456512451 -7719249.839881897 0 0 0 0 -1258286.5938921571 10235.825948953629 0 10235.825948953629 321659.9324660413 0 0 0 0 159680133.06478882 -326796758.18607712 0 -326796758.18607712 295173265.66426849 0 0 0 0 -5212067.3420028687 -467532515.0329895 0 -467532515.0329895 204120466.7039032 0 0 0 0 154056193.12709045 -230548247.45160675 0 -230548247.45160675 30176194.973426819 0 0 0 0 -271276886.27486038 -132219210.72698402 0 -132219210.72698402 257327039.63238525 0 0 0 0 -186009568.80129623 -352609098.84352493 0 -352609098.84352493 -352858509.40661621 0 0 0 0 -193767924.02844429 -364220606.71783733 0 -364220606.71783733 -20363142.989837646 0 0 0 0 -3255925.9464681074 -3460343.793336723 0 -3460343.793336723 2540327.2623163909 0 0 0 0 174663261.28193665 112319454.13340759 0 112319454.13340759 -7115802.7752380371 0 0 0 0 186474906.39767134 -185649838.89005899 0 -185649838.89005899 83950955.097747803 0 0 0 0 251068799.72190857 -511367804.19729614 0 -511367804.19729614 187560608.3264389 0 0 0 0 602230097.42768097 -445460983.64921951 0 -445460983.64921951 131747532.0199585 0 0 0 0 315464049.47845483 -290845919.68122721 0 -290845919.68122721 -76512389.263147354 0 0 0 0 -77843011.122821808 -179169161.22392559 0 -179169161.22392559 318461553.42254591 0 0 0 0 54836003.730566025 -77639389.661663532 0 -77639389.661663532 267939281.88869286 0 0 0 0 -49595542.439499378 -195351131.61647844 0 -195351131.61647844 30049326.078197479 0 0 0 0 -233012757.69454384 -183420956.93371201 0 -183420956.93371201 42810260.042135239 0 0 0 0 -146653046.73833275 -319878238.00459766 0 -319878238.00459766 -127013076.47424912 0 0 0 0 131143623.00048447 -78931175.035638809 0 -78931175.035638809 -161441550.40361023 0 0 0 0 38923335.781331182 -29401556.794027053 0 -29401556.794027053 17665876.637827836 0 0 0 0 -128470286.04926825 -139287495.75962591 0 -139287495.75962591 -89723917.51099968 0 0 0 0 -178865378.09726524 -144608777.38013077 0 -144608777.38013077 257700008.25199509 0 0 0 0 -97459219.3813591 -11028595.531978607 0 -11028595.531978607 158012672.34798956 0 0 0 0 79038522.848556519 -22638780.888923645 0 -22638780.888923645 -91251441.996444702 0 0 0 0 -1935582434.9017029 -741660148.19335175 0 -741660148.19335175 -191781256.38051224 0 0 0 0 -1122976025.4752274 602085547.0032692 0 602085547.0032692 794576669.97570801 0 0 0 0 -1577361165.8279953 -1978361517.1178284 0 -1978361517.1178284 -738856862.89279175 0 0 0 0 -2496111.7328247353 -655719.33835112862 0 -655719.33835112862 654286.95352844149 0 0 0 0 -159675871.2694397 319306750.17869568 0 319306750.17869568 22233496.563919067 0 0 0 0 650960473.66172791 -802290444.0474205 0 -802290444.0474205 -416513965.11520386 0 0 0 0 -778453091.67086029 -291753673.20265961 0 -291753673.20265961 270730187.55834961 0 0 0 0 -91269583.761749268 -329841982.07336426 0 -329841982.07336426 265971995.16692448 0 0 0 0 -2271503.5614423156 -4663066.9444475472 0 -4663066.9444475472 1759720.8453277946 0 0 0 0 1168454005.4045601 -8991596.4664421082 0 -8991596.4664421082 -216007706.24014282 0 0 0 0 2805684685.5246887 -234640735.60350037 0 -234640735.60350037 -272219924.650177 0 0 0 0 -329697909.91860962 183578764.02905273 0 183578764.02905273 -188337865.37198782 0 0 0 0 39492652.094405621 -32118858.684772287 0 -32118858.684772287 17986476.49718377 0 0 0 0 -10009517.738229752 -333609908.72069073 0 -333609908.72069073 -395812677.36520386 0 0 0 0 -407226923.73789215 -324660659.74642181 0 -324660659.74642181 -144857101.81650925 0 0 0 0 56476291.99271965 13925208.236367226 0 13925208.236367226 -200748039.48260212 0 0 0 0 -116518226.40356255 -245948392.53222942 0 -245948392.53222942 -55670192.760220528 0 0 0 0 -214721147.9095459 -105364479.92700195 0 -105364479.92700195 -924430.63175964355 0 0 0 0 -181088383.47624207 -157151415.53969574 0 -157151415.53969574 -41389539.274902344 0 0 0 0 -165441975.25897217 -89623304.443405151 0 -89623304.443405151 -11140856.19903183 0 0 0 0 -138573480.11818314 -111036284.51935959 0 -111036284.51935959 -25547306.796051025 0 0 0 0 -156195684.11654663 -112019756.31270218 0 -112019756.31270218 -25137535.9012146 0 0 0 0 -159267953.99540615 -126207027.49505806 0 -126207027.49505806 -17835132.686012268 0 0 0 0 -179192978.48716259 -124777773.49621201 0 -124777773.49621201 -15552442.761489868 0 0 0 0 -8912821.5990927238 -16732131.779446304 0 -16732131.779446304 4164628.3846047968 0 0 0 0 -211172715.20632935 -111547750.36087418 0 -111547750.36087418 -7311485.8797569275 0 0 0 0 184406199.69509125 19774430.27639389 0 19774430.27639389 -40887995.270011902 0 0 0 0 -147252042.68084717 -105655712.91854858 0 -105655712.91854858 -11696531.42061615 0 0 0 0 75932312.448730469 6518749.6111450195 0 6518749.6111450195 36353646.851638794 0 0 0 0 70901515.086486816 -16951250.374420166 0 -16951250.374420166 28539118.598419189 0 0 0 0 56828621.745300293 -36591488.361602783 0 -36591488.361602783 6673345.5987319946 0 0 0 0 98591240.036865234 1620544.3869018555 0 1620544.3869018555 -11184206.808166504 0 0 0 0 96422559.827880859 23551300.863922119 0 23551300.863922119 20264509.714294434 0 0 0 0 110618499.79852295 17313382.72744751 0 17313382.72744751 3479023.637588501 0 0 0 0 32780638.86117816 -59321295.141813993 0 -59321295.141813993 -59945901.689453125 0 0 0 0 121039068.93313599 -34973527.882125854 0 -34973527.882125854 -37227599.429458618 0 0 0 0 33381586.965118408 -39115839.914108276 0 -39115839.914108276 -8081198.613861084 0 0 0 0 69260614.440429688 -48379055.71206665 0 -48379055.71206665 -38542044.902557373 0 0 0 0 -74946253.108894348 -80187321.691055298 0 -80187321.691055298 -27878051.659667969 0 0 0 0 -33856832.531097412 -29306069.067947388 0 -29306069.067947388 -20602879.432281494 0 0 0 0 1580153.5166244507 -50200730.609256744 0 -50200730.609256744 -27393905.520782471 0 0 0 0 48333067.213592529 -63583752.449172974 0 -63583752.449172974 -12712394.403594971 0 0 0 0 -8485454.3615112305 -31732761.051353455 0 -31732761.051353455 -12433833.586076558 0 0 0 0 3418825.0090026855 -226528581.68888092 0 -226528581.68888092 71172992.071670532 0 0 0 0 223838984.72210121 -167419415.38746738 0 -167419415.38746738 25869768.807159424 0 0 0 0 -244577933.07830811 -228040395.37225342 0 -228040395.37225342 234254120.07804108 0 0 0 0 -51502986.571136475 -286527487.61376953 0 -286527487.61376953 155289740.76389313 0 0 0 0 39141591.120346069 -280001055.27722931 0 -280001055.27722931 138663049.08853149 0 0 0 0 -47905983.13897419 -302319907.07198143 0 -302319907.07198143 104061909.68388367 0 0 0 0 -2470717.2600199878 -2161086.5756293386 0 -2161086.5756293386 2432702.8456678018 0 0 0 0 -522812062.22519493 18082897.64393425 0 18082897.64393425 -163616269.9107666 0 0 0 0 -525700015.65414429 5027430.9672241211 0 5027430.9672241211 114599321.90570068 0 0 0 0 -228807151.29616547 49257178.043518066 0 49257178.043518066 -108653422.57034302 0 0 0 0 -538025750.69599152 221674084.43673325 0 221674084.43673325 281090037.25897217 0 0 0 0 -239342098.70494843 -37929380.402282715 0 -37929380.402282715 7778292.9505615234 0 0 0 0 -1727091.3711105958 -2681715.4067153931 0 -2681715.4067153931 911933.76854357123 0 0 0 0 -118901473.29161072 -92631328.256149292 0 -92631328.256149292 -88515852.821311951 0 0 0 0 -122396199.59513855 6127979.8317489624 0 6127979.8317489624 -3633281.2230224609 0 0 0 0 -88038373.793121338 -11153741.629030228 0 -11153741.629030228 28248692.309112549 0 0 0 0 -38858286.548294067 -33994470.151473999 0 -33994470.151473999 -2486401.399597168 0 0 0 0 -64486129.79712677 -41717572.679405212 0 -41717572.679405212 47803921.843002319 0 0 0 0 35710015.237411499 -59574906.645248413 0 -59574906.645248413 -14790091.906829834 0 0 0 0 19373217.568725586 -86290730.961585999 0 -86290730.961585999 -37576130.400527954 0 0 0 0 -60901741.654087067 -95361794.522640228 0 -95361794.522640228 -37169929.97644043 0 0 0 0 -25910108.457962036 -60957960.066253662 0 -60957960.066253662 -10433671.095039368 0 0 0 0 -13525572.266052246 -98084627.021499634 0 -98084627.021499634 -47265383.843105316 0 0 0 0 -84653736.270774841 -45624722.902351379 0 -45624722.902351379 -31184143.50378418 0 0 0 0 16488909.837097168 -56538671.878555298 0 -56538671.878555298 -27405960.436279297 0 0 0 0 52847654.937072754 -50752899.251586914 0 -50752899.251586914 -35362406.313245773 0 0 0 0 -11789510.078178406 -14647733.588981628 0 -14647733.588981628 -6934248.4992675781 0 0 0 0 -1652035.5424801782 -24436512.773553539 0 -24436512.773553539 -16211871.262873195 0 0 0 0 54294844.92993927 -44917816.278038025 0 -44917816.278038025 -17087667.026489258 0 0 0 0 50554799.859176636 -50485106.454025269 0 -50485106.454025269 -15753215.255126953 0 0 0 0 -12593409.115273524 -10796605.846276734 0 -10796605.846276734 11898368.625761557 0 0 0 0 -78324035.613967896 -73244666.85459137 0 -73244666.85459137 -54569523.312789917 0 0 0 0 -22930805.005997062 -36836802.708697326 0 -36836802.708697326 8836388.7820118666 0 0 0 0 40312340.321136475 -56724138.50982666 0 -56724138.50982666 4135176.8613128662 0 0 0 0 -2337629.3665866852 66265424.667053223 0 66265424.667053223 430428182.01190186 0 0 0 0 -26434831.627040863 -5324238.528137207 0 -5324238.528137207 348269710.28652954 0 0 0 0 24251024.149431229 -88601588.711063385 0 -88601588.711063385 -4569409.1415557861 0 0 0 0 -24541371.497774467 -35721898.856654666 0 -35721898.856654666 -20857106.989674687 0 0 0 0 94847484.979188919 -72728367.376846313 0 -72728367.376846313 -158484777.55432129 0 0 0 0 -622968.12323565735 -16563445.878182877 0 -16563445.878182877 -9841653.2759301662 0 0 0 0 -34598857.785961002 -17916799.094640214 0 -17916799.094640214 48618860.588573299 0 0 0 0 -238176525.15426064 -364855553.45295715 0 -364855553.45295715 86375619.845199585 0 0 0 0 -38519795.303541221 -16636762.727526955 0 -16636762.727526955 48922450.115553014 0 0 0 0 -115095866.34870911 -99770427.946853638 0 -99770427.946853638 31905449.823028564 0 0 0 0 -178953997.78573608 -119451497.40792847 0 -119451497.40792847 26799819.801258087 0 0 0 0 -119166528.97497559 -62908343.128416061 0 -62908343.128416061 -53322539.966522217 0 0 0 0 -245573061.90119934 -18144846.299346924 0 -18144846.299346924 65543623.035888672 0 0 0 0 -101610645.0351944 -91408816.735626221 0 -91408816.735626221 1502516.0191040039 0 0 0 0 -119437118.1078701 -24438084.971728086 0 -24438084.971728086 49572822.210021973 0 0 0 0 -72258119.204563141 -134054188.7561183 0 -134054188.7561183 -104367604.50582886 0 0 0 0 -8112781.613596186 -187172.79487407021 0 -187172.79487407021 9855797.703855224 0 0 0 0 1008889.0128936768 -13577883.506652832 0 -13577883.506652832 37012882.40599823 0 0 0 0 -9142403.0973629616 -12157614.174523717 0 -12157614.174523717 -1042784.069532454 0 0 0 0 14379576.161392212 29084398.551528931 0 29084398.551528931 -54797769.421163559 0 0 0 0 72704826.434814453 -37003771.18850708 0 -37003771.18850708 -33871739.205108643 0 0 0 0 5986993.9242858887 55598933.036247253 0 55598933.036247253 9116107.9706497192 0 0 0 0 -90495927.001358032 48689039.320846558 0 48689039.320846558 23143627.598739624 0 0 0 0 71754398.43937397 -17845858.66454792 0 -17845858.66454792 -2999257.0457992554 0 0 0 0 65998762.504337311 14363633.469480515 0 14363633.469480515 -1031977.3015899658 0 0 0 0 1877402.6989246383 97100.181879909709 0 97100.181879909709 238017.58960767835 0 0 0 0 48539319.443843842 -8051491.1045417786 0 -8051491.1045417786 -2498020.5261077881 0 0 0 0 39820406.883995056 -118132771.14329529 0 -118132771.14329529 75955065.493919373 0 0 0 0 -32523815.748977661 82631920.693748474 0 82631920.693748474 -104737643.35555935 0 0 0 0 83675203.698034286 -51653245.052646637 0 -51653245.052646637 -118183814.58197021 0 0 0 0 181557038.24108887 -434780693.93328094 0 -434780693.93328094 178481444.69735718 0 0 0 0 -223617981.66104126 -214392660.44942474 0 -214392660.44942474 167987914.1907196 0 0 0 0 -2185760.2703356966 -399791.54557842948 0 -399791.54557842948 2413881.5214759558 0 0 0 0 171052180.48399353 -328441746.38311005 0 -328441746.38311005 324322030.25646973 0 0 0 0 173403375.72668266 -440476528.61623192 0 -440476528.61623192 451195169.12628174 0 0 0 0 29815763.910675049 -30716556.326450348 0 -30716556.326450348 -29327448.846542358 0 0 0 0 177683534.55531311 -227461116.96948242 0 -227461116.96948242 448369457.95668268 0 0 0 0 -2888345.5886824802 -1041910.7232610285 0 -1041910.7232610285 3873795.2141861171 0 0 0 0 45749273.607006073 -308674856.38585663 0 -308674856.38585663 444832242.47467041 0 0 0 0 474206143.12589264 -507274968.42901039 0 -507274968.42901039 334198520.22418976 0 0 0 0 308879178.4704895 -63807656.983337402 0 -63807656.983337402 -27562179.288803101 0 0 0 0 181522591.78359985 -327930135.93256378 0 -327930135.93256378 160619371.26698303 0 0 0 0 -420496461.95941925 8696957.0278053284 0 8696957.0278053284 173209734.92653275 0 0 0 0 -3822385.1952608135 -3284051.1217499562 0 -3284051.1217499562 3755465.192467548 0 0 0 0 -225792432.95822525 48486863.357097626 0 48486863.357097626 196635814.51722717 0 0 0 0 -68381161.60760498 -61536010.886955261 0 -61536010.886955261 -228135094.82402039 0 0 0 0 -4117383.9294012208 -5844551.5567591228 0 -5844551.5567591228 1293366.9676789492 0 0 0 0 -37765792.119262695 -244127370.12905121 0 -244127370.12905121 36826852.035919189 0 0 0 0 279350675.12918091 -153016947.90796661 0 -153016947.90796661 278796826.4821701 0 0 0 0 -68523920.499526978 -266754966.96470642 0 -266754966.96470642 278247316.39431763 0 0 0 0 -1822880.0965576172 -52059153.561500549 0 -52059153.561500549 123270698.80979919 0 0 0 0 779590.0348770991 -1469465.5877688881 0 -1469465.5877688881 1924129.0413851812 0 0 0 0 483079776.15868759 -549837121.25312996 0 -549837121.25312996 317240970.41795349 0 0 0 0 211935783.76687241 -269108613.8623867 0 -269108613.8623867 340947783.29740906 0 0 0 0 43040014.831829071 -7572635.3471603394 0 -7572635.3471603394 -21284729.421333313 0 0 0 0 130552799.05765724 -82130338.349428177 0 -82130338.349428177 -106674541.81671143 0 0 0 0 -9452762.7582303025 -13139574.670765748 0 -13139574.670765748 -785703.59609716386 0 0 0 0 -567779415.13612366 7624733.5663833618 0 7624733.5663833618 55823077.927719116 0 0 0 0 -773720915.19283295 -340372024.8660717 0 -340372024.8660717 28674728.039367676 0 0 0 0 -946319302.27879333 -375603957.15763855 0 -375603957.15763855 237920968.75048447 0 0 0 0 -575104113.55189896 -261061528.03982925 0 -261061528.03982925 38109949.9269104 0 0 0 0 -39993908.237632751 53631126.248756409 0 53631126.248756409 -54642232.940013885 0 0 0 0 -563394474.48448181 -223148489.51813126 0 -223148489.51813126 -111079266.40318298 0 0 0 0 -390004.37317814678 685910.41604576446 0 685910.41604576446 1018436.0627216436 0 0 0 0 -208261218.21739197 60403059.144744873 0 60403059.144744873 -170263196.80521965 0 0 0 0 -45567996.423248291 -48346179.694049835 0 -48346179.694049835 22331615.357315063 0 0 0 0 -147409319.35450363 -59589803.82998848 0 -59589803.82998848 32389503.462966919 0 0 0 0 -560872301.33229065 -101858717.88720322 0 -101858717.88720322 152689123.74572754 0 0 0 0 -819406851.01750183 358005970.56196594 0 358005970.56196594 -2180191.1987819672 0 0 0 0 -966351595.26377106 257486291.00016403 0 257486291.00016403 176898214.63162231 0 0 0 0 -152960554.86183167 -91269321.713989258 0 -91269321.713989258 -140183759.61035156 0 0 0 0 -283082122.93319702 -77460512.893890381 0 -77460512.893890381 56351236.329483032 0 0 0 0 -395865327.06027985 -205002981.01423264 0 -205002981.01423264 -7913311.4313354492 0 0 0 0 -1206459.8647180796 914202.20517233014 0 914202.20517233014 651748.03298207186 0 0 0 0 48115919.512491226 65893636.241962433 0 65893636.241962433 -45023687.721603394 0 0 0 0 -415571957.04277039 -26792365.627059937 0 -26792365.627059937 124808858.1101265 0 0 0 0 -1265451917.1487732 -99507558.539642334 0 -99507558.539642334 137396251.62827682 0 0 0 0 -1128855266.6185417 446252133.68364334 0 446252133.68364334 -33348638.267456055 0 0 0 0 -710797413.62449837 265830643.59434128 0 265830643.59434128 -748500320.54811096 0 0 0 0 -597558542.04037857 -511640300.63956451 0 -511640300.63956451 -441211012.59825134 0 0 0 0 -2613164.3300716318 -1602168.9403142687 0 -1602168.9403142687 -182600.89114048332 0 0 0 0 -475409091.39982986 516325129.65196991 0 516325129.65196991 -1247911651.0850372 0 0 0 0 -1045355529.9674282 -582242199.80462837 0 -582242199.80462837 275344629.21286774 0 0 0 0 -731747471.5959549 -600077924.10333252 0 -600077924.10333252 -591561469.81986809 0 0 0 0 -892155157.7017355 -260032121.44893742 0 -260032121.44893742 349396752.96224976 0 0 0 0 -4722864.0864892639 -4320155.0337423198 0 -4320155.0337423198 -2664920.9506523088 0 0 0 0 -357595726.90511322 551426580.53829575 0 551426580.53829575 -442411085.8106842 0 0 0 0 329842953.84139252 391778092.91098595 0 391778092.91098595 43323170.13066864 0 0 0 0 -389723243.95970917 127169493.21381378 0 127169493.21381378 -90578320.10282135 0 0 0 0 125732189.14683533 79674123.5990448 0 79674123.5990448 -433616796.62221825 0 0 0 0 212573801.72445679 -328443090.81759262 0 -328443090.81759262 74485157.756698608 0 0 0 0 109830472.53326035 11227161.500900269 0 11227161.500900269 -250159858.4223938 0 0 0 0 422200551.58470154 -170851613.58333588 0 -170851613.58333588 -297097062.18199158 0 0 0 0 290364300.74850464 -35779476.997360229 0 -35779476.997360229 -311023963.97484207 0 0 0 0 1034971292.6502838 -346965610.07456207 0 -346965610.07456207 -188035102.07415009 0 0 0 0 255402163.72216606 -655933821.94448853 0 -655933821.94448853 428081939.35258484 0 0 0 0 27858228.201004028 -290649305.69771576 0 -290649305.69771576 83853335.365951538 0 0 0 0 -250706226.26554108 -413145454.46541595 0 -413145454.46541595 537271919.32737732 0 0 0 0 148460945.48239899 -403843044.69417953 0 -403843044.69417953 188622162.48123169 0 0 0 0 -254080529.75587463 -142609036.02830505 0 -142609036.02830505 249883397.65904999 0 0 0 0 34298511.753204346 -217697334.03992462 0 -217697334.03992462 266953986.85633469 0 0 0 0 -78121274.182312012 -334621752.08903503 0 -334621752.08903503 -147186167.16742897 0 0 0 0 -2745823.7323368862 -518572.00838023797 0 -518572.00838023797 3495047.036238037 0 0 0 0 -184602683.30833435 -2069299337.1407623 0 -2069299337.1407623 343198853.36187744 0 0 0 0 30928219.088592529 368617681.16690063 0 368617681.16690063 -959224489.45690918 0 0 0 0 1020528622.3117275 -301954469.67268753 0 -301954469.67268753 -68375973.652587891 0 0 0 0 -190589.6215396598 -3547268.1437322497 0 -3547268.1437322497 -2427035.5215465836 0 0 0 0 -30440240.005134583 35140178.803478241 0 35140178.803478241 653089895.72616577 0 0 0 0 857929342.98912048 49852957.369117737 0 49852957.369117737 -31015503.238418579 0 0 0 0 -4638232.4025033005 -16170436.793397328 0 -16170436.793397328 -14777288.462051775 0 0 0 0 557847884.32749939 38148621.882461548 0 38148621.882461548 -3672302.6694717407 0 0 0 0 483004266.00115204 -354285792.82350922 0 -354285792.82350922 -47002494.777206421 0 0 0 0 1831810.2805862427 -30952395.970298767 0 -30952395.970298767 -3115020.7070236206 0 0 0 0 2862487.1789560318 -26587936.241932392 0 -26587936.241932392 -885309.52298736572 0 0 0 0 -662862.22967076302 -26830031.138942003 0 -26830031.138942003 2706214.1307296753 0 0 0 0 79949548.360733032 -493666428.24778748 0 -493666428.24778748 -176751247.53604507 0 0 0 0 135885950.66330719 59833652.126823425 0 59833652.126823425 -497502173.90919495 0 0 0 0 187682658.60665131 -248267599.01467896 0 -248267599.01467896 421604377.07322693 0 0 0 0 759137130.08633423 -562491382.62042236 0 -562491382.62042236 -22538844.731513977 0 0 0 0 694055868.78536224 -414367799.37968445 0 -414367799.37968445 -65659256.945510864 0 0 0 0 200653231.71993256 -316905980.36972427 0 -316905980.36972427 13882883.881080627 0 0 0 0 547397299.59261322 -524669963.96930695 0 -524669963.96930695 236983597.31916809 0 0 0 0 -86846727.368751526 -367654780.69395447 0 -367654780.69395447 62133614.080423355 0 0 0 0 -360065400.92870331 -128357060.01816368 0 -128357060.01816368 11538639.917495728 0 0 0 0 113432715.35939026 -180838455.43413544 0 -180838455.43413544 194590289.80010223 0 0 0 0 61394878.057998657 -384419814.70079803 0 -384419814.70079803 215194979.41149139 0 0 0 0 -1842432.2612546906 206511.58886773326 0 206511.58886773326 2285043.0980859697 0 0 0 0 718193772.59676278 -631061588.04767132 0 -631061588.04767132 178725354.83049774 0 0 0 0 -4718008.6228529736 -12561598.428137999 0 -12561598.428137999 -13875910.631753214 0 0 0 0 17518719.533760071 -40881568.190086365 0 -40881568.190086365 15717847.680427551 0 0 0 0 28568653.72454071 -24547543.164356232 0 -24547543.164356232 3531467.2396621704 0 0 0 0 13446074.312324524 -27539188.415258408 0 -27539188.415258408 21339776.02381897 0 0 0 0 740737138.51906753 -225092680.89306021 0 -225092680.89306021 396762760.39257812 0 0 0 0 738442198.47756195 -1032699778.2350616 0 -1032699778.2350616 277956366.53856134 0 0 0 0 1759019.0699081421 -28394012.798355103 0 -28394012.798355103 3371438.9931716919 0 0 0 0 2727342.0879211426 -28877896.866592407 0 -28877896.866592407 8933240.9425897598 0 0 0 0 3584965.1286468506 -31389432.703865051 0 -31389432.703865051 8271179.4942474365 0 0 0 0 19332017.929946899 -35372852.672035217 0 -35372852.672035217 5200873.6575317383 0 0 0 0 11387087.145618439 -27284298.501485825 0 -27284298.501485825 -849906.80970001221 0 0 0 0 10059371.708648682 -29237075.361820221 0 -29237075.361820221 7954688.9040756226 0 0 0 0 13809856.448493958 -29751640.138082504 0 -29751640.138082504 6455214.8907012939 0 0 0 0 7406991.1513557434 -30660715.590702057 0 -30660715.590702057 7994744.7442016602 0 0 0 0 7493140.7641601562 -29610779.102966309 0 -29610779.102966309 13354721.326610565 0 0 0 0 4528626.9591827393 -30492490.357959747 0 -30492490.357959747 8337114.7492103577 0 0 0 0 3838274.6544799805 -31926864.30140686 0 -31926864.30140686 8805838.6263694763 0 0 0 0 544425.90539550781 -31073068.639972687 0 -31073068.639972687 10238291.891708374 0 0 0 0 -823438.55064058304 -31539329.717432261 0 -31539329.717432261 10082206.521209717 0 0 0 0 -331640.30244350433 -36855969.234001875 0 -36855969.234001875 4631489.0500869751 0 0 0 0 10256865.555992126 -36241919.795606613 0 -36241919.795606613 -3668289.019821167 0 0 0 0 15125540.000183105 -30959166.169670105 0 -30959166.169670105 -1107710.6412887573 0 0 0 0 10341919.783554077 -28884984.181972504 0 -28884984.181972504 -279841.88584136963 0 0 0 0 13257518.823799133 -22553845.904067993 0 -22553845.904067993 -1189830.9852027893 0 0 0 0 15964390.866153717 -28822191.242183685 0 -28822191.242183685 -15988797.937973022 0 0 0 0 18606106.871307373 -41034890.863643646 0 -41034890.863643646 -19083562.247550964 0 0 0 0 20318867.750572205 -37075802.060691833 0 -37075802.060691833 -12422408.801597595 0 0 0 0 -22903476.494303972 -23704314.617105246 0 -23704314.617105246 -17013611.29733761 0 0 0 0 18832672.892684937 -42996653.650083542 0 -42996653.650083542 -6118404.2613677979 0 0 0 0 302339523.27496719 -316898240.67017961 0 -316898240.67017961 26246505.728940487 0 0 0 0 -4879175.1238568537 -9716579.9215473719 0 -9716579.9215473719 -10313590.869735792 0 0 0 0 29241286.321784973 -56820187.749801636 0 -56820187.749801636 9199060.1268310547 0 0 0 0 -7318040.0486297607 -40497954.984397888 0 -40497954.984397888 17576965.43998909 0 0 0 0 15174892.600502014 -32789596.65145874 0 -32789596.65145874 -1396777.7444381714 0 0 0 0 7734384.537437439 -11735308.965011597 0 -11735308.965011597 -21674601.529399872 0 0 0 0 10285831.939689636 -70744884.774991989 0 -70744884.774991989 -32307551.862400055 0 0 0 0 22505612.408252716 -37575183.017015934 0 -37575183.017015934 -54379686.843856812 0 0 0 0 -20337819.359901428 53961434.15530777 0 53961434.15530777 -112701794.50184631 0 0 0 0 21844203.335952759 -84862616.369777679 0 -84862616.369777679 -75164831.098861694 0 0 0 0 5994644.0127639771 -138104862.37723541 0 -138104862.37723541 -195620482.27021027 0 0 0 0 20336728.514465332 -194211342.72383118 0 -194211342.72383118 -104627140.56310368 0 0 0 0 -5178362.8008599617 -6101986.6324959369 0 -6101986.6324959369 -3416725.2199536562 0 0 0 0 367355495.98893738 -346638805.73085022 0 -346638805.73085022 -1156422532.7024632 0 0 0 0 1140835.4289703369 192647035.85144806 0 192647035.85144806 -659214462.39703369 0 0 0 0 1865496024.5709381 -1116686360.6406326 0 -1116686360.6406326 115024666.39915466 0 0 0 0 21784355.580871582 -1285555184.7884598 0 -1285555184.7884598 401732237.14541435 0 0 0 0 -4458046.7042458318 294194.62615956925 0 294194.62615956925 4568834.4865613468 0 0 0 0 603619151.34212899 320909315.57039142 0 320909315.57039142 202275091.22483826 0 0 0 0 -2953872926.9977264 683778462.30554199 0 683778462.30554199 915565440.14689636 0 0 0 0 -852122182.98469543 1300887814.2593155 0 1300887814.2593155 580749669.99550438 0 0 0 0 -4629229891.7820435 -3193712319.9753113 0 -3193712319.9753113 -4144836627.3338013 0 0 0 0 -3951963.1288274676 192030.95110164583 0 192030.95110164583 3554428.3096101284 0 0 0 0 -79263476.73755312 812779807.32888865 0 812779807.32888865 571094967.44377136 0 0 0 0 112895988.27312469 749225399.22484779 0 749225399.22484779 -845008568.26976013 0 0 0 0 983558954.6173172 729314604.88666153 0 729314604.88666153 -327832813.25390625 0 0 0 0 1023449755.9959717 971562633.59583664 0 971562633.59583664 725695613.75006104 0 0 0 0 -285834010.6076355 -720161574.85651398 0 -720161574.85651398 1016006538.9720154 0 0 0 0 -267231007.96786499 -916141124.67214966 0 -916141124.67214966 -261296161.86383247 0 0 0 0 1626239348.0590744 3895279534.3719406 0 3895279534.3719406 1417184282.6623688 0 0 0 0 -977892453.16836548 -1722076660.9394608 0 -1722076660.9394608 -1127502723.8431091 0 0 0 0 -2553244633.0264721 492840617.41827869 0 492840617.41827869 41643564.993377686 0 0 0 0 -8310188.4526829496 663516.33962612413 0 663516.33962612413 2611768.5095246807 0 0 0 0 -581837405.73208618 -1043969569.9211426 0 -1043969569.9211426 -2679723106.7118387 0 0 0 0 -71550292.286865234 997563775.25751495 0 997563775.25751495 -1231980469.7404642 0 0 0 0 -427366668.12936401 116842393.21767521 0 116842393.21767521 -74548268.939208984 0 0 0 0 -1443793078.2086029 -526253419.18816757 0 -526253419.18816757 -43096893.81072998 0 0 0 0 -28585963.054686546 -89891994.182099342 0 -89891994.182099342 -1315781034.2866516 0 0 0 0 -582288903.73318481 -746004329.16107941 0 -746004329.16107941 -1042457718.9096718 0 0 0 0 -3124885579.1830902 -1519625601.2117195 0 -1519625601.2117195 -552121638.21608734 0 0 0 0 -1293809357.1392136 -163551268.64914322 0 -163551268.64914322 157947791.03755569 0 0 0 0 -1174787236.8210831 103883427.33660889 0 103883427.33660889 569365985.61125946 0 0 0 0 -1912553149.0541153 -6237597.5471000671 0 -6237597.5471000671 576726347.1114502 0 0 0 0 -1015821175.8618813 276552152.99482727 0 276552152.99482727 569587000.40091705 0 0 0 0 -811516750.60961914 -338038721.36566925 0 -338038721.36566925 197749887.91546631 0 0 0 0 -753206176.36068726 -93509283.418304443 0 -93509283.418304443 224172837.02362061 0 0 0 0 -560373954.93128967 -62612341.163475037 0 -62612341.163475037 208818729.63285446 0 0 0 0 -591750925.11883545 -298680007.47925568 0 -298680007.47925568 190497682.42045593 0 0 0 0 -619812564.18110657 233689496.3879776 0 233689496.3879776 598154455.85504913 0 0 0 0 -854858917.60178375 60345636.211490631 0 60345636.211490631 540627085.48158264 0 0 0 0 -864974893.48651886 121643535.92424011 0 121643535.92424011 171962018.76295686 0 0 0 0 -805619769.61705875 95274676.627706051 0 95274676.627706051 293731758.81391907 0 0 0 0 -778685170.30975342 283439512.99036407 0 283439512.99036407 408920246.27423096 0 0 0 0 -146492317.30667114 156470813.05045319 0 156470813.05045319 257036792.37910843 0 0 0 0 116655316.59681034 -148228531.1739645 0 -148228531.1739645 136743593.18371582 0 0 0 0 -488418626.96672058 -127618199.07999802 0 -127618199.07999802 204771926.52045441 0 0 0 0 249301910.30367279 -119132754.87293625 0 -119132754.87293625 259747575.30789948 0 0 0 0 -237534009.21115875 41374266.296432495 0 41374266.296432495 236715422.86025238 0 0 0 0 395571817.23154449 545244865.32316589 0 545244865.32316589 140537483.16569519 0 0 0 0 -734214137.95137405 507472038.71276855 0 507472038.71276855 246950617.23132324 0 0 0 0 -939971529.639328 269017202.6605072 0 269017202.6605072 412590109.95558929 0 0 0 0 
</DataArray>
<DataArray type="Float64" Name="cross_section_updated" format="ascii">
1 1 1 1 1 0.054210220973581538 1 1 1 1 1 1 1 0.051789951838709783 1 1 1 1 0.054334417372784057 1 1 0.045448768458873183 1 1 1 1 0.067515540933697632 1 1 1 1 0.061283775657001889 1 1 1 1 1 1 1 1 1 1 1 1 1 0.050382988349042708 1 1 0.049939565630533006 1 1 1 1 1 0.047763424972733393 1 1 1 1 1 1 1 0.069496819176104008 1 1 1 1 0.051880382779479157 1 1 1 1 1 1 1 1 1 0.052001606778866033 1 1 0.049084192100261513 1 1 0.040826520942836494 1 1 1 1 0.048831062163571741 1 1 1 1 1 1 1 0.051196197551011124 0.04999754462408737 0.05055879594969228 1 1 0.050389946424902743 1 1 1 1 1 0.050324255370913104 1 1 1 1 1 1 1 1 1 1 1 1 1 0.049694314672705492 1 1 1 0.050422209971411155 1 1 1 1 1 1 0.049970124848880818 1 1 1 1 1 1 1 1 1 1 1 1 1 1 1 1 1 1 1 1 1 1 1 1 1 0.050113239444494952 1 1 1 0.052223213789431414 1 1 0.050523952776549891 1 1 1 1 1 1 1 1 1 1 1 0.049843761549552258 1 1 1 1 1 1 1 1 0.04927023992220679 1 1 1 1 1 1 1 1 0.047854304160357436 1 1 1 1 1 1 1 1 1 0.05074592430237472 1 1 1 1 1 1 1 1 1 1 1 1 1 1 1 1 1 1 1 1 1 1 1 0.050005787482624006 1 1 1 0.07103843571483838 1 0.049831871464501548 1 0.060315018443026322 1 1 0.036650826019512694 1 1 1 0.04493587036269675 1 0.055740151619702444 1 0.049630990385681285 1 0.059771286814007243 0.057262020051375699 1 0.052735954094744762 1 1 0.053775229347851075 1 0.045892772926720254 1 1 1 0.052581983786293376 1 0.054536106652184363 0.050446115651434781 1 1 0.047410005451352023 1 1 1 0.052646038407546246 1 0.04020728602595075 0.043187912260931827 0.052340686220126893 1 0.049997603799066162 1 1 1 0.049940669189929489 1 0.044673626353635837 0.055491678998397825 0.050332659678854322 1 1 0.043839475597867737 0.044000541513116567 1 1 1 1 0.040131030797584309 1 0.050033228588212131 1 1 0.04653247967427919 1 1 1 0.052752656267638531 1 0.050948824428424688 0.054084059973112948 0.051027775798231652 1 1 1 0.048575439004633278 1 0.053369134372263281 0.042086607258536468 0.049253729020815595 0.044224900272169125 1 1 1 0.051163166045441133 0.050001966837311548 1 1 0.057003795218273548 0.045142190047395461 0.045946322856700764 1 0.047871243397781954 1 1 1 1 0.050010995264037683 1 1 1 1 1 1 1 0.047749517760800206 1 1 1 1 1 1 0.050630624372698302 0.05000761079609594 1 1 1 0.047276106830704975 1 1 1 0.05000484682718806 1 0.045024303914568464 1 0.058984479893712527 0.038167631977985256 1 1 1 1 0.049591260462746159 1 1 0.038346822689457515 1 1 1 1 0.050059303985129949 1 0.050018720286086303 1 1 1 1 1 0.05731849266825724 0.040502829737532421 1 1 1 1 1 1 1 1 0.050272811446201424 1 1 1 0.050811568309500468 1 1 0.05151637968550897 1 0.050001506035766918 1 1 1 1 1 1 1 1 1 1 1 0.037636399165959983 1 0.051618056353064615 1 0.040878826614232429 1 1 1 0.051378022336692968 1 0.049979141003078043 1 0.054115662800209796 1 1 1 1 1 1 0.045468000271613671 1 0.054230107611710834 1 1 1 0.046509907441003917 1 1 1 0.041604595759274901 1 0.054198365921903156 0.035388586910052353 1 1 1 1 0.051094182436852764 1 1 1 1 0.061033107621235864 0.036588731810128894 1 1 0.045744744167789883 1 0.047718501665003472 1 0.048962408150502186 0.046851874578535742 1 1 1 0.050016185909453628 1 1 1 1 0.058879331616806904 1 1 1 1 1 1 1 1 1 1 1 0.050017411384672521 1 1 1 1 0.043129869907809884 1 1 1 0.055779602759762265 1 0.047139622081999281 0.05033634833285576 0.050000492489814502 1 1 1 0.038475922457143027 0.058743963365549656 1 0.062483817038456138 1 1 0.051843631375350127 1 1 1 1 0.059616235313057722 1 1 1 1 1 1 1 1 1 1 1 0.062229713403535863 0.030275705334222053 1 1 0.058029650309214038 1 1 1 0.049976795557437469 1 1 1 1 1 1 0.0391530350778009 1 1 1 0.049022174119183123 1 1 1 0.0510114733684933 1 1 1 1 1 1 1 1 1 1 1 0.039726687000746858 1 1 1 0.040378155267926812 1 1 1 1 1 1 1 0.051058379987741223 1 1 1 1 1 0.053100181782494385 1 1 1 1 1 1 1 1 1 1 1 1 1 1 1 1 1 1 1 0.049217185674629876 1 1 1 1 0.049266555156492309 1 1 0.049652310096050992 1 1 1 1 1 1 1 0.049591572716734242 1 1 1 1 1 1 1 1 0.05001995620309016 1 0.048756524674290418 1 1 0.052653472375478759 1 1 1 0.051290253489439767 1 1 0.049202369571910723 1 1 1 0.053748563805772996 1 0.051072504991537031 1 1 0.049994128224326181 1 0.053593237302803257 1 1 1 1 1 1 1 1 1 1 1 1 1 1 1 1 1 1 1 1 1 1 0.050231613264949418 1 0.051081274980141367 1 0.050353297776612779 1 1 1 1 1 1 1 1 1 1 1 1 1 1 1 0.050129662145317333 1 1 1 1 1 1 1 1 1 0.050101951119632081 1 1 1 1 1 1 1 1 1 1 1 1 1 1 1 1 1 1 1 1 1 1 1 1 1 1 1 1 1 0.050080433496886879 1 1 0.049981589139358809 1 1 1 0.052284994435781953 0.044276629544199073 1 0.044829319754048323 1 1 1 1 1 0.051899518929634757 1 1 1 1 1 0.051475930921446811 1 1 1 1 1 1 1 1 1 1 1 1 1 1 1 1 1 1 1 1 1 1 1 1 1 1 1 1 1 1 1 1 1 1 1 1 1 1 1 1 1 1 1 1 1 1 1 1 1 0.049210571534278894 1 1 1 1 1 1 1 1 1 1 1 1 1 1 1 0.045844117857357744 1 1 1 1 0.048269605156523177 1 1 1 1 1 1 1 1 1 1 1 1 1 1 1 1 1 1 1 1 1 1 1 1 1 1 1 0.046656677951098249 1 1 0.051660371333655086 1 0.058665951653816439 0.048141577411622699 0.047923133377737695 0.03421499435151603 1 1 0.050058704640951954 1 1 1 1 1 1 1 1 1 1 1 1 1 1 1 1 1 0.060318506310832541 1 1 0.053493655502303894 1 0.04530163335169983 1 1 1 1 0.066351932092314159 1 0.049728168020217678 1 1 1 1 0.050144774822565727 1 1 1 0.049008505751396085 1 1 1 1 1 0.055406932882136044 1 0.048178921422269705 1 1 0.049323128900027449 0.045294698386361909 1 0.051592211389506155 1 1 1 1 1 1 1 1 1 1 1 0.064434472405273113 1 1 1 0.063360893718234126 1 1 1 0.045700951356538767 1 1 0.06612645145457749 0.050161042119815043 0.050070850826776502 1 1 1 1 1 1 1 1 1 1 1 0.050061087245211314 1 1 1 1 1 1 1 1 0.06548199561602118 0.075879529490282593 0.064824484380935743 1 1 1 1 1 1 1 1 0.071634145970417867 0.050133151080580765 1 1 1 0.046902638125332283 1 1 0.051315368390388243 1 1 1 1 1 1 1 1 1 1 1 0.050406155220032119 1 1 1 1 1 1 1 1 0.05052948191053893 1 1 1 1 1 1 1 1 1 1 0.0499705316722973 1 0.050429644295906371 0.055826253958003148 0.053797691824327462 1 1 1 1 1 1 1 0.067356080966550852 0.071298153427991839 1 0.047703293737726894 1 1 1 1 1 0.048398270510229179 1 0.050159245788606976 0.054695740474152515 1 1 1 0.054945171220577967 1 0.055437181804769579 1 1 1 1 0.050035493992945185 1 1 1 1 1 1 1 1 1 1 1 1 1 1 1 1 1 0.048427986200272624 1 1 1 0.050688085819662977 1 1 1 1 1 0.049251911400338355 1 1 1 1 1 1 0.050277292328443517 1 0.05007525960853601 1 1 1 1 1 1 1 1 0.051514977906884411 1 1 1 0.047369833741861121 1 1 1 1 1 1 1 1 1 1 1 1 1 1 1 1 1 1 1 1 1 1 1 1 1 0.052371677973582956 0.047970052309309077 0.032569766609481798 1 1 1 1 0.054993780458600122 1 1 1 1 0.058150284048941958 1 1 1 1 1 1 1 0.048373109830244856 1 1 1 1 1 1 1 1 0.047255683676243249 1 1 1 1 1 1 1 1 1 1 1 1 0.045815927767361653 1 1 1 1 1 1 0.049651999777267759 1 1 1 1 1 1 1 1 0.050708855508481886 1 1 1 0.038301212685966056 1 1 1 1 1 1 1 1 1 1 1 1 0.048882573845998395 1 1 1 1 1 1 1 1 1 1 1 1 1 1 1 1 1 1 1 1 1 1 1 1 1 1 1 1 1 1 1 1 1 1 1 1 1 1 1 1 1 1 1 1 1 1 1 0.050383054219193056 1 1 1 1 1 1 1 1 1 1 1 1 1 1 1 1 1 1 1 1 1 1 1 1 0.048908989471717998 1 1 1 1 1 1 1 1 1 1 0.050092452042988997 1 1 0.046952057603432802 1 1 1 1 1 1 1 1 1 0.050465606973673881 1 0.050994323384344752 1 1 1 1 0.045323035433219472 1 1 0.05062846196576503 1 0.052256426463678236 1 1 1 1 1 0.051208008323148119 1 1 1 1 1 1 1 1 0.048619955504583388 1 1 1 1 1 1 1 1 1 1 1 1 1 1 0.051220135761477222 1 0.048646674124408248 0.049878615042466823 1 1 1 1 1 0.049952820751069042 1 1 1 1 1 1 1 1 1 1 1 1 1 1 1 0.050089862353444384 1 1 1 1 1 1 1 1 1 1 1 1 1 1 1 1 0.050525653588286243 1 1 1 1 1 0.052937954709498726 0.050562277396946131 1 1 0.051152756906138699 1 1 1 1 1 1 1 1 1 1 0.050425898858720203 1 1 1 1 1 1 1 1 1 0.052587928927716437 1 0.014652392610591952 1 1 1 1 1 0.051398529812362329 1 1 1 1 0.016543854820977432 1 1 1 0.055172875970139333 1 1 1 0.023910770861404255 1 1 0.051036636578077187 1 1 1 1 1 1 1 1 1 1 1 1 1 1 1 1 0.051519114600316523 1 1 1 1 1 1 1 0.050318909306108647 1 1 1 1 1 1 1 1 1 1 1 1 1 1 1 1 1 1 1 1 1 1 1 1 1 1 1 0.023830192842052594 1 1 1 1 0.050349524056915153 1 1 1 0.077852727878306258 1 1 1 1 1 1 1 1 1 0.075450393494406492 1 0.049993966631007455 1 1 1 1 1 1 1 1 1 1 1 1 1 1 1 1 1 1 0.049971554069672616 0.031944576823801932 1 1 1 0.052441530690593978 1 1 0.040143453393853265 1 1 0.046159550208508704 1 1 1 0.050356469615288085 1 1 0.048617550980637095 1 1 1 1 1 1 1 1 1 1 1 1 1 1 1 1 1 1 1 1 0.050882123203574332 1 0.048793718268549197 1 1 1 1 1 1 1 1 1 1 1 0.047993038553047339 1 0.049326028472667149 1 1 1 0.06878431902212237 1 1 1 1 1 0.049945124066324016 1 1 1 1 1 1 0.062134277492026879 1 1 1 1 1 1 1 1 1 1 1 0.057681622427107559 1 1 1 1 1 1 1 1 0.073495927261165578 1 1 1 0.062461299886732199 1 1 0.053421581420771178 1 1 1 1 1 0.046430921069202317 1 1 1 1 1 1 1 1 1 0.049996909452172673 1 1 0.035159420522227605 1 0.041834592648271884 1 0.056526672423364982 0.04475552050571429 0.048722677980135617 1 0.050143989554155888 1 1 1 1 1 1 0.063506107360604719 1 1 1 1 1 1 0.049627799382953607 1 1 1 1 1 1 1 0.064447143805006823 1 1 1 1 0.065148534249597975 1 1 1 1 1 0.047527500305630362 1 0.050053234238607754 1 1 1 1 1 1 1 1 1 1 0.049036830472828315 1 1 1 1 1 1 1 0.054398170146940109 1 1 1 1 1 1 1 0.049990104949846591 1 0.04860046085132283 1 1 1 1 1 1 1 1 0.033710566876967239 1 1 1 0.031004268424403379 0.049919155829627748 1 1 1 1 1 0.035752951382395357 0.05001339748584286 1 0.037549097535851519 1 1 0.057480564984930371 1 1 0.056022042761274614 1 1 1 1 1 1 1 1 0.072676078809895683 1 1 1 1 1 0.010999320956503571 1 1 1 1 0.025316698207722355 1 1 0.027812742875694491 1 1 1 1 1 1 1 1 1 1 1 1 1 1 1 1 1 1 1 1 1 1 1 1 1 1 1 1 1 1 1 1 1 1 1 1 1 1 1 1 1 0.051641397861270408 1 1 0.049875038530247225 1 1 1 1 1 0.047809835617287702 1 1 1 1 0.051500737512053849 1 1 1 1 1 1 1 1 1 1 1 1 1 1 1 1 1 1 1 1 1 1 1 1 0.048054968827303292 1 1 1 0.049135663054923437 1 1 1 1 1 1 0.049801674320376098 1 1 1 1 1 1 1 1 1 1 1 0.040985153773017757 1 0.050651094989353815 0.046554043158489773 1 1 0.046789162213865219 1 1 1 1 1 1 1 1 1 1 1 0.037315662755192297 1 1 0.045489956333750109 1 1 1 1 1 1 1 1 1 1 1 1 1 1 1 0.040963930627406997 1 1 1 1 1 1 1 0.050101520115370932 1 0.047923485378702224 1 1 1 1 0.049743340957851226 1 0.05106881432739991 1 1 1 1 1 1 1 1 1 0.052915353217857786 1 1 1 1 1 1 1 1 1 1 1 1 1 1 1 1 1 0.050504251773898112 1 1 1 1 1 1 1 1 1 1 1 1 1 1 1 1 1 1 1 1 1 1 1 1 1 0.052187942949641235 0.050094739787227373 1 1 1 1 1 1 1 1 1 1 1 0.052863799288337482 1 1 1 1 0.057223639832005964 1 1 1 1 0.055493630674408656 1 1 1 1 1 1 1 1 0.046033483056437709 1 1 1 1 1 1 1 1 1 0.049293829093206239 1 1 1 1 1 1 1 1 1 1 1 1 1 1 1 1 1 1 1 1 0.092245069785363398 1 1 1 1 1 1 1 1 1 1 1 1 1 1 0.037714956614547601 1 0.049807021661776946 1 1 1 1 1 1 1 1 0.039364363950673172 1 1 0.049608695982153055 1 1 1 1 1 1 1 1 1 1 1 1 1 1 1 1 1 1 1 1 1 1 1 1 1 1 1 1 1 1 1 1 1 1 1 1 0.049790018899728165 1 1 0.049782449802617888 1 1 1 1 0.056620596596477578 1 0.045982019930540033 1 1 0.047366511092391199 1 0.047756875297781234 1 1 1 1 1 0.049028189215828286 1 1 1 1 1 1 1 1 1 1 1 1 0.063419945037666792 1 1 1 0.058029755581877888 1 1 1 1 1 1 1 1 1 0.043660583450256661 1 1 1 1 0.045051211131275623 0.054521214779663082 1 1 1 1 1 1 1 1 0.050076142062967573 1 1 1 1 1 0.02745280405868647 1 1 1 0.032775157426133274 1 1 1 0.090183438741428326 1 1 1 1 0.036420084250485804 1 1 1 1 1 1 1 1 1 1 1 1 1 1 0.064549951101104244 1 1 1 1 1 1 0.054943245101140348 1 0.064620754082130583 0.049998424907449927 1 0.054442716588911859 1 0.046589349976585669 1 1 1 1 0.050410297714736929 1 1 1 1 0.051120349851897805 1 1 1 1 1 1 1 1 1 0.048879666587843887 1 1 1 1 1 1 1 1 1 1 1 1 1 1 0.047608352669796836 1 1 1 0.049863913040658389 1 1 1 0.049663412712492666 1 0.049962795482151656 1 1 1 1 1 1 1 1 1 1 1 1 1 1 1 1 0.047798203264513422 1 1 1 1 1 1 0.042887931172524145 1 1 1 1 1 1 1 1 1 1 1 1 1 1 1 1 1 1 0.030324877669882899 1 1 1 1 1 1 1 1 1 1 1 1 1 1 1 1 1 1 1 1 1 1 1 1 1 1 1 1 1 1 1 1 1 1 0.052781262194925738 1 1 1 1 0.049720611616754985 1 1 1 1 1 1 1 0.035160818798404173 1 1 1 1 1 1 1 1 1 0.066712977772909937 1 1 0.024719226882027212 1 1 1 1 1 0.050035547136582224 1 1 1 0.054119987623175374 1 1 0.049111295479349802 1 1 1 1 1 1 1 1 1 1 1 1 1 1 1 1 1 1 1 1 0.067901042679064313 1 1 1 1 1 1 1 1 1 1 0.043265359345503802 0.068937462569707619 1 0.023895647548896219 1 1 1 1 1 0.0218670845261381 1 1 1 1 0.046807470159249326 1 1 1 1 1 0.050267780250985092 1 0.05026732872444882 1 1 0.054607088250509188 1 1 1 1 1 1 1 1 0.051541013922435014 1 1 1 1 1 1 0.049858621514261743 1 1 1 1 1 1 0.049500597540468073 1 1 1 1 0.048507673591938152 1 1 0.049982876828236752 1 0.047556420574403277 1 1 0.049983885349385401 1 1 1 1 1 1 0.049237804354654337 1 1 1 1 0.050017316871595913 1 1 1 1 1 1 1 1 0.048992531257285463 0.046481976656074279 1 1 1 1 1 1 1 1 0.050179867991044527 1 1 1 1 1 1 0.049989569429646143 1 1 1 1 1 1 1 0.048393514227893134 1 1 1 0.043266575808261099 1 1 1 1 1 1 1 1 1 1 1 1 0.056614291373786166 1 1 1 1 0.060627565276429304 1 1 0.044892505950047734 1 1 1 1 0.049277765639308128 1 1 1 0.049932847798524055 0.047973472649132064 1 1 1 0.050158557977224974 1 1 1 0.059783779528008875 1 1 1 1 1 1 1 1 1 0.047097640638173073 1 1 1 0.049972154799484463 1 1 1 1 1 1 1 1 1 1 1 1 0.051085847590573635 1 0.050056081803790189 1 1 0.065439896062264025 1 1 0.058226487328778678 1 1 1 1 1 1 1 0.049974294040408394 1 1 1 1 1 0.050046023599890778 1 0.067070776639681293 1 1 1 0.049269485548468939 0.048625864896956812 1 0.043478149464274196 0.056016522875136601 1 0.057479160990540054 1 1 1 1 1 1 0.049499068246314795 1 0.031830353832512204 1 1 1 1 1 1 1 1 1 1 1 1 1 0.050009549212461979 1 1 0.043704196304887026 1 0.048416656099454058 1 1 0.037211058230849338 1 1 1 0.047899785742588394 0.054404330718288929 1 1 0.034422837519347264 1 1 1 1 1 1 1 1 1 1 1 1 1 1 1 1 1 1 1 1 1 1 1 0.051471891249567643 0.050043803680790123 1 0.050266368840171168 1 0.049835049523744769 1 1 0.0499986689432486 0.049272808340137815 1 1 0.050002209509579329 1 1 0.04854770599023002 1 1 0.050675600452509045 1 0.049902389709752505 1 1 1 1 0.049966412940012431 1 1 1 1 0.050298009854738403 1 0.051901886496837704 0.048538451908246891 1 0.047999902009252277 1 1 0.050430623885714912 0.051926821909620044 1 1 1 0.049228494754300946 1 1 1 1 0.043993377846560218 0.051097520482907159 1 1 1 1 1 0.049792770255919196 1 1 1 1 1 1 1 1 1 1 1 0.043606960338892553 1 0.05469741473547466 1 0.061050368430053535 1 1 0.050001236332777803 1 0.060442634349653461 1 1 1 1 1 1 1 1 0.05115318054584421 1 1 0.048342098000307629 1 1 1 1 0.049999116076955619 1 1 1 1 1 1 1 1 1 1 1 1 0.05192391919074716 1 1 1 1 1 1 1 1 1 1 1 0.049839513903156503 1 1 1 1 1 1 0.049857703729402202 1 0.04789975559853947 1 1 0.049539318526107816 1 1 1 1 1 1 1 1 1 1 1 1 1 1 1 1 1 0.050695904758352187 0.052853766576178615 1 1 1 0.050161767940815324 1 1 0.053850353944779168 1 1 1 1 1 1 1 1 1 1 1 1 1 1 1 1 1 1 1 1 1 1 1 1 1 0.049992725018744133 0.063178234202341643 1 1 1 1 1 1 1 1 1 1 1 0.064395056915948296 1 1 1 1 1 1 1 1 1 1 1 1 1 1 1 1 1 1 1 1 1 1 1 1 1 1 1 1 1 1 1 1 1 0.050212457921717225 1 1 1 1 1 0.050138336320643018 1 1 0.049098382003913303 1 1 0.056768226397751038 0.028019275644352186 1 1 1 1 1 1 1 1 1 1 1 1 1 0.030964203760356898 1 1 0.049685778593403881 1 1 1 1 1 1 0.050007785048061346 1 1 0.034173887578860009 1 1 1 1 1 1 1 1 1 1 1 1 1 0.033424623867846323 1 1 1 1 1 1 1 0.050010706249741486 1 1 1 1 1 1 1 1 1 1 1 1 0.049776973950150571 1 1 0.049919270220748359 1 1 1 1 1 1 1 1 1 1 1 1 1 1 1 1 1 1 1 1 0.036791304814798691 1 1 0.0498927885866585 1 0.046296952985164425 1 1 1 0.050038495240056338 1 1 0.053355928461359281 1 0.040312942957877206 1 1 1 0.05414000414227467 1 1 1 1 0.050109287223373031 1 1 1 1 1 1 1 0.050287309413320221 1 1 1 0.051566720265339303 1 1 1 1 1 1 1 1 1 1 1 1 0.048735646449676776 1 1 1 1 1 1 1 1 0.048958193493451714 1 1 1 1 1 1 1 1 1 1 1 0.051617264396673836 1 1 1 1 1 1 1 1 1 1 1 1 1 1 1 1 1 1 1 0.047048916813919213 0.052311729381397117 1 1 1 0.050773863047394258 1 1 1 1 1 1 1 1 1 1 1 1 0.049804959131848729 1 1 1 1 1 1 1 1 1 0.049486954866298831 1 1 1 1 1 1 1 1 1 1 1 1 1 1 1 1 0.054726159284939055 1 0.050732489260741004 1 1 1 1 1 0.053669305132539091 1 1 1 1 0.04983321602850127 1 1 1 0.049972697186385404 1 1 1 0.051753961361448261 1 1 1 1 1 1 1 1 1 0.050917472898237781 1 1 1 0.052487102870754768 1 1 0.050301837244062141 1 1 1 1 1 1 0.050203420783283763 1 1 1 1 1 1 1 1 0.050279222681761812 1 1 1 0.050211774742937372 1 1 1 1 1 1 1 1 1 1 1 1 1 1 1 1 1 1 1 1 1 1 1 1 1 1 1 0.051029088294605167 1 1 1 1 1 1 1 0.050430724221534037 1 1 1 1 1 1 1 1 1 1 1 1 1 1 1 1 1 1 1 1 1 1 1 1 1 0.050121050520485377 1 0.050010479780168808 1 1 1 1 1 1 0.050593017050408015 1 1 1 0.049641804717910361 1 1 0.049021902551519517 1 1 1 1 1 1 1 1 1 1 1 1 0.094215115983726228 1 1 1 1 1 0.093919193042735549 1 1 1 1 1 1 1 1 1 1 1 1 1 0.05048244631009146 1 1 1 0.051099781021750709 1 1 1 1 1 1 1 1 1 1 1 1 0.053121578613526649 0.036756659591980809 1 1 1 1 0.037541127769694815 1 1 1 1 1 1 1 1 1 0.050105520268750273 0.054985540256005605 1 1 1 1 1 0.056616088572173207 1 1 1 1 1 0.050100581078761794 1 1 1 1 1 0.049957789731034673 1 0.063141095017953924 1 1 1 1 0.050585824190841268 1 0.052272733787434397 1 0.040778784471644132 0.049978880697819868 1 1 1 1 1 1 1 0.049874892817367289 0.050524475156885892 1 1 1 1 1 1 0.049993773763031289 0.043249792704231904 0.047723830959297157 1 0.053486943989533242 0.053020507327728228 1 1 1 0.047291325482389089 1 1 1 1 1 0.037941624074318954 0.050537528023105058 0.04999952887463642 1 0.043911513643365638 1 1 1 0.050055486698345558 1 0.047950522125223542 0.049633166250243728 1 1 1 1 1 1 1 0.050895842316044521 0.049430964384728805 1 1 0.048084932730291415 0.055368149865642639 0.044566108430960691 1 1 1 1 1 1 1 1 1 1 1 1 1 1 1 1 1 1 1 1 1 1 1 1 1 1 1 1 1 1 1 1 1 1 1 1 1 1 1 1 0.050056686611018447 1 1 1 1 1 1 1 1 1 1 0.050765285456739917 1 1 1 1 1 1 0.052403431118821148 1 1 0.054853790252029994 1 1 1 1 1 1 1 1 1 1 1 1 1 0.048143153037246283 1 0.044340343002170338 1 1 1 1 0.048138795432660753 1 1 1 0.038415516473361291 1 1 0.036666104252431289 1 1 1 0.050019043374566613 1 1 0.050080033862525936 1 1 1 1 1 0.050084041363165827 1 1 1 1 1 1 1 0.050036998076249492 1 1 1 1 1 1 1 0.035810730022760674 1 1 0.035347029768668409 1 1 1 1 0.050862969672323247 1 0.049580982899134048 1 1 1 1 1 0.052852591651102857 1 1 1 1 0.048662255627239095 1 1 1 1 1 1 0.045802853376251763 0.067882288283054898 1 1 1 1 1 0.034713713635359161 1 1 0.048443524098421412 1 1 1 1 1 1 1 1 1 1 0.0485120959561786 1 1 1 1 1 1 1 1 1 1 1 1 1 1 1 1 1 1 0.049518421364065465 1 1 1 1 1 1 0.050003560966439049 1 1 1 1 1 1 1 0.053980096643426831 0.049993382325827264 1 1 1 1 0.050031450617931808 1 1 1 1 1 1 1 0.050282036992374671 1 1 0.063186468063698265 1 0.04798254448665154 0.0393618063664593 0.061186713474066873 1 1 1 1 1 1 0.060142092507121894 1 1 1 1 1 0.049994866005207868 1 1 1 1 0.059294759566119279 1 1 1 0.044222064901796504 1 1 1 0.045056129852934702 1 1 1 1 1 1 1 1 1 1 1 1 1 1 1 1 1 1 1 1 1 1 1 1 1 0.046573245934806592 1 1 1 1 1 1 1 0.04840612315221908 1 0.045320315097499744 1 1 1 1 1 1 0.033665678692939058 1 1 0.048403434997466292 1 1 1 0.050060906455674882 1 1 0.051543876318355622 1 1 1 1 1 0.050162240495913002 1 1 1 0.0500498699072848 0.050366213038130311 1 1 1 1 1 1 1 1 1 1 1 1 0.048841633320911584 1 1 1 1 1 1 1 1 1 0.0464885563384346 1 1 1 1 1 0.049896657897298261 0.059144190460627709 1 1 1 1 1 1 1 1 1 0.051194470861628816 1 1 1 1 1 1 1 1 0.055638232711110111 1 1 1 1 1 1 1 1 1 1 1 1 1 1 1 1 1 1 0.0514388324497446 1 1 1 1 0.05300555271508392 1 0.051871059276026331 1 0.050367254822983154 1 1 1 1 1 1 1 1 1 1 1 1 1 1 1 1 1 0.049983205989326318 1 1 1 1 1 0.054607804042396658 1 1 1 0.047587318392172118 0.057154364352720352 1 1 1 1 1 0.053934007452076223 1 1 1 1 0.051503281215095141 1 1 1 1 1 1 1 1 0.055293065110260477 1 1 1 1 1 1 1 0.053346927927017701 1 1 1 1 1 1 1 1 1 0.049622964867575364 1 1 1 1 1 1 1 1 1 1 1 1 1 1 1 1 1 1 0.050244635701528942 1 1 1 1 1 1 1 1 1 1 1 1 1 0.04945810590130769 1 1 1 1 1 1 0.049990004402134497 1 1 0.050067447938824464 1 1 0.04995876036008897 1 1 1 1 1 1 1 1 1 1 1 1 1 1 1 1 1 1 1 1 1 1 1 1 1 1 0.049929322536140713 1 0.052537563161538854 1 0.049996557970375069 0.048723244326204146 1 1 1 0.046768089035313529 1 1 1 1 1 1 1 1 1 0.050681892293873293 0.048399336444947129 1 0.028630383632583294 1 1 1 1 1 1 1 1 1 1 1 1 1 1 0.050002442416263983 1 0.053056309149740397 0.055070576665902218 1 0.041527778955212397 1 1 1 1 1 1 1 1 1 0.05328825578490469 0.050524456397170306 1 1 1 1 1 1 1 1 1 1 1 1 1 1 1 1 1 1 1 1 1 1 0.048469748268112053 1 1 1 1 1 0.050785344991706782 1 1 1 1 1 0.052615147819637893 1 1 1 0.043954187383951626 1 1 1 1 1 1 1 1 1 0.047704912592226832 1 1 1 1 0.028994466174065495 1 1 1 1 1 1 0.051729867936438134 1 1 1 1 1 1 1 0.051178597357382997 1 1 1 1 0.05337433251011648 1 1 1 1 1 1 1 1 1 1 0.04919130258049275 1 1 1 1 0.051379000741622188 1 1 1 0.037100141690253691 1 1 1 1 1 0.063704106955752932 1 1 1 1 1 1 1 1 1 1 1 1 1 1 0.054482683832489033 0.028138803369906831 1 1 0.036617376470562221 1 1 1 1 1 1 1 0.051510578306869108 1 1 1 1 1 1 0.052762234003488111 1 1 1 1 1 1 1 1 1 1 1 1 1 1 1 1 1 1 1 1 1 1 1 0.057145815752805425 1 1 1 1 1 1 1 1 0.049842844049404339 1 1 1 1 0.048940081690527215 1 1 1 1 1 0.05995559436309849 1 0.049948261035652725 1 0.045686997794554964 1 1 1 1 1 1 1 0.049984491399796896 1 1 1 0.051353747359767332 1 1 1 1 1 0.046217219639436542 1 1 1 1 1 0.04996862858641183 1 0.050002504808814283 1 1 0.049667245517491368 1 0.046200951749272842 1 1 1 1 1 0.052809361052005795 1 1 1 0.058529465973344505 1 1 1 1 1 1 1 1 1 1 0.049567222898482879 1 1 1 1 1 1 1 1 1 1 1 1 1 1 1 1 1 1 1 1 1 1 0.053735999177179652 1 1 1 1 1 1 1 1 1 1 1 1 1 1 1 1 1 1 0.060073893895725108 1 1 1 0.064995364420820462 1 1 1 1 1 1 0.037469332302903127 1 1 1 0.046316780486347291 0.045880574723542761 1 0.058359153957045613 1 0.048123459792654762 0.042478694746413408 1 0.04235155019292567 1 1 0.05000786064956108 1 1 0.048661084032624771 0.049941708861951012 1 1 1 1 1 1 1 1 0.050016889282062674 1 0.050004710378017805 1 1 1 1 1 1 1 1 1 1 1 1 1 1 1 1 1 1 1 1 1 1 0.04269917022581636 1 1 1 1 1 1 1 1 0.03976263928045793 1 1 0.049837421288923142 1 1 0.037017571676973449 0.04980078405126246 1 1 0.049935907678979263 1 1 1 1 1 1 1 1 1 1 1 1 1 1 1 1 1 1 1 1 1 1 1 1 1 1 1 1 1 1 1 1 1 1 1 1 1 1 1 0.037911249183963831 1 0.038003492875367195 1 1 1 1 1 1 1 1 1 1 1 1 1 1 1 1 1 1 1 1 1 1 1 1 1 1 1 1 1 1 1 1 1 1 1 1 1 1 1 1 0.054074012386146911 1 1 0.055757072990442899 1 1 1 1 1 0.049205758745105091 1 0.049737113335089608 1 1 0.05209641877917421 1 1 1 1 1 1 0.052273667945885734 1 1 1 1 1 1 1 1 1 1 1 0.050207781220712656 1 1 0.026317370278337936 0.038037192164781089 1 0.036014450834577189 1 1 0.061868233963175083 1 1 1 1 0.03711555740375095 1 1 1 1 1 1 1 1 1 0.050024839915558145 1 0.029992437836332819 1 1 1 1 1 1 1 0.04998282220213103 1 0.054421086924727677 1 1 1 1 1 1 1 1 1 0.049570783314117697 1 0.05346058370997904 1 1 1 1 1 1 1 1 1 1 0.048598769799534147 1 1 1 0.031259154205510509 1 1 0.050004949877942913 1 1 0.046734869224212383 1 1 1 1 0.04811132021706261 1 1 1 0.049968755957954455 1 1 1 1 1 1 1 1 1 1 1 1 1 1 0.04938794105455456 1 1 1 1 1 1 0.049589014166465856 1 0.05004798449117407 1 0.029097901052674777 1 1 1 0.049852450621720661 1 1 1 1 1 1 1 1 0.026224162710938814 1 1 1 1 1 0.050010524307373738 1 1 0.024412784383927175 1 1 1 1 1 1 1 1 1 0.041355022306437825 1 1 1 0.047057413516584948 1 1 1 1 1 1 0.035863834211275376 1 1 1 1 1 1 1 1 1 1 1 1 1 1 1 1 1 1 1 1 1 1 1 1 1 1 1 1 1 1 1 0.053737903901939596 1 1 1 1 1 0.051041179052917558 1 1 0.050665727793687311 0.053788952036204409 1 1 1 1 0.058028528343302632 1 1 1 1 1 0.050179503148857538 1 1 1 1 1 1 1 1 1 1 1 1 1 1 1 1 0.051657447928272232 1 1 1 1 1 1 1 1 0.052839479226223375 0.055502429911097634 1 1 1 1 1 1 0.05307474657174114 1 1 1 1 0.04854224389104414 1 1 1 1 1 1 1 1 1 1 1 1 1 1 1 1 1 1 1 1 1 1 1 1 0.053080976114103999 1 1 0.051000520140436621 1 1 1 1 1 1 1 1 1 1 1 1 1 1 1 1 1 1 1 1 1 1 1 1 1 1 1 0.051523110403236712 1 0.053177229939395582 1 1 1 1 1 0.056299035132628537 1 1 1 1 1 1 1 1 1 1 1 1 1 1 1 1 1 1 1 1 0.045084595894306911 0.054667531792480004 1 0.047148858404586526 1 1 1 1 1 1 1 1 1 1 1 1 1 1 1 1 0.04859996499619159 1 1 1 0.049595125356798844 1 1 1 1 1 1 1 1 1 1 1 1 1 0.053121805193232952 1 1 1 1 1 1 1 1 1 1 1 1 1 1 1 1 1 1 1 1 1 1 0.019930541622393012 1 1 1 1 1 1 1 1 1 1 1 1 1 0.024316607388745956 1 0.078608027352526644 1 1 0.043537308137800226 0.062937019788446527 1 1 1 1 1 1 1 1 1 1 1 1 1 1 1 1 1 1 1 1 0.049579712605409346 1 1 0.012961468613178404 1 1 1 0.049233988684076448 1 1 1 1 1 1 0.011845512683959437 1 1 1 0.048879290264541131 1 1 1 1 1 1 1 1 0.049956051672339248 1 1 0.059886874623687233 1 1 0.029133965976501277 1 0.032574036252957149 1 1 1 1 0.041533864326385568 0.027314337598994071 1 1 0.047279941306118255 0.028537754835707488 1 1 0.061960256388742932 1 1 1 1 0.049918624010234391 1 1 0.05931989885229505 0.065337917484439678 1 0.050022815840003586 1 1 1 1 1 1 1 1 1 1 1 1 1 1 1 1 1 1 1 1 0.059410065445736855 1 1 1 1 0.058626596398720893 1 1 1 1 0.050502458500191583 0.050738841494528411 1 1 1 1 1 1 1 1 1 1 1 1 0.050146430220896841 1 1 1 0.092323657340889487 1 1 1 1 1 1 1 0.088416078333176343 1 1 1 0.048684927611655049 1 1 0.049893688940663788 0.05015764252737448 1 1 1 0.082872705795399862 1 1 1 0.050052554525481234 1 1 1 1 1 1 1 1 1 1 1 1 1 1 1 1 1 1 0.050071483958251263 1 1 1 1 1 1 1 1 1 1 1 1 1 1 1 1 1 1 0.049866221975744564 0.050120904175302954 1 1 1 1 1 0.050033457370429406 0.049677973026674323 1 0.049845924909008403 1 1 1 1 1 1 1 1 1 0.031945423656595404 1 1 1 0.034833036822012789 1 1 1 1 1 1 1 1 1 1 1 1 1 1 0.030496897368962703 1 1 1 1 1 1 1 0.040642286896954233 1 1 0.0377395731692153 1 1 1 1 1 1 0.066107873729758293 1 1 1 1 0.064683009308644485 1 1 1 1 1 1 0.051896440308964287 1 1 1 1 1 1 1 1 0.049909483243301078 0.067353418760873196 1 1 1 0.049937582038690788 0.062036808349759776 1 1 1 1 1 0.049909501624075731 1 1 1 1 1 1 0.048347517078854908 1 1 1 1 0.05034485905544292 1 1 1 1 1 0.049445915449443267 1 1 1 1 0.053089999294868725 1 1 1 1 1 1 1 1 1 1 1 1 1 1 1 1 1 1 1 1 1 1 1 1 1 0.049804141508730575 1 1 1 1 0.041775402077439745 1 0.040378355645774945 1 0.040427882701869582 1 1 0.037300725536634945 1 1 0.060205759163416625 1 1 0.051610408495063501 1 1 1 1 1 1 0.049889212347816389 1 1 0.048880145089237395 1 0.048093771201173655 0.060898114965771181 0.04733653245894804 1 1 0.068016097363309019 1 0.050097774691271024 0.061712075890693142 1 1 1 0.054299982566144961 1 0.049947867638130125 1 1 1 1 1 1 0.049783697627234086 1 1 1 0.05004557935198365 1 1 1 1 1 1 1 0.046174442313677809 1 1 1 0.048426419401285566 1 0.05115198893931476 0.050462314164317346 1 1 1 1 1 1 1 0.051807827361018133 1 1 1 1 1 1 1 1 0.050425995727263292 0.047298701775797918 1 1 1 1 0.046483655627045761 1 1 0.04666128004138223 1 1 1 0.050000418770230731 1 1 1 0.047286980189846999 0.049736655550819978 1 1 1 1 0.050088669379547056 1 1 1 1 1 0.049347535149528346 0.048000756668814024 1 1 1 1 1 1 1 1 1 1 1 1 1 1 1 1 1 1 1 1 1 1 1 1 1 1 1 1 1 1 1 0.050895538851559168 1 1 1 0.049909275636515496 1 1 1 1 1 1 1 1 1 1 1 1 1 1 1 0.048760947839270465 1 0.050004603390863898 0.052893920349229094 1 1 0.047910251499991216 1 1 1 1 1 1 1 1 1 1 1 1 1 1 1 1 1 1 1 1 1 1 1 0.050168227965741358 1 1 0.048157272494406496 0.050028536097767515 1 1 1 1 1 1 1 0.048514059666072362 1 1 1 0.051130877501826447 1 1 1 1 0.050108940717093306 0.050039911766944695 1 1 1 1 1 1 1 0.047595100510342644 1 1 1 1 0.048439215045230827 1 1 1 1 0.049568510202430652 1 1 1 1 1 1 1 1 1 1 1 1 1 1 1 1 1 1 1 0.050665800387557733 1 1 1 1 1 1 1 1 1 1 1 1 1 1 1 1 0.04986528135840617 1 1 1 0.050014367281191165 1 1 1 1 1 1 1 1 1 0.049426485778318735 1 1 1 1 1 1 1 1 1 1 1 1 1 1 1 1 1 1 1 1 1 0.050297834969434865 1 1 1 1 1 1 1 1 1 1 1 1 1 1 1 1 1 0.051063356789646686 1 1 1 1 1 0.050090667156963739 1 1 1 1 1 1 1 1 1 1 1 1 1 1 1 1 1 1 1 1 1 1 1 1 1 1 1 0.049895868574078676 1 1 0.069871622770449643 1 1 1 0.072730263558801356 1 1 1 1 1 1 1 1 1 1 1 1 1 1 1 0.064039577861004698 1 0.052250983880764781 1 1 1 1 1 1 1 1 1 0.061350284060814164 1 1 1 1 1 1 1 1 1 0.052291627938617191 0.057238275334769002 1 1 1 1 1 1 1 1 1 1 1 1 1 1 1 1 1 1 1 1 1 1 1 1 1 1 1 1 1 1 1 1 1 1 1 1 1 1 1 1 1 1 1 1 1 1 1 1 1 1 1 1 1 1 1 1 1 1 1 1 1 1 1 1 1 1 1 1 1 1 1 0.052178103195720228 1 1 1 1 1 1 0.055971313678624027 1 1 1 1 1 1 1 1 1 0.052367267801162617 1 0.056084838421520983 1 1 1 1 1 1 1 1 1 1 1 1 1 1 1 1 1 1 1 1 1 1 1 1 1 1 1 1 1 1 1 1 1 1 0.046947600754408819 1 1 1 0.051192813516827876 0.050589677239556319 1 1 1 1 1 1 1 1 1 1 1 1 1 1 1 1 1 1 1 1 1 1 0.048980011023881262 0.050709243316303235 1 1 1 1 1 1 1 1 0.053980635781357422 1 1 1 1 1 1 0.054905430979214673 1 1 1 1 1 0.051016786455254731 1 1 1 1 0.050428235034326606 1 1 1 0.049809048533786038 1 1 1 0.050599198755963568 1 1 0.052338624762937186 1 1 1 1 1 1 1 1 1 1 1 1 1 0.050506220282515599 1 1 1 1 1 1 1 1 0.053215866963713665 1 1 1 1 1 1 1 1 1 1 1 0.048357425784157443 1 1 1 0.049496881052385047 1 1 1 1 0.051629751753893185 1 1 1 1 1 1 1 1 0.052476861414239739 1 0.044216621198882859 1 1 0.057239334843145286 1 1 1 1 1 0.046348044503795607 1 1 1 1 1 1 1 1 1 1 1 1 0.050768165848188655 1 1 1 1 1 1 1 1 1 0.052792643382180614 1 1 1 1 1 1 0.051612036285662577 1 1 1 1 1 1 1 0.051376347511859002 1 1 1 1 1 0.052144513360047683 1 1 1 1 1 1 1 1 1 1 1 1 1 1 1 1 1 1 1 1 1 1 1 1 1 1 1 1 1 1 1 1 1 1 1 1 1 1 1 1 1 1 1 1 1 1 1 0.049028113319307051 1 0.047590437104817342 1 1 1 1 1 1 1 1 1 1 1 1 1 1 0.050275884180256941 1 1 1 1 1 1 1 1 1 1 1 1 1 1 1 0.057172441954935815 1 1 0.048981945485218524 1 0.044064538373264218 1 1 1 1 1 0.045531715274821971 1 1 1 1 1 1 1 1 1 1 1 1 1 1 1 1 1 1 1 1 0.061959417095032832 1 1 1 1 1 1 1 1 1 1 1 0.063526518287530892 1 0.049845924346167469 1 1 0.064505901917729674 1 0.034740593242050158 1 1 1 1 1 1 1 0.050202094994395353 1 0.084653262556971406 1 1 1 1 0.093903142548729196 1 1 1 1 0.049500363715622109 0.060167389085294842 1 1 0.063188053844101422 1 1 1 1 1 1 1 1 1 1 1 1 1 1 1 1 0.053292355389451547 1 1 1 1 1 1 1 1 1 1 1 1 1 1 0.059610200856458143 1 0.050167830305588509 1 1 1 1 1 1 1 1.0408340855860843e-16 1 0.0060054891796224516 1 1 1 1 1 1 1 1 1 0.050307313167276026 0.10050919827673023 1 1 1 0.073850841265268696 1 1 1 1 0.033086270971341487 1 0.063833637925529346 1 1 0.044144319457773327 1 0.030293977512301631 0.031705438281932591 0.048195101838712853 1 1 0.049975792034481145 1 1 1 0.031775366988356715 0.065558034572351848 0.067251340206525595 1 1 1 1 1 1 1 1 1 1 1 0.060988720063521448 1 1 1 1 1 1 0.10041189023811505 1 1 1 0.049473870247976295 1 1 1 1 1 1 1 1 0.055834828452274055 1 1 1 0.051836046820895341 1 1 1 1 1 1 1 1 1 1 1 1 1 1 1 1 1 1 1 1 1 1 1 1 1 1 1 1 1 1 1 1 1 1 1 1 1 1 1 1 1 1 1 1 1 1 1 1 1 1 1 1 1 1 1 1 1 1 1 1 0.047875560327775797 1 1 1 1 1 0.044339222867081418 1 1 1 1 0.048723735827850952 1 1 1 0.040429054906314002 1 1 1 1 1 1 1 1 1 1 1 1 1 1 1 1 1 1 1 1 1 1 1 1 1 1 1 1 1 1 1 1 1 1 1 1 1 1 1 1 0.0520186934977864 1 1 0.05587376150333688 1 1 1 1 1 1 1 0.049165220954416611 1 1 1 1 1 1 1 1 1 1 1 0.047465408972409966 1 1 0.049959522861619678 1 0.046448436804918079 1 1 1 0.059534096672888254 1 1 1 1 1 1 1 1 0.050189351539535958 1 1 1 1 0.048948314291724082 1 1 1 1 0.06219516160827826 1 0.047412214941926809 1 1 1 1 1 1 1 1 1 1 1 1 0.060848454867597712 1 0.06174684509638588 1 1 1 1 1 1 1 1 1 1 1 1 1 0.049183492162458986 1 1 1 1 1 1 1 1 1 0.048586187681533 1 1 1 0.049402695519073989 1 1 1 1 1 1 1 1 1 1 1 1 1 1 1 1 1 1 1 1 1 1 1 1 1 1 1 1 1 1 1 1 1 1 1 0.045543484750538744 1 1 0.05013950798388353 1 1 1 1 0.052454297714846915 1 1 1 1 1 1 1 1 1 1 1 1 1 1 1 0.047503854312317191 1 1 1 1 1 1 1 1 1 0.051408039602695535 1 0.049095036397932112 1 1 1 1 1 1 1 0.0506077138920858 1 1 1 1 1 1 1 1 1 1 1 1 1 1 0.050652832506951892 1 1 1 1 1 1 1 1 1 1 1 0.051089728664077683 1 1 1 1 1 1 1 1 1 1 1 1 1 1 1 1 1 1 1 1 1 1 1 0.050299294833431721 1 0.049058155330978293 1 1 1 1 1 1 0.060778142158701642 1 0.0477139086594894 1 1 1 0.061368841882172981 1 1 1 0.036364600964416051 1 1 1 0.062201557472208763 1 1 0.040193678833904505 1 1 1 1 1 1 1 0.046170998737903798 1 1 1 1 1 1 1 0.05644224529818978 1 1 1 1 1 1 1 1 1 1 1 1 1 0.053563105493855241 1 1 1 1 1 1 1 1 0.061175267045323833 1 1 1 1 1 1 1 1 1 1 1 1 1 1 1 1 1 1 1 1 0.051628758157771168 1 1 1 1 1 1 1 1 1 1 1 1 1 1 1 1 1 1 1 1 1 1 1 1 1 1 1 1 1 1 1 1 1 1 1 1 1 1 1 1 1 1 1 1 1 1 1 1 1 1 0.048321069013779569 1 0.058606320017356654 1 1 1 0.046014801686086494 1 1 0.050393891157017909 0.061568728960901681 1 0.045786759577599555 1 1 1 1 1 1 1 1 1 1 1 1 1 1 1 1 1 1 1 1 1 1 1 1 1 1 1 1 1 1 1 1 1 1 1 0.049751060372204906 1 1 1 1 0.049252572332456022 1 1 0.066513443784470147 1 1 1 0.050051709557149229 1 1 1 1 0.046877556737553144 1 0.05000765556685146 0.047775708177562444 1 1 1 1 0.046338751987183721 1 1 1 0.049144579171122471 1 1 1 0.049970250615016483 1 1 1 1 1 1 0.050359802695602376 1 1 1 1 1 1 1 1 1 1 1 1 1 1 1 1 1 1 1 1 0.048868455435396987 1 1 1 1 1 1 1 1 1 1 1 1 1 1 1 1 1 1 0.0512285855264632 1 1 0.053447353083473204 1 1 0.041904475504789263 1 1 1 1 1 1 1 1 1 1 1 0.05535459414762068 1 1 1 1 0.048288208023708958 1 1 1 1 0.050203652755104453 1 1 1 0.048617376602608092 1 1 1 1 1 1 1 1 1 1 1 1 1 1 1 1 1 1 1 1 1 1 1 1 1 0.052471550268286392 1 1 1 1 1 1 1 1 0.048618862322981848 1 1 1 0.044356413356129457 1 1 1 1 1 1 1 1 1 1 1 1 1 1 1 1 1 1 1 1 1 1 1 1 0.034942561087567311 1 1 1 0.057403505497714849 1 1 1 1 1 1 1 1 0.038122224679509632 1 1 0.054715016127827969 1 1 1 1 0.051613870924650536 1 1 1 1 1 1 1 0.031606520743334449 1 0.052361266301366519 1 1 0.052384557033682763 1 1 0.036140990396106618 0.04999174762379846 1 1 1 1 1 1 1 1 1 1 1 1 1 1 1 1 1 1 1 1 1 0.022814018013098653 1 1 1 1 0.027151989990174728 1 1 1 1 1 1 1 1 1 1 1 1 1 0.020808179284652464 1 1 0.049194584876193048 1 1 1 1 1 1 1 1 1 1 1 1 1 1 1 1 1 1 1 1 1 1 1 1 1 1 1 1 1 1 1 1 1 1 1 1 1 1 1 1 1 1 1 1 1 1 1 1 1 1 1 1 1 1 1 1 1 1 1 1 1 1 1 1 1 1 1 1 1 1 1 1 1 1 1 1 1 1 1 1 1 1 1 1 1 1 1 1 1 1 1 1 1 1 1 1 1 1 1 1 1 1 1 1 1 1 1 1 1 1 1 1 1 1 1 1 1 1 1 1 1 1 1 1 1 1 1 1 0.050854147318265569 1 1 1 1 1 1 1 0.046943949706634805 1 1 1 1 1 1 1 1 1 0.0412753910771552 1 0.062160270279071519 1 1 1 0.055089196770408827 1 1 0.055924883747779444 1 1 1 1 1 1 1 1 1 1 1 1 1 1 1 1 1 1 1 1 1 1 1 1 1 1 1 1 1 1 1 1 1 1 1 1 1 0.053584288934586263 1 1 0.05688324184136119 0.038111602739076413 1 1 0.049277234804677453 1 1 0.067513743844779803 1 1 1 0.063604612811497874 1 1 1 1 1 1 1 1 1 0.057103284217548331 1 1 1 1 1 1 0.051834493453342352 1 1 1 1 1 1 1 1 1 1 1 1 1 1 1 1 1 1 1 1 1 1 1 1 1 1 1 1 1 1 1 0.01412546922614831 1 1 1 1 1 1 1 1 1 1 1 1 1 1 1 1 1 1 1 1 1 1 1 1 1 1 1 1 1 1 1 1 1 1 1 1 1 1 1 1 1 1 1 1 1 1 0.069981000188814091 1 0.046154913602458214 1 1 1 1 0.049068613232736535 1 1 1 1 0.069202285341347397 1 1 1 1 0.049512620951237353 1 1 1 1 1 1 1 1 0.04505870074526435 1 1 0.048003713898853495 1 0.049845150367429494 1 1 1 1 0.043643084329443312 1 1 0.062264135934712424 0.037691127232747146 1 1 1 1 1 1 0.050165057361735058 1 1 1 1 1 1 1 1 1 1 0.061666074515478182 0.056612537202470337 1 1 1 1 1 0.060235320121383717 1 1 0.048208448976885039 1 1 1 1 0.036160446517356185 1 1 0.049955139435669746 1 1 1 1 1 1 1 1 1 1 1 1 1 1 1 1 1 1 1 1 1 1 1 1 1 1 1 1 1 0.050242565601279217 1 0.050078625528649716 1 1 1 1 1 1 1 1 1 1 1 1 1 0.049627679346750317 1 1 1 1 0.076668903978320879 0.080508393944715678 1 1 1 1 1 1 1 1 1 1 1 1 1 1 1 1 1 1 1 1 1 1 1 1 1 1 1 1 1 1 1 1 1 1 1 1 1 1 1 1 1 1 0.049253716007191389 1 1 1 0.049626036660441075 1 1 1 1 1 1 1 1 1 1 1 1 1 1 1 1 1 1 1 1 0.072826459091508963 1 1 0.068888775477694147 1 1 1 1 1 1 1 1 1 0.049975536166274911 1 1 1 1 1 0.068034392281380723 1 1 1 1 1 0.049864411022668073 1 0.050058329613858227 1 1 1 1 1 1 1 1 1 1 1 1 1 0.05355494673694558 1 1 1 0.046541929509919713 0.064922524137888737 1 1 1 1 1 1 1 1 0.049942074466043401 1 1 0.061887840792774915 1 1 0.049999752330784547 0.055632074240206456 1 1 1 1 1 0.049973506504070481 1 1 1 1 1 1 1 0.05205622081048409 1 1 0.055928962988958157 0.049552078308331665 1 1 1 1 1 1 0.050317571943466213 0.050047199565024958 1 1 1 0.050112602437443324 1 1 1 1 1 1 1 0.048783717997301496 1 1 1 1 1 1 1 1 1 1 1 1 1 1 1 1 1 1 1 1 1 1 1 1 1 1 0.10745660686181978 1 1 1 1 1 1 1 0.049496554766604861 1 1 1 1 1 1 1 1 1 1 1 0.094241677807452906 1 1 1 1 1 1 1 1 0.049123912064101792 1 1 1 1 1 1 1 1 1 1 1 1 1 1 1 1 0.04873652533885707 1 1 1 0.049519241445451188 1 1 1 1 1 0.04611661039117218 1 1 1 1 1 1 1 1 1 1 1 1 1 1 0.054044118793033086 1 1 1 1 0.062800604170271626 1 1 0.072691664116242338 1 1 1 1 1 0.049980249583986204 1 1 1 1 1 1 1 1 1 1 1 1 1 1 0.048973912664263958 1 0.030642186417213876 1 1 1 0.057765937125502591 1 0.078550978761068924 1 0.02291367059441813 1 1 1 1 1 1 0.049760117253518941 0.10847080270967649 1 1 1 1 1 1 0.10504922326592327 1 0.048037378923156349 1 1 1 1 1 1 1 1 1 1 1 1 1 1 1 1 1 0.031155047006119999 1 1 1 0.049751907004562015 0.035776123821438077 1 1 1 1 1 0.049277981874637548 1 1 0.049422102274779917 0.049919289725073791 1 1 1 1 1 1 1 1 1 1 1 1 1 1 1 1 1 1 1 1 1 1 1 1 1 1 1 1 1 1 1 1 1 1 1 1 1 1 1 1 1 1 1 1 0.02883941893202922 1 1 0.06600496586030237 0.058836431046810966 0.049596306058123332 1 1 1 1 1 1 0.049602168040599748 1 1 1 1 1 1 1 1 1 0.050044009157888744 1 1 1 0.037457425133190198 1 1 1 1 1 1 1 1 1 1 1 1 1 1 1 1 1 1 1 1 0.043532350702486663 1 1 1 1 0.047858118490018545 1 1 1 1 1 1 1 1 1 1 1 1 1 1 1 1 1 1 1 1 1 1 1 1 1 1 1 1 1 1 1 1 1 1 0.050873207021093818 1 0.050286599849891742 1 1 1 1 1 1 1 1 0.050208491954260068 1 1 1 0.053501689404675722 1 0.049921892104368336 1 1 1 1 1 1 1 1 0.07839207830289302 1 1 1 1 0.059861607220660216 1 1 1 1 0.058920964928696536 1 1 1 1 1 1 1 0.061788541206055488 1 1 1 1 0.055496058660940886 1 1 1 1 1 1 1 1 1 1 1 1 1 1 1 1 1 1 1 1 1 1 1 1 1 1 1 1 1 1 1 1 1 1 1 1 1 1 1 1 1 1 1 1 1 1 0.048363387565517404 1 1 1 1 0.04992615404771393 0.045814893429212383 1 1 0.041010539071243995 0.049305205111985093 1 1 1 1 1 1 1 1 1 1 1 1 1 1 1 1 1 1 1 0.049876918212584664 1 1 1 0.048903405572151969 0.049970989438433179 1 1 1 1 1 1 1 1 1 1 1 1 1 1 1 1 1 1 1 1 1 1 1 1 1 1 1 0.049753774409782986 1 1 1 1 1 1 1 0.051243145266961956 1 1 1 1 1 1 1 1 1 1 1 1 1 1 1 0.052944537123980992 1 1 1 1 1 1 1 1 0.049300266383067705 1 0.050898358694202131 0.04813456788796084 1 1 1 1 1 1 1 1 1 1 1 1 0.049604670618650606 1 1 1 1 1 1 1 1 1 1 1 1 1 1 1 1 1 1 0.043843697533144467 1 1 1 0.050836154113661554 1 1 1 1 1 1 1 1 0.050408671528254859 1 1 1 1 1 1 1 1 1 1 1 1 1 1 1 0.048346399725929211 1 1 1 0.049426644139847903 1 1 1 1 1 1 1 1 1 1 1 1 1 1 1 1 1 1 1 1 1 1 1 1 1 1 1 1 1 1 1 1 1 0.049534612141740597 1 0.049780439899050968 1 1 1 1 1 1 1 1 0.050053913813861373 1 1 1 1 1 1 1 1 1 0.050310282027876921 1 1 0.049171686087193495 1 1 1 1 1 0.049589177351989623 1 1 1 1 0.050061537240917636 1 1 1 1 0.051359275583120437 1 1 1 0.051083554213054536 1 0.0518141913808121 1 1 0.051220637513621214 1 1 1 1 1 1 1 1 1 1 1 1 1 1 0.05000875077259459 1 1 0.050013613261230244 1 0.049889586986484102 1 1 1 0.050112896491611852 1 1 0.053520946019813165 1 1 1 1 0.048899677632907923 1 0.049039492514958288 1 1 1 1 1 1 0.049646824445279888 1 0.049731329246036363 1 1 1 1 1 0.0409192373475726 1 1 1 1 0.048889777008158178 1 1 1 1 1 1 0.041852004825631707 1 1 1 1 1 1 1 1 1 1 1 1 1 1 1 1 1 1 1 1 1 1 1 1 1 1 1 1 1 1 1 1 1 0.04996588447227255 0.04997544692520093 1 1 1 1 1 1 1 1 1 1 0.04076241303724408 1 1 0.048896279322378368 0.04354643111076531 1 0.050000596889195371 1 1 1 1 1 1 1 0.042286455060704331 1 1 1 1 1 1 1 1 1 1 1 1 0.05080611457200146 1 1 1 1 0.050278780750335796 1 1 1 1 1 1 1 1 1 1 1 1 0.041558196975415636 1 1 1 1 1 1 1 1 1 1 1 1 1 1 1 1 1 0.042648129570913046 1 1 1 1 1 0.047766509074830807 1 1 1 0.04687679806748507 1 1 1 1 1 1 0.046623380000098913 1 0.039338851399064054 1 1 1 0.043902028450575808 1 1 1 1 1 1 1 1 1 0.032379694737693338 1 1 0.049920422756501548 1 1 1 1 1 1 1 0.048351343686739115 1 1 1 1 1 1 1 1 1 1 1 1 1 0.052256367012764461 1 1 0.047367968153398429 1 1 1 1 1 1 0.050030501668192139 1 1 1 1 1 1 0.026471905300818194 1 1 1 1 1 1 1 0.01459651703677893 1 1 1 1 1 1 1 1 1 1 1 1 1 1 1 1 1 1 1 1 1 1 0.04710096607243381 1 1 1 1 1 1 1 1 1 1 0.051412409955363871 1 1 1 1 0.054086180237362509 0.032900057147006966 1 1 1 1 0.036583436992127627 1 1 1 1 1 1 1 1 1 0.040235567503562233 1 1 1 1 1 1 1 1 1 1 1 0.039365815881549596 1 1 1 0.048317267136725586 1 1 1 0.046225183209335302 1 1 1 1 1 1 1 1 1 1 1 1 0.048323103058396863 1 1 1 1 1 0.049934936985931475 1 1 0.049831663591389755 1 1 1 1 1 1 1 1 1 1 1 1 1 1 0.050171207722126292 1 1 1 1 1 1 1 0.051020941031488243 1 1 1 0.052680489211964811 1 1 1 1 1 0.049801907774978449 1 1 1 1 1 1 1 1 1 0.049905181169520155 1 1 1 1 1 1 1 1 0.055046969934732369 1 1 1 1 1 0.048980434188936973 1 1 1 1 1 1 1 0.049623913438721357 1 1 1 1 1 1 1 1 1 1 1 1 1 1 1 1 1 1 1 1 1 1 1 1 1 1 1 1 1 1 1 1 1 1 1 1 1 1 1 1 1 1 1 1 1 1 1 1 0.048604761754125272 1 1 1 1 1 1 1 0.050138507786086625 1 1 1 1 1 1 1 1 1 1 1 1 1 1 1 1 1 1 1 1 1 1 0.048580372362667552 0.049650825907180791 1 1 0.050200742918135442 0.043673085583922445 1 1 1 1 1 1 1 0.041637210311324425 1 1 1 1 1 1 1 1 1 1 1 1 1 1 0.049412124413722128 1 1 1 1 1 1 1 1 0.049886838432629393 1 1 0.049871351416136134 1 1 1 0.04960278195984362 1 1 1 1 1 1 1 1 1 1 1 1 1 1 1 1 1 1 1 1 1 1 1 1 1 1 1 1 0.050459030629618755 1 1 1 1 1 1 1 1 0.049952053900037152 1 1 1 1 1 1 0.051614269931925402 0.049862344449080456 1 1 1 1 0.049487711584852025 1 1 0.050313800691615278 1 1 0.052076567798746157 1 1 1 1 1 1 0.05037191687662284 1 1 1 1 1 1 1 1 0.050050176145941518 1 1 1 1 1 1 1 1 1 1 1 0.050095336410403909 1 1 0.05004530091519814 1 1 1 1 1 1 1 0.051836948990507122 1 1 1 0.049544124790723752 1 0.047629098487104476 1 0.051103455352806033 1 1 1 1 1 1 1 1 1 1 1 1 1 1 1 1 1 0.041498935039754048 1 0.050005283975402479 1 1 1 1 1 1 1 1 1 1 0.044172317540007194 1 1 1 1 1 1 1 0.04941675151207732 1 1 1 0.050011114210792622 1 0.038547883377848896 0.050500973099029144 1 1 0.044976384922818941 1 1 1 1 0.036958714952578672 1 1 1 0.052055884622654765 1 1 1 0.038413445455616972 1 0.043824831425691504 0.032914158885557085 1 1 1 1 1 1 0.044097186144756183 1 1 1 1 1 1 1 1 0.048213360587082019 0.049993996026826422 0.049829612285947227 1 0.043769825633397999 1 1 0.042846706777062135 0.049998244470732284 1 1 0.057987048418767867 1 1 1 1 1 1 1 1 1 1 1 0.049982198195969066 1 1 1 1 1 1 1 1 1 1 1 1 1 0.056698290080070601 0.050196731750039483 1 1 1 1 0.053310239973578075 1 1 1 0.048584698000293705 1 1 1 1 1 0.051256155879997711 0.050001248619652272 1 1 1 0.048796706088914489 1 1 1 1 1 1 1 1 1 1 1 1 1 1 1 0.051822397000131012 1 1 1 0.045895425279430302 1 1 1 0.051033906444344024 1 1 1 1 1 1 0.032169902382910606 1 1 1 1 1 0.038351295762676221 1 1 1 1 1 1 1 1 0.05001080300234087 1 1 1 1 1 1 1 1 1 0.049220193272459217 1 1 1 1 0.050595181253477527 1 0.049885055484221771 1 1 0.053207989693097341 1 0.048197676959557283 1 1 1 1 1 1 0.048433966797726088 1 0.049982449329205293 0.03884253022885098 1 1 1 1 1 1 1 1 0.043683493916168076 1 0.050389648438401394 1 0.050060279633421273 1 0.036369823087517322 1 1 1 1 1 1 1 1 1 1 1 0.049925170728953805 1 1 1 0.050066031022624399 1 1 1 1 1 1 1 1 0.050140860293670583 1 1 1 1 1 1 1 1 1 0.050791740568720475 1 1 1 1 0.048822881793522011 1 1 0.046530851694814239 1 1 1 1 1 1 1 1 1 0.04116090982475161 1 1 1 0.044192345138280985 1 1 1 1 1 1 1 1 1 1 1 1 1 1 1 1 1 1 1 0.037589658223127265 1 1 1 1 1 1 1 1 1 1 0.048695022916316083 1 1 1 1 1 1 1 1 1 1 1 1 1 1 1 1 1 1 1 1 1 1 1 1 1 1 1 1 1 1 1 1 1 1 1 1 1 1 1 1 1 1 1 1 1 0.048955551748333742 0.049934175430171826 1 1 1 1 1 1 1 1 1 1 1 1 1 0.060367492549397397 0.05428427312402162 1 1 1 0.051648165414618911 1 1 0.038198073857267055 1 1 1 0.033420313705602937 1 1 1 0.046208846597626065 1 1 1 1 1 1 1 1 0.049883543822001886 1 1 0.049135327290050546 1 0.056815044333240597 0.052232379657879704 1 1 1 1 1 1 0.032523244245276403 1 0.054387124249680882 0.05001921856116523 0.049973850898135955 1 1 0.052494113385507649 1 1 0.034730478540112117 0.035485063145740202 1 1 1 1 1 1 1 1 1 1 1 1 1 1 1 1 1 1 1 1 1 0.034832420323238175 1 1 1 1 1 1 1 1 1 0.05081410494876952 1 1 1 1 1 1 1 0.049686656042837604 0.03342698905758567 1 1 1 1 1 1 1 1 1 1 1 1 1 1 1 1 1 1 1 1 1 1 1 0.049651390115073593 1 0.049994723083755702 1 1 1 1 1 1 1 0.046209972088707446 1 1 1 0.062085361813760856 0.035611541866608129 1 1 0.048469333803683373 1 1 1 1 0.063271755306050198 1 1 1 0.028802768689303863 1 1 1 0.054193755380027228 1 1 1 1 1 1 1 1 1 0.053305357778632115 0.048668592221090899 1 1 1 1 1 0.031814362885805816 1 1 0.069451987614895308 0.051525596988036923 0.062218337787938047 1 1 1 1 1 0.032509851175610782 1 1 1 1 1 1 1 1 1 0.050466693327845147 1 0.050198598840272918 1 1 1 1 1 1 1 1 1 1 1 1 1 1 1 1 1 1 1 1 1 1 1 1 0.047837002322057121 1 1 1 1 0.056419649247772777 0.043472930470239188 1 1 1 0.060566722636489448 1 1 1 1 1 1 1 1 1 1 1 1 1 1 1 1 0.017180881679549551 1 1 1 0.04989664858556063 1 1 0.048632112352331024 1 1 1 1 1 1 1 1 1 1 1 1 1 0.039212255617928099 1 1 0.025880016521356172 1 1 1 0.05887991504671862 1 0.05495425245594248 1 0.049531486790338621 1 0.049826009472924371 0.019499382745603974 0.049887727644962986 1 1 1 1 1 1 1 1 0.049488479551936915 1 1 1 1 1 1 1 1 0.022460471467477566 1 1 0.069203897495128147 1 1 1 1 1 1 1 1 1 1 1 1 1 1 1 1 1 1 1 1 1 0.058261848995512427 1 1 1 1 1 1 1 1 1 1 0.055167733210778065 1 0.064656068658706572 1 1 0.051939629717516277 1 0.043496085168402192 1 0.050050219573598481 1 1 0.049925698324482584 1 0.029520451653133488 1 1 0.054700057412984254 1 1 1 0.050809425083206988 1 1 1 1 1 1 1 1 1 1 1 1 1 1 1 1 1 1 1 1 1 1 1 1 1 1 1 1 1 1 1 1 1 1 1 1 1 1 1 1 1 1 1 1 1 1 1 1 1 1 1 1 1 1 1 1 1 1 1 1 1 0.041061105374851019 1 1 0.023171441211837108 1 1 1 1 1 1 0.053333863429344375 0.034287386208941735 1 1 1 1 1 1 1 1 1 1 1 1 1 1 1 1 1 1 0.030578597965533021 1 1 1 0.049611974557478421 1 1 1 1 1 1 1 1 1 1 1 1 1 1 1 1 0.050214225046814824 1 1 1 1 1 1 1 0.025784559908226035 1 1 1 1 1 1 1 1 0.032308351409615355 1 0.049342364060446411 1 1 1 1 1 1 1 1 1 1 1 1 1 1 1 1 0.049977303947042563 1 1 1 1 1 1 1 0.049962499860554982 1 1 1 1 0.049857497830573264 1 1 1 1 1 1 1 0.049555949620224408 1 1 0.066588064549596926 0.050125244572577186 1 1 0.046995431457078553 1 1 1 1 1 1 0.049968625102284087 1 1 1 1 1 1 1 1 1 0.049712984531983792 1 1 0.050090981087633407 1 1 0.050016480880220045 1 1 0.066191928133509798 1 1 1 1 1 0.065095307929830079 1 1 1 1 1 1 1 1 0.050872666312906552 1 1 1 1 1 1 1 0.053162903866955928 1 1 1 1 1 1 1 1 1 1 1 1 0.0517773357635695 1 1 1 1 1 1 1 0.049412079280101419 0.050082257280595552 1 0.052712804937431766 1 0.069342206108678694 1 1 1 1 1 1 1 1 1 1 1 1 1 1 1 0.049983672490608436 1 0.069599880162035388 1 1 1 1 1 1 1 1 0.051998090818023479 1 0.053307202408921513 1 0.063249453067715566 1 0.053397665546536598 1 0.049676272419988468 1 1 0.050525311759309265 1 1 1 1 1 0.051793709669866593 1 1 1 1 1 1 1 1 0.049831285130888706 1 1 1 1 1 0.049499411784832456 1 1 0.051897331887904331 1 0.048431130713833537 0.055213581265434492 1 1 1 1 1 1 1 1 0.050000084764349584 1 1 1 1 1 1 1 1 1 1 1 1 1 0.052348902481101148 1 1 1 1 1 1 1 0.050023425957577805 1 1 1 0.050023383395324708 1 1 1 1 1 1 1 1 1 1 1 1 1 1 1 1 1 0.048983764241840297 1 1 1 1 1 1 1 0.049643945098191644 1 1 0.050858062987359176 1 1 1 1 1 1 1 1 1 1 1 1 1 1 1 0.050586140693133226 1 1 1 1 0.048100367492612255 1 1 1 1 1 1 1 1 1 1 1 1 1 1 1 1 1 1 1 1 1 1 1 1 1 0.053815692221986039 1 1 1 1 1 1 0.050299747186346264 1 1 1 1 1 1 1 1 1 0.054296522394538381 0.050740359625760276 1 1 1 0.046583190277129358 1 0.049992589137179286 1 1 1 1 1 1 1 1 1 1 1 1 1 1 1 0.05031291740644931 1 1 1 1 1 1 1 1 1 1 1 1 0.049581889059193703 0.049203746275570698 1 1 1 1 1 1 1 1 0.050707549742260535 1 1 0.049904562631530126 1 1 0.054131113639625111 0.046645555710783382 1 1 1 1 1 1 1 0.051427119647705702 1 1 1 1 1 1 1 1 1 0.049621857216377005 1 1 1 0.051556637467430222 1 1 1 1 1 0.050990650297021496 1 1 1 1 1 1 1 1 1 1 1 1 0.051365597527961313 1 1 1 0.050005271244886115 1 1 1 0.049977272609421107 1 1 1 1 1 1 1 1 1 1 1 1 1 1 1 1 1 1 1 1 1 1 1 1 1 1 1 1 1 1 1 1 0.051112832332353864 1 1 1 1 1 1 1 1 1 1 1 1 1 1 1 1 1 1 1 1 1 1 1 1 0.04932190319526189 1 0.049943574955881503 1 1 0.062369408054910577 1 1 1 1 1 1 1 1 1 0.045879646265661364 1 1 1 1 1 1 1 1 1 1 1 1 1 1 0.058924135163664154 1 1 1 1 0.055194967900022464 1 1 1 0.051653504840290423 1 1 1 1 1 1 1 1 1 1 1 1 1 1 1 1 1 1 1 1 1 1 1 1 1 1 1 1 1 1 1 1 1 1 1 1 1 1 1 1 1 1 1 1 1 1 1 1 1 1 1 1 1 1 1 1 1 1 1 1 1 1 1 1 1 1 1 1 1 1 1 1 1 1 1 1 1 1 1 1 1 1 1 1 1 1 1 1 1 1 1 1 1 1 1 1 1 1 1 1 1 1 1 1 1 1 1 1 1 1 1 1 1 1 1 1 1 1 1 1 1 1 1 1 1 1 1 1 1 1 1 1 1 1 1 1 1 1 1 1 1 1 1 1 1 1 1 1 1 1 1 1 1 1 1 1 1 1 1 1 1 1 1 1 1 1 1 1 1 1 1 1 1 1 1 1 1 1 1 1 1 1 1 1 1 1 1 1 1 0.020741597050268946 1 1 1 1 1 1 1 1 1 1 1 1 1 1 1 1 0.047193761566726625 1 1 1 1 1 1 1 1 0.012248401654396363 1 1 1 1 0.051675087482002155 1 1 1 1 1 1 1 1 1 1 1 1 1 1 1 1 1 1 1 1 1 1 0.047803328606327564 1 1 1 1 1 1 1 1 1 1 1 1 1 0.055104684504409987 0.023302225755504318 1 1 1 1 1 0.032652082923890546 1 0.04244496360666105 1 1 1 1 1 1 1 1 1 1 1 0.043397893081045087 1 1 1 1 1 1 1 0.058782541984142497 1 1 1 1 1 1 1 1 1 1 1 1 1 1 1 0.049588125739873909 0.056521167965188274 1 1 1 1 1 1 1 1 1 1 1 1 0.045306878518062026 1 1 1 1 1 1 1 1 1 1 1 1 1 1 1 1 0.048403919244269331 1 1 1 1 1 1 1 0.05710550291475279 1 1 1 1 1 1 1 1 1 1 0.0500793315765692 0.064198235404573131 1 1 1 1 1 1 1 1 1 1 1 1 1 1 1 1 1 1 1 1 1 1 1 1 1 1 1 1 1 1 0.046343021474106363 1 1 1 1 1 0.045676192934720396 1 1 1 1 1 1 1 1 1 1 0.048116048624233652 1 1 1 1 0.050712859512228509 1 1 1 1 1 1 1 1 1 1 0.046082508393578518 1 0.048522364083091803 1 1 1 1 1 1 1 1 1 1 1 1 1 1 1 1 1 1 1 1 1 1 1 1 1 1 1 1 1 1 1 0.049832632220399492 1 1 1 1 1 0.049420757960273398 1 1 1 1 1 1 1 1 1 1 1 1 1 1 1 1 1 1 0.051781729260940303 1 1 0.083721577339388828 1 1 1 0.050586174648049348 1 1 1 1 1 0.067936008761138908 1 1 1 1 1 1 1 1 1 1 0.030892178688536449 1 1 1 1 1 1 0.049814110719415237 1 1 1 1 1 0.081347341413955901 0.050094794711859812 1 1 0.093686042512343498 1 1 0.048760347954381722 1 1 1 1 1 1 1 1 1 1 0.047191144980995019 1 1 0.047408953221498469 1 1 0.047087652425416578 1 1 0.043422690223070062 1 1 0.049491609987889054 1 1 0.049081914683028659 1 1 1 1 1 1 0.050535473363744851 1 1 1 1 1 1 1 1 1 1 1 0.097263063546469589 1 1 1 1 1 1 1 0.04812265511853471 1 1 1 1 0.053372012738695629 1 1 1 0.099663999891648924 1 1 1 1 1 1 1 1 1 1 1 0.060516709589007033 1 1 1 1 1 1 1 1 1 1 1 1 1 1 1 1 1 1 1 1 1 1 1 1 0.050001366883419371 1 1 1 1 1 0.049718559005588414 1 1 1 1 1 1 1 1 1 1 1 1 1 1 0.050655037912306827 1 1 0.061165596980742004 1 0.014181990489705809 1 1 1 1 0.003614680342904103 1 0.05129656401045854 0.080497165728497438 1 0.07870091780110583 1 1 1 1 1 1 1 0.049920822951216047 1 0.044490096316676803 1 1 1 1 1 1 0.0512762154488344 1 1 1 1 1 1 0.049788498416470879 1 1 1 1 0.049586598387713725 1 1 1 1 1 0.050031868551611527 1 1 0.048848598572145206 1 1 1 1 0.049910499270946609 1 1 1 1 0.044319620558572581 1 1 1 1 1 1 0.05037394523036174 1 1 1 1 1 1 1 1 1 0.04948031846342639 1 1 1 1 1 1 0.04776850298000615 1 1 1 1 0.043789954064955949 1 1 1 1 1 1 1 1 1 1 1 1 1 1 1 1 0.050277770008973835 1 1 1 0.051681700633840165 1 1 0.028990707478537259 1 1 1 1 1 1 1 1 1 1 1 1 1 1 1 1 0.050249655792210697 1 0.032206553577036799 1 1 1 1 1 1 1 1 1 1 1 1 1 1 1 1 1 1 1 1 1 1 1 1 1 1 0.016704238654229701 1 1 0.036017311110014723 1 1 1 1 1 1 1 1 1 1 0.041915120882960587 1 1 1 1 0.05008106558357369 1 1 1 1 0.049831409791363003 1 1 1 1 1 1 1 1 1 0.043531681544070895 1 1 1 1 1 1 1 1 1 1 1 1 1 1 1 1 1 1 1 1 1 1 1 1 1 1 1 1 
</DataArray>
</CellData>
</Piece>
</UnstructuredGrid>
</VTKFile>
